Au  O Sr Ti  H                          
   1.00000000000000     
    23.6707801818999997    0.0000000000000000    0.0000000000000000
     0.0000000000000000   22.3170261383000010    0.0000000000000000
     0.0000000000000000    0.0000000000000000   30.0000000000000000
   Au   O    Sr   Ti   H 
    50   264    72    72     1
Selective dynamics
Direct
  0.7156619587038867  0.5258574670313910  0.7532625161615245   T   T   T
  0.6215099747507051  0.5691105660072501  0.7038985524392104   T   T   T
  0.7203346409970237  0.2590586145362094  0.6923085406558152   T   T   T
  0.2586964870080605  0.7556174191762185  0.7030009579575811   T   T   T
  0.5118809408663922  0.6035819075456118  0.7766610240365992   T   T   T
  0.5785532012202456  0.7265039368690319  0.7939045939363690   T   T   T
  0.5498442957685291  0.3841105515064122  0.8291827583065614   T   T   T
  0.2421884210904293  0.4655392343844124  0.7089165158909970   T   T   T
  0.2798918381636118  0.6630573678809892  0.7683917425094215   T   T   T
  0.6034278669069064  0.2899646111717468  0.7869194402277210   T   T   T
  0.5140048770660679  0.4833823683772153  0.6782716085792293   T   T   T
  0.5626176610457155  0.4862236468677422  0.7629970398197039   T   T   T
  0.4633794217301824  0.6945261341409232  0.8302483858745138   T   T   T
  0.7644445089603745  0.4324739877872276  0.7049672874833189   T   T   T
  0.7313995070768300  0.6154725220779389  0.6934604153491942   T   T   T
  0.6344583882100235  0.5846454786869276  0.8001607021911509   T   T   T
  0.5959792220399348  0.7845036590174201  0.7127206356350904   T   T   T
  0.4851799324320943  0.7753333912778501  0.7549293439767408   T   T   T
  0.3503038764427562  0.4989484349370293  0.6974541552195970   T   T   T
  0.4302979167081895  0.3709959330514735  0.8159770255446028   T   T   T
  0.3724609403959617  0.2990210015328520  0.7555398230138324   T   T   T
  0.4421494284887505  0.2271440460692079  0.6973508206448706   T   T   T
  0.3912923956214699  0.8133175835849447  0.7061321785793622   T   T   T
  0.2907131085745415  0.5387575817641278  0.7769433655993691   T   T   T
  0.5570988469313846  0.2103330656930030  0.7117344690694953   T   T   T
  0.4525279861173969  0.5792275796110032  0.7026635795924805   T   T   T
  0.6157378784325110  0.3206061920324594  0.6968573462932460   T   T   T
  0.7063310318480673  0.7572862789447055  0.6883295488408792   T   T   T
  0.6560320806523094  0.4402288963270828  0.8121451493883975   T   T   T
  0.3685177326656719  0.6167215703810665  0.8176721078661712   T   T   T
  0.5716455054272560  0.5099105507386448  0.8576601522345602   T   T   T
  0.6656994552388247  0.1944165375906027  0.7528515206981242   T   T   T
  0.4725129527709866  0.4503625078130097  0.8789124955523846   T   T   T
  0.5177305070286869  0.3774680916903415  0.7334877110621351   T   T   T
  0.2837401549410309  0.3369134254595188  0.7023893266308414   T   T   T
  0.6690658956084131  0.6813377066260102  0.7487805003994265   T   T   T
  0.3992098997297828  0.3816974521116202  0.6903151216700387   T   T   T
  0.3751873002582470  0.4912166765013875  0.8337637518185057   T   T   T
  0.4622951591353618  0.5730537445249185  0.8632657342999828   T   T   T
  0.3254555429973451  0.4141441224952687  0.7695567499916900   T   T   T
  0.4878781036212135  0.2692956182987472  0.7751789228686183   T   T   T
  0.4200377884226321  0.6954769893493981  0.6992689211043509   T   T   T
  0.7015916906460706  0.3464779545735677  0.7560243627474190   T   T   T
  0.7743223287739499  0.4311218638111622  0.7953019121347964   T   T   T
  0.2576920651800183  0.5883087883402437  0.6952437252588690   T   T   T
  0.6475334233662570  0.4436637716704091  0.6965330297965827   T   T   T
  0.5641683322922358  0.6396751313648600  0.8611429102127809   T   T   T
  0.5424957339942582  0.6662533605009443  0.7013836317190080   T   T   T
  0.4435113030808113  0.4741585682372959  0.7571050046566251   T   T   T
  0.3741223830304749  0.7373578476439580  0.7781782170253470   T   T   T
  0.2498890122518090  0.1884768394879018  0.4540734163509374   T   T   T
  0.7494454820344564  0.9383681437200848  0.4553213308597654   T   T   T
  0.7490460472241804  0.6887151211868071  0.4572452667122101   T   T   T
  0.7494626004016057  0.4383047789225644  0.4556866682468528   T   T   T
  0.7500723905302321  0.1896849980549394  0.4555898586588423   T   T   T
  0.4177207293549911  0.9356988408037893  0.4538970474087269   T   T   T
  0.4170545530423638  0.6846685834663490  0.4546560863181315   T   T   T
  0.4164704571199223  0.4353669376062779  0.4538047457979958   T   T   T
  0.0843013972625601  0.6869746128229729  0.4530957803912402   T   T   T
  0.0841692898382550  0.9368112319836643  0.4536586684117414   T   T   T
  0.0827895128404688  0.4367869552484162  0.4528587470919538   T   T   T
  0.0838585306729813  0.1865787191768007  0.4529567052806491   T   T   T
  0.9165570507919812  0.8120081398285169  0.4540846001558771   T   T   T
  0.9162810023172784  0.5624168494636808  0.4538320515865290   T   T   T
  0.2512706168992482  0.4393749698474312  0.4550618603579825   T   T   T
  0.9162194567146157  0.0619059543937485  0.4542155066462734   T   T   T
  0.9162107219253930  0.3121594497381411  0.4538725607612020   T   T   T
  0.4172396950794491  0.1870549579712992  0.4535136397133582   T   T   T
  0.2521923310596347  0.6877939813798276  0.4559884657255736   T   T   T
  0.9167855550453058  0.9365794875145489  0.4533008955195545   T   T   T
  0.5827811088314715  0.1893264181798844  0.4551957732633947   T   T   T
  0.0000660715661167  0.1250596262213429  0.4984105275328413   T   T   T
  0.5838074418031800  0.8099434765378533  0.4555029481264989   T   T   T
  0.9999683891102695  0.3734036906237704  0.4983664642457672   T   T   T
  0.0000843727512669  0.6269604948902149  0.4979280481452358   T   T   T
  0.3335612119999111  0.1256134060703589  0.4985093609746007   T   T   T
  0.0002420182600781  0.8749079206872437  0.4996445015900229   T   T   T
  0.3335522149325250  0.8742673964303450  0.4987013051393466   T   T   T
  0.6659340954957000  0.1257235985830246  0.4992340866138992   T   T   T
  0.3354611120073078  0.6253676399428425  0.5035836079645075   T   T   T
  0.3344050957664331  0.3782137383619814  0.5029833607071768   T   T   T
  0.6654608650176101  0.3785117759703142  0.5032795073913038   T   T   T
  0.9154465446807196  0.6867132743995296  0.4530811681138849   T   T   T
  0.9158030029316473  0.4369961679643563  0.4536588837982057   T   T   T
  0.9158955409595184  0.1868034688133582  0.4531499755736830   T   T   T
  0.5826295056504046  0.9361247948476393  0.4538200879156400   T   T   T
  0.5827629180858708  0.6860240993620879  0.4545715802372257   T   T   T
  0.5827224238242931  0.4392090041223718  0.4560243416231718   T   T   T
  0.2499057835639934  0.9362669555129119  0.4540010114558675   T   T   T
  0.6653338789385624  0.6260532531294258  0.5028800928239126   T   T   T
  0.5843868480668022  0.5627624439569420  0.4548988023666013   T   T   T
  0.5829283943343057  0.0624751255659456  0.4547417415032911   T   T   T
  0.9166666865332829  0.6874999999963620  0.3605200052333331   F   F   F
  0.9166666865332829  0.4374999701794380  0.3605200052333331   F   F   F
  0.9166666865332829  0.1875000000030838  0.3605200052333331   F   F   F
  0.5833333134730552  0.9375000000154046  0.3605200052333331   F   F   F
  0.5833333134730552  0.6874999999963620  0.3605200052333331   F   F   F
  0.5833333134730552  0.4374999701794380  0.3605200052333331   F   F   F
  0.5833333134730552  0.1875000000030838  0.3605200052333331   F   F   F
  0.2499999999799343  0.9375000000154046  0.3605200052333331   F   F   F
  0.9166666865332829  0.9375000000154046  0.3605200052333331   F   F   F
  0.2499999999799343  0.6874999999963620  0.3605200052333331   F   F   F
  0.2499999999799343  0.1875000000030838  0.3605200052333331   F   F   F
  0.7499999404149307  0.9375000000154046  0.3605200052333331   F   F   F
  0.7499999404149307  0.6874999999963620  0.3605200052333331   F   F   F
  0.7499999404149307  0.4374999701794380  0.3605200052333331   F   F   F
  0.7499999404149307  0.1875000000030838  0.3605200052333331   F   F   F
  0.4166666269218169  0.9375000000154046  0.3605200052333331   F   F   F
  0.4166666269218169  0.6874999999963620  0.3605200052333331   F   F   F
  0.4166666269218169  0.4374999701794380  0.3605200052333331   F   F   F
  0.2499999999799343  0.4374999701794380  0.3605200052333331   F   F   F
  0.0833333358191695  0.0625000000159659  0.3605200052333331   F   F   F
  0.0833333358191695  0.3124999999901945  0.3605200052333331   F   F   F
  0.0833333358191695  0.5625000000092442  0.3605200052333331   F   F   F
  0.9166666865332829  0.3124999999901945  0.3605200052333331   F   F   F
  0.9166666865332829  0.0625000000159659  0.3605200052333331   F   F   F
  0.5833333134730552  0.8124999999834799  0.3605200052333331   F   F   F
  0.5833333134730552  0.5625000000092442  0.3605200052333331   F   F   F
  0.5833333134730552  0.3124999999901945  0.3605200052333331   F   F   F
  0.5833333134730552  0.0625000000159659  0.3605200052333331   F   F   F
  0.2499999999799343  0.8124999999834799  0.3605200052333331   F   F   F
  0.2499999999799343  0.5625000000092442  0.3605200052333331   F   F   F
  0.2499999999799343  0.3124999999901945  0.3605200052333331   F   F   F
  0.2499999999799343  0.0625000000159659  0.3605200052333331   F   F   F
  0.7499999404149307  0.8124999999834799  0.3605200052333331   F   F   F
  0.7499999404149307  0.5625000000092442  0.3605200052333331   F   F   F
  0.7499999404149307  0.3124999999901945  0.3605200052333331   F   F   F
  0.7499999404149307  0.0625000000159659  0.3605200052333331   F   F   F
  0.4166666269218169  0.8124999999834799  0.3605200052333331   F   F   F
  0.4166666269218169  0.5625000000092442  0.3605200052333331   F   F   F
  0.4166666269218169  0.3124999999901945  0.3605200052333331   F   F   F
  0.4166666269218169  0.0625000000159659  0.3605200052333331   F   F   F
  0.0833333358191695  0.8124999999834799  0.3605200052333331   F   F   F
  0.4166666269218169  0.1875000000030838  0.3605200052333331   F   F   F
  0.0833333358191695  0.9375000000154046  0.3605200052333331   F   F   F
  0.0833333358191695  0.6874999999963620  0.3605200052333331   F   F   F
  0.0833333358191695  0.4374999701794380  0.3605200052333331   F   F   F
  0.8333332538436267  0.4999999999932783  0.4070133268666680   F   F   F
  0.8333332538436267  0.7500000000123208  0.4070133268666680   F   F   F
  0.0837038934108860  0.0618847876931102  0.4541880004044446   T   T   T
  0.0834975546773013  0.3120897430601136  0.4539287474694295   T   T   T
  0.0839379132916841  0.5624708155527620  0.4538722964868680   T   T   T
  0.0835224012612750  0.8121449602650838  0.4541241820889989   T   T   T
  0.4168556411237394  0.0615358558564202  0.4553565706984979   T   T   T
  0.4155411186899556  0.3112098777613748  0.4573700454874052   T   T   T
  0.4159998219628793  0.5594558758306745  0.4578706927761436   T   T   T
  0.4166475723058274  0.8097805929913922  0.4551469883585510   T   T   T
  0.7495781460313033  0.0640623390220737  0.4533654564256402   T   T   T
  0.7473744596998906  0.3141030435519971  0.4546339751410654   T   T   T
  0.7481261714060348  0.5643147587276570  0.4536475528989313   T   T   T
  0.7489660055135634  0.8131999342174253  0.4530844608035115   T   T   T
  0.2505197757358131  0.0620547977258836  0.4542260845515579   T   T   T
  0.9152905276914357  0.3127799206841233  0.5467555148231277   T   T   T
  0.2521458923549152  0.3142225267364417  0.4540807912834139   T   T   T
  0.2518092943524992  0.5647924759268060  0.4533448776156070   T   T   T
  0.2504290818718659  0.8111444143887390  0.4549949564032627   T   T   T
  0.8333332538436267  0.2500000000190425  0.4070133268666680   F   F   F
  0.5844070470904641  0.3147620131585296  0.4540456798150259   T   T   T
  0.8333332538436267  0.0000000000000000  0.4070133268666680   F   F   F
  0.5000000000021103  0.4999999999932783  0.4070133268666680   F   F   F
  0.0833333358191695  0.1875000000030838  0.3605200052333331   F   F   F
  0.0000000000000000  0.0000000000000000  0.4070133268666680   F   F   F
  0.0000000000000000  0.2500000000190425  0.4070133268666680   F   F   F
  0.0000000000000000  0.4999999999932783  0.4070133268666680   F   F   F
  0.0000000000000000  0.7500000000123208  0.4070133268666680   F   F   F
  0.3333333432766779  0.0000000000000000  0.4070133268666680   F   F   F
  0.3333333432766779  0.2500000000190425  0.4070133268666680   F   F   F
  0.3333333432766779  0.4999999999932783  0.4070133268666680   F   F   F
  0.3333333432766779  0.7500000000123208  0.4070133268666680   F   F   F
  0.6666666865533486  0.0000000000000000  0.4070133268666680   F   F   F
  0.6666666865533486  0.2500000000190425  0.4070133268666680   F   F   F
  0.6666666865533486  0.4999999999932783  0.4070133268666680   F   F   F
  0.6666666865533486  0.7500000000123208  0.4070133268666680   F   F   F
  0.1666666716383389  0.0000000000000000  0.4070133268666680   F   F   F
  0.1666666716383389  0.2500000000190425  0.4070133268666680   F   F   F
  0.1666666716383389  0.4999999999932783  0.4070133268666680   F   F   F
  0.1666666716383389  0.7500000000123208  0.4070133268666680   F   F   F
  0.5000000000021103  0.0000000000000000  0.4070133268666680   F   F   F
  0.5000000000021103  0.2500000000190425  0.4070133268666680   F   F   F
  0.5000000000021103  0.7500000000123208  0.4070133268666680   F   F   F
  0.1670355936871045  0.1242558387843400  0.4993020974647678   T   T   T
  0.9177533333002388  0.0632999421869500  0.5475342668141711   T   T   T
  0.1678133040795824  0.8733790286537617  0.4998118312029147   T   T   T
  0.2517296456434510  0.1883433009224331  0.5470880735193900   T   T   T
  0.7493393477693465  0.9339552784740175  0.5476524526256157   T   T   T
  0.7518284886266606  0.6804918528562812  0.5530970133316792   T   T   T
  0.7520725513196964  0.4353242775621037  0.5490030200037326   T   T   T
  0.4234203876228786  0.4437692406705670  0.5454615615760917   T   T   T
  0.4222231352465303  0.6882164393357947  0.5465266556029025   T   T   T
  0.7482527913666055  0.1837309988910347  0.5505923901305438   T   T   T
  0.4159724304870798  0.9369876274888685  0.5459565335924029   T   T   T
  0.0842545167243575  0.9381830799080282  0.5461469517426917   T   T   T
  0.4156102990841372  0.1913158432495188  0.5464898113263962   T   T   T
  0.0864168635396982  0.6896393009071015  0.5451912463850135   T   T   T
  0.0823325575671427  0.4388178624806696  0.5449236538988939   T   T   T
  0.0836597597756827  0.1889691511671845  0.5454803759118197   T   T   T
  0.4994377371806041  0.1255751207457627  0.4996561860952879   T   T   T
  0.9997265455397082  0.5021287094803660  0.5947076152609819   T   T   T
  0.0001334665927331  0.7534558366845028  0.5923713078269495   T   T   T
  0.3346370499280998  0.2544931763958709  0.5926364237503703   T   T   T
  0.3339764917234005  0.9998463593706625  0.5920393099566719   T   T   T
  0.9998238364754037  0.9992571428842612  0.5929739137417422   T   T   T
  0.0007003429501046  0.2498460355169613  0.5914594326556670   T   T   T
  0.3336658832128727  0.4962354888048447  0.5901870509899247   T   T   T
  0.3340723714027340  0.7405262224900906  0.5909021649558127   T   T   T
  0.6635553026677993  0.2474920861254026  0.5907691721186553   T   T   T
  0.6657827312630435  0.0003700734057819  0.5918596566053623   T   T   T
  0.6656539437446749  0.7418779552003186  0.5901905351465794   T   T   T
  0.6666391491296725  0.4947000932064208  0.5911065343726485   T   T   T
  0.1672588182059604  0.9991245567982778  0.5921058019210884   T   T   T
  0.1683712928899969  0.2492571887228214  0.5930173548914377   T   T   T
  0.1709778736596422  0.7479763708784616  0.5941787828336074   T   T   T
  0.2482636744149245  0.4356849838598180  0.5490945402411074   T   T   T
  0.1657730976146471  0.5033537623279212  0.5875263625013860   T   T   T
  0.2493784158775534  0.6826490468939854  0.5515805950399334   T   T   T
  0.5808972104274190  0.1859932977762396  0.5494489057122085   T   T   T
  0.9155204088120735  0.8129438630251051  0.5469122734113195   T   T   T
  0.9167795659710674  0.5635562348833585  0.5465677222733095   T   T   T
  0.5811065590714941  0.5603642046611728  0.5490298427667093   T   T   T
  0.5857952955189187  0.8147806759396070  0.5506706636052059   T   T   T
  0.5829260634836347  0.3117569369365459  0.5455025154224551   T   T   T
  0.5826023398996232  0.0632748269117268  0.5469769962091170   T   T   T
  0.2529738269298853  0.8126539533704996  0.5498743200943592   T   T   T
  0.2520846856808842  0.5587904834868337  0.5434174948468867   T   T   T
  0.2493907581915035  0.3137319539401973  0.5459583921782619   T   T   T
  0.2511286329673708  0.0625560793171998  0.5472158437571489   T   T   T
  0.7483743224810706  0.8081847620405702  0.5457108000491929   T   T   T
  0.7464854566858524  0.5580587634068783  0.5444423914191658   T   T   T
  0.4136709350333294  0.8116282577232997  0.5479307545118020   T   T   T
  0.7482713246761842  0.0595971123614518  0.5446228761576142   T   T   T
  0.7480501537184077  0.3115041605917655  0.5480461032804497   T   T   T
  0.4161009188717505  0.3194966053233029  0.5526130627615317   T   T   T
  0.4203340152011766  0.5650183878230103  0.5552222993933489   T   T   T
  0.4164676387879608  0.0652301530597930  0.5472845706576719   T   T   T
  0.0859729840154810  0.8127261624529405  0.5472460221159955   T   T   T
  0.0831593898723286  0.5642487244612073  0.5462612981922239   T   T   T
  0.0863434097866096  0.3135455192844661  0.5468790104277731   T   T   T
  0.0822827836669010  0.0632142471040178  0.5475736180102270   T   T   T
  0.9157005769898992  0.9387335446205302  0.5459932815955317   T   T   T
  0.9136528546715974  0.6893867110395903  0.5450468944088601   T   T   T
  0.5832535697366892  0.9384008363469254  0.5455701058728601   T   T   T
  0.9169114999487313  0.1889449104268127  0.5453874863104089   T   T   T
  0.9161345266859012  0.4376923240723612  0.5457715613761180   T   T   T
  0.5764651260997178  0.4363159177137312  0.5516155941362176   T   T   T
  0.5795017155744135  0.6864631750436968  0.5471897740570510   T   T   T
  0.2513907316519984  0.9371898114732857  0.5452076193062694   T   T   T
  0.4974962876874621  0.5043513363348471  0.6089538084102558   T   T   T
  0.4986723486144971  0.2525915262574755  0.5903267260773498   T   T   T
  0.4996232186020585  0.0000383346518261  0.5909981507337263   T   T   T
  0.7538579758608968  0.6927556752608675  0.6571328512822910   T   T   T
  0.7484793958793847  0.9366664635988872  0.6398243000628172   T   T   T
  0.2532170945890562  0.1866054646936355  0.6409949694538435   T   T   T
  0.7457598884308315  0.1940711608659296  0.6466591630364260   T   T   T
  0.7552838395188007  0.4355716585825310  0.6382707521026407   T   T   T
  0.4174876708354032  0.9349539698786766  0.6395947779908140   T   T   T
  0.4206550945982032  0.6757429691501008  0.6333025159588402   T   T   T
  0.5907844540932896  0.8100928991127446  0.6459173124714477   T   T   T
  0.9160070290596489  0.0624773873938075  0.6417064625810284   T   T   T
  0.9123054525410739  0.5617550968930343  0.6424200592888771   T   T   T
  0.9152904979560447  0.3119756342018274  0.6393508449717449   T   T   T
  0.9144113541628781  0.8129026946625606  0.6414680074452461   T   T   T
  0.5821334914328705  0.0655249033164263  0.6398429341938799   T   T   T
  0.5829303668150100  0.3199358955282733  0.6340138541026554   T   T   T
  0.5907116036522970  0.5659103634468754  0.6388215285321391   T   T   T
  0.2490170222885319  0.5739131209510803  0.6283804467255870   T   T   T
  0.2594872577394908  0.8005672814917109  0.6447661528677551   T   T   T
  0.2491533669531754  0.3165460437122846  0.6411831008785137   T   T   T
  0.2509766440750825  0.0595648465456108  0.6423677131073264   T   T   T
  0.9166666865332829  0.5625000000092442  0.3605200052333331   F   F   F
  0.4995769626759721  0.3740045779891498  0.4996603036653765   T   T   T
  0.4999636430257642  0.8725101931138846  0.5008618350068893   T   T   T
  0.5001755406491859  0.6212413492840179  0.5000616698327887   T   T   T
  0.8323806076516611  0.6230827717570981  0.4999245754914738   T   T   T
  0.8327121231291673  0.8742619496029765  0.4985288308256492   T   T   T
  0.8324775512025661  0.3732533756021172  0.4997138106449983   T   T   T
  0.8328643380451325  0.1245010336248505  0.4997141872855563   T   T   T
  0.1667092143745087  0.3762414705263844  0.4977794549857831   T   T   T
  0.1677550535854546  0.6248383362561835  0.4994616006539485   T   T   T
  0.5817379668073088  0.4390549033227724  0.6458523225837220   T   T   T
  0.5795033130991534  0.6857254255372240  0.6389593213644105   T   T   T
  0.9170507387165214  0.1867565319775369  0.6407068951058555   T   T   T
  0.5818553460599823  0.9352827512871096  0.6390252411284054   T   T   T
  0.8306080176992207  0.7508293103656487  0.5928713742625304   T   T   T
  0.8315312856339300  0.2476635887200022  0.5914636251696819   T   T   T
  0.8331457334104130  0.5037468977477255  0.5889249217455401   T   T   T
  0.8322082814654106  0.0020866445091955  0.5922963623649136   T   T   T
  0.5000491894511945  0.7562487911953634  0.5927866249139303   T   T   T
  0.4178089386635416  0.0651043499718693  0.6400246116805861   T   T   T
  0.4271992606073790  0.3037677292531336  0.6558467801151209   T   T   T
  0.4112053328332521  0.8128702633411616  0.6391329123873807   T   T   T
  0.3974276188329899  0.5504718250289821  0.6517694096107464   T   T   T
  0.7523454846541904  0.5703632407045532  0.6346484874432552   T   T   T
  0.7411074306231134  0.8099410162928410  0.6398735694556600   T   T   T
  0.7471208356512309  0.3124905422115323  0.6401769254323699   T   T   T
  0.7475356765753475  0.0668472751134969  0.6393253561087724   T   T   T
  0.0834498727409145  0.3119070072367609  0.6401442012405686   T   T   T
  0.6664900585351586  0.8747175262396266  0.4993564262946118   T   T   T
  0.0878717994393463  0.5622640752540442  0.6417316880189607   T   T   T
  0.0839959427274177  0.0607371113041388  0.6422652589568039   T   T   T
  0.0863620573217642  0.4366946756613388  0.6388347711296145   T   T   T
  0.0834743705492186  0.1858408132425717  0.6409615616077621   T   T   T
  0.4179863606691341  0.1876170890680748  0.6397233277448424   T   T   T
  0.4151945394558167  0.4186260944425514  0.6298652397884176   T   T   T
  0.0843883633334200  0.9356630420043538  0.6404303997662314   T   T   T
  0.0832151029614126  0.6873027539138727  0.6399015317798997   T   T   T
  0.9127464852019843  0.4360596819342952  0.6390460597063249   T   T   T
  0.9164853632174204  0.6874501062390679  0.6393512761299193   T   T   T
  0.9147715824856996  0.9368620351954936  0.6406624980174399   T   T   T
  0.2405909731665523  0.4421290912981701  0.6410845574164681   T   T   T
  0.2524041688433094  0.6741336340420558  0.6668706009043975   T   T   T
  0.5792349203326506  0.1908399525960032  0.6444636552669829   T   T   T
  0.2511871672002194  0.9304965208432822  0.6370836010547029   T   T   T
  0.0859009053202559  0.8124052543133143  0.6412654506039880   T   T   T
  0.9166666865332829  0.8124999999834799  0.3605200052333331   F   F   F
  0.0005068253951801  0.1227688605247298  0.6198466185126672   T   T   T
  0.8333332538436267  0.6249999999803961  0.4070133268666680   F   F   F
  0.9997755061721925  0.5009097350636463  0.5070527302407599   T   T   T
  0.3315179087095739  0.4992168512602084  0.5007745487511674   T   T   T
  0.3302095920728291  0.2480415631659941  0.5028257795132557   T   T   T
  0.3331603410186667  0.0010731082040130  0.5057987201567190   T   T   T
  0.3344969038530570  0.7511219498746725  0.5013544160535396   T   T   T
  0.6658642420766976  0.0001332069904392  0.5055668133560061   T   T   T
  0.6685985265108941  0.4996021340252878  0.5007354978609417   T   T   T
  0.6670985634903058  0.2478575175478129  0.5031331104597528   T   T   T
  0.6656120947970414  0.7518964265253392  0.5020369984013691   T   T   T
  0.1659235947738782  0.0012516684653262  0.5063052156264244   T   T   T
  0.1662573016685811  0.2482605915633598  0.5061025072856467   T   T   T
  0.1634919501540410  0.4999055097135384  0.5019343932396816   T   T   T
  0.5001932916699040  0.9994611904259273  0.5054439971652804   T   T   T
  0.1645795678259616  0.7512856052754482  0.5029982835317797   T   T   T
  0.5011637734822301  0.7526694212125027  0.5037618071933031   T   T   T
  0.8342320632013700  0.0004255006008772  0.5065175168374810   T   T   T
  0.5013194419836293  0.4997193684874325  0.5002013767558122   T   T   T
  0.5011312305573318  0.2478133680706258  0.5021296584417936   T   T   T
  0.8352866669549517  0.2484170232060661  0.5033706538028596   T   T   T
  0.0000706734101794  0.7507623483140746  0.5065907456116363   T   T   T
  0.0007079674993122  0.2497852116533639  0.5057050136813935   T   T   T
  0.0000828034405830  0.9998765571787753  0.5066062283245439   T   T   T
  0.8333332538436267  0.8749999404036828  0.4070133268666680   F   F   F
  0.0000000000000000  0.6249999999803961  0.4070133268666680   F   F   F
  0.0000000000000000  0.8749999404036828  0.4070133268666680   F   F   F
  0.3333333432766779  0.1249999999871179  0.4070133268666680   F   F   F
  0.3333333432766779  0.3750000000061604  0.4070133268666680   F   F   F
  0.3333333432766779  0.6249999999803961  0.4070133268666680   F   F   F
  0.3333333432766779  0.8749999404036828  0.4070133268666680   F   F   F
  0.6666666865533486  0.1249999999871179  0.4070133268666680   F   F   F
  0.6666666865533486  0.3750000000061604  0.4070133268666680   F   F   F
  0.6666666865533486  0.6249999999803961  0.4070133268666680   F   F   F
  0.8360129203939747  0.4999011540230213  0.5029047970287570   T   T   T
  0.6666666865533486  0.8749999404036828  0.4070133268666680   F   F   F
  0.1666666716383389  0.3750000000061604  0.4070133268666680   F   F   F
  0.1666666716383389  0.6249999999803961  0.4070133268666680   F   F   F
  0.1666666716383389  0.8749999404036828  0.4070133268666680   F   F   F
  0.5000000000021103  0.1249999999871179  0.4070133268666680   F   F   F
  0.5000000000021103  0.3750000000061604  0.4070133268666680   F   F   F
  0.5000000000021103  0.6249999999803961  0.4070133268666680   F   F   F
  0.5000000000021103  0.8749999404036828  0.4070133268666680   F   F   F
  0.8333332538436267  0.1249999999871179  0.4070133268666680   F   F   F
  0.8333332538436267  0.3750000000061604  0.4070133268666680   F   F   F
  0.1666666716383389  0.1249999999871179  0.4070133268666680   F   F   F
  0.0000000000000000  0.3750000000061604  0.4070133268666680   F   F   F
  0.8360195467695370  0.7516878548766354  0.5025108334432857   T   T   T
  0.8368966727014673  0.3723141437951524  0.6043298698540831   T   T   T
  0.8323314401085511  0.8759877397741285  0.6179839153681443   T   T   T
  0.8399798647166797  0.6270199498531769  0.6033919354104009   T   T   T
  0.9995347116163618  0.8746672330880950  0.6223406400472663   T   T   T
  0.3317611196240662  0.1200162473182096  0.6136222275654407   T   T   T
  0.3348694658371549  0.6246908977863310  0.5954805889846230   T   T   T
  0.3259950746814662  0.3738021836258191  0.5928022096561539   T   T   T
  0.6711178382463908  0.3722731038214137  0.5942577572360364   T   T   T
  0.6652358184521721  0.1245999290665889  0.6120086236264364   T   T   T
  0.3342533487361948  0.8790360616017731  0.6032754156549954   T   T   T
  0.1602295619194699  0.6277381451947361  0.6026067973788635   T   T   T
  0.1658041965514765  0.8745420007031359  0.6132119584564648   T   T   T
  0.5017886736093422  0.3713748435988874  0.5948676577222634   T   T   T
  0.5002731659335057  0.1218914277940947  0.6064116712236003   T   T   T
  0.1675118174614945  0.1227774629987276  0.6217740743740316   T   T   T
  0.1630026618991890  0.3716045190644893  0.6073415318207699   T   T   T
  0.6653737278194348  0.8807625663887934  0.6067788326752648   T   T   T
  0.6663313194833624  0.6261861380136949  0.5931113059307234   T   T   T
 -0.0000899311364461  0.3748459055938970  0.6216793837415900   T   T   T
  0.9998554197818926  0.6217801450787797  0.6368613269006270   T   T   T
  0.8334592710944950  0.1248225365579723  0.6200507937421107   T   T   T
  0.5005141283257566  0.8765306151754894  0.6096487993160569   T   T   T
  0.0000000000000000  0.1249999999871179  0.4070133268666680   F   F   F
  0.5039478398211732  0.6248440996571772  0.5939234440806829   T   T   T
  0.9161889820218658  0.0003509184714333  0.6037527307079610   T   T   T
  0.5854249668603345  0.7499077261907501  0.5993513835922406   T   T   T
  0.5903044775582715  0.5011625727964886  0.5936793246096203   T   T   T
  0.2427041427847597  0.4986700047982874  0.5933602381123813   T   T   T
  0.2505277085157595  0.7533703397890361  0.5911493085495494   T   T   T
  0.5841715978417208  0.2474706186645501  0.5973299817811221   T   T   T
  0.5826003666289349  0.0009529779692675  0.6043174136714847   T   T   T
  0.2495040071046392  0.9980494690762861  0.6041039942038169   T   T   T
  0.2489585576760969  0.2460352736697315  0.6034831739971322   T   T   T
  0.4171212890035532  0.0001338261530952  0.6046121875517111   T   T   T
  0.4146748094228845  0.2483477016764875  0.5914293939342822   T   T   T
  0.4179452652581739  0.7506581170527670  0.5946780340085916   T   T   T
  0.7563655777827786  0.5027248547239174  0.5954130727198380   T   T   T
  0.7523101737620568  0.7525816317783242  0.5905078898872747   T   T   T
  0.7536821138947639  0.2477000716479207  0.5946116955845553   T   T   T
  0.7495462997779299  0.0017422033392261  0.6041724578383263   T   T   T
  0.0833224661894418  0.2481033158331380  0.6034349880172561   T   T   T
  0.0816505254016697  0.5011285932687969  0.6032109376977554   T   T   T
  0.0815443194664254  0.7507732936218788  0.6030918573898972   T   T   T
  0.0830519682935067  0.9992045286904826  0.6037430820441061   T   T   T