Au  O Sr Ti  H                          
   1.00000000000000     
    23.6707801818999997    0.0000000000000000    0.0000000000000000
     0.0000000000000000   22.3170261383000010    0.0000000000000000
     0.0000000000000000    0.0000000000000000   30.0000000000000000
   Au   O    Sr   Ti   H 
    50   264    72    72     1
Selective dynamics
Direct
  0.7158461095283021  0.5258677992766654  0.7534796533209702   T   T   T
  0.6218204944989432  0.5687290782555751  0.7038408996752809   T   T   T
  0.7201416095065767  0.2592067888791049  0.6919736437741003   T   T   T
  0.2623158328189600  0.7548418092402078  0.7025729814670011   T   T   T
  0.5100394635297811  0.6032537067937903  0.7771343762852668   T   T   T
  0.5785575839292488  0.7260079464504664  0.7945197391076665   T   T   T
  0.5499964993963061  0.3841736949984083  0.8295856521088921   T   T   T
  0.2413928076849632  0.4664807421037119  0.7091631192064485   T   T   T
  0.2775634370138512  0.6634060646021057  0.7676832048226044   T   T   T
  0.6036847520504923  0.2905229950693112  0.7871654908421055   T   T   T
  0.5138722270123239  0.4835218849015340  0.6786646228578748   T   T   T
  0.5628923242888787  0.4866443181694394  0.7633065821737346   T   T   T
  0.4621976093085595  0.6959598046171191  0.8298519918499871   T   T   T
  0.7649785414174866  0.4328266368203035  0.7050829712739232   T   T   T
  0.7313811643309637  0.6156147278785818  0.6935076443786278   T   T   T
  0.6341450847119502  0.5849281164238387  0.8000416240248519   T   T   T
  0.5958744160679837  0.7841746999761786  0.7130018048146635   T   T   T
  0.4851715748958830  0.7731436458054985  0.7542492728342653   T   T   T
  0.3503039961728823  0.4976848681569311  0.6979267622010198   T   T   T
  0.4305249984756425  0.3704747429537917  0.8161832160441348   T   T   T
  0.3727855533047618  0.2987750075432905  0.7558386449914201   T   T   T
  0.4417790344632839  0.2278198484427199  0.6971397003133496   T   T   T
  0.3919326506817850  0.8139585024847948  0.7058281513773745   T   T   T
  0.2884108415622440  0.5377502651042035  0.7767041301990526   T   T   T
  0.5564640299753951  0.2095523354732401  0.7116065767721310   T   T   T
  0.4513812193209953  0.5787184809401882  0.7030616846905439   T   T   T
  0.6154626520090769  0.3197370235107413  0.6969766945121336   T   T   T
  0.7060278120300193  0.7575739083117721  0.6882556306643683   T   T   T
  0.6563289321505178  0.4399629360488052  0.8120177296632268   T   T   T
  0.3711008704675647  0.6161380568683660  0.8101850503201166   T   T   T
  0.5721363308027059  0.5097108721379263  0.8578987066417972   T   T   T
  0.6652025188619556  0.1947448455967810  0.7525255149210646   T   T   T
  0.4718599308217167  0.4519475170735657  0.8774416251160598   T   T   T
  0.5177721737060538  0.3775379719685460  0.7338133302179647   T   T   T
  0.2839842909602269  0.3363838841535139  0.7029101978690216   T   T   T
  0.6688947557756091  0.6816553278694876  0.7486917769672433   T   T   T
  0.3991460135640456  0.3814316593103564  0.6903528095539910   T   T   T
  0.3740260917511425  0.4926865470619528  0.8333421846757143   T   T   T
  0.4599415820605695  0.5743217418195784  0.8631841641955401   T   T   T
  0.3255516291357759  0.4138823005778628  0.7701286085544614   T   T   T
  0.4882456505715776  0.2688143341133109  0.7749301413838688   T   T   T
  0.4178838666203911  0.6950255727683503  0.6988445436526265   T   T   T
  0.7018395257633802  0.3466489843982073  0.7557738073877780   T   T   T
  0.7748914349823119  0.4308303595020108  0.7952482106267162   T   T   T
  0.2598455339835647  0.5891829452058227  0.6941224563148832   T   T   T
  0.6475395896108120  0.4425963314010604  0.6969199650910830   T   T   T
  0.5622552210618482  0.6383953635424734  0.8609921755332748   T   T   T
  0.5413510999365813  0.6655738413213961  0.7016469478012478   T   T   T
  0.4436710648274735  0.4733766270171171  0.7578505484180078   T   T   T
  0.3717083618665649  0.7390723656017573  0.7772351679871645   T   T   T
  0.2500008516328577  0.1886777927101150  0.4542840723024448   T   T   T
  0.7494998414087690  0.9383754233397585  0.4553171798150904   T   T   T
  0.7491379085916412  0.6886970456467481  0.4572584989779526   T   T   T
  0.7493033875366955  0.4383161812926251  0.4557240328291141   T   T   T
  0.7501068011115877  0.1896692724928530  0.4555175455897306   T   T   T
  0.4170725014876665  0.9358695064096275  0.4540771047706319   T   T   T
  0.4171261973839719  0.6846330762275459  0.4546401416927289   T   T   T
  0.4165120932777358  0.4353735194667990  0.4538563841340817   T   T   T
  0.0843423127565307  0.6870828839238606  0.4532302300567791   T   T   T
  0.0842335402405391  0.9368631176068241  0.4537345647233241   T   T   T
  0.0827379677214462  0.4368011942853374  0.4528374979343563   T   T   T
  0.0838754966765880  0.1865634432804277  0.4530253368483281   T   T   T
  0.9165791647715595  0.8121008546378762  0.4541323238949235   T   T   T
  0.9162206070724392  0.5622779684570606  0.4538659919123249   T   T   T
  0.2513272937813634  0.4390957272759912  0.4548267961806259   T   T   T
  0.9161268574959753  0.0619758300303470  0.4541156111995004   T   T   T
  0.9160000726656391  0.3121127125795516  0.4538413023498139   T   T   T
  0.4172915920182832  0.1870799123821277  0.4535532635140839   T   T   T
  0.2522878838494527  0.6872173351742732  0.4556619245359291   T   T   T
  0.9167873374188065  0.9366426712934355  0.4533744029041364   T   T   T
  0.5825302906095092  0.1892597678387127  0.4551765862195499   T   T   T
  0.0000236510679891  0.1251511176020630  0.4981498686973377   T   T   T
  0.5838115696663599  0.8099088042039208  0.4554906687079784   T   T   T
 -0.0002128332324346  0.3732170295360801  0.4982082022307370   T   T   T
  0.0002681910216554  0.6269331772328746  0.4980768023286472   T   T   T
  0.3335148700793068  0.1256716686998828  0.4984725675819109   T   T   T
  0.0004719800089842  0.8746629947182012  0.4998732080629299   T   T   T
  0.3334683704476840  0.8736533367221491  0.4996656468082438   T   T   T
  0.6659277184951166  0.1259287221708978  0.4991330935017487   T   T   T
  0.3356888412918292  0.6253766729854696  0.5037597944666318   T   T   T
  0.3343043743052329  0.3781077032556552  0.5030661143853454   T   T   T
  0.6654310130238421  0.3784955705118476  0.5032954128121895   T   T   T
  0.9154006485269056  0.6866262838214037  0.4530402792340088   T   T   T
  0.9157629720696686  0.4370322129757103  0.4536215967353362   T   T   T
  0.9158291018579265  0.1867770687831478  0.4531531533337926   T   T   T
  0.5827327039243856  0.9362234820973464  0.4535870197420401   T   T   T
  0.5827499135860584  0.6859628561695775  0.4546366880514721   T   T   T
  0.5828081809950094  0.4392995852297129  0.4561222195114008   T   T   T
  0.2502487135358277  0.9358710474585041  0.4540917962224921   T   T   T
  0.6653855555740242  0.6259192899793243  0.5027661538646888   T   T   T
  0.5844981905217828  0.5627400281009252  0.4548780343704956   T   T   T
  0.5829403127235863  0.0624248638158014  0.4547830816491500   T   T   T
  0.9166666865332829  0.6874999999963620  0.3605200052333331   F   F   F
  0.9166666865332829  0.4374999701794380  0.3605200052333331   F   F   F
  0.9166666865332829  0.1875000000030838  0.3605200052333331   F   F   F
  0.5833333134730552  0.9375000000154046  0.3605200052333331   F   F   F
  0.5833333134730552  0.6874999999963620  0.3605200052333331   F   F   F
  0.5833333134730552  0.4374999701794380  0.3605200052333331   F   F   F
  0.5833333134730552  0.1875000000030838  0.3605200052333331   F   F   F
  0.2499999999799343  0.9375000000154046  0.3605200052333331   F   F   F
  0.9166666865332829  0.9375000000154046  0.3605200052333331   F   F   F
  0.2499999999799343  0.6874999999963620  0.3605200052333331   F   F   F
  0.2499999999799343  0.1875000000030838  0.3605200052333331   F   F   F
  0.7499999404149307  0.9375000000154046  0.3605200052333331   F   F   F
  0.7499999404149307  0.6874999999963620  0.3605200052333331   F   F   F
  0.7499999404149307  0.4374999701794380  0.3605200052333331   F   F   F
  0.7499999404149307  0.1875000000030838  0.3605200052333331   F   F   F
  0.4166666269218169  0.9375000000154046  0.3605200052333331   F   F   F
  0.4166666269218169  0.6874999999963620  0.3605200052333331   F   F   F
  0.4166666269218169  0.4374999701794380  0.3605200052333331   F   F   F
  0.2499999999799343  0.4374999701794380  0.3605200052333331   F   F   F
  0.0833333358191695  0.0625000000159659  0.3605200052333331   F   F   F
  0.0833333358191695  0.3124999999901945  0.3605200052333331   F   F   F
  0.0833333358191695  0.5625000000092442  0.3605200052333331   F   F   F
  0.9166666865332829  0.3124999999901945  0.3605200052333331   F   F   F
  0.9166666865332829  0.0625000000159659  0.3605200052333331   F   F   F
  0.5833333134730552  0.8124999999834799  0.3605200052333331   F   F   F
  0.5833333134730552  0.5625000000092442  0.3605200052333331   F   F   F
  0.5833333134730552  0.3124999999901945  0.3605200052333331   F   F   F
  0.5833333134730552  0.0625000000159659  0.3605200052333331   F   F   F
  0.2499999999799343  0.8124999999834799  0.3605200052333331   F   F   F
  0.2499999999799343  0.5625000000092442  0.3605200052333331   F   F   F
  0.2499999999799343  0.3124999999901945  0.3605200052333331   F   F   F
  0.2499999999799343  0.0625000000159659  0.3605200052333331   F   F   F
  0.7499999404149307  0.8124999999834799  0.3605200052333331   F   F   F
  0.7499999404149307  0.5625000000092442  0.3605200052333331   F   F   F
  0.7499999404149307  0.3124999999901945  0.3605200052333331   F   F   F
  0.7499999404149307  0.0625000000159659  0.3605200052333331   F   F   F
  0.4166666269218169  0.8124999999834799  0.3605200052333331   F   F   F
  0.4166666269218169  0.5625000000092442  0.3605200052333331   F   F   F
  0.4166666269218169  0.3124999999901945  0.3605200052333331   F   F   F
  0.4166666269218169  0.0625000000159659  0.3605200052333331   F   F   F
  0.0833333358191695  0.8124999999834799  0.3605200052333331   F   F   F
  0.4166666269218169  0.1875000000030838  0.3605200052333331   F   F   F
  0.0833333358191695  0.9375000000154046  0.3605200052333331   F   F   F
  0.0833333358191695  0.6874999999963620  0.3605200052333331   F   F   F
  0.0833333358191695  0.4374999701794380  0.3605200052333331   F   F   F
  0.8333332538436267  0.4999999999932783  0.4070133268666680   F   F   F
  0.8333332538436267  0.7500000000123208  0.4070133268666680   F   F   F
  0.0837999331487262  0.0618749522006601  0.4541133169372775   T   T   T
  0.0836382970560495  0.3121356714877682  0.4538214565776552   T   T   T
  0.0839502337663136  0.5624561003895818  0.4539199047057467   T   T   T
  0.0835937293868491  0.8121193198119752  0.4542575234032033   T   T   T
  0.4169511570586147  0.0615731531862578  0.4553316183377011   T   T   T
  0.4154290599174953  0.3112367844420043  0.4572908733032197   T   T   T
  0.4160135817781388  0.5594228413552975  0.4577491314970964   T   T   T
  0.4163755035178250  0.8099226267361622  0.4552408571614260   T   T   T
  0.7494729611628724  0.0639782792722617  0.4533445072419662   T   T   T
  0.7473460857388514  0.3140728178693888  0.4545977737525228   T   T   T
  0.7481819188696212  0.5643347912312271  0.4535835568393917   T   T   T
  0.7491371372921212  0.8133344715165371  0.4531036656289814   T   T   T
  0.2503643718447067  0.0619181765666377  0.4542398744558611   T   T   T
  0.9149113550418377  0.3127741999759732  0.5465831616605058   T   T   T
  0.2522281732816808  0.3142553794113071  0.4539625547964936   T   T   T
  0.2519041343496887  0.5641040678682626  0.4538684684124565   T   T   T
  0.2505157265312610  0.8105225619304210  0.4556131294656464   T   T   T
  0.8333332538436267  0.2500000000190425  0.4070133268666680   F   F   F
  0.5844459517306443  0.3147048031354998  0.4540751162234076   T   T   T
  0.8333332538436267  0.0000000000000000  0.4070133268666680   F   F   F
  0.5000000000021103  0.4999999999932783  0.4070133268666680   F   F   F
  0.0833333358191695  0.1875000000030838  0.3605200052333331   F   F   F
  0.0000000000000000  0.0000000000000000  0.4070133268666680   F   F   F
  0.0000000000000000  0.2500000000190425  0.4070133268666680   F   F   F
  0.0000000000000000  0.4999999999932783  0.4070133268666680   F   F   F
  0.0000000000000000  0.7500000000123208  0.4070133268666680   F   F   F
  0.3333333432766779  0.0000000000000000  0.4070133268666680   F   F   F
  0.3333333432766779  0.2500000000190425  0.4070133268666680   F   F   F
  0.3333333432766779  0.4999999999932783  0.4070133268666680   F   F   F
  0.3333333432766779  0.7500000000123208  0.4070133268666680   F   F   F
  0.6666666865533486  0.0000000000000000  0.4070133268666680   F   F   F
  0.6666666865533486  0.2500000000190425  0.4070133268666680   F   F   F
  0.6666666865533486  0.4999999999932783  0.4070133268666680   F   F   F
  0.6666666865533486  0.7500000000123208  0.4070133268666680   F   F   F
  0.1666666716383389  0.0000000000000000  0.4070133268666680   F   F   F
  0.1666666716383389  0.2500000000190425  0.4070133268666680   F   F   F
  0.1666666716383389  0.4999999999932783  0.4070133268666680   F   F   F
  0.1666666716383389  0.7500000000123208  0.4070133268666680   F   F   F
  0.5000000000021103  0.0000000000000000  0.4070133268666680   F   F   F
  0.5000000000021103  0.2500000000190425  0.4070133268666680   F   F   F
  0.5000000000021103  0.7500000000123208  0.4070133268666680   F   F   F
  0.1670181169036332  0.1242777697960026  0.4991625298147525   T   T   T
  0.9177005443123974  0.0633391411459790  0.5475195346330248   T   T   T
  0.1679337522279603  0.8733615737416104  0.4999268174128185   T   T   T
  0.2516472025524736  0.1882613975257798  0.5472435850261741   T   T   T
  0.7491559726615890  0.9341594075584827  0.5476401202273287   T   T   T
  0.7518260281713794  0.6805036487393198  0.5531863758700749   T   T   T
  0.7520756281984678  0.4351445808434082  0.5490711599041944   T   T   T
  0.4233272218810182  0.4434414945211251  0.5456645734268413   T   T   T
  0.4233285067714186  0.6878816120319567  0.5463046992444804   T   T   T
  0.7483977240777175  0.1838546740030159  0.5504342824008318   T   T   T
  0.4159885103476454  0.9371845633108769  0.5460318200911622   T   T   T
  0.0842517599377219  0.9382603296559993  0.5461671393555431   T   T   T
  0.4156742392441879  0.1912555924760202  0.5464712254602059   T   T   T
  0.0871897770340134  0.6897539868233493  0.5455486776255045   T   T   T
  0.0821025466917174  0.4388555733535637  0.5448628787852439   T   T   T
  0.0836330483448800  0.1892128706274407  0.5452825398077542   T   T   T
  0.4994329909637533  0.1254563758114060  0.4996924315314326   T   T   T
  0.9996273215504902  0.5021299143379352  0.5947968111981288   T   T   T
  0.9999106516033347  0.7534277671786681  0.5922586332521634   T   T   T
  0.3345952532924271  0.2543478684673221  0.5925516081653781   T   T   T
  0.3338950983118771  0.9997083950830015  0.5921450685730838   T   T   T
  0.9998786093183288  0.9997421282655724  0.5930203892944647   T   T   T
  0.0005621535807380  0.2498619401227321  0.5913255082111771   T   T   T
  0.3333125195234409  0.4957815825980698  0.5904172857120035   T   T   T
  0.3365206585875940  0.7409731070114511  0.5897148674326311   T   T   T
  0.6635375356209510  0.2474228223833342  0.5908601644672502   T   T   T
  0.6657057600501184  0.0004769990007896  0.5918564573507887   T   T   T
  0.6658558219598820  0.7416747238825755  0.5901850806681244   T   T   T
  0.6668694431632418  0.4942853456282491  0.5913665530483124   T   T   T
  0.1673724206444639  0.9985232806263211  0.5923149282853912   T   T   T
  0.1683131504420571  0.2493785815436297  0.5932141437205124   T   T   T
  0.1727467711138837  0.7486316601992394  0.5968785458049570   T   T   T
  0.2484048234886448  0.4359533077116392  0.5489177745947836   T   T   T
  0.1656595903836533  0.5021146959404273  0.5876038289605736   T   T   T
  0.2497495495906249  0.6837812378256972  0.5510353096454341   T   T   T
  0.5808775777914014  0.1859779888493764  0.5493740327923713   T   T   T
  0.9154772772594094  0.8130515998085309  0.5469727543227447   T   T   T
  0.9167740046371115  0.5637693552544191  0.5466758262122436   T   T   T
  0.5814441230596726  0.5601199810629953  0.5491271224216336   T   T   T
  0.5863760470201946  0.8150711645683033  0.5507398442812742   T   T   T
  0.5829548950831589  0.3117360746128388  0.5455540350930989   T   T   T
  0.5825955666194323  0.0632771720114463  0.5469959652318019   T   T   T
  0.2526783422499095  0.8131262537478621  0.5506264179501529   T   T   T
  0.2518953099053931  0.5592106429616110  0.5440120336834127   T   T   T
  0.2492622066066897  0.3138290008019842  0.5459941206007048   T   T   T
  0.2511215162036168  0.0625762578205967  0.5472678334078205   T   T   T
  0.7483291166230661  0.8082767924841099  0.5457326112521916   T   T   T
  0.7464573997504599  0.5579929992850785  0.5443926907890623   T   T   T
  0.4156671354269845  0.8120015234796324  0.5480951389828479   T   T   T
  0.7483059528717205  0.0597299722652761  0.5445288235868257   T   T   T
  0.7480171387358174  0.3114696918877077  0.5479735376659636   T   T   T
  0.4160707243183858  0.3193669285969026  0.5525355386423544   T   T   T
  0.4200934304018429  0.5646865679728613  0.5553247901463656   T   T   T
  0.4163935325016101  0.0651875020975652  0.5472444711235275   T   T   T
  0.0868932614939571  0.8126706419469548  0.5476546305394999   T   T   T
  0.0834523948126784  0.5644251036976762  0.5463888779497234   T   T   T
  0.0861437151433056  0.3135631416988913  0.5468276131901797   T   T   T
  0.0823487525809957  0.0632025431373815  0.5475152000036414   T   T   T
  0.9162124399587562  0.9388220473141955  0.5460604597694889   T   T   T
  0.9134694222477093  0.6895966494156859  0.5449173935314873   T   T   T
  0.5832030052121318  0.9386295235031366  0.5454662960972668   T   T   T
  0.9166762278671827  0.1889000188145434  0.5453465126121353   T   T   T
  0.9161144942364434  0.4376827336837073  0.5457613366938836   T   T   T
  0.5766637146448573  0.4361234774608903  0.5517980889779058   T   T   T
  0.5797869740881745  0.6861338687493098  0.5472565198338435   T   T   T
  0.2514811764676365  0.9377478797202855  0.5452158430018323   T   T   T
  0.4972909633263062  0.5041059841481709  0.6090688302424493   T   T   T
  0.4986946656915199  0.2527662156850674  0.5903444832753091   T   T   T
  0.4995490005757714  0.0000865641649580  0.5911405677799265   T   T   T
  0.7538251446527279  0.6932276312948281  0.6573353335152112   T   T   T
  0.7483553237398255  0.9367874212011608  0.6398402217046361   T   T   T
  0.2533654081269333  0.1864780852659401  0.6412026653861241   T   T   T
  0.7458482402277971  0.1941705320882979  0.6465860915588162   T   T   T
  0.7555786757483421  0.4357898924428827  0.6384585047668935   T   T   T
  0.4175202654378683  0.9347858737273808  0.6397444779459054   T   T   T
  0.4214160385939306  0.6753777765523707  0.6330063593209451   T   T   T
  0.5911069732680178  0.8097657980996514  0.6461837933805985   T   T   T
  0.9157996453841288  0.0624974633123486  0.6418593160269436   T   T   T
  0.9122115571568938  0.5618268870394573  0.6426086270247471   T   T   T
  0.9151306133961929  0.3119342542421705  0.6392492177645175   T   T   T
  0.9140530286020279  0.8129810864710840  0.6414497818202782   T   T   T
  0.5821136285549181  0.0655054997982059  0.6397810002216811   T   T   T
  0.5830366329954794  0.3198987383758045  0.6339969258573089   T   T   T
  0.5907130251986138  0.5658687510340938  0.6388139122953820   T   T   T
  0.2486180321933400  0.5737709456470514  0.6280982589385542   T   T   T
  0.2665423792934016  0.8003327124647793  0.6451787443936626   T   T   T
  0.2493910987930528  0.3162134358603179  0.6416781482161964   T   T   T
  0.2508452906402887  0.0592171087341553  0.6424748530065442   T   T   T
  0.9166666865332829  0.5625000000092442  0.3605200052333331   F   F   F
  0.4995917631127861  0.3738681186412733  0.4996506812850757   T   T   T
  0.5002167240058351  0.8731642536545999  0.5006344728645129   T   T   T
  0.5003476782316053  0.6207047394665796  0.5000482133392613   T   T   T
  0.8322995347013266  0.6230197816522629  0.4999947531804999   T   T   T
  0.8327535798494087  0.8745853411245011  0.4987275899642187   T   T   T
  0.8324118175640134  0.3732295923977185  0.4996775711892859   T   T   T
  0.8328330514153010  0.1243211467987169  0.4995366903665454   T   T   T
  0.1666483668053357  0.3763443068017274  0.4978062329735348   T   T   T
  0.1678456083197253  0.6248188718203250  0.4996102305341763   T   T   T
  0.5816168924072548  0.4392488049866839  0.6461231437515558   T   T   T
  0.5795548654585089  0.6852536533281822  0.6395752070278343   T   T   T
  0.9170523089237061  0.1868288632664365  0.6406615963856760   T   T   T
  0.5819857542515744  0.9351923936598964  0.6390020465541651   T   T   T
  0.8304463916385215  0.7506124097796387  0.5928590124629133   T   T   T
  0.8314142427518716  0.2477397835177466  0.5914573320040903   T   T   T
  0.8331521056447353  0.5038964961109526  0.5889224575900653   T   T   T
  0.8322593430481243  0.0020874588897239  0.5922335095378368   T   T   T
  0.5017517229484786  0.7555691239055194  0.5925057851097169   T   T   T
  0.4175996056553377  0.0651264567100771  0.6400216659946057   T   T   T
  0.4274136411204134  0.3044780421942836  0.6551662697809694   T   T   T
  0.4142076916324071  0.8121734702489957  0.6394872971264983   T   T   T
  0.3966197845575690  0.5497930536440541  0.6518659242876874   T   T   T
  0.7522820863416643  0.5704502768101823  0.6346910847915264   T   T   T
  0.7411126462817023  0.8101075450444183  0.6398867973311971   T   T   T
  0.7471316917584845  0.3125671911002711  0.6400273450049941   T   T   T
  0.7474653118907837  0.0668949947180459  0.6393223544608416   T   T   T
  0.0830763946550830  0.3119936344638022  0.6401149555692500   T   T   T
  0.6665450267508644  0.8749096334907048  0.4991411033125251   T   T   T
  0.0879788853230813  0.5623943903054844  0.6415890232708275   T   T   T
  0.0842093416937212  0.0609344664499482  0.6422237107763009   T   T   T
  0.0857349130276311  0.4365655997677804  0.6389551060486363   T   T   T
  0.0833872498292224  0.1859187231910765  0.6408142883836596   T   T   T
  0.4180111045324907  0.1877919748409328  0.6397321788940193   T   T   T
  0.4150469026603701  0.4186541474454920  0.6300375638902048   T   T   T
  0.0841008082559580  0.9357458960223801  0.6405484121368461   T   T   T
  0.0831027328441580  0.6870413518657349  0.6400211291646969   T   T   T
  0.9126122328274934  0.4362421517665272  0.6391202910014226   T   T   T
  0.9164653194904457  0.6874459435763219  0.6393950649125908   T   T   T
  0.9146966360602861  0.9370916808392319  0.6406076455310923   T   T   T
  0.2406993998571478  0.4419248182034490  0.6414545670526394   T   T   T
  0.2620332759022261  0.6746368430758002  0.6643480969472175   T   T   T
  0.5790438469470438  0.1906993711589102  0.6443765238664745   T   T   T
  0.2511244221495284  0.9297588967804010  0.6371643527802255   T   T   T
  0.0844267623134400  0.8121143055787060  0.6418491545528804   T   T   T
  0.9166666865332829  0.8124999999834799  0.3605200052333331   F   F   F
  0.0004675051904695  0.1226942166823710  0.6198979294837227   T   T   T
  0.8333332538436267  0.6249999999803961  0.4070133268666680   F   F   F
  0.9997475824938105  0.5009705059891512  0.5070134078690085   T   T   T
  0.3312312845224679  0.4991874078492569  0.5010062460620476   T   T   T
  0.3300925959384948  0.2481146320491671  0.5028061653267236   T   T   T
  0.3332299049449149  0.0010993694593228  0.5059109133608922   T   T   T
  0.3343411659699327  0.7511679329797764  0.5013250697733875   T   T   T
  0.6658887455763781  0.0001524530869104  0.5055812962990757   T   T   T
  0.6685782632761652  0.4996495520129902  0.5008524506840486   T   T   T
  0.6670640091161926  0.2478992609542251  0.5031542293689201   T   T   T
  0.6655097646295765  0.7518921401079693  0.5021854263955950   T   T   T
  0.1660046054970320  0.0013375763553252  0.5065076311200623   T   T   T
  0.1662672816725579  0.2484143388580269  0.5061884122759699   T   T   T
  0.1635760989768491  0.4997400014729037  0.5020965917286058   T   T   T
  0.5000793477196380  0.9994060531104024  0.5055025637190067   T   T   T
  0.1649033663517472  0.7513273622904717  0.5032602619196517   T   T   T
  0.5013757178757394  0.7526854916356029  0.5037765995520103   T   T   T
  0.8342301009704235  0.0004151107482627  0.5065348792571992   T   T   T
  0.5013261923256820  0.4996430788143433  0.5002920259508209   T   T   T
  0.5011034660426356  0.2479840731663564  0.5020817011722403   T   T   T
  0.8351863075739396  0.2484222618639138  0.5033176725036824   T   T   T
  0.0001088670221104  0.7508784677920799  0.5066668272649273   T   T   T
  0.0005129119493076  0.2497778496527027  0.5055676312577072   T   T   T
  0.0003066678432404  0.9998957044428315  0.5066442354710239   T   T   T
  0.8333332538436267  0.8749999404036828  0.4070133268666680   F   F   F
  0.0000000000000000  0.6249999999803961  0.4070133268666680   F   F   F
  0.0000000000000000  0.8749999404036828  0.4070133268666680   F   F   F
  0.3333333432766779  0.1249999999871179  0.4070133268666680   F   F   F
  0.3333333432766779  0.3750000000061604  0.4070133268666680   F   F   F
  0.3333333432766779  0.6249999999803961  0.4070133268666680   F   F   F
  0.3333333432766779  0.8749999404036828  0.4070133268666680   F   F   F
  0.6666666865533486  0.1249999999871179  0.4070133268666680   F   F   F
  0.6666666865533486  0.3750000000061604  0.4070133268666680   F   F   F
  0.6666666865533486  0.6249999999803961  0.4070133268666680   F   F   F
  0.8360347564502527  0.5000272448385887  0.5029384712100698   T   T   T
  0.6666666865533486  0.8749999404036828  0.4070133268666680   F   F   F
  0.1666666716383389  0.3750000000061604  0.4070133268666680   F   F   F
  0.1666666716383389  0.6249999999803961  0.4070133268666680   F   F   F
  0.1666666716383389  0.8749999404036828  0.4070133268666680   F   F   F
  0.5000000000021103  0.1249999999871179  0.4070133268666680   F   F   F
  0.5000000000021103  0.3750000000061604  0.4070133268666680   F   F   F
  0.5000000000021103  0.6249999999803961  0.4070133268666680   F   F   F
  0.5000000000021103  0.8749999404036828  0.4070133268666680   F   F   F
  0.8333332538436267  0.1249999999871179  0.4070133268666680   F   F   F
  0.8333332538436267  0.3750000000061604  0.4070133268666680   F   F   F
  0.1666666716383389  0.1249999999871179  0.4070133268666680   F   F   F
  0.0000000000000000  0.3750000000061604  0.4070133268666680   F   F   F
  0.8359046606515443  0.7518104276188671  0.5026373558136957   T   T   T
  0.8369749655828993  0.3725863556694878  0.6040566429350694   T   T   T
  0.8321781597079448  0.8761955629565753  0.6180355427555920   T   T   T
  0.8399666151676077  0.6270576032613964  0.6033322185021308   T   T   T
  0.9990419199246934  0.8749066826658780  0.6220494126363927   T   T   T
  0.3315883078342141  0.1198869485042361  0.6134527982952646   T   T   T
  0.3349241158916629  0.6246987655692774  0.5951432845134313   T   T   T
  0.3260651556140870  0.3733479071151055  0.5928179563614110   T   T   T
  0.6711252544661886  0.3722368186672643  0.5943020811081063   T   T   T
  0.6651452939263027  0.1245613674719152  0.6120803061235703   T   T   T
  0.3351292000063906  0.8781914528448247  0.6034976914583975   T   T   T
  0.1596669379641519  0.6272947521265066  0.6016301199512747   T   T   T
  0.1650322757881899  0.8741005987932393  0.6139655303551119   T   T   T
  0.5016990627142024  0.3714287091248973  0.5950116289722929   T   T   T
  0.5000779376581507  0.1217639948053357  0.6062155589353030   T   T   T
  0.1676544535264823  0.1229385185692237  0.6220303557219617   T   T   T
  0.1628610203049940  0.3714515110399109  0.6081312265613892   T   T   T
  0.6652864022063115  0.8805258461387753  0.6067979374080088   T   T   T
  0.6662504441389777  0.6260397252292058  0.5931235736051703   T   T   T
 -0.0004595709093463  0.3749261327329391  0.6216758033886565   T   T   T
  0.9997324263313087  0.6214373645344557  0.6389354858854958   T   T   T
  0.8333283949064842  0.1250034824811939  0.6201281946329412   T   T   T
  0.5007546559596514  0.8763819688694858  0.6095997618239691   T   T   T
  0.0000000000000000  0.1249999999871179  0.4070133268666680   F   F   F
  0.5041157300130865  0.6242596147425971  0.5938770937489191   T   T   T
  0.9160930519291796  0.0006490154041033  0.6036788507047539   T   T   T
  0.5851449155282824  0.7493593886116022  0.5998168616792522   T   T   T
  0.5905613223975299  0.5009368249497123  0.5938307484666020   T   T   T
  0.2426926129649145  0.4976968907039772  0.5937281845434206   T   T   T
  0.2504847971360828  0.7532053475932817  0.5912862978381570   T   T   T
  0.5841944150665398  0.2474239808311333  0.5973116490155682   T   T   T
  0.5825593966694437  0.0009046202000242  0.6042328409989516   T   T   T
  0.2496318257573683  0.9974950354233584  0.6042830385205631   T   T   T
  0.2489221923402881  0.2458915580623797  0.6036603259512662   T   T   T
  0.4170805152129750 -0.0000452399922142  0.6046967910123272   T   T   T
  0.4146355843732039  0.2483869019242870  0.5912770962443480   T   T   T
  0.4179942081805365  0.7501842529697855  0.5945756562086723   T   T   T
  0.7563278152536215  0.5028013362070959  0.5955917615348917   T   T   T
  0.7519460662693735  0.7525714592449170  0.5905925717043073   T   T   T
  0.7536355977083216  0.2478329011155213  0.5944763227756129   T   T   T
  0.7494514861220790  0.0017720270237477  0.6040945651268946   T   T   T
  0.0831507716942425  0.2481318713822573  0.6034019649076457   T   T   T
  0.0814540090594886  0.5010933226449618  0.6032051313730608   T   T   T
  0.0803538428695520  0.7506119313212150  0.6035424991926281   T   T   T
  0.0832454071360586  0.9994246738325255  0.6038082939939974   T   T   T