Au  C  H  O Sr Ti                       
   1.00000000000000     
    23.6707801818999997    0.0000000000000000    0.0000000000000000
     0.0000000000000000   22.3170261383000010    0.0000000000000000
     0.0000000000000000    0.0000000000000000   30.0000000000000000
   Au   C    H    O    Sr   Ti
    50     1     3   265    72    72
Selective dynamics
Direct
  0.7162507962674383  0.5250984498871745  0.7533548489408233   F   F   F
  0.6224430740903273  0.5702678183551413  0.7040499945585310   F   F   F
  0.7201840565259232  0.2567381328422655  0.6913852560474822   F   F   F
  0.2935460636849498  0.7462800534410761  0.6974498762053472   F   F   F
  0.5123503145032515  0.6033289081554400  0.7764488297881869   F   F   F
  0.5784564683449247  0.7253763414825158  0.7938288509910194   F   F   F
  0.2405867001957844  0.4691169834060105  0.7089248848923120   F   F   F
  0.2851782214009475  0.6618274870006218  0.7648655635667083   F   F   F
  0.6039109283545656  0.2867231361450280  0.7847780041232824   F   F   F
  0.5144879779885869  0.4846645419773736  0.6779438814428431   F   F   F
  0.5633857917033751  0.4857255699586247  0.7621523831432953   F   F   F
  0.5580556373828003  0.2107585666101173  0.7116480071906182   F   F   F
  0.5493506318817154  0.3825924568819516  0.8268859779759055   F   F   F
  0.3913911158706327  0.8174689399254902  0.7065335198092981   F   F   F
  0.4638058263962392  0.6947875330217457  0.8300298856530191   F   F   F
  0.4423345827489769  0.2281223187474026  0.6970946000660589   F   F   F
  0.3717697830114943  0.2978819635950245  0.7547514999699203   F   F   F
  0.3496173084894210  0.4994144207418074  0.6976888040430111   F   F   F
  0.4296419864619949  0.3709938320390052  0.8146522862283589   F   F   F
  0.5964699957090644  0.7845084362617385  0.7130690474384664   F   F   F
  0.6350943194022634  0.5841382214364614  0.8000332495482780   F   F   F
  0.7333531885936679  0.6148909769993907  0.6940001016217465   F   F   F
  0.4858960385129336  0.7763912060483733  0.7551731013700262   F   F   F
  0.7638076427504004  0.4312604216426124  0.7043971091391796   F   F   F
  0.4881070753374388  0.2704052076646235  0.7747909356312590   F   F   F
  0.2897384632349329  0.5373737880237428  0.7773476052538726   F   F   F
  0.6163200568557698  0.3202296225352370  0.6964706201226321   F   F   F
  0.3689300775294058  0.6178672879317091  0.8200724790304434   F   F   F
  0.5706261840067697  0.5089206931376751  0.8561568560815260   F   F   F
  0.6723190890880915  0.1947237170621534  0.7567547425117027   T   T   T
  0.4722093716148450  0.4490732154302179  0.8780367049207598   F   F   F
  0.5173239044495332  0.3774896392103813  0.7317266136107534   F   F   F
  0.2829346465224631  0.3380680569803758  0.7023532463048667   F   F   F
  0.6696143859586456  0.6811834101020011  0.7486988224790849   F   F   F
  0.3977792913660281  0.3813654872595293  0.6900475779499331   F   F   F
  0.4523731651338991  0.5799919691505977  0.7024681778277113   F   F   F
  0.3757340107600271  0.4918864557884675  0.8325818576688704   F   F   F
  0.3258958063948398  0.4139179253874730  0.7688601304847040   F   F   F
  0.4186355310431082  0.6968755842280174  0.6992256988155177   F   F   F
  0.7024543751069459  0.3429785659107836  0.7569893279775002   F   F   F
  0.7743312237313020  0.4286289034826183  0.7944041390264900   F   F   F
  0.2569098102643892  0.5928172533273894  0.6945376266715968   F   F   F
  0.6486318887917335  0.4447856388937552  0.6947289836673036   F   F   F
  0.5646352204782445  0.6392023622008907  0.8610185162764807   F   F   F
  0.5415361325506822  0.6669935427794726  0.7013212887687388   F   F   F
  0.4440787397107115  0.4741594167134693  0.7561618632956666   F   F   F
  0.3742449792553089  0.7393683709948675  0.7786716560199238   F   F   F
  0.4635618953100860  0.5719119126846621  0.8632969578343435   F   F   F
  0.6561457833848152  0.4400796089366352  0.8121190959912425   F   F   F
  0.7065890466254388  0.7569479248563837  0.6883083164524990   F   F   F
  0.7624498716038275  0.0969872858573524  0.7515807124707337   T   T   T
  0.7949986065898997  0.1222425334955872  0.7696029732730807   T   T   T
  0.7684600685950898  0.1006894656538151  0.7154755824239274   T   T   T
  0.7665737318299861  0.0492349841928643  0.7600553518879352   T   T   T
  0.2494670305431299  0.3137573143121841  0.5459679967499085   F   F   F
  0.7508073239290738  0.1899401932976446  0.4557811112579202   F   F   F
  0.4170675718713213  0.9357108708345905  0.4538669979638215   F   F   F
  0.4171337868991145  0.6846971302590390  0.4546960455765756   F   F   F
  0.4164645465644554  0.4354515163393913  0.4538161786081858   F   F   F
  0.0845872800047829  0.6869036936082722  0.4530447674369569   F   F   F
  0.0839079232985043  0.9366754769900538  0.4534901897986146   F   F   F
  0.0827867614445239  0.4367876436174143  0.4528440447181694   F   F   F
  0.0838556870023908  0.1865926172048660  0.4529779294977914   F   F   F
  0.9165714903277618  0.8121303440024050  0.4540717871495588   F   F   F
  0.0833333358191695  0.3124999999901945  0.3605200052333331   F   F   F
  0.7464909194044651  0.5576970543513440  0.5446557415193638   F   F   F
  0.9160943561959485  0.0622421472067174  0.4541129082682573   F   F   F
  0.9162023465802775  0.3121855848348574  0.4538777639703397   F   F   F
  0.4171315312830544  0.1871296296717233  0.4535428488026483   F   F   F
  0.2520942377030480  0.6876375335073632  0.4561437228482532   F   F   F
  0.9164589339780775  0.9371414195674674  0.4536470791637726   F   F   F
  0.5826487651527685  0.1902901108937272  0.4555363407605597   F   F   F
  0.0001031486903429  0.1251229422493978  0.4983189721054373   F   F   F
  0.5832479789681528  0.8104848410721317  0.4553562378449882   F   F   F
  0.9999848671793998  0.3734545685326012  0.4983960599304353   F   F   F
  0.9998999322079527  0.6271306130187924  0.4977004702340579   F   F   F
  0.3336401439593004  0.1256636452110342  0.4984903940431167   F   F   F
  0.0000677713781343  0.8751438897548098  0.4995131747514279   F   F   F
  0.3334476030875066  0.8737592417013005  0.4993449426496070   F   F   F
  0.6661478850900693  0.1266021535327653  0.4990068393304909   F   F   F
  0.2511744597432255  0.4392733649330225  0.4548768191814148   F   F   F
  0.0833333358191695  0.5625000000092442  0.3605200052333331   F   F   F
  0.9166666865332829  0.0625000000159659  0.3605200052333331   F   F   F
  0.7494789273660842  0.8131832573529039  0.4530845282118037   F   F   F
  0.7497017525544720  0.4383559146872287  0.4557808259892298   F   F   F
  0.2505351908751905  0.0620283010781648  0.4542590634086139   F   F   F
  0.7491273358872945  0.6886279854074076  0.4574321888720050   F   F   F
  0.2498840807106859  0.1884702820028821  0.4541002083221031   F   F   F
  0.2500707565357772  0.9360518107536180  0.4540953274131709   F   F   F
  0.6655046575388539  0.6260823977996708  0.5029872227332532   F   F   F
  0.5845978112462902  0.5628663544499659  0.4548423994469601   F   F   F
  0.5832473179644708  0.0636977005434929  0.4538311680868006   F   F   F
  0.9166666865332829  0.6874999999963620  0.3605200052333331   F   F   F
  0.9166666865332829  0.4374999701794380  0.3605200052333331   F   F   F
  0.9166666865332829  0.1875000000030838  0.3605200052333331   F   F   F
  0.5833333134730552  0.9375000000154046  0.3605200052333331   F   F   F
  0.5833333134730552  0.6874999999963620  0.3605200052333331   F   F   F
  0.5833333134730552  0.4374999701794380  0.3605200052333331   F   F   F
  0.5833333134730552  0.1875000000030838  0.3605200052333331   F   F   F
  0.2499999999799343  0.9375000000154046  0.3605200052333331   F   F   F
  0.9166666865332829  0.9375000000154046  0.3605200052333331   F   F   F
  0.2499999999799343  0.6874999999963620  0.3605200052333331   F   F   F
  0.2499999999799343  0.1875000000030838  0.3605200052333331   F   F   F
  0.7499999404149307  0.9375000000154046  0.3605200052333331   F   F   F
  0.7499999404149307  0.6874999999963620  0.3605200052333331   F   F   F
  0.7499999404149307  0.4374999701794380  0.3605200052333331   F   F   F
  0.7499999404149307  0.1875000000030838  0.3605200052333331   F   F   F
  0.4166666269218169  0.9375000000154046  0.3605200052333331   F   F   F
  0.4166666269218169  0.6874999999963620  0.3605200052333331   F   F   F
  0.4166666269218169  0.4374999701794380  0.3605200052333331   F   F   F
  0.2499999999799343  0.4374999701794380  0.3605200052333331   F   F   F
  0.0833333358191695  0.0625000000159659  0.3605200052333331   F   F   F
  0.9153648902589069  0.6867515128879589  0.4531315087978740   F   F   F
  0.6655683820403340  0.3784965824283688  0.5030918025001441   F   F   F
  0.3343780120405029  0.3784712716752452  0.5029883348582729   F   F   F
  0.3356734763178224  0.6257646568096291  0.5038014532153099   F   F   F
  0.9175531110045156  0.0634041808876873  0.5474201437928130   F   F   F
  0.7495136226193537  0.9384377954769079  0.4553194000740746   F   F   F
  0.9154120980185283  0.3127048312325229  0.5467065458186795   F   F   F
  0.2522649275754105  0.3141301117172688  0.4541689280022041   F   F   F
  0.2519080146778663  0.5645937668702175  0.4538347171056500   F   F   F
  0.2499999999799343  0.8124999999834799  0.3605200052333331   F   F   F
  0.2499999999799343  0.5625000000092442  0.3605200052333331   F   F   F
  0.2499999999799343  0.3124999999901945  0.3605200052333331   F   F   F
  0.2499999999799343  0.0625000000159659  0.3605200052333331   F   F   F
  0.7499999404149307  0.5625000000092442  0.3605200052333331   F   F   F
  0.7499999404149307  0.3124999999901945  0.3605200052333331   F   F   F
  0.7499999404149307  0.0625000000159659  0.3605200052333331   F   F   F
  0.4166666269218169  0.8124999999834799  0.3605200052333331   F   F   F
  0.4166666269218169  0.5625000000092442  0.3605200052333331   F   F   F
  0.4166666269218169  0.3124999999901945  0.3605200052333331   F   F   F
  0.7499999404149307  0.8124999999834799  0.3605200052333331   F   F   F
  0.0835492945409655  0.3120620376420078  0.4539841351191782   F   F   F
  0.4166666269218169  0.0625000000159659  0.3605200052333331   F   F   F
  0.4168904805433229  0.0615645215019711  0.4553762654950972   F   F   F
  0.0835237275115404  0.8121060976290053  0.4541912668370287   F   F   F
  0.0839465544266886  0.5624787924052796  0.4538746882083373   F   F   F
  0.4160823207344393  0.5595184826828472  0.4578739877103644   F   F   F
  0.0837310023291877  0.0618740555490334  0.4541781749879021   F   F   F
  0.4155586170430752  0.3113419138851867  0.4573758017365321   F   F   F
  0.8333332538436267  0.7500000000123208  0.4070133268666680   F   F   F
  0.0833333358191695  0.4374999701794380  0.3605200052333331   F   F   F
  0.0833333358191695  0.6874999999963620  0.3605200052333331   F   F   F
  0.0833333358191695  0.9375000000154046  0.3605200052333331   F   F   F
  0.4166666269218169  0.1875000000030838  0.3605200052333331   F   F   F
  0.0833333358191695  0.8124999999834799  0.3605200052333331   F   F   F
  0.8333332538436267  0.4999999999932783  0.4070133268666680   F   F   F
  0.7067661396135207  0.1130667400521545  0.7640358840318862   T   T   T
  0.2510969317203049  0.0625594882934735  0.5472582711265943   F   F   F
  0.4146905170863562  0.8119107163643022  0.5479913244327506   F   F   F
  0.5833333134730552  0.0625000000159659  0.3605200052333331   F   F   F
  0.5833333134730552  0.3124999999901945  0.3605200052333331   F   F   F
  0.5833333134730552  0.8124999999834799  0.3605200052333331   F   F   F
  0.7496549346669497  0.0642756698444913  0.4532463131251703   F   F   F
  0.2505137244204363  0.8108158232817146  0.4553605875412643   F   F   F
  0.8333332538436267  0.2500000000190425  0.4070133268666680   F   F   F
  0.5843625348488573  0.3154282873793974  0.4535690405006108   F   F   F
  0.8333332538436267  0.0000000000000000  0.4070133268666680   F   F   F
  0.7482945874524347  0.8081127376839561  0.5456530536378921   F   F   F
  0.0833333358191695  0.1875000000030838  0.3605200052333331   F   F   F
  0.0000000000000000  0.0000000000000000  0.4070133268666680   F   F   F
  0.0000000000000000  0.2500000000190425  0.4070133268666680   F   F   F
  0.0000000000000000  0.4999999999932783  0.4070133268666680   F   F   F
  0.7482183670406286  0.5642673395514493  0.4537981726810543   F   F   F
  0.3333333432766779  0.0000000000000000  0.4070133268666680   F   F   F
  0.3333333432766779  0.4999999999932783  0.4070133268666680   F   F   F
  0.3333333432766779  0.7500000000123208  0.4070133268666680   F   F   F
  0.6666666865533486  0.0000000000000000  0.4070133268666680   F   F   F
  0.5827879526962860  0.4396403385421550  0.4563723908223523   F   F   F
  0.6666666865533486  0.2500000000190425  0.4070133268666680   F   F   F
  0.6666666865533486  0.7500000000123208  0.4070133268666680   F   F   F
  0.1666666716383389  0.0000000000000000  0.4070133268666680   F   F   F
  0.1666666716383389  0.2500000000190425  0.4070133268666680   F   F   F
  0.1666666716383389  0.4999999999932783  0.4070133268666680   F   F   F
  0.1666666716383389  0.7500000000123208  0.4070133268666680   F   F   F
  0.5000000000021103  0.0000000000000000  0.4070133268666680   F   F   F
  0.5000000000021103  0.2500000000190425  0.4070133268666680   F   F   F
  0.5000000000021103  0.7500000000123208  0.4070133268666680   F   F   F
  0.9166666865332829  0.3124999999901945  0.3605200052333331   F   F   F
  0.3333333432766779  0.2500000000190425  0.4070133268666680   F   F   F
  0.7474086333180594  0.3141388837578845  0.4547916310986508   F   F   F
  0.0000000000000000  0.7500000000123208  0.4070133268666680   F   F   F
  0.4166533895429865  0.8099128859053479  0.4551680608760549   F   F   F
  0.5833333134730552  0.5625000000092442  0.3605200052333331   F   F   F
  0.6666666865533486  0.4999999999932783  0.4070133268666680   F   F   F
  0.5827921694618112  0.6861237730178260  0.4545946950410737   F   F   F
  0.5000000000021103  0.4999999999932783  0.4070133268666680   F   F   F
  0.9157859593875557  0.1869032761043812  0.4532109818033732   F   F   F
  0.4158326803881991  0.9372674029982804  0.5459388002995169   F   F   F
  0.4990481724971403  0.2526789102445264  0.5905738338337585   F   F   F
  0.4157853500757582  0.1914632203759794  0.5465293985861450   F   F   F
  0.0863359203745162  0.6895619925955785  0.5452046142398217   F   F   F
  0.0826155292416999  0.4388645541089389  0.5448825421965822   F   F   F
  0.0836374238551585  0.1889630953861996  0.5454970617073371   F   F   F
  0.4995061157927907  0.1256248159208582  0.4995863934494906   F   F   F
  0.9996711718623033  0.5003986382316512  0.5943446054407389   F   F   F
  0.5807493855762829  0.1852608120458328  0.5498389193869002   F   F   F
  0.9996785744045056  0.7533391232879083  0.5923761356038142   F   F   F
  0.3340151472443580  0.9998456111113967  0.5920149733722653   F   F   F
  0.9999338421266373  0.9991605877253846  0.5932382476617448   F   F   F
  0.0008787205244118  0.2499127715135003  0.5919191707342506   F   F   F
  0.3332927380581623  0.4963924044369961  0.5908693471450306   F   F   F
  0.3359137942631278  0.7412012355268942  0.5904418375347191   F   F   F
  0.6636716185143925  0.2474251111523387  0.5902811778764558   F   F   F
  0.6661572358088250  0.0008152490733764  0.5919734191209542   F   F   F
  0.6658894681655667  0.7415978107617960  0.5902248741603131   F   F   F
  0.6668655064014430  0.4941892248585376  0.5913155413968738   F   F   F
  0.1674913891572984  0.9983185559581926  0.5922920131985947   F   F   F
  0.1684372538181904  0.2484336186538982  0.5931246200862930   F   F   F
  0.1707320503850625  0.7500726775381779  0.5950344662108975   F   F   F
  0.2485267998490528  0.4359949979293489  0.5489468979296461   F   F   F
  0.1656194740899508  0.5026917575861276  0.5874072291643557   F   F   F
  0.3349624561569655  0.2544654726628650  0.5929138150701192   F   F   F
  0.4996278179632441  0.0000192781680397  0.5909670960322373   F   F   F
  0.8328130171057850  0.8744502986590987  0.4986125487058075   F   F   F
  0.7486659205627504  0.9373452882788627  0.6402474958269053   F   F   F
  0.8324978536520646  0.0014407758326556  0.5919250558209086   F   F   F
  0.7486255318097079  0.1833409144851572  0.5509306815967037   F   F   F
  0.4232121896383845  0.6880957598549102  0.5466062726882228   F   F   F
  0.4231454918155251  0.4438919372135857  0.5455251898203741   F   F   F
  0.7520145736637787  0.4351297676195571  0.5489256152913313   F   F   F
  0.5829359791049029  0.3110886621653535  0.5449608727186188   F   F   F
  0.2531271975867000  0.8126583908723646  0.5510039920687078   F   F   F
  0.5830402326892923  0.0620159764000121  0.5454539455642333   F   F   F
  0.5827088281661261  0.9371802895175776  0.4542967077374129   F   F   F
  0.5861516841398924  0.8145310396915519  0.5503993061195160   F   F   F
  0.7481247268478981  0.3116435350063966  0.5484548625143475   F   F   F
  0.5814855351396062  0.5599739837016173  0.5489847524788019   F   F   F
  0.2524638485738890  0.5591170655108186  0.5439232145305652   F   F   F
  0.4161369624383653  0.3195543262518825  0.5525719374940437   F   F   F
  0.5767173640172132  0.4357412516943171  0.5521865817700728   F   F   F
  0.4165194731989388  0.0654316793746261  0.5473796226610474   F   F   F
  0.0848869518646040  0.8129258586656363  0.5473369696476098   F   F   F
  0.0823180202059746  0.5643605737668125  0.5462973561130298   F   F   F
  0.0864376004139729  0.3134797224517669  0.5469001855655122   F   F   F
  0.5012412833749025  0.7563547043436571  0.5930111448870292   F   F   F
  0.0823189732601222  0.0632409249060686  0.5475823914083620   F   F   F
  0.9139199012951025  0.6891840949895069  0.5452482709166731   F   F   F
  0.5838684361672293  0.9378502074683936  0.5461207046928820   F   F   F
  0.9167069985157994  0.1888109850328092  0.5454542714462534   F   F   F
  0.9159856149179362  0.4375495489671124  0.5457917458175743   F   F   F
  0.5795999281457611  0.6861974453581539  0.5473081390827730   F   F   F
  0.2515232439098227  0.9372975623087356  0.5452756327076074   F   F   F
  0.4976151021544197  0.5044887933359803  0.6088570739576298   F   F   F
  0.9172754371885858  0.5638010451943387  0.5469724557511242   F   F   F
  0.4200747574286154  0.5650651401092261  0.5554137319487538   F   F   F
  0.9155296672474620  0.8129039495408890  0.5468469624220305   F   F   F
  0.0836292767047482  0.9389120676420788  0.5457783982654405   F   F   F
  0.2493086029066376  0.6832463864393503  0.5520757497329356   F   F   F
  0.7492763944557268  0.9339974750446771  0.5476299522365977   F   F   F
  0.7519125300663063  0.6801270835812119  0.5533414187868644   F   F   F
  0.9159404841960921  0.9385758861251006  0.5463696907472837   F   F   F
  0.4177854512998422  0.0651484855768274  0.6400638253028887   F   F   F
  0.9161770528740192  0.5623152130276949  0.4539469065635799   F   F   F
  0.4128924790515356  0.8127752699949014  0.6396833516460489   F   F   F
  0.9157474495367950  0.0626409315956522  0.6411809830447623   F   F   F
  0.9126316378578352  0.5617373439927533  0.6418238550345592   F   F   F
  0.9150733930032970  0.3119030453318317  0.6396414454648252   F   F   F
  0.9141030698921497  0.8132529174263610  0.6415343460578029   F   F   F
  0.5820920547928665  0.0664269138005835  0.6387259381152504   F   F   F
  0.5840654714426492  0.3207158007312287  0.6335598745174664   F   F   F
  0.5913297476277108  0.5650583420694772  0.6392051322403702   F   F   F
  0.2475167425646490  0.5737770637568644  0.6287685799810419   F   F   F
  0.7539528134566140  0.6921990993831173  0.6569431777278396   F   F   F
  0.2620864327197054  0.7989368604530966  0.6466021180320070   F   F   F
  0.2509895289159374  0.0594427761650635  0.6423294567531670   F   F   F
  0.9166666865332829  0.5625000000092442  0.3605200052333331   F   F   F
  0.4996316902568765  0.3742552437395545  0.4997583510038055   F   F   F
  0.5003856315061768  0.6210480615780298  0.5001132338946377   F   F   F
  0.8324122442432866  0.6230374518190089  0.5000269304713214   F   F   F
  0.2520214031999828  0.1883263096913979  0.5471744065416573   F   F   F
  0.8324798066538150  0.3730986201661608  0.4997614818414888   F   F   F
  0.8329605302092631  0.1245928777149743  0.5001560578227782   F   F   F
  0.1667634148675248  0.3762630565673959  0.4977524588789137   F   F   F
  0.1677932346085100  0.6243370990014512  0.5000112111156128   F   F   F
  0.5811800386145123  0.4385826680301079  0.6462734701430293   F   F   F
  0.5796863643702892  0.6854482589086928  0.6392564594148311   F   F   F
  0.9162942750390002  0.1862382623190086  0.6398741718693586   F   F   F
  0.2490980687016489  0.3162129436839649  0.6412361578975450   F   F   F
  0.9157781595316123  0.4369368292159592  0.4536624301033143   F   F   F
  0.1670745231177122  0.1243108199600087  0.4993338945935051   F   F   F
  0.7486193733947246  0.0596013036447047  0.5441707363890202   F   F   F
  0.1677324769979265  0.8732675759223127  0.4998878303631855   F   F   F
  0.4294435506913814  0.3049903301081969  0.6550120861124356   F   F   F
  0.5911940531628161  0.8101134517429429  0.6461142375114974   F   F   F
  0.4209770491230813  0.6758072732536817  0.6334216154461814   F   F   F
  0.4999955247535937  0.8734486192551145  0.5008875762640699   F   F   F
  0.7543444395000662  0.4328743920412990  0.6378003271649675   F   F   F
  0.7535496377380113  0.5681227185764541  0.6357318363748092   F   F   F
  0.3972054759050252  0.5505696280680397  0.6519146003055809   F   F   F
  0.4175216528953385  0.9349092688348435  0.6397100706903984   F   F   F
  0.7411586604349125  0.8098903455516648  0.6399748503569143   F   F   F
  0.7456605943098964  0.3106227664628562  0.6412629077976248   F   F   F
  0.7495438849488565  0.0683298670829373  0.6379197860228203   F   F   F
  0.0840116902352079  0.3116221324949322  0.6403947393443019   F   F   F
  0.6665881354517538  0.8744961879830484  0.4987933257444084   F   F   F
  0.0872793447771514  0.5622304528020265  0.6409543763875831   F   F   F
  0.0868948822505118  0.4364828907384535  0.6394709297700061   F   F   F
  0.0835054356610172  0.1856417406144644  0.6410356334490643   F   F   F
  0.4185974857752939  0.1877203079796956  0.6398928631198118   F   F   F
  0.4150204168798126  0.4188262328931103  0.6298720690251400   F   F   F
  0.0844104454658776  0.9355268241398704  0.6407320021681358   F   F   F
  0.0831315179886047  0.6870186589695422  0.6392103090369119   F   F   F
  0.0842850071692069  0.0604889915182341  0.6421615476944638   F   F   F
  0.8332171132394990  0.5021964488528425  0.5889488695688030   F   F   F
  0.9125485143309078  0.4359705367478952  0.6397643292955308   F   F   F
  0.8305155917921780  0.7507614667723601  0.5927943588389724   F   F   F
  0.8315411425539807  0.2486897067840061  0.5910209251122396   F   F   F
  0.7459158882244452  0.1939371324798316  0.6466516881994124   F   F   F
  0.9166666865332829  0.8124999999834799  0.3605200052333331   F   F   F
  0.5820904578004757  0.9358727420426902  0.6393091307787486   F   F   F
  0.0842905923740105  0.8122854539167648  0.6421314062651575   F   F   F
  0.5800486284920368  0.1914620512483225  0.6449463326372680   F   F   F
  0.2549868037757221  0.6773515937292274  0.6630463373121600   F   F   F
  0.2407772300924904  0.4419417445512863  0.6414561076946868   F   F   F
  0.9145257042910373  0.9369641340540866  0.6412338436080418   F   F   F
  0.9162704631352057  0.6874828313639725  0.6392553525764058   F   F   F
  0.2519877980405241  0.9301616680815314  0.6373861198205120   F   F   F
  0.2535607326565881  0.1865018176173052  0.6412098276907798   F   F   F
  0.0006923460118884  0.1226015666873792  0.6201630952039068   F   F   F
  0.1666666716383389  0.3750000000061604  0.4070133268666680   F   F   F
  0.6654316688692248  0.7519656252177569  0.5022235102148898   F   F   F
  0.5011641507469022  0.7528741512843951  0.5039340384855251   F   F   F
  0.6659819584678388  0.0000119399933567  0.5055804417538496   F   F   F
  0.1644226156546296  0.7515277832614231  0.5033632170449280   F   F   F
  0.8333332538436267  0.6249999999803961  0.4070133268666680   F   F   F
  0.6685241623995140  0.4998421400609061  0.5006661942645820   F   F   F
  0.3312036107633460  0.4992271606546197  0.5009186468445677   F   F   F
  0.3301492941125019  0.2480591220295736  0.5028136322334120   F   F   F
  0.3338452157052956  0.7511390012312660  0.5015554478410138   F   F   F
  0.6668713927090195  0.2479388630325801  0.5026358838442988   F   F   F
  0.5013529984384277  0.4997698736270166  0.5002896868797677   F   F   F
  0.9997050338076221  0.5005374509685936  0.5070012387292167   F   F   F
  0.8361837559344849  0.5000211513486832  0.5028121657737898   F   F   F
  0.8358077503949559  0.2486156010378693  0.5026810885798696   F   F   F
  0.6666666865533486  0.3750000000061604  0.4070133268666680   F   F   F
  0.1660457955514048  0.0011411967647348  0.5065604949591673   F   F   F
  0.0000000000000000  0.8749999404036828  0.4070133268666680   F   F   F
  0.5010273039498472  0.2479395254187935  0.5021240161893346   F   F   F
  0.9999242224825835  0.7508811558610944  0.5066304985296668   F   F   F
  0.0008523125104460  0.2498230148669336  0.5059429964790212   F   F   F
  0.0000982722931511  0.0000312940525617  0.5066896970827557   F   F   F
  0.6666666865533486  0.6249999999803961  0.4070133268666680   F   F   F
  0.8333332538436267  0.8749999404036828  0.4070133268666680   F   F   F
  0.3333333432766779  0.6249999999803961  0.4070133268666680   F   F   F
  0.3333333432766779  0.1249999999871179  0.4070133268666680   F   F   F
  0.3333333432766779  0.3750000000061604  0.4070133268666680   F   F   F
  0.8344088617451106  0.0000984814574139  0.5062034108310485   F   F   F
  0.3333333432766779  0.8749999404036828  0.4070133268666680   F   F   F
  0.6666666865533486  0.1249999999871179  0.4070133268666680   F   F   F
  0.0000000000000000  0.6249999999803961  0.4070133268666680   F   F   F
  0.1663568052536419  0.2482310427522023  0.5061927154493873   F   F   F
  0.3330884002337058  0.0010968415162367  0.5058035770419380   F   F   F
  0.5002239897102925  0.9993498354618779  0.5054765938260033   F   F   F
  0.5008106970902801  0.8767466019413845  0.6096862662565385   F   F   F
  0.3258659216820732  0.3736350422334240  0.5927250685302354   F   F   F
  0.0000000000000000  0.3750000000061604  0.4070133268666680   F   F   F
  0.3341674101891101  0.6243874979420525  0.5951892847329532   F   F   F
  0.5000000000021103  0.8749999404036828  0.4070133268666680   F   F   F
  0.8333332538436267  0.3750000000061604  0.4070133268666680   F   F   F
  0.1666666716383389  0.1249999999871179  0.4070133268666680   F   F   F
  0.6653705890783428  0.1242832370946232  0.6114220476237620   F   F   F
  0.5000000000021103  0.6249999999803961  0.4070133268666680   F   F   F
  0.8397738700277699  0.6268973006864087  0.6035924477983485   F   F   F
  0.3317230340756296  0.1198808953157524  0.6136874056444199   F   F   F
  0.9992256043295882  0.8749619182025086  0.6223753905513760   F   F   F
  0.1635876853649805  0.4998661934182920  0.5020510639642453   F   F   F
  0.5000000000021103  0.1249999999871179  0.4070133268666680   F   F   F
  0.8320730376128722  0.8763056989970153  0.6182776237325385   F   F   F
  0.8376819756568707  0.3725312896433337  0.6033226170439789   F   F   F
  0.8360816129677389  0.7517799538283043  0.5025971641574145   F   F   F
  0.1666666716383389  0.8749999404036828  0.4070133268666680   F   F   F
  0.8333332538436267  0.1249999999871179  0.4070133268666680   F   F   F
  0.0000000000000000  0.1249999999871179  0.4070133268666680   F   F   F
  0.5039707195702761  0.6250278045216575  0.5938811689387293   F   F   F
  0.6708225572001467  0.3722752734173653  0.5933729077623511   F   F   F
  0.5000000000021103  0.3750000000061604  0.4070133268666680   F   F   F
  0.6666666865533486  0.8749999404036828  0.4070133268666680   F   F   F
  0.3345242816162894  0.8785567521397866  0.6029920552518817   F   F   F
  0.1593447073250474  0.6272347292728710  0.6014506779662057   F   F   F
  0.1662396993114470  0.8733790597788200  0.6179770758345171   F   F   F
  0.5017848357215655  0.3712083956420571  0.5950309041811508   F   F   F
  0.1666666716383389  0.6249999999803961  0.4070133268666680   F   F   F
  0.1677327970326061  0.1228538488878783  0.6218903685915507   F   F   F
  0.5002015795572845  0.1223930347976037  0.6062724135294886   F   F   F
  0.9996214561235846  0.6221470061026295  0.6314494650225342   F   F   F
  0.0001312350540772  0.3747853874018503  0.6234727819537653   F   F   F
  0.8350006816529216  0.1243160531560363  0.6134035805350351   F   F   F
  0.6654811949361132  0.8813246698295671  0.6074761388766063   F   F   F
  0.1633120501993233  0.3713525899729788  0.6076808452343414   F   F   F
  0.6665187953214868  0.6262590429529169  0.5934980371770422   F   F   F
  0.0834643062198523  0.2479713741111951  0.6035632691310013   F   F   F
  0.7499527530472037  0.0016894025102800  0.6040577575877251   F   F   F
  0.5825352515913949  0.0010097665853408  0.6041189793715134   F   F   F
  0.9165940107440989  0.9997333634383665  0.6037918260725803   F   F   F
  0.5847424413401896  0.7499787348499893  0.5997732998612477   F   F   F
  0.5904906790113031  0.5011826710389116  0.5935972084882621   F   F   F
  0.2425366848592034  0.4978429638937598  0.5939196095488626   F   F   F
  0.5846370414816491  0.2474244080525096  0.5969071413486731   F   F   F
  0.2497441970579644  0.9976926201873439  0.6042397037259803   F   F   F
  0.7539350532464226  0.2479891586528638  0.5928235370801858   F   F   F
  0.2490342121970031  0.2456911300494937  0.6035934031557417   F   F   F
  0.4171409333577500  0.0000567919010805  0.6046468437375054   F   F   F
  0.2493205488347670  0.7526424126236080  0.5921118301431392   F   F   F
  0.0815803041844774  0.5000528721980828  0.6032118399114097   F   F   F