Au  C  O                                
   1.00000000000000     
    14.1335345897620392    0.0000000000000000    0.0000000000000000
     0.0000000000000000   17.3099740034466834    0.0000000000000000
     0.0000000000000000    0.0000000000000000   29.1610916380090863
   Au   C    O 
   144     1     1
Selective dynamics
Direct
  0.3377513398848204  0.0808775670178265  0.6668565741434394   T   T   T
  0.3381035840575877  0.2450391346901639  0.6661845536791974   T   T   T
  0.3433049309642990  0.4167041350280249  0.6699489509044997   T   T   T
  0.3380501842711041  0.5883587949042886  0.6661251056515003   T   T   T
  0.3377229285515737  0.7524385281669062  0.6668588851932582   T   T   T
  0.3374575576103304  0.9166206832322109  0.6678394420785553   T   T   T
  0.8380103202561204  0.0830889405561300  0.6659724755081508   T   T   T
  0.8389219842225467  0.2497940089196731  0.6673509637468812   T   T   T
  0.8389396841349824  0.4163546811283896  0.6681021737098874   T   T   T
  0.8389317850060716  0.5832981153972746  0.6673910542909761   T   T   T
  0.8380749147555434  0.7500948962780304  0.6658838576089205   T   T   T
  0.8372497017753631  0.9166419802268294  0.6655954831052603   T   T   T
  0.1685813078931414 -0.0003366602464525  0.6451213305498885   T   T   T
  0.1686823903523189  0.1658649516326285  0.6442538379355344   T   T   T
  0.1713175101850540  0.3333225388781836  0.6423576320492981   T   T   T
  0.1712945274790884  0.5000252386767975  0.6423241161709379   T   T   T
  0.1687720849984138  0.6675205869312677  0.6441850155901794   T   T   T
  0.1684521416192981  0.8336401418524405  0.6452270351594641   T   T   T
  0.6680322637172623  0.0000194336589505  0.6439569429668833   T   T   T
  0.6695925858037832  0.1666860257683827  0.6446693663293971   T   T   T
  0.6707337396493985  0.3332245526312184  0.6450990478486425   T   T   T
  0.6708479422002871  0.5000581496791390  0.6450218554997239   T   T   T
  0.6699340048962190  0.6665967328081226  0.6445843021423106   T   T   T
  0.6680670627741860  0.8332022542217877  0.6438678481573603   T   T   T
  0.0077328390748961  0.0831463429885143  0.6134314775408698   T   T   T
  0.0080944997199912  0.2500124555192800  0.6133102774795042   T   T   T
  0.0077721598018330  0.4166713186580011  0.6136383777118912   T   T   T
  0.0081069927932792  0.5833350299537748  0.6133797608249282   T   T   T
  0.0079284037576941  0.7501149315577488  0.6133215383025522   T   T   T
  0.0077139702238590  0.9166452087900652  0.6136440755725691   T   T   T
  0.5073151804843734  0.0836050644922224  0.6135553401705079   T   T   T
  0.5087567864206289  0.2501514320996273  0.6137221162253689   T   T   T
  0.5109302620735029  0.4166810968091247  0.6132501045256120   T   T   T
  0.5087805640820909  0.5833062013230684  0.6137355199709700   T   T   T
  0.5073340643939115  0.7496511700809185  0.6135197291944654   T   T   T
  0.5065428860369556  0.9166497124445635  0.6137291166445409   T   T   T
  0.3415303893078580 -0.0000890949967671  0.5774728022487098   T   T   T
  0.3421009335523292  0.1668695122168863  0.5769514161149600   T   T   T
  0.3423594059097522  0.3346366808257515  0.5803041350347339   T   T   T
  0.3423653030310326  0.4986997817381227  0.5802559319609508   T   T   T
  0.3419721341664120  0.6665806929277734  0.5769191130164896   T   T   T
  0.3414231097604921  0.8334799290431347  0.5774355538869632   T   T   T
  0.8419917978391847  0.0001319425876619  0.5769963438614999   T   T   T
  0.8417132094057271  0.1671186746606543  0.5774330764897572   T   T   T
  0.8418693371309796  0.3336620322055064  0.5779245986336855   T   T   T
  0.8417722513450911  0.4997394064322880  0.5780423186994404   T   T   T
  0.8419437024511538  0.6660719312551253  0.5773809434421178   T   T   T
  0.8419892053836685  0.8330961602911213  0.5770210258991840   T   T   T
  0.1713011171301082  0.0831328238731658  0.5499212109299896   T   T   T
  0.1720424741705152  0.2498309482491503  0.5491888895058407   T   T   T
  0.1718395023997568  0.4166960263829379  0.5491741161873743   T   T   T
  0.1720584511537913  0.5835470435986424  0.5492008268959861   T   T   T
  0.1713647219196218  0.7504018216758767  0.5498009720900353   T   T   T
  0.1712707498412313  0.9168900810975067  0.5499642044762666   T   T   T
  0.6710677637388186  0.0837338862441762  0.5497296117144773   T   T   T
  0.6712418406512217  0.2506159257807808  0.5498067164320655   T   T   T
  0.6717982827904280  0.4165987300626173  0.5491864059937352   T   T   T
  0.6713376667316596  0.5827312656479019  0.5497707185588985   T   T   T
  0.6712151210366873  0.7495333676950680  0.5497063953895285   T   T   T
  0.6710515931531990  0.9166382057488429  0.5493857129165984   T   T   T
  0.0046403130194147  0.0000107341301609  0.5185944677967557   T   T   T
  0.0042415269584917  0.1663660217624626  0.5187323142906678   T   T   T
  0.0042657138035143  0.3332262260921598  0.5187609333838532   T   T   T
  0.0041809948596787  0.5002048334154506  0.5187807335264953   T   T   T
  0.0043719438250507  0.6670135613002867  0.5187068473830431   T   T   T
  0.0045429538184984  0.8335987437447546  0.5186793427835407   T   T   T
  0.5041198441675059  0.0001757783429314  0.5187568017220059   T   T   T
  0.5045427566031991  0.1671081709814038  0.5186454859808745   T   T   T
  0.5029538354246164  0.3333953348650318  0.5189450203954649   T   T   T
  0.5031204453882396  0.4999957462352346  0.5189191502340905   T   T   T
  0.5045108713491744  0.6662084975582997  0.5186893205931102   T   T   T
  0.5041627249489393  0.8331419073712260  0.5187716312934657   T   T   T
  0.3333333333333357  0.0833333333333357  0.4857202445833551   F   F   F
  0.3333333333333357  0.2500000000000000  0.4857202445833551   F   F   F
  0.3333333333333357  0.4166666666666643  0.4857202445833551   F   F   F
  0.3333333333333357  0.5833333333333357  0.4857202445833551   F   F   F
  0.3333333333333357  0.7500000000000000  0.4857202445833551   F   F   F
  0.3333333333333357  0.9166666666666643  0.4857202445833551   F   F   F
  0.8333333333333357  0.0833333333333357  0.4857202445833551   F   F   F
  0.8333333333333357  0.2500000000000000  0.4857202445833551   F   F   F
  0.8333333333333357  0.4166666666666643  0.4857202445833551   F   F   F
  0.8333333333333357  0.5833333333333357  0.4857202445833551   F   F   F
  0.8333333333333357  0.7500000000000000  0.4857202445833551   F   F   F
  0.8333333333333357  0.9166666666666643  0.4857202445833551   F   F   F
  0.1666666666666643  0.0000000000000000  0.4571607337500652   F   F   F
  0.1666666666666643  0.1666666666666643  0.4571607337500652   F   F   F
  0.1666666666666643  0.3333333333333357  0.4571607337500652   F   F   F
  0.1666666666666643  0.5000000000000000  0.4571607337500652   F   F   F
  0.1666666666666643  0.6666666666666643  0.4571607337500652   F   F   F
  0.1666666666666643  0.8333333333333357  0.4571607337500652   F   F   F
  0.6666666666666643  0.0000000000000000  0.4571607337500652   F   F   F
  0.6666666666666643  0.1666666666666643  0.4571607337500652   F   F   F
  0.6666666666666643  0.3333333333333357  0.4571607337500652   F   F   F
  0.6666666666666643  0.5000000000000000  0.4571607337500652   F   F   F
  0.6666666666666643  0.6666666666666643  0.4571607337500652   F   F   F
  0.6666666666666643  0.8333333333333357  0.4571607337500652   F   F   F
  0.0000000000000000  0.0833333333333357  0.4286012229167753   F   F   F
  0.0000000000000000  0.2500000000000000  0.4286012229167753   F   F   F
  0.0000000000000000  0.4166666666666643  0.4286012229167753   F   F   F
  0.0000000000000000  0.5833333333333357  0.4286012229167753   F   F   F
  0.0000000000000000  0.7500000000000000  0.4286012229167753   F   F   F
  0.0000000000000000  0.9166666666666643  0.4286012229167753   F   F   F
  0.5000000000000000  0.0833333333333357  0.4286012229167753   F   F   F
  0.5000000000000000  0.2500000000000000  0.4286012229167753   F   F   F
  0.5000000000000000  0.4166666666666643  0.4286012229167753   F   F   F
  0.5000000000000000  0.5833333333333357  0.4286012229167753   F   F   F
  0.5000000000000000  0.7500000000000000  0.4286012229167753   F   F   F
  0.5000000000000000  0.9166666666666643  0.4286012229167753   F   F   F
  0.3333333333333357  0.0000000000000000  0.4000417120834854   F   F   F
  0.3333333333333357  0.1666666666666643  0.4000417120834854   F   F   F
  0.3333333333333357  0.3333333333333357  0.4000417120834854   F   F   F
  0.3333333333333357  0.5000000000000000  0.4000417120834854   F   F   F
  0.3333333333333357  0.6666666666666643  0.4000417120834854   F   F   F
  0.3333333333333357  0.8333333333333357  0.4000417120834854   F   F   F
  0.8333333333333357  0.0000000000000000  0.4000417120834854   F   F   F
  0.8333333333333357  0.1666666666666643  0.4000417120834854   F   F   F
  0.8333333333333357  0.3333333333333357  0.4000417120834854   F   F   F
  0.8333333333333357  0.5000000000000000  0.4000417120834854   F   F   F
  0.8333333333333357  0.6666666666666643  0.4000417120834854   F   F   F
  0.8333333333333357  0.8333333333333357  0.4000417120834854   F   F   F
  0.1666666666666643  0.0833333333333357  0.3714822012501955   F   F   F
  0.1666666666666643  0.2500000000000000  0.3714822012501955   F   F   F
  0.1666666666666643  0.4166666666666643  0.3714822012501955   F   F   F
  0.1666666666666643  0.5833333333333357  0.3714822012501955   F   F   F
  0.1666666666666643  0.7500000000000000  0.3714822012501955   F   F   F
  0.1666666666666643  0.9166666666666643  0.3714822012501955   F   F   F
  0.6666666666666643  0.0833333333333357  0.3714822012501955   F   F   F
  0.6666666666666643  0.2500000000000000  0.3714822012501955   F   F   F
  0.6666666666666643  0.4166666666666643  0.3714822012501955   F   F   F
  0.6666666666666643  0.5833333333333357  0.3714822012501955   F   F   F
  0.6666666666666643  0.7500000000000000  0.3714822012501955   F   F   F
  0.6666666666666643  0.9166666666666643  0.3714822012501955   F   F   F
  0.0000000000000000  0.0000000000000000  0.3429226904169056   F   F   F
  0.0000000000000000  0.1666666666666643  0.3429226904169056   F   F   F
  0.0000000000000000  0.3333333333333357  0.3429226904169056   F   F   F
  0.0000000000000000  0.5000000000000000  0.3429226904169056   F   F   F
  0.0000000000000000  0.6666666666666643  0.3429226904169056   F   F   F
  0.0000000000000000  0.8333333333333357  0.3429226904169056   F   F   F
  0.5000000000000000  0.0000000000000000  0.3429226904169056   F   F   F
  0.5000000000000000  0.1666666666666643  0.3429226904169056   F   F   F
  0.5000000000000000  0.3333333333333357  0.3429226904169056   F   F   F
  0.5000000000000000  0.5000000000000000  0.3429226904169056   F   F   F
  0.5000000000000000  0.6666666666666643  0.3429226904169056   F   F   F
  0.5000000000000000  0.8333333333333357  0.3429226904169056   F   F   F
  0.3480737373125087  0.4166228988768383  0.7396152669318427   T   T   T
  0.3312770625036242  0.4160189874359289  0.7781621232257480   T   T   T
 
  0.00000000E+00  0.00000000E+00  0.00000000E+00
  0.00000000E+00  0.00000000E+00  0.00000000E+00
  0.00000000E+00  0.00000000E+00  0.00000000E+00
  0.00000000E+00  0.00000000E+00  0.00000000E+00
  0.00000000E+00  0.00000000E+00  0.00000000E+00
  0.00000000E+00  0.00000000E+00  0.00000000E+00
  0.00000000E+00  0.00000000E+00  0.00000000E+00
  0.00000000E+00  0.00000000E+00  0.00000000E+00
  0.00000000E+00  0.00000000E+00  0.00000000E+00
  0.00000000E+00  0.00000000E+00  0.00000000E+00
  0.00000000E+00  0.00000000E+00  0.00000000E+00
  0.00000000E+00  0.00000000E+00  0.00000000E+00
  0.00000000E+00  0.00000000E+00  0.00000000E+00
  0.00000000E+00  0.00000000E+00  0.00000000E+00
  0.00000000E+00  0.00000000E+00  0.00000000E+00
  0.00000000E+00  0.00000000E+00  0.00000000E+00
  0.00000000E+00  0.00000000E+00  0.00000000E+00
  0.00000000E+00  0.00000000E+00  0.00000000E+00
  0.00000000E+00  0.00000000E+00  0.00000000E+00
  0.00000000E+00  0.00000000E+00  0.00000000E+00
  0.00000000E+00  0.00000000E+00  0.00000000E+00
  0.00000000E+00  0.00000000E+00  0.00000000E+00
  0.00000000E+00  0.00000000E+00  0.00000000E+00
  0.00000000E+00  0.00000000E+00  0.00000000E+00
  0.00000000E+00  0.00000000E+00  0.00000000E+00
  0.00000000E+00  0.00000000E+00  0.00000000E+00
  0.00000000E+00  0.00000000E+00  0.00000000E+00
  0.00000000E+00  0.00000000E+00  0.00000000E+00
  0.00000000E+00  0.00000000E+00  0.00000000E+00
  0.00000000E+00  0.00000000E+00  0.00000000E+00
  0.00000000E+00  0.00000000E+00  0.00000000E+00
  0.00000000E+00  0.00000000E+00  0.00000000E+00
  0.00000000E+00  0.00000000E+00  0.00000000E+00
  0.00000000E+00  0.00000000E+00  0.00000000E+00
  0.00000000E+00  0.00000000E+00  0.00000000E+00
  0.00000000E+00  0.00000000E+00  0.00000000E+00
  0.00000000E+00  0.00000000E+00  0.00000000E+00
  0.00000000E+00  0.00000000E+00  0.00000000E+00
  0.00000000E+00  0.00000000E+00  0.00000000E+00
  0.00000000E+00  0.00000000E+00  0.00000000E+00
  0.00000000E+00  0.00000000E+00  0.00000000E+00
  0.00000000E+00  0.00000000E+00  0.00000000E+00
  0.00000000E+00  0.00000000E+00  0.00000000E+00
  0.00000000E+00  0.00000000E+00  0.00000000E+00
  0.00000000E+00  0.00000000E+00  0.00000000E+00
  0.00000000E+00  0.00000000E+00  0.00000000E+00
  0.00000000E+00  0.00000000E+00  0.00000000E+00
  0.00000000E+00  0.00000000E+00  0.00000000E+00
  0.00000000E+00  0.00000000E+00  0.00000000E+00
  0.00000000E+00  0.00000000E+00  0.00000000E+00
  0.00000000E+00  0.00000000E+00  0.00000000E+00
  0.00000000E+00  0.00000000E+00  0.00000000E+00
  0.00000000E+00  0.00000000E+00  0.00000000E+00
  0.00000000E+00  0.00000000E+00  0.00000000E+00
  0.00000000E+00  0.00000000E+00  0.00000000E+00
  0.00000000E+00  0.00000000E+00  0.00000000E+00
  0.00000000E+00  0.00000000E+00  0.00000000E+00
  0.00000000E+00  0.00000000E+00  0.00000000E+00
  0.00000000E+00  0.00000000E+00  0.00000000E+00
  0.00000000E+00  0.00000000E+00  0.00000000E+00
  0.00000000E+00  0.00000000E+00  0.00000000E+00
  0.00000000E+00  0.00000000E+00  0.00000000E+00
  0.00000000E+00  0.00000000E+00  0.00000000E+00
  0.00000000E+00  0.00000000E+00  0.00000000E+00
  0.00000000E+00  0.00000000E+00  0.00000000E+00
  0.00000000E+00  0.00000000E+00  0.00000000E+00
  0.00000000E+00  0.00000000E+00  0.00000000E+00
  0.00000000E+00  0.00000000E+00  0.00000000E+00
  0.00000000E+00  0.00000000E+00  0.00000000E+00
  0.00000000E+00  0.00000000E+00  0.00000000E+00
  0.00000000E+00  0.00000000E+00  0.00000000E+00
  0.00000000E+00  0.00000000E+00  0.00000000E+00
  0.00000000E+00  0.00000000E+00  0.00000000E+00
  0.00000000E+00  0.00000000E+00  0.00000000E+00
  0.00000000E+00  0.00000000E+00  0.00000000E+00
  0.00000000E+00  0.00000000E+00  0.00000000E+00
  0.00000000E+00  0.00000000E+00  0.00000000E+00
  0.00000000E+00  0.00000000E+00  0.00000000E+00
  0.00000000E+00  0.00000000E+00  0.00000000E+00
  0.00000000E+00  0.00000000E+00  0.00000000E+00
  0.00000000E+00  0.00000000E+00  0.00000000E+00
  0.00000000E+00  0.00000000E+00  0.00000000E+00
  0.00000000E+00  0.00000000E+00  0.00000000E+00
  0.00000000E+00  0.00000000E+00  0.00000000E+00
  0.00000000E+00  0.00000000E+00  0.00000000E+00
  0.00000000E+00  0.00000000E+00  0.00000000E+00
  0.00000000E+00  0.00000000E+00  0.00000000E+00
  0.00000000E+00  0.00000000E+00  0.00000000E+00
  0.00000000E+00  0.00000000E+00  0.00000000E+00
  0.00000000E+00  0.00000000E+00  0.00000000E+00
  0.00000000E+00  0.00000000E+00  0.00000000E+00
  0.00000000E+00  0.00000000E+00  0.00000000E+00
  0.00000000E+00  0.00000000E+00  0.00000000E+00
  0.00000000E+00  0.00000000E+00  0.00000000E+00
  0.00000000E+00  0.00000000E+00  0.00000000E+00
  0.00000000E+00  0.00000000E+00  0.00000000E+00
  0.00000000E+00  0.00000000E+00  0.00000000E+00
  0.00000000E+00  0.00000000E+00  0.00000000E+00
  0.00000000E+00  0.00000000E+00  0.00000000E+00
  0.00000000E+00  0.00000000E+00  0.00000000E+00
  0.00000000E+00  0.00000000E+00  0.00000000E+00
  0.00000000E+00  0.00000000E+00  0.00000000E+00
  0.00000000E+00  0.00000000E+00  0.00000000E+00
  0.00000000E+00  0.00000000E+00  0.00000000E+00
  0.00000000E+00  0.00000000E+00  0.00000000E+00
  0.00000000E+00  0.00000000E+00  0.00000000E+00
  0.00000000E+00  0.00000000E+00  0.00000000E+00
  0.00000000E+00  0.00000000E+00  0.00000000E+00
  0.00000000E+00  0.00000000E+00  0.00000000E+00
  0.00000000E+00  0.00000000E+00  0.00000000E+00
  0.00000000E+00  0.00000000E+00  0.00000000E+00
  0.00000000E+00  0.00000000E+00  0.00000000E+00
  0.00000000E+00  0.00000000E+00  0.00000000E+00
  0.00000000E+00  0.00000000E+00  0.00000000E+00
  0.00000000E+00  0.00000000E+00  0.00000000E+00
  0.00000000E+00  0.00000000E+00  0.00000000E+00
  0.00000000E+00  0.00000000E+00  0.00000000E+00
  0.00000000E+00  0.00000000E+00  0.00000000E+00
  0.00000000E+00  0.00000000E+00  0.00000000E+00
  0.00000000E+00  0.00000000E+00  0.00000000E+00
  0.00000000E+00  0.00000000E+00  0.00000000E+00
  0.00000000E+00  0.00000000E+00  0.00000000E+00
  0.00000000E+00  0.00000000E+00  0.00000000E+00
  0.00000000E+00  0.00000000E+00  0.00000000E+00
  0.00000000E+00  0.00000000E+00  0.00000000E+00
  0.00000000E+00  0.00000000E+00  0.00000000E+00
  0.00000000E+00  0.00000000E+00  0.00000000E+00
  0.00000000E+00  0.00000000E+00  0.00000000E+00
  0.00000000E+00  0.00000000E+00  0.00000000E+00
  0.00000000E+00  0.00000000E+00  0.00000000E+00
  0.00000000E+00  0.00000000E+00  0.00000000E+00
  0.00000000E+00  0.00000000E+00  0.00000000E+00
  0.00000000E+00  0.00000000E+00  0.00000000E+00
  0.00000000E+00  0.00000000E+00  0.00000000E+00
  0.00000000E+00  0.00000000E+00  0.00000000E+00
  0.00000000E+00  0.00000000E+00  0.00000000E+00
  0.00000000E+00  0.00000000E+00  0.00000000E+00
  0.00000000E+00  0.00000000E+00  0.00000000E+00
  0.00000000E+00  0.00000000E+00  0.00000000E+00
  0.00000000E+00  0.00000000E+00  0.00000000E+00
  0.00000000E+00  0.00000000E+00  0.00000000E+00
  0.00000000E+00  0.00000000E+00  0.00000000E+00
  0.00000000E+00  0.00000000E+00  0.00000000E+00
  0.00000000E+00  0.00000000E+00  0.00000000E+00
  0.00000000E+00  0.00000000E+00  0.00000000E+00
  0.00000000E+00  0.00000000E+00  0.00000000E+00
