Au  C  O 
 1.0000000000000000
    14.1335345897620392    0.0000000000000000    0.0000000000000000
     0.0000000000000000   17.3099740034466834    0.0000000000000000
     0.0000000000000000    0.0000000000000000   29.1610916380090863
 Au  C   O  
 144   1   1
Selective dynamics
Cartesian
  4.7410245802113788  1.4424978336205980 19.4402857682938084   T   T   T
  4.7410245802113788  4.3274935008616708 19.4402857682938084   T   T   T
  4.7410245802113788  7.2124891681027439 19.4402857682938084   T   T   T
  4.7410245802113788 10.0974848353439395 19.4402857682938084   T   T   T
  4.7410245802113788 12.9824805025850125 19.4402857682938084   T   T   T
  4.7410245802113788 15.8674761698260856 19.4402857682938084   T   T   T
 11.8077918750923985  1.4424978336205980 19.4402857682938084   T   T   T
 11.8077918750923985  4.3274935008616708 19.4402857682938084   T   T   T
 11.8077918750923985  7.2124891681027439 19.4402857682938084   T   T   T
 11.8077918750923985 10.0974848353439395 19.4402857682938084   T   T   T
 11.8077918750923985 12.9824805025850125 19.4402857682938084   T   T   T
 11.8077918750923985 15.8674761698260856 19.4402857682938084   T   T   T
  2.3578088277656626  0.0000000000000000 18.8039231960683075   T   T   T
  2.3578088277656626  2.8849956672410730 18.8039231960683075   T   T   T
  2.3578088277656626  5.7699913344822686 18.8039231960683075   T   T   T
  2.3578088277656626  8.6549870017233417 18.8039231960683075   T   T   T
  2.3578088277656626 11.5399826689644147 18.8039231960683075   T   T   T
  2.3578088277656626 14.4249783362056103 18.8039231960683075   T   T   T
  9.4245761226466804  0.0000000000000000 18.8039231960683075   T   T   T
  9.4245761226466804  2.8849956672410730 18.8039231960683075   T   T   T
  9.4245761226466804  5.7699913344822686 18.8039231960683075   T   T   T
  9.4245761226466804  8.6549870017233417 18.8039231960683075   T   T   T
  9.4245761226466804 11.5399826689644147 18.8039231960683075   T   T   T
  9.4245761226466804 14.4249783362056103 18.8039231960683075   T   T   T
  0.0837922239611790  1.4424978336205980 17.8998959882792512   T   T   T
  0.0837922239611790  4.3274935008616708 17.8998959882792512   T   T   T
  0.0837922239611790  7.2124891681027439 17.8998959882792512   T   T   T
  0.0837922239611790 10.0974848353439395 17.8998959882792512   T   T   T
  0.0837922239611790 12.9824805025850125 17.8998959882792512   T   T   T
  0.0837922239611790 15.8674761698260856 17.8998959882792512   T   T   T
  7.1505595188421962  1.4424978336205980 17.8998959882792512   T   T   T
  7.1505595188421962  4.3274935008616708 17.8998959882792512   T   T   T
  7.1505595188421962  7.2124891681027439 17.8998959882792512   T   T   T
  7.1505595188421962 10.0974848353439395 17.8998959882792512   T   T   T
  7.1505595188421962 12.9824805025850125 17.8998959882792512   T   T   T
  7.1505595188421962 15.8674761698260856 17.8998959882792512   T   T   T
  4.8171358643075211  0.0000000000000000 16.8369411586196698   T   T   T
  4.8171358643075211  2.8849956672410730 16.8369411586196698   T   T   T
  4.8171358643075211  5.7699913344822686 16.8369411586196698   T   T   T
  4.8171358643075211  8.6549870017233417 16.8369411586196698   T   T   T
  4.8171358643075211 11.5399826689644147 16.8369411586196698   T   T   T
  4.8171358643075211 14.4249783362056103 16.8369411586196698   T   T   T
 11.8839031591885416  0.0000000000000000 16.8369411586196698   T   T   T
 11.8839031591885416  2.8849956672410730 16.8369411586196698   T   T   T
 11.8839031591885416  5.7699913344822686 16.8369411586196698   T   T   T
 11.8839031591885416  8.6549870017233417 16.8369411586196698   T   T   T
 11.8839031591885416 11.5399826689644147 16.8369411586196698   T   T   T
 11.8839031591885416 14.4249783362056103 16.8369411586196698   T   T   T
  2.4081210440825269  1.4424978336205980 16.0325924791058583   T   T   T
  2.4081210440825269  4.3274935008616708 16.0325924791058583   T   T   T
  2.4081210440825269  7.2124891681027439 16.0325924791058583   T   T   T
  2.4081210440825269 10.0974848353439395 16.0325924791058583   T   T   T
  2.4081210440825269 12.9824805025850125 16.0325924791058583   T   T   T
  2.4081210440825269 15.8674761698260856 16.0325924791058583   T   T   T
  9.4748883389635470  1.4424978336205980 16.0325924791058583   T   T   T
  9.4748883389635470  4.3274935008616708 16.0325924791058583   T   T   T
  9.4748883389635470  7.2124891681027439 16.0325924791058583   T   T   T
  9.4748883389635470 10.0974848353439395 16.0325924791058583   T   T   T
  9.4748883389635470 12.9824805025850125 16.0325924791058583   T   T   T
  9.4748883389635470 15.8674761698260856 16.0325924791058583   T   T   T
  0.0557415911806251  0.0000000000000000 15.1301632410565094   T   T   T
  0.0557415911806251  2.8849956672410730 15.1301632410565112   T   T   T
  0.0557415911806251  5.7699913344822686 15.1301632410565112   T   T   T
  0.0557415911806251  8.6549870017233417 15.1301632410565112   T   T   T
  0.0557415911806251 11.5399826689644147 15.1301632410565112   T   T   T
  0.0557415911806251 14.4249783362056103 15.1301632410565112   T   T   T
  7.1225088860616435  0.0000000000000000 15.1301632410565112   T   T   T
  7.1225088860616435  2.8849956672410730 15.1301632410565112   T   T   T
  7.1225088860616435  5.7699913344822686 15.1301632410565112   T   T   T
  7.1225088860616435  8.6549870017233417 15.1301632410565112   T   T   T
  7.1225088860616435 11.5399826689644147 15.1301632410565112   T   T   T
  7.1225088860616435 14.4249783362056103 15.1301632410565112   T   T   T
  4.7111781965873796  1.4424978336205980 14.1641325627314050   F   F   F
  4.7111781965873796  4.3274935008616708 14.1641325627314050   F   F   F
  4.7111781965873796  7.2124891681027439 14.1641325627314050   F   F   F
  4.7111781965873796 10.0974848353439395 14.1641325627314050   F   F   F
  4.7111781965873796 12.9824805025850125 14.1641325627314050   F   F   F
  4.7111781965873796 15.8674761698260856 14.1641325627314050   F   F   F
 11.7779454914683992  1.4424978336205980 14.1641325627314050   F   F   F
 11.7779454914683992  4.3274935008616708 14.1641325627314050   F   F   F
 11.7779454914683992  7.2124891681027439 14.1641325627314050   F   F   F
 11.7779454914683992 10.0974848353439395 14.1641325627314050   F   F   F
 11.7779454914683992 12.9824805025850125 14.1641325627314050   F   F   F
 11.7779454914683992 15.8674761698260856 14.1641325627314050   F   F   F
  2.3555890982936396  0.0000000000000000 13.3313060501851250   F   F   F
  2.3555890982936396  2.8849956672410730 13.3313060501851250   F   F   F
  2.3555890982936396  5.7699913344822686 13.3313060501851250   F   F   F
  2.3555890982936396  8.6549870017233417 13.3313060501851250   F   F   F
  2.3555890982936396 11.5399826689644147 13.3313060501851250   F   F   F
  2.3555890982936396 14.4249783362056103 13.3313060501851250   F   F   F
  9.4223563931746597  0.0000000000000000 13.3313060501851250   F   F   F
  9.4223563931746597  2.8849956672410730 13.3313060501851250   F   F   F
  9.4223563931746597  5.7699913344822686 13.3313060501851250   F   F   F
  9.4223563931746597  8.6549870017233417 13.3313060501851250   F   F   F
  9.4223563931746597 11.5399826689644147 13.3313060501851250   F   F   F
  9.4223563931746597 14.4249783362056103 13.3313060501851250   F   F   F
  0.0000000000000000  1.4424978336205980 12.4984795376388451   F   F   F
  0.0000000000000000  4.3274935008616708 12.4984795376388451   F   F   F
  0.0000000000000000  7.2124891681027439 12.4984795376388451   F   F   F
  0.0000000000000000 10.0974848353439395 12.4984795376388451   F   F   F
  0.0000000000000000 12.9824805025850125 12.4984795376388451   F   F   F
  0.0000000000000000 15.8674761698260856 12.4984795376388451   F   F   F
  7.0667672948810196  1.4424978336205980 12.4984795376388451   F   F   F
  7.0667672948810196  4.3274935008616708 12.4984795376388451   F   F   F
  7.0667672948810196  7.2124891681027439 12.4984795376388451   F   F   F
  7.0667672948810196 10.0974848353439395 12.4984795376388451   F   F   F
  7.0667672948810196 12.9824805025850125 12.4984795376388451   F   F   F
  7.0667672948810196 15.8674761698260856 12.4984795376388451   F   F   F
  4.7111781965873796  0.0000000000000000 11.6656530250925634   F   F   F
  4.7111781965873796  2.8849956672410730 11.6656530250925634   F   F   F
  4.7111781965873796  5.7699913344822686 11.6656530250925634   F   F   F
  4.7111781965873796  8.6549870017233417 11.6656530250925634   F   F   F
  4.7111781965873796 11.5399826689644147 11.6656530250925634   F   F   F
  4.7111781965873796 14.4249783362056103 11.6656530250925634   F   F   F
 11.7779454914683992  0.0000000000000000 11.6656530250925634   F   F   F
 11.7779454914683992  2.8849956672410730 11.6656530250925634   F   F   F
 11.7779454914683992  5.7699913344822686 11.6656530250925634   F   F   F
 11.7779454914683992  8.6549870017233417 11.6656530250925634   F   F   F
 11.7779454914683992 11.5399826689644147 11.6656530250925634   F   F   F
 11.7779454914683992 14.4249783362056103 11.6656530250925634   F   F   F
  2.3555890982936396  1.4424978336205980 10.8328265125462835   F   F   F
  2.3555890982936396  4.3274935008616708 10.8328265125462835   F   F   F
  2.3555890982936396  7.2124891681027439 10.8328265125462835   F   F   F
  2.3555890982936396 10.0974848353439395 10.8328265125462835   F   F   F
  2.3555890982936396 12.9824805025850125 10.8328265125462835   F   F   F
  2.3555890982936396 15.8674761698260856 10.8328265125462835   F   F   F
  9.4223563931746597  1.4424978336205980 10.8328265125462835   F   F   F
  9.4223563931746597  4.3274935008616708 10.8328265125462835   F   F   F
  9.4223563931746597  7.2124891681027439 10.8328265125462835   F   F   F
  9.4223563931746597 10.0974848353439395 10.8328265125462835   F   F   F
  9.4223563931746597 12.9824805025850125 10.8328265125462835   F   F   F
  9.4223563931746597 15.8674761698260856 10.8328265125462835   F   F   F
  0.0000000000000000  0.0000000000000000 10.0000000000000036   F   F   F
  0.0000000000000000  2.8849956672410730 10.0000000000000036   F   F   F
  0.0000000000000000  5.7699913344822686 10.0000000000000036   F   F   F
  0.0000000000000000  8.6549870017233417 10.0000000000000036   F   F   F
  0.0000000000000000 11.5399826689644147 10.0000000000000036   F   F   F
  0.0000000000000000 14.4249783362056103 10.0000000000000036   F   F   F
  7.0667672948810196  0.0000000000000000 10.0000000000000036   F   F   F
  7.0667672948810196  2.8849956672410730 10.0000000000000036   F   F   F
  7.0667672948810196  5.7699913344822686 10.0000000000000036   F   F   F
  7.0667672948810196  8.6549870017233417 10.0000000000000036   F   F   F
  7.0667672948810196 11.5399826689644147 10.0000000000000036   F   F   F
  7.0667672948810196 14.4249783362056103 10.0000000000000036   F   F   F
  4.7110000000000003  7.2119999999999997 21.5947034153236466   T   T   T
  4.7110000000000003  7.2119999999999997 22.7367034153236460   T   T   T
