Au O  Sr Ti H                           
   1.00000000000000     
    23.6707801818999997    0.0000000000000000    0.0000000000000000
     0.0000000000000000   22.3170261383000010    0.0000000000000000
     0.0000000000000000    0.0000000000000000   30.0000000000000000
   Au   O    Sr   Ti   H 
    50   264    72    72     1
Selective dynamics
Direct
  0.7167054914155386  0.5257554263006412  0.7537363066393326   F   F   F
  0.6226835662135173  0.5690108706323969  0.7043644735378578   F   F   F
  0.7186657136683081  0.2593934220022476  0.6916160253237962   F   F   F
  0.2951011709258751  0.7462231207730810  0.6966886762454791   F   F   F
  0.5117996833639680  0.6035860070678964  0.7767717172480531   F   F   F
  0.5775531145308150  0.7248370018529400  0.7933989610125067   F   F   F
  0.5497808932848045  0.3838698782085146  0.8289077226197676   F   F   F
  0.2406229167149334  0.4687134363253662  0.7091312154841347   F   F   F
  0.2851095888856605  0.6620076253962353  0.7646667171371746   F   F   F
  0.6026491857351743  0.2885869176044125  0.7868772855151320   F   F   F
  0.5142331418013413  0.4840380875871304  0.6781088953321017   F   F   F
  0.5623704436319770  0.4858889785271288  0.7626574285245482   F   F   F
  0.4635028925799034  0.6951918006996749  0.8305114397019864   F   F   F
  0.7647763781794126  0.4321667674367973  0.7056611114468012   F   F   F
  0.7329447325937153  0.6153823313965177  0.6939583244977143   F   F   F
  0.6347627614620777  0.5839201959383757  0.8002126004145040   F   F   F
  0.5953755202970044  0.7844490563927451  0.7130034752048715   F   F   F
  0.4851720674397484  0.7786439336688673  0.7568779867678330   F   F   F
  0.3493734032043179  0.4997036720558370  0.6974385344284855   F   F   F
  0.4304912657395263  0.3720320425678949  0.8150314652100406   F   F   F
  0.3724821906271742  0.2987897655644574  0.7552024181980457   F   F   F
  0.4415808092977116  0.2282465161643046  0.6969796031393543   F   F   F
  0.3921264742801895  0.8179081352305744  0.7066798346547074   F   F   F
  0.2898523353774678  0.5374097180541995  0.7774322264428832   F   F   F
  0.5564860469053201  0.2097675217585433  0.7115663678222148   F   F   F
  0.4524784038744656  0.5800615582318613  0.7024588975937220   F   F   F
  0.6141441502870251  0.3208273827093677  0.6971561821946963   F   F   F
  0.7058301417999715  0.7572291021930866  0.6885037229315003   F   F   F
  0.6558575208366477  0.4412865621639597  0.8127786477806680   F   F   F
  0.3683192683522876  0.6188485241883015  0.8202586917551145   F   F   F
  0.5699352934572701  0.5098198158635725  0.8568422937648066   F   F   F
  0.6653042469072830  0.1934935498010262  0.7520171345886268   F   F   F
  0.4714658975961044  0.4500567599940126  0.8792384907361779   F   F   F
  0.5158688441727861  0.3774267028854510  0.7337983203993517   F   F   F
  0.2832085991564739  0.3378938781781358  0.7025342188126658   F   F   F
  0.6692478220051186  0.6810731327260626  0.7489306806513554   F   F   F
  0.3976900998491928  0.3820227826532516  0.6900242604991647   F   F   F
  0.3752460936098885  0.4925281305987639  0.8333161943280416   F   F   F
  0.4623515150859987  0.5729473310178932  0.8640446101069230   F   F   F
  0.3260261249156713  0.4142157082047149  0.7691088956312981   F   F   F
  0.4873238121157968  0.2686604288721881  0.7752568829184057   F   F   F
  0.4205974411072475  0.6975729391682322  0.6994796754534107   F   F   F
  0.6999897898550174  0.3470816662399159  0.7560750953007513   F   F   F
  0.7738359995378516  0.4300960436321262  0.7961116474255050   F   F   F
  0.2568608941108934  0.5923469338087486  0.6946814000868713   F   F   F
  0.6476992412739264  0.4433072908695550  0.6966565582752651   F   F   F
  0.5643500394708099  0.6392826265383178  0.8610864521963535   F   F   F
  0.5424279355941266  0.6661367176892767  0.7013569952161447   F   F   F
  0.4430841097365601  0.4751645109230296  0.7564379323710924   F   F   F
  0.3742167483288128  0.7392325534163930  0.7785719591322646   F   F   F
  0.2499127322059138  0.1886004154189180  0.4542005469332651   F   F   F
  0.7495062180636793  0.9386603338327149  0.4553850283192773   F   F   F
  0.7490411042012894  0.6887066432722264  0.4572536577527089   F   F   F
  0.7493101443381747  0.4384769520550407  0.4557346592064135   F   F   F
  0.7503207027608383  0.1901256193361291  0.4558885360515390   F   F   F
  0.4171941778169312  0.9358396572112326  0.4540184764011101   F   F   F
  0.4170138533469299  0.6847992954030957  0.4547695144985937   F   F   F
  0.4164512554451036  0.4354304694930704  0.4538106534796214   F   F   F
  0.0845225361554327  0.6867981403213363  0.4530008278930495   F   F   F
  0.0837289455619938  0.9366428183189441  0.4534066066727931   F   F   F
  0.0828327985357689  0.4368129144223829  0.4528585822600206   F   F   F
  0.0837216187527901  0.1865174361849640  0.4529823352353333   F   F   F
  0.9166456496344821  0.8123039673055601  0.4542659117722252   F   F   F
  0.9162326117066613  0.5624413596287141  0.4538279732630954   F   F   F
  0.2511777048444799  0.4392660279918772  0.4549223416083947   F   F   F
  0.9163231394267228  0.0613021931205822  0.4548788571086106   F   F   F
  0.9162045204302842  0.3120843256638324  0.4539874007618039   F   F   F
  0.4171414740308563  0.1871336243248010  0.4535456884789681   F   F   F
  0.2521799512642531  0.6876198853976092  0.4561242281397071   F   F   F
  0.9171582213460425  0.9363742101468873  0.4528087157618046   F   F   F
  0.5827767221002489  0.1896454897678410  0.4552512863235094   F   F   F
  0.9998696215861855  0.1248708777857246  0.4988690898581467   F   F   F
  0.5831358911789906  0.8103883122057454  0.4554047805755559   F   F   F
  0.9999669050758442  0.3737252919570651  0.4981847749453223   F   F   F
  0.9999652868290028  0.6270828108293500  0.4978627801398758   F   F   F
  0.3335624273765134  0.1255879650448577  0.4985080266099828   F   F   F
  0.0000414357356036  0.8748157813922148  0.4995139918187874   F   F   F
  0.3334846433961687  0.8740060984928490  0.4993061930555456   F   F   F
  0.6662165440646888  0.1258133856589367  0.4993255259337985   F   F   F
  0.3356397424895974  0.6255590513804279  0.5039721666571282   F   F   F
  0.3343097658438268  0.3784569755430667  0.5029730643894652   F   F   F
  0.6653927356375107  0.3785560973824147  0.5030863650390671   F   F   F
  0.9155261803704491  0.6869355734156315  0.4532248685462150   F   F   F
  0.9157476756446883  0.4369725789815178  0.4536518701068530   F   F   F
  0.9161024557474349  0.1865174800036371  0.4528479048303566   F   F   F
  0.5827371309468887  0.9370727458581456  0.4542630188862944   F   F   F
  0.5827875423164102  0.6860770291997937  0.4545396333871636   F   F   F
  0.5826889473374379  0.4393166609020298  0.4561035831056728   F   F   F
  0.2500549067992637  0.9360584282700657  0.4541104661107482   F   F   F
  0.6654224269365656  0.6260931145964150  0.5029477519841024   F   F   F
  0.5845938928241594  0.5626412298730230  0.4549779719005116   F   F   F
  0.5831579513434235  0.0633506459848050  0.4541156375250495   F   F   F
  0.9166666865332829  0.6874999999963620  0.3605200052333331   F   F   F
  0.9166666865332829  0.4374999701794380  0.3605200052333331   F   F   F
  0.9166666865332829  0.1875000000030838  0.3605200052333331   F   F   F
  0.5833333134730552  0.9375000000154046  0.3605200052333331   F   F   F
  0.5833333134730552  0.6874999999963620  0.3605200052333331   F   F   F
  0.5833333134730552  0.4374999701794380  0.3605200052333331   F   F   F
  0.5833333134730552  0.1875000000030838  0.3605200052333331   F   F   F
  0.2499999999799343  0.9375000000154046  0.3605200052333331   F   F   F
  0.9166666865332829  0.9375000000154046  0.3605200052333331   F   F   F
  0.2499999999799343  0.6874999999963620  0.3605200052333331   F   F   F
  0.2499999999799343  0.1875000000030838  0.3605200052333331   F   F   F
  0.7499999404149307  0.9375000000154046  0.3605200052333331   F   F   F
  0.7499999404149307  0.6874999999963620  0.3605200052333331   F   F   F
  0.7499999404149307  0.4374999701794380  0.3605200052333331   F   F   F
  0.7499999404149307  0.1875000000030838  0.3605200052333331   F   F   F
  0.4166666269218169  0.9375000000154046  0.3605200052333331   F   F   F
  0.4166666269218169  0.6874999999963620  0.3605200052333331   F   F   F
  0.4166666269218169  0.4374999701794380  0.3605200052333331   F   F   F
  0.2499999999799343  0.4374999701794380  0.3605200052333331   F   F   F
  0.0833333358191695  0.0625000000159659  0.3605200052333331   F   F   F
  0.0833333358191695  0.3124999999901945  0.3605200052333331   F   F   F
  0.0833333358191695  0.5625000000092442  0.3605200052333331   F   F   F
  0.9166666865332829  0.3124999999901945  0.3605200052333331   F   F   F
  0.9166666865332829  0.0625000000159659  0.3605200052333331   F   F   F
  0.5833333134730552  0.8124999999834799  0.3605200052333331   F   F   F
  0.5833333134730552  0.5625000000092442  0.3605200052333331   F   F   F
  0.5833333134730552  0.3124999999901945  0.3605200052333331   F   F   F
  0.5833333134730552  0.0625000000159659  0.3605200052333331   F   F   F
  0.2499999999799343  0.8124999999834799  0.3605200052333331   F   F   F
  0.2499999999799343  0.5625000000092442  0.3605200052333331   F   F   F
  0.2499999999799343  0.3124999999901945  0.3605200052333331   F   F   F
  0.2499999999799343  0.0625000000159659  0.3605200052333331   F   F   F
  0.7499999404149307  0.8124999999834799  0.3605200052333331   F   F   F
  0.7499999404149307  0.5625000000092442  0.3605200052333331   F   F   F
  0.7499999404149307  0.3124999999901945  0.3605200052333331   F   F   F
  0.7499999404149307  0.0625000000159659  0.3605200052333331   F   F   F
  0.4166666269218169  0.8124999999834799  0.3605200052333331   F   F   F
  0.4166666269218169  0.5625000000092442  0.3605200052333331   F   F   F
  0.4166666269218169  0.3124999999901945  0.3605200052333331   F   F   F
  0.4166666269218169  0.0625000000159659  0.3605200052333331   F   F   F
  0.0833333358191695  0.8124999999834799  0.3605200052333331   F   F   F
  0.4166666269218169  0.1875000000030838  0.3605200052333331   F   F   F
  0.0833333358191695  0.9375000000154046  0.3605200052333331   F   F   F
  0.0833333358191695  0.6874999999963620  0.3605200052333331   F   F   F
  0.0833333358191695  0.4374999701794380  0.3605200052333331   F   F   F
  0.8333332538436267  0.4999999999932783  0.4070133268666680   F   F   F
  0.8333332538436267  0.7500000000123208  0.4070133268666680   F   F   F
  0.0836316170342428  0.0618444258156003  0.4542380304523093   F   F   F
  0.0834170451889875  0.3120379358323078  0.4539704399618998   F   F   F
  0.0839484410485767  0.5624816789031755  0.4538864560823939   F   F   F
  0.0835042594329991  0.8119984226570978  0.4542666808764224   F   F   F
  0.4168773936878125  0.0615817481112586  0.4553291494752543   F   F   F
  0.4154662506065279  0.3113622603895649  0.4573593663475251   F   F   F
  0.4160520206143730  0.5595222702253935  0.4578623290132384   F   F   F
  0.4167720603074940  0.8101109049127970  0.4550898692349605   F   F   F
  0.7498033547660796  0.0647098059535907  0.4529467795534785   F   F   F
  0.7474868576553675  0.3142149755322805  0.4545019150813587   F   F   F
  0.7481123480892364  0.5642889614263069  0.4536875761445316   F   F   F
  0.7494098298317340  0.8132217568810489  0.4530475446859654   F   F   F
  0.2504832812316735  0.0620165243259265  0.4542311111901043   F   F   F
  0.9154210194889529  0.3134706233669604  0.5467035646487091   F   F   F
  0.2522551898397296  0.3141623757938703  0.4541599441798567   F   F   F
  0.2518998240227717  0.5646479453898436  0.4536854581180521   F   F   F
  0.2505374791547652  0.8108031312961046  0.4553487711297208   F   F   F
  0.8333332538436267  0.2500000000190425  0.4070133268666680   F   F   F
  0.5842270435041641  0.3150150429874472  0.4538693093099084   F   F   F
  0.8333332538436267  0.0000000000000000  0.4070133268666680   F   F   F
  0.5000000000021103  0.4999999999932783  0.4070133268666680   F   F   F
  0.0833333358191695  0.1875000000030838  0.3605200052333331   F   F   F
  0.0000000000000000  0.0000000000000000  0.4070133268666680   F   F   F
  0.0000000000000000  0.2500000000190425  0.4070133268666680   F   F   F
  0.0000000000000000  0.4999999999932783  0.4070133268666680   F   F   F
  0.0000000000000000  0.7500000000123208  0.4070133268666680   F   F   F
  0.3333333432766779  0.0000000000000000  0.4070133268666680   F   F   F
  0.3333333432766779  0.2500000000190425  0.4070133268666680   F   F   F
  0.3333333432766779  0.4999999999932783  0.4070133268666680   F   F   F
  0.3333333432766779  0.7500000000123208  0.4070133268666680   F   F   F
  0.6666666865533486  0.0000000000000000  0.4070133268666680   F   F   F
  0.6666666865533486  0.2500000000190425  0.4070133268666680   F   F   F
  0.6666666865533486  0.4999999999932783  0.4070133268666680   F   F   F
  0.6666666865533486  0.7500000000123208  0.4070133268666680   F   F   F
  0.1666666716383389  0.0000000000000000  0.4070133268666680   F   F   F
  0.1666666716383389  0.2500000000190425  0.4070133268666680   F   F   F
  0.1666666716383389  0.4999999999932783  0.4070133268666680   F   F   F
  0.1666666716383389  0.7500000000123208  0.4070133268666680   F   F   F
  0.5000000000021103  0.0000000000000000  0.4070133268666680   F   F   F
  0.5000000000021103  0.2500000000190425  0.4070133268666680   F   F   F
  0.5000000000021103  0.7500000000123208  0.4070133268666680   F   F   F
  0.1670590295269108  0.1243256638760784  0.4993115619599280   F   F   F
  0.9170845407188324  0.0669365914602338  0.5500594757867745   F   F   F
  0.1677798394286327  0.8732133036250076  0.4998230955552287   F   F   F
  0.2518702415390806  0.1882632720188653  0.5471528715842027   F   F   F
  0.7488703168450996  0.9339042725214526  0.5476155995682390   F   F   F
  0.7519939666548652  0.6804849555533039  0.5531232285488983   F   F   F
  0.7519853850701210  0.4351389390584757  0.5491865949389521   F   F   F
  0.4231492355522661  0.4439667841551937  0.5454902472885479   F   F   F
  0.4232883557466991  0.6879711347598700  0.5466623089684504   F   F   F
  0.7486367346207032  0.1832403662604563  0.5510968985267652   F   F   F
  0.4159380701504816  0.9371023632721744  0.5461049455444993   F   F   F
  0.0839291374997941  0.9390336881522927  0.5454151462487715   F   F   F
  0.4156271427465157  0.1914106812464738  0.5464771166360336   F   F   F
  0.0867109091264808  0.6898058290054436  0.5450533983989843   F   F   F
  0.0822595889801434  0.4388727797422334  0.5448647304583432   F   F   F
  0.0830929195224996  0.1887805427631051  0.5453450302010552   F   F   F
  0.4994522996080164  0.1255357132289632  0.4996127821111926   F   F   F
  0.9995304080460485  0.5014248915328494  0.5943512611188666   F   F   F
  0.9995370332506042  0.7533719803186258  0.5923470026917670   F   F   F
  0.3346110152331292  0.2544009807766159  0.5927136567188711   F   F   F
  0.3339457064287714  0.9997233125304703  0.5921377945501050   F   F   F
  0.9988993816440868  0.9985201913427346  0.5920161039941618   F   F   F
  0.0006962459991584  0.2504869662068145  0.5911543436836695   F   F   F
  0.3332480641292577  0.4964414112091120  0.5908306065215285   F   F   F
  0.3357574206515963  0.7405730669215700  0.5904593148414108   F   F   F
  0.6633699673561324  0.2477102630454482  0.5905108748374062   F   F   F
  0.6668155951942367  0.0020865770386322  0.5921704762376194   F   F   F
  0.6658989410035403  0.7417223637507391  0.5901389484364543   F   F   F
  0.6668273601619461  0.4942672035519493  0.5912574346934889   F   F   F
  0.1670564724647505  0.9987271800848703  0.5925756395431137   F   F   F
  0.1682680337163376  0.2491954575174944  0.5929943844035250   F   F   F
  0.1707816640921180  0.7500119553360562  0.5950477543633497   F   F   F
  0.2483657006326041  0.4358238584019958  0.5491025625205523   F   F   F
  0.1655266796841488  0.5026598224650485  0.5874238137780097   F   F   F
  0.2490872377528959  0.6831231660268386  0.5520271020432475   F   F   F
  0.5807268459437012  0.1857947206761068  0.5493553988420530   F   F   F
  0.9153629341098153  0.8136170796666562  0.5472021824512012   F   F   F
  0.9168477735249709  0.5638811128275378  0.5467017245308909   F   F   F
  0.5812012714986565  0.5602810483460203  0.5491652081747702   F   F   F
  0.5862088677389607  0.8148036032355108  0.5505211032876645   F   F   F
  0.5827598479736835  0.3115960434627496  0.5452659096925174   F   F   F
  0.5828135445153819  0.0624919621510998  0.5460574169828263   F   F   F
  0.2532399625893760  0.8124984226327996  0.5507903592176362   F   F   F
  0.2523273551187231  0.5589583114288033  0.5438368598733376   F   F   F
  0.2494669716332254  0.3136876649502298  0.5459429797459592   F   F   F
  0.2510724488620752  0.0624604552264501  0.5472932260725827   F   F   F
  0.7482819017870384  0.8081861869203593  0.5456050009845441   F   F   F
  0.7465118293437030  0.5580250380515750  0.5444661902578360   F   F   F
  0.4144566490292192  0.8117067071379580  0.5478909605917863   F   F   F
  0.7504740069192195  0.0594278356704763  0.5438232410131647   F   F   F
  0.7477339499879179  0.3114171083101382  0.5477491465632127   F   F   F
  0.4159587136893137  0.3197208651098933  0.5525795663004232   F   F   F
  0.4201667428731710  0.5650692598673714  0.5553544963997368   F   F   F
  0.4164157953916572  0.0652524182823342  0.5473087679105646   F   F   F
  0.0847941835666930  0.8131380539026196  0.5475046984132774   F   F   F
  0.0827798587759077  0.5643791655969821  0.5462492062000166   F   F   F
  0.0862460915946315  0.3135595874251820  0.5469109271525241   F   F   F
  0.0822038366193425  0.0633505660895040  0.5475371144295806   F   F   F
  0.9164303627095194  0.9400604989198982  0.5451306265099518   F   F   F
  0.9132641711301019  0.6894516194988469  0.5450032270339236   F   F   F
  0.5840899241935134  0.9380839453269232  0.5460410899273995   F   F   F
  0.9163781632618466  0.1906070225307062  0.5446366705945564   F   F   F
  0.9159743371491373  0.4379446653786019  0.5458206940408914   F   F   F
  0.5766306367714833  0.4361699708418030  0.5517633611715240   F   F   F
  0.5795412860469540  0.6864704884659858  0.5471440828513465   F   F   F
  0.2514773055220658  0.9373005153084932  0.5453197623741417   F   F   F
  0.4975017854754427  0.5044334146156473  0.6089948500338309   F   F   F
  0.4985491837095708  0.2528942384951662  0.5902438780303854   F   F   F
  0.4997722449821964  0.0001145878300690  0.5910992490142775   F   F   F
  0.7538827551942830  0.6929547917537917  0.6575224312426897   F   F   F
  0.7491381595284210  0.9371674377532528  0.6401886180969498   F   F   F
  0.2529897215394286  0.1864446953523213  0.6411071581587677   F   F   F
  0.7456621690027134  0.1948967050297981  0.6466482254362802   F   F   F
  0.7559913694965985  0.4365244674331450  0.6390861534769883   F   F   F
  0.4175319198166321  0.9349040900229326  0.6398003494631865   F   F   F
  0.4213423038244244  0.6761964218855994  0.6335804383133024   F   F   F
  0.5910631795625889  0.8101791708784063  0.6460975419901160   F   F   F
  0.9167304929471953  0.0614218888166320  0.6447832719516455   F   F   F
  0.9123052920887247  0.5617501624837971  0.6422311896006647   F   F   F
  0.9148532311646562  0.3128515943177916  0.6392058817626491   F   F   F
  0.9142828638847220  0.8117401121209156  0.6424773508959660   F   F   F
  0.5823042808809404  0.0660618776717214  0.6396638674613015   F   F   F
  0.5829810815333474  0.3200443348348188  0.6339228577306102   F   F   F
  0.5913775180595238  0.5648115973498591  0.6395104158640521   F   F   F
  0.2472914021185915  0.5735926409776440  0.6287746256964013   F   F   F
  0.2622089419534106  0.7989246171750253  0.6464534564559230   F   F   F
  0.2491852256281533  0.3163137240253491  0.6413628233281656   F   F   F
  0.2509756119415982  0.0593814088559199  0.6423797547696566   F   F   F
  0.9166666865332829  0.5625000000092442  0.3605200052333331   F   F   F
  0.4994855865980838  0.3742094143374430  0.4997255679383557   F   F   F
  0.5000220198948000  0.8734660265918990  0.5009203767290913   F   F   F
  0.5003587669266949  0.6210977882031443  0.5000117868855796   F   F   F
  0.8323081883681880  0.6230931897959024  0.4998555810855763   F   F   F
  0.8327954216271323  0.8746647369686258  0.4985432266460421   F   F   F
  0.8323928688500644  0.3732536410273681  0.4997148738924011   F   F   F
  0.8331246490277309  0.1253994479235629  0.4998793013037357   F   F   F
  0.1667092786731743  0.3762577363824562  0.4978393776054801   F   F   F
  0.1678286114528831  0.6243287658023462  0.4999445066454129   F   F   F
  0.5813694945181993  0.4389512517587306  0.6460454976300696   F   F   F
  0.5798622916057994  0.6852376262957165  0.6390445557914717   F   F   F
  0.9168316548284068  0.1860229277543723  0.6386069463186104   F   F   F
  0.5824788643673244  0.9360228477562416  0.6390453381801322   F   F   F
  0.8303195763650493  0.7512337087167325  0.5930389551453388   F   F   F
  0.8313945828614138  0.2487945057347360  0.5909652154520728   F   F   F
  0.8330450989083502  0.5037669894523162  0.5888826800337270   F   F   F
  0.8339343526677965  0.0001860417261597  0.5918006626944106   F   F   F
  0.5012875486061645  0.7565079502236145  0.5930094608558676   F   F   F
  0.4176807420054942  0.0651677959162882  0.6400188759327676   F   F   F
  0.4271921370514633  0.3050627553493186  0.6550498035079215   F   F   F
  0.4123662025337254  0.8128677488617200  0.6394374584132478   F   F   F
  0.3972126379010348  0.5507748341632279  0.6518240294172699   F   F   F
  0.7519178508838920  0.5711169776857261  0.6343116940985709   F   F   F
  0.7410390458675593  0.8099314143571377  0.6399990766995600   F   F   F
  0.7464639303573861  0.3129129436528757  0.6400607459457248   F   F   F
  0.7514475949253594  0.0679748012064323  0.6377248944914555   F   F   F
  0.0837041898549131  0.3117357046129570  0.6405226347966035   F   F   F
  0.6665199152305874  0.8742914455785353  0.4986368572901583   F   F   F
  0.0875018593951964  0.5620439616094757  0.6413154027003927   F   F   F
  0.0818761711730005  0.0610451863348231  0.6409413229629521   F   F   F
  0.0862833916710173  0.4365945865769376  0.6390599618484956   F   F   F
  0.0827131036957027  0.1851749091305592  0.6399312663430052   F   F   F
  0.4184555065318349  0.1879344481996839  0.6397644931394808   F   F   F
  0.4149632377051802  0.4191076047406739  0.6297736488925167   F   F   F
  0.0833656512867833  0.9353717346320281  0.6404044622609106   F   F   F
  0.0831174527074054  0.6868218782394777  0.6392886099696398   F   F   F
  0.9126237867253124  0.4365067280271688  0.6393706949168489   F   F   F
  0.9160097072736022  0.6868249916761187  0.6392863338218575   F   F   F
  0.9154286434719552  0.9362872494430619  0.6402452432817753   F   F   F
  0.2405956097038668  0.4419626562317873  0.6415844553511647   F   F   F
  0.2562746831886429  0.6768308660536348  0.6631778353773896   F   F   F
  0.5787616065399774  0.1909393233273420  0.6441956937839421   F   F   F
  0.2517161000890837  0.9301074276012642  0.6373935374170330   F   F   F
  0.0844537721901517  0.8117166430116356  0.6420555021720773   F   F   F
  0.9166666865332829  0.8124999999834799  0.3605200052333331   F   F   F
  0.0003125729370836  0.1231432210186938  0.6127328401943046   F   F   F
  0.8333332538436267  0.6249999999803961  0.4070133268666680   F   F   F
  0.9997576873559026  0.5009822081365201  0.5068425306628939   F   F   F
  0.3311927563063719  0.4992382190725948  0.5009457273993547   F   F   F
  0.3300088661490150  0.2480522342048275  0.5028012591092832   F   F   F
  0.3330743658296242  0.0010672214898193  0.5057963681422848   F   F   F
  0.3338813237121983  0.7510958599633142  0.5015309888882271   F   F   F
  0.6661965482181529  0.0003412848726896  0.5057608482100378   F   F   F
  0.6684903402962945  0.4997518663695786  0.5008151775529655   F   F   F
  0.6669025088866789  0.2478968502042136  0.5030244816556504   F   F   F
  0.6653547693532786  0.7519548379025736  0.5021539761938740   F   F   F
  0.1660492832641509  0.0011112157967688  0.5066296239570676   F   F   F
  0.1662855641233563  0.2482250419893646  0.5061878404718740   F   F   F
  0.1635907921605906  0.4998822715406916  0.5020313106246590   F   F   F
  0.5002780920124081  0.9993640496871450  0.5055160256425992   F   F   F
  0.1645074286985420  0.7515905412776505  0.5032782951249146   F   F   F
  0.5010479271468142  0.7528931116867028  0.5039582648959922   F   F   F
  0.8343481687943139  0.0000087288088437  0.5057550382811584   F   F   F
  0.5012813620921150  0.4998948051710528  0.5003081876793232   F   F   F
  0.5010315608220282  0.2479373511816547  0.5019484234193854   F   F   F
  0.8351800748218920  0.2492186349399574  0.5029243232802258   F   F   F
  0.0000066177022333  0.7506757080544091  0.5066657739627232   F   F   F
  0.0006988019539023  0.2502355273092505  0.5053935286734017   F   F   F
  0.0001520719628729  0.9998333968108639  0.5056790640368121   F   F   F
  0.8333332538436267  0.8749999404036828  0.4070133268666680   F   F   F
  0.0000000000000000  0.6249999999803961  0.4070133268666680   F   F   F
  0.0000000000000000  0.8749999404036828  0.4070133268666680   F   F   F
  0.3333333432766779  0.1249999999871179  0.4070133268666680   F   F   F
  0.3333333432766779  0.3750000000061604  0.4070133268666680   F   F   F
  0.3333333432766779  0.6249999999803961  0.4070133268666680   F   F   F
  0.3333333432766779  0.8749999404036828  0.4070133268666680   F   F   F
  0.6666666865533486  0.1249999999871179  0.4070133268666680   F   F   F
  0.6666666865533486  0.3750000000061604  0.4070133268666680   F   F   F
  0.6666666865533486  0.6249999999803961  0.4070133268666680   F   F   F
  0.8358325497960237  0.5000752489990390  0.5028564872624841   F   F   F
  0.6666666865533486  0.8749999404036828  0.4070133268666680   F   F   F
  0.1666666716383389  0.3750000000061604  0.4070133268666680   F   F   F
  0.1666666716383389  0.6249999999803961  0.4070133268666680   F   F   F
  0.1666666716383389  0.8749999404036828  0.4070133268666680   F   F   F
  0.5000000000021103  0.1249999999871179  0.4070133268666680   F   F   F
  0.5000000000021103  0.3750000000061604  0.4070133268666680   F   F   F
  0.5000000000021103  0.6249999999803961  0.4070133268666680   F   F   F
  0.5000000000021103  0.8749999404036828  0.4070133268666680   F   F   F
  0.8333332538436267  0.1249999999871179  0.4070133268666680   F   F   F
  0.8333332538436267  0.3750000000061604  0.4070133268666680   F   F   F
  0.1666666716383389  0.1249999999871179  0.4070133268666680   F   F   F
  0.0000000000000000  0.3750000000061604  0.4070133268666680   F   F   F
  0.8356609797216308  0.7517127251572830  0.5026987228616449   F   F   F
  0.8365686350468593  0.3728537888360606  0.6041317668205721   F   F   F
  0.8318236305480156  0.8741798788050161  0.6194032101422522   F   F   F
  0.8394770116546297  0.6270436659874861  0.6030794482105151   F   F   F
  0.9995549379499309  0.8728606001097106  0.6216284577583338   F   F   F
  0.3314441071207810  0.1198985811080036  0.6134349938725165   F   F   F
  0.3341637772097386  0.6242928112200019  0.5954756255086835   F   F   F
  0.3258337512252609  0.3735913298653060  0.5928040978993536   F   F   F
  0.6707915182428366  0.3722266309633468  0.5940612037121724   F   F   F
  0.6663534259530763  0.1243497775965849  0.6126759740735892   F   F   F
  0.3343044666006776  0.8787555469295043  0.6029432233132894   F   F   F
  0.1592695703931284  0.6271471093245680  0.6013507182923945   F   F   F
  0.1657612255339913  0.8734641061919532  0.6178756343197591   F   F   F
  0.5016387619860794  0.3715188622625760  0.5949766298837034   F   F   F
  0.5002399574343457  0.1220270235471475  0.6062633663275818   F   F   F
  0.1670979420241494  0.1222044270552232  0.6223194921501261   F   F   F
  0.1632242047752044  0.3715417585721070  0.6078740107140135   F   F   F
  0.6656259766661066  0.8814352441113513  0.6071959444614237   F   F   F
  0.6661124241540577  0.6264907709914098  0.5935348393760336   F   F   F
  0.0000095432996403  0.3747052683310912  0.6221279554497627   F   F   F
  0.9997801029078772  0.6218111804938218  0.6356061194399416   F   F   F
  0.8356334092537452  0.1240637560875797  0.6110456856229263   F   F   F
  0.5008863303556623  0.8770209765096837  0.6094661371954473   F   F   F
  0.0000000000000000  0.1249999999871179  0.4070133268666680   F   F   F
  0.5039093177433784  0.6250510559880240  0.5939266536162862   F   F   F
  0.9168854086567393  0.9938765271264884  0.6008554452926660   F   F   F
  0.5844415526482010  0.7501016694239979  0.5997448357452058   F   F   F
  0.5905390324351103  0.5012544424449388  0.5938064784484212   F   F   F
  0.2424240611113575  0.4979130252029762  0.5940080955772373   F   F   F
  0.2492603031570013  0.7526413482227952  0.5920284676073280   F   F   F
  0.5840135868900163  0.2473787038017647  0.5969441528417079   F   F   F
  0.5831202659797725  0.0015432691989190  0.6041676616758309   F   F   F
  0.2493173629375391  0.9976453188142216  0.6042909121803532   F   F   F
  0.2488796312797064  0.2458279603376070  0.6036416103280757   F   F   F
  0.4171330801356561  0.0000610723729295  0.6046836441227157   F   F   F
  0.4146460638886964  0.2487111127942683  0.5911432940309425   F   F   F
  0.4161477086190288  0.7503037844953013  0.5944165454468830   F   F   F
  0.7562726412803826  0.5026468268536988  0.5955572373074460   F   F   F
  0.7514593222401373  0.7526273889722717  0.5904892381802966   F   F   F
  0.7536037676014544  0.2481563585307356  0.5944020392284770   F   F   F
  0.7505902601146488  0.0016483705607584  0.6039742753041182   F   F   F
  0.0832592504330947  0.2484544265537423  0.6033614303080697   F   F   F
  0.0814322766753222  0.5005194776874120  0.6030260377581556   F   F   F
  0.0806290497123783  0.7508468866801650  0.6032281574621905   F   F   F
  0.0828528145998106  0.9984844075868793  0.6032682936048772   F   F   F