Au O  Sr Ti H 
 1.0000000000000000
    23.6707801818999997    0.0000000000000000    0.0000000000000000
     0.0000000000000000   22.3170261383000010    0.0000000000000000
     0.0000000000000000    0.0000000000000000   30.0000000000000000
 Au  O   Sr  Ti  H  
  50 264  72  72   1
Selective dynamics
Cartesian
 16.9649781424577917 11.7332975911045292 22.6120891991798807   F   F   F
 14.7394058187216590 12.6986304728800601 21.1309342061356524   F   F   F
 17.0113781325107531  5.7888897789273077 20.7484807597139351   F   F   F
  6.9852749484076693 16.6534808912967058 20.9006602873644418   F   F   F
 12.1146978020745895 13.4702446964464055 23.3031515174415489   F   F   F
 13.6711328174305820 16.1762063163590639 23.8019688303751558   F   F   F
 13.0137426731531640  8.5668341056854160 24.8672316785929830   F   F   F
  5.6957321682867841 10.4602900098456502 21.2739364645241409   F   F   F
  6.7487664062643846 14.7740414797216335 22.9400015141152878   F   F   F
 14.2651764023383034  6.4404017833491540 23.6063185654540568   F   F   F
 12.1722996618272870 10.8022906526147402 20.3432668599631263   F   F   F
 13.3117471520100406 10.8435970341018777 22.8797228557363610   F   F   F
 10.9714750839336368 15.5146135873464299 24.9153431910596694   F   F   F
 18.1028535361945799  9.6446770449916386 21.1698333434040045   F   F   F
 17.3493736507072640 13.7335035748240699 20.8187497349314512   F   F   F
 15.0253297942246142 13.0313622754379317 24.0063780124351105   F   F   F
 14.0930030666346511 17.5065700956816137 21.3901042561461132   F   F   F
 11.4844013587642824 17.3770170201169236 22.7063396030349480   F   F   F
  8.2699410286517274 11.1518999106745778 20.9231560328544788   F   F   F
 10.1900641215481595  8.3026488182727967 24.4509439563012876   F   F   F
  8.8169440560083316  6.6680990079585314 22.6560725459414662   F   F   F
 10.4525622694316649  5.0937834672147533 20.9093880941805637   F   F   F
  9.2819395761898935 18.2532772326689816 21.2003950396411334   F   F   F
  6.8610309159303560 11.9933867247920585 23.3229667932865503   F   F   F
 13.1724588905902618  4.6813872660518943 21.3469910346664236   F   F   F
 10.7105168351694875 12.9452489568834785 21.0737669278117501   F   F   F
 14.5372711814438542  7.1599130858073048 20.9146854658408472   F   F   F
 16.7075501323063627 16.8991016663245404 20.6551116879450447   F   F   F
 15.5246592063701208  9.8482037422935935 24.3833594334201074   F   F   F
  8.7184044379253169 13.8108586899586996 24.6077607526533910   F   F   F
 13.4908130493337541 11.3776621564506879 25.7052688129441620   F   F   F
 15.7482705826268408  4.3182006085020062 22.5605140376587912   F   F   F
 11.1599656252596464 10.0439284765049237 26.3771547220853506   F   F   F
 12.2110180131048001  8.4230415935870369 22.0139496119805749   F   F   F
  6.7037684962567026  7.5407865112730592 21.0760265643800437   F   F   F
 15.8416180818985310 15.1995269051413739 22.4679204195407429   F   F   F
  9.4136349340480958  8.5256124258987072 20.7007278149749681   F   F   F
  8.8823677959563163 10.9917631644206484 24.9994858298412694   F   F   F
 10.9442210803690330 12.7864805621955497 25.9213383032077687   F   F   F
  7.7172927364355450  9.2440627868990202 23.0732668689389691   F   F   F
 11.5353348339985189  5.9957018134674795 23.2577064875521771   F   F   F
  9.9558695735192977 15.5677535167882475 20.9843902636023500   F   F   F
 16.5693044452325573  7.7458306176009861 22.6822528590224870   F   F   F
 18.3173018419013545  9.5984646477175790 23.8833494227652281   F   F   F
  6.0800977618252050 13.2194220047517010 20.8404420026061814   F   F   F
 15.3315463641785428  9.8933003976348868 20.8996967482580374   F   F   F
 13.3586057299600949 14.2668870862167676 25.8325935658905159   F   F   F
 12.8396924279704105 14.8661905403529548 21.0407098564843480   F   F   F
 10.4881465636669180 10.6042588102618538 22.6931379711327210   F   F   F
  8.8580023900766935 16.4974722168759733 23.3571587739680062   F   F   F
  5.9156293487042024  4.2090004005982111 13.6260164079978843   F   F   F
 17.7413969327525400 20.9481072051301211 13.6615508495783793   F   F   F
 17.7303873247564177 15.3698841595271620 13.7176097325812840   F   F   F
 17.7367557146966384  9.7855016000544719 13.6720397761924861   F   F   F
 17.7606764209805448  4.2430384162849268 13.6766560815461702   F   F   F
  9.8753116762730286 20.8851580912408146 13.6205542920332281   F   F   F
  9.8710432553822276 15.2826837750003772 13.6430854349577508   F   F   F
  9.8577261241173204  9.7175131690890222 13.6143196043886832   F   F   F
  2.0007143737520066 15.3272920492871183 13.5900248367914109   F   F   F
  1.9819294652602764 20.9030822586748037 13.6021982001837145   F   F   F
  1.9607169659918553  9.7483652287113234 13.5857574678005601   F   F   F
  1.9817560339701739  4.1625144985885258 13.5894700570601046   F   F   F
 21.6977176771926921 18.1282088706030464 13.6279773531667647   F   F   F
 21.6879407471965067 12.5520185240950664 13.6148391978929553   F   F   F
  5.9455722379677693  9.8031114283619427 13.6476702482517940   F   F   F
 21.6900836089584885  1.3680826462071296 13.6463657132583300   F   F   F
 21.6872758047683760  6.9647940531934864 13.6196220228540863   F   F   F
  9.8740641365382071  4.1762659854114146 13.6063706543690799   F   F   F
  5.9692961926584367 15.3456309556333181 13.6837268441911171   F   F   F
 21.7098506495044852 20.8970877230781795 13.5842614728540401   F   F   F
 13.7947796839632542  4.2323233521595549 13.6575385897053572   F   F   F
 -0.0030861587738939  2.7867466434564183 14.9660726957443799   F   F   F
 13.8032814962742307 18.0854571456684745 13.6621434172667460   F   F   F
 23.6699967992252347  8.3404371091495797 14.9455432483597637   F   F   F
 -0.0008216878401388 13.9946234801572373 14.9358834041962574   F   F   F
  7.8956828953704647  2.8027498985620207 14.9552407982993927   F   F   F
  0.0009808161891955 19.5232866595274643 14.9854197545635781   F   F   F
  7.8938416878700757 19.5052169450985318 14.9791857916664153   F   F   F
 15.7698653681003904  2.8077806162984373 14.9797657780140021   F   F   F
  7.9448545647807629 13.9606177007071359 15.1191649997138384   F   F   F
  7.9133729799517418  8.4460342154166064 15.0891919316839367   F   F   F
 15.7503651799086928  8.4482463200962421 15.0925909511720864   F   F   F
 21.6712189663234085 15.3303591472447724 13.5967460563865430   F   F   F
 21.6764619322712129  9.7519284668508757 13.6095561032056942   F   F   F
 21.6848598540963415  4.1625154764909968 13.5854371449107934   F   F   F
 13.7938425304749526 20.9126769628047384 13.6278905665887784   F   F   F
 13.7950358069214527 15.3111989935390866 13.6361890016148468   F   F   F
 13.7927019868472804  9.8042414043413437 13.6831074931702315   F   F   F
  5.9189947322508702 20.8900404106790099 13.6233139833225447   F   F   F
 15.7510679961217868 13.9725364034578625 15.0884325595231008   F   F   F
 13.8377935327218378 12.5564790335615815 13.6493391570154081   F   F   F
 13.8038036775772301  1.4137980223211388 13.6234691257513898   F   F   F
 21.6982156369999721 15.3429554700000619 10.8156001569999933   F   F   F
 21.6982156369999721  9.7636982699999884 10.8156001569999933   F   F   F
 21.6982156369999721  4.1844424010000720 10.8156001569999933   F   F   F
 13.8079546360000549 20.9222120050000342 10.8156001569999933   F   F   F
 13.8079546360000549 15.3429554700000619 10.8156001569999933   F   F   F
 13.8079546360000549  9.7636982699999884 10.8156001569999933   F   F   F
 13.8079546360000549  4.1844424010000720 10.8156001569999933   F   F   F
  5.9176950450000287 20.9222120050000342 10.8156001569999933   F   F   F
 21.6982156369999721 20.9222120050000342 10.8156001569999933   F   F   F
  5.9176950450000287 15.3429554700000619 10.8156001569999933   F   F   F
  5.9176950450000287  4.1844424010000720 10.8156001569999933   F   F   F
 17.7530837259999217 20.9222120050000342 10.8156001569999933   F   F   F
 17.7530837259999217 15.3429554700000619 10.8156001569999933   F   F   F
 17.7530837259999217  9.7636982699999884 10.8156001569999933   F   F   F
 17.7530837259999217  4.1844424010000720 10.8156001569999933   F   F   F
  9.8628241350000643 20.9222120050000342 10.8156001569999933   F   F   F
  9.8628241350000643 15.3429554700000619 10.8156001569999933   F   F   F
  9.8628241350000643  9.7636982699999884 10.8156001569999933   F   F   F
  5.9176950450000287  9.7636982699999884 10.8156001569999933   F   F   F
  1.9725650740000149  1.3948141340000613 10.8156001569999933   F   F   F
  1.9725650740000149  6.9740706679999214 10.8156001569999933   F   F   F
  1.9725650740000149 12.5533272030000536 10.8156001569999933   F   F   F
 21.6982156369999721  6.9740706679999214 10.8156001569999933   F   F   F
 21.6982156369999721  1.3948141340000613 10.8156001569999933   F   F   F
 13.8079546360000549 18.1325837370000720 10.8156001569999933   F   F   F
 13.8079546360000549 12.5533272030000536 10.8156001569999933   F   F   F
 13.8079546360000549  6.9740706679999214 10.8156001569999933   F   F   F
 13.8079546360000549  1.3948141340000613 10.8156001569999933   F   F   F
  5.9176950450000287 18.1325837370000720 10.8156001569999933   F   F   F
  5.9176950450000287 12.5533272030000536 10.8156001569999933   F   F   F
  5.9176950450000287  6.9740706679999214 10.8156001569999933   F   F   F
  5.9176950450000287  1.3948141340000613 10.8156001569999933   F   F   F
 17.7530837259999217 18.1325837370000720 10.8156001569999933   F   F   F
 17.7530837259999217 12.5533272030000536 10.8156001569999933   F   F   F
 17.7530837259999217  6.9740706679999214 10.8156001569999933   F   F   F
 17.7530837259999217  1.3948141340000613 10.8156001569999933   F   F   F
  9.8628241350000643 18.1325837370000720 10.8156001569999933   F   F   F
  9.8628241350000643 12.5533272030000536 10.8156001569999933   F   F   F
  9.8628241350000643  6.9740706679999214 10.8156001569999933   F   F   F
  9.8628241350000643  1.3948141340000613 10.8156001569999933   F   F   F
  1.9725650740000149 18.1325837370000720 10.8156001569999933   F   F   F
  9.8628241350000643  4.1844424010000720 10.8156001569999933   F   F   F
  1.9725650740000149 20.9222120050000342 10.8156001569999933   F   F   F
  1.9725650740000149 15.3429554700000619 10.8156001569999933   F   F   F
  1.9725650740000149  9.7636982699999884 10.8156001569999933   F   F   F
 19.7256482699999580 11.1585130689999925 12.2103998060000407   F   F   F
 19.7256482699999580 16.7377696039999648 12.2103998060000407   F   F   F
  1.9796256230743314  1.3801836674348715 13.6271409135692725   F   F   F
  1.9745465400920830  6.9637587701108270 13.6191131988570309   F   F   F
  1.9871250946740997 12.5529183303969702 13.6165936824718745   F   F   F
  1.9766109692909424 18.1213900226968967 13.6280004262927079   F   F   F
  9.8678131487875529  1.3743214822411782 13.6598744842576760   F   F   F
  9.8344102911053248  6.9486797035940535 13.7207809904257285   F   F   F
  9.8482759241981839 12.4868731295810900 13.7358698703971100   F   F   F
  9.8653198254962682 18.0792662398607398 13.6526960770488284   F   F   F
 17.7484303903191218  1.4441304308705554 13.5884033866044565   F   F   F
 17.6935970964193423  7.0123438219991687 13.6350574524407815   F   F   F
 17.7084029429852947 12.5932515017050122 13.6106272843360117   F   F   F
 17.7391153481020005 18.1486912045485766 13.5914263405789075   F   F   F
  5.9291346892760055  1.3840243943882731 13.6269333357032032   F   F   F
 21.6687297262138188  6.9957320952697062 16.4011069394613180   F   F   F
  5.9710771484397451  7.0111699522622057 13.6247983253956235   F   F   F
  5.9626653623023733 12.6012629562025715 13.6105637435414639   F   F   F
  5.9304175963997325 18.0947146741507154 13.6604631338917120   F   F   F
 19.7256482699999580  5.5792565349999723 12.2103998060000407   F   F   F
 13.8291099231083727  7.0301989483085077 13.6160792792972458   F   F   F
 19.7256482699999580  0.0000000000000000 12.2103998060000407   F   F   F
 11.8353900909999528 11.1585130689999925 12.2103998060000407   F   F   F
  1.9725650740000149  4.1844424010000720 10.8156001569999933   F   F   F
  0.0000000000000000  0.0000000000000000 12.2103998060000407   F   F   F
  0.0000000000000000  5.5792565349999723 12.2103998060000407   F   F   F
  0.0000000000000000 11.1585130689999925 12.2103998060000407   F   F   F
  0.0000000000000000 16.7377696039999648 12.2103998060000407   F   F   F
  7.8902602960000570  0.0000000000000000 12.2103998060000407   F   F   F
  7.8902602960000570  5.5792565349999723 12.2103998060000407   F   F   F
  7.8902602960000570 11.1585130689999925 12.2103998060000407   F   F   F
  7.8902602960000570 16.7377696039999648 12.2103998060000407   F   F   F
 15.7805205919999434  0.0000000000000000 12.2103998060000407   F   F   F
 15.7805205919999434  5.5792565349999723 12.2103998060000407   F   F   F
 15.7805205919999434 11.1585130689999925 12.2103998060000407   F   F   F
 15.7805205919999434 16.7377696039999648 12.2103998060000407   F   F   F
  3.9451301480000271  0.0000000000000000 12.2103998060000407   F   F   F
  3.9451301480000271  5.5792565349999723 12.2103998060000407   F   F   F
  3.9451301480000271 11.1585130689999925 12.2103998060000407   F   F   F
  3.9451301480000271 16.7377696039999648 12.2103998060000407   F   F   F
 11.8353900909999528  0.0000000000000000 12.2103998060000407   F   F   F
 11.8353900909999528  5.5792565349999723 12.2103998060000407   F   F   F
 11.8353900909999528 16.7377696039999648 12.2103998060000407   F   F   F
  3.9544175653330376  2.7745790903839418 14.9793468587977614   F   F   F
 21.7081065715741417  1.4938256612267284 16.5017842736033167   F   F   F
  3.9714796980695910 19.4875241213105603 14.9946928666568855   F   F   F
  5.9619651218336678  4.2014763625268223 16.4145861475260020   F   F   F
 17.7263446547900934 20.8419660605312806 16.4284679870471528   F   F   F
 17.8002838828023222 15.1864005398029587 16.5936968564670551   F   F   F
 17.8000807499962335  9.7110070767601044 16.4755978481686576   F   F   F
 10.0162725388966702  9.9080183265284276 16.3647074186563479   F   F   F
 10.0195656224380727 15.3534697968319271 16.3998692690535997   F   F   F
 17.7208155813020944  4.0893800434262886 16.5329069558028721   F   F   F
  9.8455786278157973 20.9133379354078670 16.3831483663349360   F   F   F
  1.9866681646141453 20.9564393632390242 16.3624543874630533   F   F   F
  9.8382187335839930  4.2717171765273720 16.3943134990809760   F   F   F
  2.0525148693056998 15.3944147162661444 16.3516019519696023   F   F   F
  1.9471486486023801  9.7943352968958095 16.3459419137502522   F   F   F
  1.9668742326894615  4.2130203072466799 16.3603509060317123   F   F   F
 11.8224255953657753  2.8015837934209076 14.9883834633356976   F   F   F
 23.6596645739827558 11.1903124107329077 17.8305378335660762   F   F   F
 23.6598213977435918 16.8130221766336767 17.7704100807529244   F   F   F
  7.9205037880257319  5.6774733376009712 17.7814097015662149   F   F   F
  7.9047554095648289 22.3108512968104158 17.7641338365030741   F   F   F
 23.6447276867330380 22.2840012098161537 17.7604831198248192   F   F   F
  0.0164806859986650  5.5901241721409889 17.7346303105099992   F   F   F
  7.8882416720472923 11.0790959500882735 17.7249181956459516   F   F   F
  7.9476400986856701 16.5273884918096421 17.7137794452422312   F   F   F
 15.7024846765611041  5.5281564151104234 17.7153262451221032   F   F   F
 15.7840453757056380  0.0465661943106846 17.7651142871285153   F   F   F
 15.7623474558548384 16.5530373791869216 17.7041684530937076   F   F   F
 15.7843238616700265 11.0305741009733556 17.7377230408046458   F   F   F
  3.9543570376767012 22.2886205829846951 17.7772691862934344   F   F   F
  3.9830356377400311  5.5613015389635549 17.7898315321057119   F   F   F
  4.0425352298235273 16.7380364112722368 17.8514326309004225   F   F   F
  5.8790099043979085  9.7262924396521520 16.4730768756165951   F   F   F
  3.9181456490433391 11.2178723966257419 17.6227144133403968   F   F   F
  5.8960892509653950 15.2452775518991821 16.5608130612973738   F   F   F
 13.7462575160615081  4.1463856376867714 16.4806619652616675   F   F   F
 21.6673547999724931 18.1575136334881613 16.4160654735359692   F   F   F
 21.7025021073740554 12.5841495338658440 16.4010517359267425   F   F   F
 13.7574875390854530 12.5038068007322938 16.4749562452430922   F   F   F
 13.8760212489295007 18.1839933109879652 16.5156330986299906   F   F   F
 13.7943802602224554  6.9538970465490637 16.3579772907754908   F   F   F
 13.7956512992575853  1.3946347527597085 16.3817225094848524   F   F   F
  5.9943874877256507 18.1325485352236413 16.5237107765291640   F   F   F
  5.9727853568954288 12.4742872463765853 16.3151057962000898   F   F   F
  5.9050778481743658  7.0005758179565358 16.3782893923786865   F   F   F
  5.9430807467454958  1.3939316118987526 16.4187967821773952   F   F   F
 17.7124164112950311 18.0363122581147124 16.3681500295363307   F   F   F
 17.6705174155827542 12.4534593600228423 16.3339857077350317   F   F   F
  9.8105122340975814 18.1148797998311792 16.4367288177535436   F   F   F
 17.7643052500145338  1.3262525620006749 16.3146972303949127   F   F   F
 17.6994459647078344  6.9499037460712367 16.4324743968963318   F   F   F
  9.8460672764856767  7.1352189036173215 16.5773869890126164   F   F   F
  9.9456746102956881 12.6106654424100366 16.6606348919921601   F   F   F
  9.8568867569869720  1.4562399243941528 16.4192630373170125   F   F   F
  2.0071444799108531 18.1468232029911611 16.4251409523983263   F   F   F
  1.9594638405731775 12.5952645905397809 16.3874761860005442   F   F   F
  2.0415122756844641  6.9977175084822800 16.4073278145757939   F   F   F
  1.9458289467252756  1.4137962392956069 16.4261134328874974   F   F   F
 21.6926216677159189 20.9793547259787623 16.3539187952984690   F   F   F
 21.6176754428257247 15.3865098134490950 16.3500968110176785   F   F   F
 13.8258642020473648 20.9352439277804905 16.3812326978220710   F   F   F
 21.6913860660645064  4.2537819039613387 16.3391001178366082   F   F   F
 21.6818271869188592  9.7736225443833042 16.3746208212266602   F   F   F
 13.6492970491667638  9.7340166400180017 16.5529008351457456   F   F   F
 13.7181943883530817 15.3199798342669578 16.4143224855403282   F   F   F
  5.9526640197492675 20.9177600995817699 16.3595928712242298   F   F   F
 11.7762554040920318 11.2574536990092806 18.2698455010148670   F   F   F
 11.8010481374549450  5.6438473307220471 17.7073163409116070   F   F   F
 11.8299989519881894  0.0025572595987586 17.7329774704282954   F   F   F
 17.8449929811290851 15.4646902002295441 19.7256729372806170   F   F   F
 17.7326847000704504 20.9147902043029497 19.2056585429084734   F   F   F
  5.9884640868398797  4.1608911395251980 19.2332147447631208   F   F   F
 17.6504052924220751  4.3495148604186058 19.3994467630883669   F   F   F
 17.8949055267674417  9.7419279497130589 19.1725846043097015   F   F   F
  9.8833062929062585 20.8642790138453016 19.1940104838956600   F   F   F
  9.9735010551633181 15.0906932218459158 19.0074131493991736   F   F   F
 13.9909265970409358 18.0807897331995946 19.3829262597033782   F   F   F
 21.6997259845979187  1.3707538981845171 19.3434981585492771   F   F   F
 21.5949780278162997 12.5365930593451971 19.2669356880200269   F   F   F
 21.6552897335995169  6.9819172077989249 19.1761764528794458   F   F   F
 21.6417886950932044 18.1156252997089808 19.2743205268790057   F   F   F
 13.7835966317120224  1.4743046507450395 19.1899160238390429   F   F   F
 13.7996170311821054  7.1424377859234509 19.0176857319182524   F   F   F
 13.9983672345045402 12.6049151812718225 19.1853124759215987   F   F   F
  5.8535804204230457 12.8008819614346603 18.8632387708920710   F   F   F
  6.2066902267077051 17.8296215640262901 19.3936036936776759   F   F   F
  5.8984087004211760  7.0591816469767998 19.2408846998448837   F   F   F
  5.9407885412874153  1.3252164535666748 19.2713926430896194   F   F   F
 21.6982156369999721 12.5533272030000536 10.8156001569999933   F   F   F
 11.8232135243906527  8.3512412809666969 14.9917670381506110   F   F   F
 11.8359113190394680 19.4931641463683825 15.0276113018727848   F   F   F
 11.8438823840082517 13.8610555737699226 15.0003536065674510   F   F   F
 19.7013841704587875 13.9055870032718776 14.9956674325673909   F   F   F
 19.7129173618285520 19.5199157971780686 14.9562967993812510   F   F   F
 19.7033886235310298  8.3299112630234191 14.9914462167719815   F   F   F
 19.7207104312580341  2.7985427570385832 14.9963790391121492   F   F   F
  3.9461386897557404  8.3969537375848606 14.9351813281644006   F   F   F
  3.9726341699346270 13.9331613853034764 14.9983351993623337   F   F   F
 13.7614695092026178  9.7960865589391162 19.3813649289020979   F   F   F
 13.7257928403736003 15.2924660169881985 19.1713366737441078   F   F   F
 21.7021205652508442  4.1514785410174300 19.1582083895583501   F   F   F
 13.7877291590417048 20.8892463594220068 19.1713601454038916   F   F   F
 19.6543121728654668 16.7653023134033461 17.7911686543602379   F   F   F
 19.6797584153350371  5.5523534875475660 17.7289564635621382   F   F   F
 19.7188274178686491 11.2425810712200054 17.6664804010118424   F   F   F
 19.7398767481344599  0.0041518980655830 17.7540198808322387   F   F   F
 11.8658673709799718 16.8830076989721967 17.7902838256759495   F   F   F
  9.8868290302249306  1.4543514048392483 19.2005662779830608   F   F   F
 10.1119711715812919  6.8080934849525780 19.6514941052376173   F   F   F
  9.7610297346206671 18.1407907983280801 19.1831237523974316   F   F   F
  9.4023330372279901 12.2916563703385933 19.5547208825181045   F   F   F
 17.7984821631193384 12.7456325190392832 19.0293508229571309   F   F   F
 17.5409723609359460 18.0752605444385495 19.1999723009867758   F   F   F
 17.6693836092068395  6.9832863425136384 19.2018223783716984   F   F   F
 17.7873508376956018  1.5169954152696425 19.1317468347435842   F   F   F
  1.9813434783597359  6.9570138680887137 19.2156790438980458   F   F   F
 15.7770464002819111 19.5115850434681910 14.9591057187047465   F   F   F
  2.0712372792511915 12.5431497821123141 19.2394620810118866   F   F   F
  1.9380728499716695  1.3623470190516389 19.2282396888886709   F   F   F
  2.0423951975935006  9.7434928004778101 19.1717988554547745   F   F   F
  1.9578836957437549  4.1325532872240442 19.1979379902900753   F   F   F
  9.9051683110206419  4.1941379927593685 19.1929347941844206   F   F   F
  9.8225035832888175  9.3532353697579804 18.8932094667754598   F   F   F
  1.9733300063304473 20.8747154508099229 19.2121338678273226   F   F   F
  1.9674549523164291 15.3278218090267178 19.1786582990890935   F   F   F
 21.6025170443481400  9.7415320589261238 19.1811208475054400   F   F   F
 21.6826644253599774 15.3278912916735841 19.1785900146556898   F   F   F
 21.6689101918395899 20.8951470187778412 19.2073572984532923   F   F   F
  5.6950857900304470  9.8632921512772960 19.2475336605349128   F   F   F
  6.0662216919444312 15.1048521289271331 19.8953350613216102   F   F   F
 13.6997387661311851  4.2611978695255326 19.3258708135181827   F   F   F
  5.9583164734538245 20.7572317732043139 19.1218061225110567   F   F   F
  1.9990866770453992 18.1151015389838079 19.2616650651622869   F   F   F
 21.6982156369999721 18.1325837370000720 10.8156001569999933   F   F   F
  0.0073988452844576  2.7481904822286278 18.3819852058291495   F   F   F
 19.7256482699999580 13.9481413360000008 12.2103998060000407   F   F   F
 23.6650444525662493 11.1804330338059899 15.2052759198869083   F   F   F
  7.8395909323657227 11.1415123842814001 15.0283718219805742   F   F   F
  7.8115673286913161  5.5357881944127927 15.0840377732784852   F   F   F
  7.8841300977788471  0.0238172098836818 15.1738910442684709   F   F   F
  7.9032314204332632 16.7622259391702002 15.0459296666467939   F   F   F
 15.7693920508124137  0.0076164634243465 15.1728254463010828   F   F   F
 15.8236878988770613 11.1529754644340162 15.0244553265889671   F   F   F
 15.7861026906141131  5.5323204856096009 15.0907344496695845   F   F   F
 15.7494664883402962 16.7813957722928606 15.0646192858162635   F   F   F
  3.9305160835077246  0.0247990319817544 15.1988887187120767   F   F   F
  3.9361090357871800  5.5396447502572244 15.1856352141562816   F   F   F
  3.8723216810162864 11.1558857200463901 15.0609393187397274   F   F   F
 11.8419727458459842 22.3028336185453995 15.1654807692780498   F   F   F
  3.8940191830127375 16.7732657549923623 15.0983488537473427   F   F   F
 11.8601953440889325 16.8023352528582066 15.1187479468798411   F   F   F
 19.7496720987009589  0.0001948010551679 15.1726511484346833   F   F   F
 11.8657209313658623 11.1561654334027249 15.0092456303795991   F   F   F
 11.8598079404125407  5.5332243469818678 15.0584527025816222   F   F   F
 19.7693639634118767  5.5618187901064040 15.0877296984066760   F   F   F
  0.0001566461748500 16.7528493980370747 15.1999732188815955   F   F   F
  0.0165411874415722  5.5845128036918474 15.1618058602020813   F   F   F
  0.0035996620050465 22.3133080505733190 15.1703719211043957   F   F   F
 19.7256482699999580 19.5273965409999306 12.2103998060000407   F   F   F
  0.0000000000000000 13.9481413360000008 12.2103998060000407   F   F   F
  0.0000000000000000 19.5273965409999306 12.2103998060000407   F   F   F
  7.8902602960000570  2.7896282670000101 12.2103998060000407   F   F   F
  7.8902602960000570  8.3688848019999824 12.2103998060000407   F   F   F
  7.8902602960000570 13.9481413360000008 12.2103998060000407   F   F   F
  7.8902602960000570 19.5273965409999306 12.2103998060000407   F   F   F
 15.7805205919999434  2.7896282670000101 12.2103998060000407   F   F   F
 15.7805205919999434  8.3688848019999824 12.2103998060000407   F   F   F
 15.7805205919999434 13.9481413360000008 12.2103998060000407   F   F   F
 19.7848085550986674 11.1601924030284909 15.0856946178746139   F   F   F
 15.7805205919999434 19.5273965409999306 12.2103998060000407   F   F   F
  3.9451301480000271  8.3688848019999824 12.2103998060000407   F   F   F
  3.9451301480000271 13.9481413360000008 12.2103998060000407   F   F   F
  3.9451301480000271 19.5273965409999306 12.2103998060000407   F   F   F
 11.8353900909999528  2.7896282670000101 12.2103998060000407   F   F   F
 11.8353900909999528  8.3688848019999824 12.2103998060000407   F   F   F
 11.8353900909999528 13.9481413360000008 12.2103998060000407   F   F   F
 11.8353900909999528 19.5273965409999306 12.2103998060000407   F   F   F
 19.7256482699999580  2.7896282670000101 12.2103998060000407   F   F   F
 19.7256482699999580  8.3688848019999824 12.2103998060000407   F   F   F
  3.9451301480000271  2.7896282670000101 12.2103998060000407   F   F   F
  0.0000000000000000  8.3688848019999824 12.2103998060000407   F   F   F
 19.7807473575819337 16.7759925358277542 15.0809616858493492   F   F   F
 19.8022322672663513  8.3209877512185759 18.1239530046171602   F   F   F
 19.6899143088120319 19.5090952048675490 18.5820963042674911   F   F   F
 19.8710758106350518 13.9937498836982144 18.0923834463155337   F   F   F
 23.6602452159454408 19.4796528277405763 18.6488537327500303   F   F   F
  7.8455406022420524  2.6757797685323590 18.4030498161754501   F   F   F
  7.9099173150850923 13.9323589859495787 17.8642687652605332   F   F   F
  7.7127391010971209  8.3374474736463622 17.7841229369805980   F   F   F
 15.8781585762090689  8.3069914525803981 17.8218361113652435   F   F   F
 15.7731054691911670  2.7751172369147143 18.3802792222076086   F   F   F
  7.9132475427320168 19.6112105100018006 18.0882966993985868   F   F   F
  3.7700349904413604 13.9960584313556442 18.0405215487718706   F   F   F
  3.9236975322975258 19.4931212887527074 18.5362690295928481   F   F   F
 11.8741808656929351  8.2911961599854287 17.8492988965111827   F   F   F
 11.8410700706314280  2.7232802740806115 18.1879009898274226   F   F   F
  3.9553386545015625  2.7272393928073315 18.6695847645037496   F   F   F
  3.8636442715992412  8.2917071375236020 18.2362203214204790   F   F   F
 15.7558861770259728 19.6710133820519175 18.2158783338427028   F   F   F
 15.7674007685833093 13.9814109116189638 17.8060451812810925   F   F   F
  0.0002258973480571  8.3623072675036330 18.6638386634927826   F   F   F
 23.6655750461696890 13.8769763681677407 19.0681835831982127   F   F   F
 19.7800947430971163  2.7687340874222612 18.3313705686878556   F   F   F
 11.8563702219674276 19.5725000566040528 18.2839841158634613   F   F   F
  0.0000000000000000  2.7896282670000101 12.2103998060000407   F   F   F
 11.9279266919147044 13.9492807542568169 17.8177996084885422   F   F   F
 21.7033929603053117 22.1803684341246701 18.0256633587800863   F   F   F
 13.8341875219039636 16.7400385629177748 17.9923450723562013   F   F   F
 13.9785196256034254 11.1865084939826716 17.8141943534526845   F   F   F
  5.7383666613705042 11.1119379980548914 17.8202428673171873   F   F   F
  5.9001858441031443 16.7967166410534219 17.7608540282198035   F   F   F
 13.8240572385165930  5.5207569988027059 17.9083245852512256   F   F   F
 13.8029116356182797  0.0344411790506752 18.1250298502749736   F   F   F
  5.9015364936255343 22.2644766567295846 18.1287273654106968   F   F   F
  5.8911750437741777  5.4861490163793114 18.1092483098422008   F   F   F
  9.8738654464899458  0.0013629537430448 18.1405093236814210   F   F   F
  9.8149958315993455  5.5504924051154321 17.7342988209282311   F   F   F
  9.8505409339224581 16.7445491702471223 17.8324963634064879   F   F   F
 17.9015634493327909 11.2175823732274758 17.8667171192233099   F   F   F
 17.7876284323859153 16.7964051120946358 17.7146771454087997   F   F   F
 17.8383891271456037  5.5381119397157059 17.8320611768542605   F   F   F
 17.7670570538489692  0.0367867288901209 18.1192282591236520   F   F   F
  1.9708114151115563  5.5447639315762451 18.1008429092420648   F   F   F
  1.9275655208931812 11.1701062662782977 18.0907811327447021   F   F   F
  1.9085525120172484 16.7566695959023626 18.0968447238657362   F   F   F
  1.9611907618438695 22.2832026228013831 18.0980488081462880   F   F   F