Au  O Sr Ti                             
   1.00000000000000     
    23.6707801818999997    0.0000000000000000    0.0000000000000000
     0.0000000000000000   22.3170261383000010    0.0000000000000000
     0.0000000000000000    0.0000000000000000   30.0000000000000000
   Au   O    Sr   Ti
    50   265    72    72
Selective dynamics
Direct
  0.7154433936196823  0.5252290481188550  0.7542056275413583   T   T   T
  0.6540448572769298  0.4376468266813814  0.8099139511567606   T   T   T
  0.3682465353389481  0.6197317146811021  0.8203307527196122   T   T   T
  0.5699389052636589  0.5105292872639765  0.8568014162821187   T   T   T
  0.6472088146363304  0.2013655816644350  0.7445283846340360   T   T   T
  0.4689209412743429  0.4531777456648158  0.8813233271390200   T   T   T
  0.5208519219004982  0.3779732781165304  0.7341430030754752   T   T   T
  0.2823632869516242  0.3401445314465119  0.7024926183863801   T   T   T
  0.6694304352118666  0.6810671488948746  0.7487497234294405   T   T   T
  0.3980080341029940  0.3829880838561417  0.6910173809240190   T   T   T
  0.4622037620192096  0.5748353933569470  0.8646108032054366   T   T   T
  0.7062215254807072  0.7568474696514403  0.6881990172694378   T   T   T
  0.4523632727729588  0.5796019145274891  0.7028641043691659   T   T   T
  0.4179099661370309  0.6963075436052617  0.6996293945345878   T   T   T
  0.7746850026775335  0.4302997957297217  0.7949649298211487   T   T   T
  0.2568276769941020  0.5935849442199701  0.6945068732247985   T   T   T
  0.6460450104289412  0.4407070156716729  0.6971548869681331   T   T   T
  0.5643308056441371  0.6401956732552134  0.8617400750316403   T   T   T
  0.5415001578599329  0.6663708609164927  0.7013818879478444   T   T   T
  0.4434770347047653  0.4726944708610766  0.7560715565261263   T   T   T
  0.3741759203567520  0.7399919611335423  0.7787508503094679   T   T   T
  0.3751678888323607  0.4941198627755789  0.8330578931500688   T   T   T
  0.6176256444888865  0.3153860124692125  0.6980677833936314   T   T   T
  0.3245859223465731  0.4157120866456638  0.7699159208789230   T   T   T
  0.7047029774746782  0.3431312441140857  0.7571189252332446   T   T   T
  0.4847799563680786  0.2699489845871776  0.7733817185844706   T   T   T
  0.4854704748174988  0.7771257876520690  0.7556226043018928   T   T   T
  0.7422308394051957  0.2598226942820520  0.6937135223302020   T   T   T
  0.2936564770665282  0.7465849255955150  0.6967975188998229   T   T   T
  0.5777459582515182  0.7247835424422852  0.7933926639965388   T   T   T
  0.2406254007039784  0.4697297873548243  0.7094464406577543   T   T   T
  0.2852094499485250  0.6628358288324345  0.7645971200321094   T   T   T
  0.6006547944467764  0.2985751365435955  0.7890583620538981   T   T   T
  0.5140089471105765  0.4839143732265557  0.6779393132288306   T   T   T
  0.2891684722742945  0.5386561049559412  0.7776860039495040   T   T   T
  0.5459110865350402  0.3886259725658551  0.8313092737384998   T   T   T
  0.5104363544793664  0.6055948425918026  0.7773104113244009   T   T   T
  0.7329979989465267  0.6147806184607112  0.6941966915135639   T   T   T
  0.5617855056957192  0.4888176658099505  0.7624746113170421   T   T   T
  0.6339418251644657  0.5848681151790641  0.8002704439254074   T   T   T
  0.4284491747398012  0.3726821978892627  0.8170231723995656   T   T   T
  0.3490669288585368  0.5009613705490044  0.6978289337642927   T   T   T
  0.5958583315427192  0.7844059454501857  0.7129094317489444   T   T   T
  0.3692935750329630  0.3004099507675899  0.7572422157659059   T   T   T
  0.4286267276089301  0.2270679931836462  0.6984485759365571   T   T   T
  0.4630200076432390  0.6972400036695459  0.8315564584749497   T   T   T
  0.3912838701390965  0.8171166395987889  0.7064890972287480   T   T   T
  0.7630142056586543  0.4318057837848646  0.7049703038370329   T   T   T
  0.6229410392590077  0.5688436289059725  0.7039157895027521   T   T   T
  0.5439198879160769  0.2101658160972910  0.7074766914916812   T   T   T
  0.5767604454949038  0.4354107388901092  0.5520761867728821   T   T   T
  0.0848828738130879  0.8129194616429589  0.5473186745254492   T   T   T
  0.4166637453020422  0.0654850529313157  0.5473598271154342   T   T   T
  0.4169128176557013  0.3195753036523080  0.5526948402050680   T   T   T
  0.2533227717526444  0.8125862553113642  0.5506632021579819   T   T   T
  0.5817089917190166  0.5597528835334973  0.5489821810974425   T   T   T
  0.7477800539821045  0.3101030833277348  0.5464183403087658   T   T   T
  0.5858186101226993  0.8142335593694198  0.5503246857949029   T   T   T
  0.5829367311218715  0.0617035670105613  0.5454689033257809   T   T   T
  0.2526190390550512  0.5589914617988577  0.5438878006192837   T   T   T
  0.0822829821770954  0.0632394547463695  0.5475201460339507   T   T   T
  0.2492316177612842  0.6831471358663666  0.5519639276002642   T   T   T
  0.7493331054542562  0.9337086295960535  0.5476787563433078   T   T   T
  0.9139796237896328  0.6890822518283904  0.5452817338698862   T   T   T
  0.9180443177468957  0.1889273591443243  0.5451018607091129   T   T   T
  0.9158601592807449  0.4376903221862594  0.5457120269721262   T   T   T
  0.5794329590805372  0.6859730415969453  0.5473484320159041   T   T   T
  0.2515614217155377  0.9372862738920762  0.5452477357970382   T   T   T
  0.4975817231478078  0.5044890916308774  0.6088119402479255   T   T   T
  0.9173719457836585  0.5637678240104603  0.5468269646234284   T   T   T
  0.4198745290206944  0.5649469917641281  0.5553845274429902   T   T   T
  0.9155777418141136  0.8128215898901403  0.5468206912773488   T   T   T
  0.0836267322840717  0.9388947606488022  0.5457654771256158   T   T   T
  0.0867425442151534  0.3136211935847227  0.5470697836185595   T   T   T
  0.8325061342655834  0.0016024374602874  0.5922429248901391   T   T   T
  0.9159816889366315  0.1866457463553332  0.4529821194112482   T   T   T
  0.9158850161016481  0.9386568794555566  0.5461789664403913   T   T   T
  0.2493424368906560  0.3135243593757476  0.5458517112286172   T   T   T
  0.5839009421459104  0.9375868256260794  0.5461666489709220   T   T   T
  0.7483978541455378  0.9370315246836453  0.6400393069198778   T   T   T
  0.5827787688117139  0.4394303606010149  0.4564046598234940   T   T   T
  0.4998377291422424  0.1256720098354593  0.4996937295051499   T   T   T
  0.4998606342628129  0.2536081735480141  0.5916817906362521   T   T   T
  0.0831528974599469  0.1889983319340300  0.5454787344252098   T   T   T
  0.0833333358191695  0.3124999999901945  0.3605200052333331   F   F   F
  0.9997906615864290  0.4999457206187358  0.5940187582866957   T   T   T
  0.5812823202249769  0.1847781330247341  0.5504280418447849   T   T   T
  0.9998290818161768  0.7531235580061378  0.5923837995256501   T   T   T
  0.3340263482587312  0.9998735266153156  0.5919777082436602   T   T   T
  0.9999962182397775  0.9991136828472156  0.5931891526648322   T   T   T
  0.0009660356270253  0.2515363623736311  0.5922254042708922   T   T   T
  0.3333608706867947  0.4958267079455518  0.5909571734502214   T   T   T
  0.3356640656538963  0.7409569258231604  0.5903455414530669   T   T   T
  0.6648567346603986  0.2455833633448912  0.5908497048466331   T   T   T
  0.6660474756504783  0.0005358675197599  0.5919040334122203   T   T   T
  0.4166684687259411  0.1917271242166823  0.5464229976738196   T   T   T
  0.6657888457854503  0.7416276819832408  0.5901650569200243   T   T   T
  0.4247953649884387  0.3042499397375056  0.6562996689034778   T   T   T
  0.1675048024818105  0.9983380302374063  0.5922444597927988   T   T   T
  0.1708797929906725  0.7503189818067539  0.5947843177052489   T   T   T
  0.2483768152311823  0.4356374859133250  0.5492372496011206   T   T   T
  0.1657482622939023  0.5027174735505026  0.5874430438731227   T   T   T
  0.3351937417596848  0.2546156401002352  0.5923444983810738   T   T   T
  0.4996877108738189 -0.0000142914333936  0.5910205895954661   T   T   T
  0.8327148381222562  0.8742681175258059  0.4986013653090583   T   T   T
  0.4231423098846751  0.4438144397350434  0.5455847068642860   T   T   T
  0.7524509256505592  0.4340630252835083  0.5493271981521040   T   T   T
  0.7518410007476171  0.6799787148584313  0.5534086319069840   T   T   T
  0.7479566393500410  0.8077548581647107  0.5453681068328863   T   T   T
  0.4177744492463815  0.0651178823703051  0.6399859307757798   T   T   T
  0.2501006777774997  0.3166977078006762  0.6409342491419305   T   T   T
  0.6670586471998022  0.4936283991128486  0.5914630310750865   T   T   T
  0.5911074240009978  0.8099691404592998  0.6460602736579885   T   T   T
  0.1685156261668408  0.2487276828768075  0.5932396634058328   T   T   T
  0.9161504017141878  0.5623537769286016  0.4538828169239827   T   T   T
  0.7531948947197413  0.5687714927059856  0.6355483460967979   T   T   T
  0.9142252454729123  0.8132140167066959  0.6415961444100196   T   T   T
  0.9161965165301030  0.0622962604004895  0.6416449700170213   T   T   T
  0.7411772946208713  0.8098684532047984  0.6399702181945384   T   T   T
  0.7484944985598293  0.0677680295980677  0.6382047991704795   T   T   T
  0.0844273529962958  0.3116883346691579  0.6410523068980816   T   T   T
  0.0869429563399609  0.5627091037451618  0.6402403724900504   T   T   T
  0.0843401423020989  0.0605243575939513  0.6421293525350227   T   T   T
  0.0869126656168289  0.4365049480571065  0.6395681530333176   T   T   T
  0.0834380238862314  0.1858187831916307  0.6409714149794820   T   T   T
  0.4159354503521575  0.4184290968627146  0.6300917696567091   T   T   T
  0.6664746455281507  0.8742811689357772  0.4987665862828325   T   T   T
  0.8327448323000443  0.2478168502665208  0.5889086547175019   T   T   T
  0.8304405469704198  0.7509866005648007  0.5927452760887422   T   T   T
  0.0845255603781255  0.9356235132573906  0.6407063912957653   T   T   T
  0.8331257305439411  0.5025073784041216  0.5889828578555897   T   T   T
  0.4176493383528365  0.1868233063322013  0.6390631958225939   T   T   T
  0.0833495569426449  0.6870382904189628  0.6389565773956810   T   T   T
  0.2520554739243500  0.9302575424090712  0.6373590654375362   T   T   T
  0.5799320379416335  0.1907529344707357  0.6455673766516419   T   T   T
  0.0844697045999419  0.8122607497328237  0.6422483978830904   T   T   T
  0.2405938042371110  0.4423475304907954  0.6419186794887491   T   T   T
  0.9147358866094135  0.9368168123200301  0.6409918060900726   T   T   T
  0.9162778938425830  0.6875376264131742  0.6390212942487368   T   T   T
  0.9125728332163852  0.4361384535766620  0.6398112985938744   T   T   T
  0.2538457433005767  0.1867945354121351  0.6412216514118879   T   T   T
  0.2545578698856780  0.6779431268897628  0.6627851219385386   T   T   T
  0.5821039543414440  0.9355853015817306  0.6392649409626319   T   T   T
  0.7506674362310306  0.1949256542907492  0.6464000476454143   T   T   T
  0.9166666865332829  0.8124999999834799  0.3605200052333331   F   F   F
  0.4124192279177200  0.8128666831798829  0.6393901960126863   T   T   T
  0.7498233620001896  0.3108610754069475  0.6385901346936814   T   T   T
  0.0828451422699929  0.4390271373204028  0.5448411791258188   T   T   T
  0.4998346602271770  0.3739442200928909  0.5000821473085165   T   T   T
  0.9131259807522469  0.5622440595184554  0.6411187519111359   T   T   T
  0.5824984931883250  0.0661384901586037  0.6388602029459228   T   T   T
  0.5885694744888679  0.3197834524246975  0.6338246046319839   T   T   T
  0.2477108324451837  0.5737478771018604  0.6287890798573190   T   T   T
  0.7538054840791024  0.6923482851962796  0.6570472651664725   T   T   T
  0.2622627826359928  0.7996594450378497  0.6461459485596293   T   T   T
  0.2509448663630416  0.0594722977471533  0.6422954794205966   T   T   T
  0.9166666865332829  0.5625000000092442  0.3605200052333331   F   F   F
  0.4174846446233501  0.9349015419638895  0.6397639000526674   T   T   T
  0.4999998266719669  0.8734268178227161  0.5008744600831571   T   T   T
  0.4209636168462826  0.6761633736259050  0.6335998303767671   T   T   T
  0.8323698995867426  0.6230780742866010  0.5000217017408051   T   T   T
  0.8327258872711735  0.3733281391284005  0.4994771794787796   T   T   T
  0.9134289205232000  0.3119319120137591  0.6393685556021386   T   T   T
  0.1668055490664536  0.3762827244308297  0.4977102684174049   T   T   T
  0.5802774172064824  0.4375550388831358  0.6459950612104821   T   T   T
  0.5796160367399994  0.6850801642146965  0.6392918072627928   T   T   T
  0.9169974015386814  0.1869910012032926  0.6398578051882189   T   T   T
  0.4159277185065050  0.9370945479426815  0.5460620679064001   T   T   T
  0.1670438106147242  0.1246081965409595  0.4995482247646751   T   T   T
  0.7488018819587970  0.0587393311900641  0.5436162938821779   T   T   T
  0.1677549353581923  0.8732732231968675  0.4998799394029306   T   T   T
  0.5010879075737894  0.7562725407843446  0.5930108517574618   T   T   T
  0.5003570415573367  0.6208573086588105  0.5001026093300454   T   T   T
  0.7548322371892804  0.4345253281768568  0.6385101277808035   T   T   T
  0.2520915710372698  0.1882296019851361  0.5472538536887669   T   T   T
  0.7485691373439578  0.1823110177133866  0.5508687718637947   T   T   T
  0.0821312561109023  0.5643972152829575  0.5462240473221359   T   T   T
  0.3975018517857836  0.5505459379088888  0.6517830880386130   T   T   T
  0.1677918361090132  0.6243269750792889  0.5000239610628415   T   T   T
  0.8331735278183166  0.1247194974659460  0.4998000396320811   T   T   T
  0.0861497767339979  0.6893989404937264  0.5452412167720728   T   T   T
  0.5915661343110011  0.5643495631244106  0.6391749760726513   T   T   T
  0.0000000000000000  0.0000000000000000  0.4070133268666680   F   F   F
  0.5832697100152804  0.0636666817458564  0.4538316611871917   T   T   T
  0.9166666865332829  0.6874999999963620  0.3605200052333331   F   F   F
  0.9166666865332829  0.4374999701794380  0.3605200052333331   F   F   F
  0.9166666865332829  0.1875000000030838  0.3605200052333331   F   F   F
  0.5833333134730552  0.9375000000154046  0.3605200052333331   F   F   F
  0.5833333134730552  0.6874999999963620  0.3605200052333331   F   F   F
  0.5833333134730552  0.4374999701794380  0.3605200052333331   F   F   F
  0.5833333134730552  0.1875000000030838  0.3605200052333331   F   F   F
  0.2499999999799343  0.9375000000154046  0.3605200052333331   F   F   F
  0.9166666865332829  0.9375000000154046  0.3605200052333331   F   F   F
  0.9177032137851355  0.0633158777942151  0.5475062060306716   T   T   T
  0.2499999999799343  0.6874999999963620  0.3605200052333331   F   F   F
  0.7499999404149307  0.9375000000154046  0.3605200052333331   F   F   F
  0.7325119586966161  0.2182667279984341  0.7519623975320786   T   T   T
  0.5845206928176608  0.5627985102483657  0.4548041503428408   T   T   T
  0.7499999404149307  0.6874999999963620  0.3605200052333331   F   F   F
  0.4166666269218169  0.9375000000154046  0.3605200052333331   F   F   F
  0.4166666269218169  0.6874999999963620  0.3605200052333331   F   F   F
  0.4166666269218169  0.4374999701794380  0.3605200052333331   F   F   F
  0.2499999999799343  0.4374999701794380  0.3605200052333331   F   F   F
  0.0833333358191695  0.0625000000159659  0.3605200052333331   F   F   F
  0.9153440613529421  0.6867178149460978  0.4531003841772420   T   T   T
  0.6656590583031287  0.3786727851957779  0.5029697703208117   T   T   T
  0.3345586760845810  0.3781451908780338  0.5031385036382143   T   T   T
  0.3356737521857281  0.6258506422986189  0.5037417664415264   T   T   T
  0.2500601854884019  0.1885669172895066  0.4542612092708883   T   T   T
  0.2499999999799343  0.1875000000030838  0.3605200052333331   F   F   F
  0.2504924086637873  0.0621045798310133  0.4542697372244497   T   T   T
  0.7494702984066445  0.9384500616615259  0.4553514208739728   T   T   T
  0.7499999404149307  0.4374999701794380  0.3605200052333331   F   F   F
  0.7499999404149307  0.1875000000030838  0.3605200052333331   F   F   F
  0.5833333134730552  0.0625000000159659  0.3605200052333331   F   F   F
  0.7490788515118049  0.6886375624789428  0.4573899902888928   T   T   T
  0.7496639069834991  0.4384805075528909  0.4557153622027323   T   T   T
  0.9160634906114794  0.4371530258018386  0.4535643291986869   T   T   T
  0.7507885287841004  0.1901661388247984  0.4558016297789628   T   T   T
  0.4171877731275599  0.9360946052521121  0.4540304489963550   T   T   T
  0.4171493324560370  0.6849090580234036  0.4548017067992218   T   T   T
  0.4168265366363270  0.4353118653779558  0.4538484450436336   T   T   T
  0.0845539773370798  0.6868178752978394  0.4529815485117523   T   T   T
  0.0841027813338016  0.9367525301561118  0.4535678320656431   T   T   T
  0.0828928915880874  0.4368264769327795  0.4528456198090640   T   T   T
  0.0839892653403923  0.1866431520083971  0.4529878781157867   T   T   T
  0.9165657933581157  0.8120353786801364  0.4540548169843255   T   T   T
  0.9160762280948983  0.0620516360180167  0.4540251582449758   T   T   T
  0.7494568441038176  0.8131478293413670  0.4529966458653903   T   T   T
  0.9162447861428086  0.3122831601919464  0.4536740169974701   T   T   T
  0.2522045979598346  0.6875011109913911  0.4560473905388659   T   T   T
  0.7464534877943131  0.5575692160425759  0.5446156686522541   T   T   T
  0.9164569288778858  0.9368653985179154  0.4534602997409370   T   T   T
  0.0002239078499297  0.1248253448349852  0.4978385030388645   T   T   T
  0.5832078150272898  0.8103947210289070  0.4553374857431532   T   T   T
  0.0002347891995780  0.3737315280769376  0.4980697699384381   T   T   T
  0.9998778452407902  0.6271112238203225  0.4977047328127298   T   T   T
  0.3338743857285013  0.1256786902503290  0.4987561255020652   T   T   T
  0.0001066129904036  0.8750243773620067  0.4994060624679983   T   T   T
  0.3334757901654442  0.8740160007783732  0.4992575012785722   T   T   T
  0.6661810125102140  0.1262307254541776  0.4988443471336947   T   T   T
  0.2512975216783477  0.4393763737477358  0.4550157247171793   T   T   T
  0.0833333358191695  0.5625000000092442  0.3605200052333331   F   F   F
  0.9166666865332829  0.0625000000159659  0.3605200052333331   F   F   F
  0.4172894335840294  0.1871022557790342  0.4535522466961905   T   T   T
  0.9162153543346206  0.3127527135217187  0.5461298934942417   T   T   T
  0.4233048014210888  0.6878221461977434  0.5466854548919454   T   T   T
  0.5827553018939944  0.1903234291339880  0.4556059466113759   T   T   T
  0.2511602932235514  0.0625671281004124  0.5472919625036509   T   T   T
  0.5839731704141333  0.3101926042217185  0.5450166738112100   T   T   T
  0.2499999999799343  0.8124999999834799  0.3605200052333331   F   F   F
  0.0833333358191695  0.1875000000030838  0.3605200052333331   F   F   F
  0.0000000000000000  0.2500000000190425  0.4070133268666680   F   F   F
  0.0000000000000000  0.4999999999932783  0.4070133268666680   F   F   F
  0.7481928532153481  0.5642879887907554  0.4537590233498125   T   T   T
  0.3333333432766779  0.0000000000000000  0.4070133268666680   F   F   F
  0.3333333432766779  0.4999999999932783  0.4070133268666680   F   F   F
  0.3333333432766779  0.7500000000123208  0.4070133268666680   F   F   F
  0.5827746759856617  0.6860926646050625  0.4546247833292772   T   T   T
  0.6666666865533486  0.0000000000000000  0.4070133268666680   F   F   F
  0.6666666865533486  0.4999999999932783  0.4070133268666680   F   F   F
  0.8333332538436267  0.2500000000190425  0.4070133268666680   F   F   F
  0.1666666716383389  0.0000000000000000  0.4070133268666680   F   F   F
  0.1666666716383389  0.4999999999932783  0.4070133268666680   F   F   F
  0.1666666716383389  0.7500000000123208  0.4070133268666680   F   F   F
  0.5000000000021103  0.4999999999932783  0.4070133268666680   F   F   F
  0.5000000000021103  0.2500000000190425  0.4070133268666680   F   F   F
  0.9166666865332829  0.3124999999901945  0.3605200052333331   F   F   F
  0.3333333432766779  0.2500000000190425  0.4070133268666680   F   F   F
  0.7477308625784107  0.3145359269891497  0.4540263423105155   T   T   T
  0.0000000000000000  0.7500000000123208  0.4070133268666680   F   F   F
  0.4168944807410515  0.8103909071688903  0.4549462510836272   T   T   T
  0.5843705927885605  0.3154594589533002  0.4535845507311452   T   T   T
  0.5827062701032006  0.9371710433755194  0.4543137984876445   T   T   T
  0.6666666865533486  0.2500000000190425  0.4070133268666680   F   F   F
  0.2522980754533292  0.3141994829961968  0.4540862258034137   T   T   T
  0.1666666716383389  0.2500000000190425  0.4070133268666680   F   F   F
  0.2505015647305303  0.8107786494943129  0.4553220651126323   T   T   T
  0.5833333134730552  0.5625000000092442  0.3605200052333331   F   F   F
  0.2500555533199924  0.9361095245526868  0.4540314456156488   T   T   T
  0.8333332538436267  0.0000000000000000  0.4070133268666680   F   F   F
  0.5000000000021103  0.7500000000123208  0.4070133268666680   F   F   F
  0.6666666865533486  0.7500000000123208  0.4070133268666680   F   F   F
  0.5000000000021103  0.0000000000000000  0.4070133268666680   F   F   F
  0.6654333532646455  0.6260369894837211  0.5029405804833736   T   T   T
  0.2499999999799343  0.0625000000159659  0.3605200052333331   F   F   F
  0.2499999999799343  0.5625000000092442  0.3605200052333331   F   F   F
  0.2499999999799343  0.3124999999901945  0.3605200052333331   F   F   F
  0.7499999404149307  0.5625000000092442  0.3605200052333331   F   F   F
  0.7499999404149307  0.3124999999901945  0.3605200052333331   F   F   F
  0.7499999404149307  0.0625000000159659  0.3605200052333331   F   F   F
  0.4166666269218169  0.8124999999834799  0.3605200052333331   F   F   F
  0.4166666269218169  0.3124999999901945  0.3605200052333331   F   F   F
  0.7499999404149307  0.8124999999834799  0.3605200052333331   F   F   F
  0.4166666269218169  0.0625000000159659  0.3605200052333331   F   F   F
  0.4171120922159335  0.0616569460543636  0.4553679334007694   T   T   T
  0.0835329200470783  0.8120654897608002  0.4541823775844262   T   T   T
  0.4166666269218169  0.5625000000092442  0.3605200052333331   F   F   F
  0.5833333134730552  0.3124999999901945  0.3605200052333331   F   F   F
  0.5833333134730552  0.8124999999834799  0.3605200052333331   F   F   F
  0.0835655974092795  0.3119255549231841  0.4540068855821523   T   T   T
  0.8333332538436267  0.7500000000123208  0.4070133268666680   F   F   F
  0.4145695607879056  0.8116317349008607  0.5477312649948156   T   T   T
  0.8333332538436267  0.4999999999932783  0.4070133268666680   F   F   F
  0.7498119092624325  0.0647347085320899  0.4527234193346522   T   T   T
  0.4166666269218169  0.1875000000030838  0.3605200052333331   F   F   F
  0.0833333358191695  0.9375000000154046  0.3605200052333331   F   F   F
  0.0833333358191695  0.8124999999834799  0.3605200052333331   F   F   F
  0.0833333358191695  0.4374999701794380  0.3605200052333331   F   F   F
  0.2518823354669494  0.5645973232893099  0.4537258420169887   T   T   T
  0.4156115919007665  0.3112774778489175  0.4573952682335127   T   T   T
  0.0839520222141887  0.0619674903676220  0.4540803969599770   T   T   T
  0.4160961601124622  0.5594803270282372  0.4578521103053920   T   T   T
  0.0839570688837013  0.5624769345310974  0.4538817060359880   T   T   T
  0.0833333358191695  0.6874999999963620  0.3605200052333331   F   F   F
  0.8359886318441224  0.7516623637284666  0.5025852781942201   T   T   T
  0.1666666716383389  0.8749999404036828  0.4070133268666680   F   F   F
  0.0000000000000000  0.1249999999871179  0.4070133268666680   F   F   F
  0.8361964153142857  0.2486892921615869  0.5021308918112560   T   T   T
  0.9997112599291381  0.6228952256989327  0.6276193604236343   T   T   T
  0.8333332538436267  0.3750000000061604  0.4070133268666680   F   F   F
  0.8370925043246016  0.3732489565988677  0.6031053090807783   T   T   T
  0.5000000000021103  0.6249999999803961  0.4070133268666680   F   F   F
  0.1638029226047819  0.4998689933084385  0.5020671362044280   T   T   T
  0.9993979698659152  0.8748427998589847  0.6226227569245604   T   T   T
  0.3315146228602303  0.1196908972095019  0.6124561025360420   T   T   T
  0.8395617089421002  0.6269935101967079  0.6036408223776067   T   T   T
  0.5000000000021103  0.3750000000061604  0.4070133268666680   F   F   F
  0.5000000000021103  0.1249999999871179  0.4070133268666680   F   F   F
  0.8320282774607984  0.8761273032493029  0.6189119959390871   T   T   T
  0.8333332538436267  0.1249999999871179  0.4070133268666680   F   F   F
  0.6663315292781012  0.6262440513245435  0.5936217736090420   T   T   T
  0.5000000000021103  0.8749999404036828  0.4070133268666680   F   F   F
  0.5031923887476399  0.3708664066599371  0.5959241601058075   T   T   T
  0.5037776244021097  0.6247272131452482  0.5940617804180736   T   T   T
  0.8347064714513548  0.1245291338337443  0.6178994368489626   T   T   T
  0.9999273883314937  0.3743514819814738  0.6250389894097957   T   T   T
  0.6654481511142747  0.8810697833791979  0.6072602096595452   T   T   T
  0.1666666716383389  0.6249999999803961  0.4070133268666680   F   F   F
  0.1636404126044403  0.3715214899284193  0.6078345732891577   T   T   T
  0.1596884826926728  0.6272337498778012  0.6013232584384592   T   T   T
  0.6726355981748635  0.3721512239678484  0.5942579133916964   T   T   T
  0.1664561459801328  0.8733969876303033  0.6181277654817892   T   T   T
  0.3345586905081243  0.8787308730206771  0.6028502140502524   T   T   T
  0.6666666865533486  0.8749999404036828  0.4070133268666680   F   F   F
  0.1678352196674392  0.1231186435891023  0.6223347605774481   T   T   T
  0.3343822022435159  0.6243343268699787  0.5951814311635011   T   T   T
  0.6658533507535319  0.1251684293393415  0.6126865225765173   T   T   T
  0.5003553162373962  0.1217696403653046  0.6057149575489869   T   T   T
  0.3266386387686693  0.3734505717904672  0.5928477836091043   T   T   T
  0.1666666716383389  0.1249999999871179  0.4070133268666680   F   F   F
  0.8360488510644454  0.5000537809742441  0.5028749262353047   T   T   T
  0.1644882045013807  0.7515194690369843  0.5033249473326009   T   T   T
  0.5014366076182035  0.4995892114731535  0.5004458370441988   T   T   T
  0.3302744409032888  0.2480659871446559  0.5026943290432436   T   T   T
  0.6666666865533486  0.3750000000061604  0.4070133268666680   F   F   F
  0.3313935660681220  0.4990887677220522  0.5010611573310656   T   T   T
  0.0007325027998072  0.1226429466644239  0.6200578948626957   T   T   T
  0.1666666716383389  0.3750000000061604  0.4070133268666680   F   F   F
  0.3331666100054003  0.0011036515146802  0.5057469677857612   T   T   T
  0.6660466997342206  0.9999038150152550  0.5054885976426423   T   T   T
  0.1660592409599135  0.0012219387275437  0.5065486000601348   T   T   T
  0.6653673409454357  0.7518216790842620  0.5021733199432884   T   T   T
  0.6672238228279633  0.2476806424911786  0.5026115035622999   T   T   T
  0.8333332538436267  0.6249999999803961  0.4070133268666680   F   F   F
  0.0000000000000000  0.3750000000061604  0.4070133268666680   F   F   F
  0.3339878384316901  0.7511076926646730  0.5015205314736717   T   T   T
  0.5014985539510312  0.2480917728575801  0.5023015656304833   T   T   T
  0.0000945392719863  0.9999604867937538  0.5066530924828493   T   T   T
  0.5011006026527602  0.7527872809938003  0.5039816902111707   T   T   T
  0.3333333432766779  0.3750000000061604  0.4070133268666680   F   F   F
  0.6685735541769606  0.4996760550764184  0.5007812511175062   T   T   T
  0.0000000000000000  0.8749999404036828  0.4070133268666680   F   F   F
  0.5002947257138423  0.9992014489469072  0.5054538409874998   T   T   T
  0.5007204743075487  0.8767431991876671  0.6095692175860644   T   T   T
  0.1663710885993297  0.2481711938661318  0.5063192274383260   T   T   T
  0.3333333432766779  0.8749999404036828  0.4070133268666680   F   F   F
  0.8344900830683101  0.0000923331117660  0.5063880013966200   T   T   T
  0.0000000000000000  0.6249999999803961  0.4070133268666680   F   F   F
  0.3333333432766779  0.1249999999871179  0.4070133268666680   F   F   F
  0.3333333432766779  0.6249999999803961  0.4070133268666680   F   F   F
  0.8333332538436267  0.8749999404036828  0.4070133268666680   F   F   F
  0.6666666865533486  0.6249999999803961  0.4070133268666680   F   F   F
  0.0010947168622969  0.2500743132118278  0.5059320018263772   T   T   T
 -0.0000225559902801  0.7509566501494485  0.5065824178479597   T   T   T
  0.9998001257597526  0.5004419168222317  0.5067959833547938   T   T   T
  0.6666666865533486  0.1249999999871179  0.4070133268666680   F   F   F
  0.7517974351227088  0.7525389885202275  0.5904783456063558   T   T   T
  0.0833333358191695  0.2500000000190425  0.4070133268666680   F   F   F
  0.9179891360749625  0.7519534434467365  0.6032421945552257   T   T   T
  0.0833333358191695  0.4999999999932783  0.4070133268666680   F   F   F
  0.4166666269218169  0.4999999999932783  0.4070133268666680   F   F   F
  0.2499999999799343  0.2500000000190425  0.4070133268666680   F   F   F
  0.5838425982805728  0.8757049184732606  0.5057776656562356   T   T   T
  0.9190016268703765  0.3747719428708675  0.5057171608962313   T   T   T
  0.0833333358191695  0.0000000000000000  0.4070133268666680   F   F   F
  0.9166666865332829  0.4999999999932783  0.4070133268666680   F   F   F
  0.9166666865332829  0.7500000000123208  0.4070133268666680   F   F   F
  0.5837058197939139  0.1233185986886304  0.5047094159886336   T   T   T
  0.7522962343404282  0.6244660323076757  0.5025039685125016   T   T   T
  0.0833333358191695  0.7500000000123208  0.4070133268666680   F   F   F
  0.9182644814233647  0.4999645861604171  0.6036768922317886   T   T   T
  0.2499999999799343  0.0000000000000000  0.4070133268666680   F   F   F
  0.4165952453123393  0.8767706843014602  0.5039088152181126   T   T   T
  0.4166666269218169  0.0000000000000000  0.4070133268666680   F   F   F
  0.9166666865332829  0.0000000000000000  0.4070133268666680   F   F   F