Au  O Sr Ti                             
   1.00000000000000     
    23.6707801818999997    0.0000000000000000    0.0000000000000000
     0.0000000000000000   22.3170261383000010    0.0000000000000000
     0.0000000000000000    0.0000000000000000   30.0000000000000000
   Au   O    Sr   Ti
    50   265    72    72
Selective dynamics
Direct
  0.7160570382070807  0.5241910279233533  0.7530296748658876   T   T   T
  0.6548605697009423  0.4378405625844878  0.8103612744100979   T   T   T
  0.3681692401625694  0.6191913397086910  0.8202683905364149   T   T   T
  0.5704407241449400  0.5099177030319303  0.8569118400784228   T   T   T
  0.6529533091077521  0.1999910757655745  0.7467410220484026   T   T   T
  0.4696536841431717  0.4522028506972558  0.8799817180592656   T   T   T
  0.5202045537555099  0.3768093900318158  0.7325531899688206   T   T   T
  0.2831766593771485  0.3394372055925043  0.7022243010126176   T   T   T
  0.6694877001050392  0.6811769535301985  0.7488327905936952   T   T   T
  0.3985873292059149  0.3823458102934497  0.6902533537798371   T   T   T
  0.4625646000715857  0.5740450091062327  0.8640622534421500   T   T   T
  0.7062910961710044  0.7570477560853246  0.6883580120676298   T   T   T
  0.4524105656844448  0.5795588425047895  0.7027828504798219   T   T   T
  0.4174692612010867  0.6961387479638265  0.6996037790030468   T   T   T
  0.7753332939185945  0.4300531875276402  0.7950651465026564   T   T   T
  0.2568584819099864  0.5933427408153537  0.6944369519840919   T   T   T
  0.6465362717890837  0.4422539526833427  0.6964997175989041   T   T   T
  0.5649436413960583  0.6393178014711070  0.8609324962712641   T   T   T
  0.5413276156611555  0.6667504980442950  0.7013139336764340   T   T   T
  0.4437820214806731  0.4725023616763723  0.7558328188277789   T   T   T
  0.3741577030682001  0.7397101320267518  0.7787272662170690   T   T   T
  0.3752624950983973  0.4934326284600933  0.8325565893831779   T   T   T
  0.6198337030158676  0.3161530835251858  0.6978759068391749   T   T   T
  0.3257969546996543  0.4145734450217103  0.7691367339673945   T   T   T
  0.7054614775532244  0.3429468787884807  0.7578350669214988   T   T   T
  0.4863997253785337  0.2692115255962348  0.7746992130933937   T   T   T
  0.4854340213555737  0.7771578707243854  0.7555637470068918   T   T   T
  0.7450986886710650  0.2601930488667569  0.6939722214471803   T   T   T
  0.2936528353348342  0.7464141315243440  0.6969475284196115   T   T   T
  0.5777034747724019  0.7248839441462799  0.7932948642934549   T   T   T
  0.2407359489539032  0.4696435143773198  0.7093386447861346   T   T   T
  0.2851207189603697  0.6622817614041456  0.7646199774435483   T   T   T
  0.6019541653429904  0.2967683127441906  0.7882540422307248   T   T   T
  0.5142573882221326  0.4841192372179957  0.6778227428454380   T   T   T
  0.2892299618705703  0.5380840601718738  0.7775729025509567   T   T   T
  0.5465283015604337  0.3877892429727660  0.8298873247669114   T   T   T
  0.5116137273488387  0.6039368977324316  0.7768374739507308   T   T   T
  0.7331556793059091  0.6149516381925026  0.6940839917317668   T   T   T
  0.5623258823568773  0.4869067849359959  0.7624618576526984   T   T   T
  0.6351539141674782  0.5837789712753734  0.7998699922715473   T   T   T
  0.4290677342937319  0.3715525012412663  0.8161407315544683   T   T   T
  0.3494371168903489  0.5003870552316052  0.6978128655424309   T   T   T
  0.5958640605609532  0.7845166656083497  0.7129158835962722   T   T   T
  0.3711091524943769  0.2992309000626207  0.7557414035303078   T   T   T
  0.4345469098272933  0.2272776778848921  0.6980206242725235   T   T   T
  0.4635701582685450  0.6956240138602855  0.8306860789529601   T   T   T
  0.3912343405322133  0.8171741181213238  0.7065432048725407   T   T   T
  0.7630929762270346  0.4297104107600468  0.7048540094424874   T   T   T
  0.6225249184802693  0.5699344539452247  0.7041262204815558   T   T   T
  0.5492761681881582  0.2099962629981648  0.7100235359002059   T   T   T
  0.5768442193338782  0.4352863457998607  0.5521951976587761   T   T   T
  0.0849045569869728  0.8129283246035057  0.5473140276908306   T   T   T
  0.4167029981351326  0.0654095424757238  0.5472824350885037   T   T   T
  0.4178651450884021  0.3193902537980974  0.5528280351050467   T   T   T
  0.2531645246432127  0.8124275814366956  0.5506990641829121   T   T   T
  0.5814182821847883  0.5597826774767665  0.5489294280673332   T   T   T
  0.7477451593574700  0.3099292359460615  0.5463284274615378   T   T   T
  0.5857914913447675  0.8141743550679335  0.5502855918858336   T   T   T
  0.5826586408222112  0.0615236407151485  0.5452492738318807   T   T   T
  0.2526188253778561  0.5590566659506653  0.5438632101540462   T   T   T
  0.0822840511277853  0.0632733156857574  0.5475213275647736   T   T   T
  0.2493564762346643  0.6830915202548128  0.5520591531054043   T   T   T
  0.7493503535844993  0.9337671729506952  0.5476246793821566   T   T   T
  0.9140119678727356  0.6891136820050873  0.5453032434950538   T   T   T
  0.9178957793405609  0.1887795412782842  0.5450419650938788   T   T   T
  0.9160016679623123  0.4376086563418215  0.5457500581486344   T   T   T
  0.5794028500220082  0.6859540979859620  0.5473011887726793   T   T   T
  0.2515191359854834  0.9373265981074633  0.5452646632395823   T   T   T
  0.4976992661137566  0.5047008239481252  0.6085837660241189   T   T   T
  0.9172237967699919  0.5637338709095012  0.5466537727765668   T   T   T
  0.4198886348235639  0.5649958527618829  0.5553013406856878   T   T   T
  0.9155885165874385  0.8127699874414089  0.5468344194406618   T   T   T
  0.0836161786174243  0.9389735870668146  0.5457186864818775   T   T   T
  0.0865513134358750  0.3135339245780764  0.5468511216638141   T   T   T
  0.8323396100210337  0.0017823853011709  0.5922524417134778   T   T   T
  0.9159676277383788  0.1867683309136952  0.4529776646740318   T   T   T
  0.9158815257383650  0.9385789596676601  0.5463556572213338   T   T   T
  0.2495624198188744  0.3136106973171365  0.5460543014581233   T   T   T
  0.5838463077198310  0.9375596985664876  0.5462184251023640   T   T   T
  0.7483203086654366  0.9369223566207465  0.6399807753137308   T   T   T
  0.5829646212766177  0.4394785972771731  0.4563161534172476   T   T   T
  0.4998919620900886  0.1257393765823278  0.4997941998495211   T   T   T
  0.5010303486043844  0.2530523184628563  0.5915255322710284   T   T   T
  0.0830864008513319  0.1889757076499945  0.5454864730584045   T   T   T
  0.0833333358191695  0.3124999999901945  0.3605200052333331   F   F   F
  0.9996804113256712  0.5002513210933528  0.5940585712664567   T   T   T
  0.5821520412984102  0.1846018788827399  0.5506388273356441   T   T   T
  0.9998070176261646  0.7530617526011085  0.5924039028475313   T   T   T
  0.3340170369545004  0.9999255479886479  0.5919934967615472   T   T   T
  0.9998864822486238  0.9991195091712033  0.5931372972078760   T   T   T
  0.0009069260443064  0.2514403968080829  0.5921891328642515   T   T   T
  0.3333782502162721  0.4959133888640516  0.5909127414797577   T   T   T
  0.3357760478194721  0.7411647666651417  0.5903002650198249   T   T   T
  0.6655954498539264  0.2459837007130116  0.5917022032407554   T   T   T
  0.6659360984834465  0.0003576733181249  0.5918221718394716   T   T   T
  0.4168022463174725  0.1916102082679412  0.5467607934465566   T   T   T
  0.6657900104838624  0.7416099040286145  0.5901545436692673   T   T   T
  0.4289500223357776  0.3046601918482817  0.6555927423195849   T   T   T
  0.1674707989877069  0.9984192808491189  0.5922999376523278   T   T   T
  0.1707519411591049  0.7502120293967076  0.5949362236203836   T   T   T
  0.2484703945196353  0.4356934241504467  0.5492432440782241   T   T   T
  0.1657684584751766  0.5027511076328064  0.5874995689814348   T   T   T
  0.3357485854855653  0.2549656145000098  0.5929811784939424   T   T   T
  0.4996929859032516  0.0000271216093800  0.5910302745162465   T   T   T
  0.8327953135597865  0.8743715768643058  0.4986239311221281   T   T   T
  0.4230203604739247  0.4439184831860545  0.5453375917009602   T   T   T
  0.7525638037572493  0.4338054206729279  0.5494181894999325   T   T   T
  0.7518822586886489  0.6800063694762039  0.5534400218122887   T   T   T
  0.7481272459225122  0.8078396508508622  0.5454450329540929   T   T   T
  0.4179417139221666  0.0651125727746080  0.6400152015800602   T   T   T
  0.2494708907303979  0.3162852123512808  0.6412532580305179   T   T   T
  0.6669383055647733  0.4939521928923684  0.5911559382280714   T   T   T
  0.5911162582583454  0.8099579802079450  0.6460322127933786   T   T   T
  0.1685112578721117  0.2488160082479948  0.5931294684888769   T   T   T
  0.9161372618439840  0.5623497838878548  0.4538828867479676   T   T   T
  0.7529299758759529  0.5695233630071515  0.6350510163129476   T   T   T
  0.9142505792355401  0.8132299023231685  0.6416082747556192   T   T   T
  0.9161412238146097  0.0624059950879346  0.6416211531991670   T   T   T
  0.7411375848495446  0.8098592857961664  0.6399507523780882   T   T   T
  0.7479631931991770  0.0675435714514661  0.6385772362944573   T   T   T
  0.0841832852363493  0.3117702479313967  0.6407182977097899   T   T   T
  0.0870036372886566  0.5624406875538588  0.6405529572073984   T   T   T
  0.0842082448479360  0.0606356069016592  0.6420265219006023   T   T   T
  0.0867695279471781  0.4364357437980386  0.6394327908659737   T   T   T
  0.0834483162357466  0.1858783331268222  0.6409420653916085   T   T   T
  0.4160044514244227  0.4187033915028192  0.6296320470937660   T   T   T
  0.6665043699477472  0.8743921994464998  0.4989081310135581   T   T   T
  0.8330828534211188  0.2481399223921321  0.5884569560560046   T   T   T
  0.8304526779096056  0.7509059312542617  0.5927929203977174   T   T   T
  0.0843963061730253  0.9356872303326246  0.6406233788590610   T   T   T
  0.8331179902749190  0.5024524380601195  0.5890173795914458   T   T   T
  0.4186895030908797  0.1872018967372336  0.6393386094328702   T   T   T
  0.0833395663532718  0.6871712417092307  0.6390905556676633   T   T   T
  0.2519690002203782  0.9303054414173768  0.6373808196569497   T   T   T
  0.5802970728370320  0.1908011965420052  0.6460747870164438   T   T   T
  0.0843624236012351  0.8124536507405288  0.6421690148439037   T   T   T
  0.2407345515934673  0.4421434312400447  0.6418719631535963   T   T   T
  0.9144913463299832  0.9369504437816505  0.6411105165647979   T   T   T
  0.9162314500446225  0.6876194491102201  0.6392103232082933   T   T   T
  0.9125874205427823  0.4362180766662736  0.6398246056339575   T   T   T
  0.2536498499335451  0.1866291962408275  0.6411402267989919   T   T   T
  0.2545310528281493  0.6778703380420772  0.6628640967672625   T   T   T
  0.5820563403460000  0.9356587606864289  0.6392995327593884   T   T   T
  0.7520075670558427  0.1948939469599768  0.6464120292652432   T   T   T
  0.9166666865332829  0.8124999999834799  0.3605200052333331   F   F   F
  0.4125038140314698  0.8128756029479995  0.6395261856104634   T   T   T
  0.7509483430697528  0.3112774331162882  0.6386575853589316   T   T   T
  0.0827656757273015  0.4390543126986707  0.5448286532189053   T   T   T
  0.5001812278660823  0.3739942555259246  0.5000878962575266   T   T   T
  0.9129035115976557  0.5623189832755259  0.6411964102818192   T   T   T
  0.5826206160310171  0.0661053784366814  0.6388745116207933   T   T   T
  0.5888106095233253  0.3197677044460464  0.6340895440109987   T   T   T
  0.2476396554617946  0.5738238539909578  0.6287311146165890   T   T   T
  0.7538457682573962  0.6925126730978031  0.6571917877220186   T   T   T
  0.2621108309570831  0.7994279741901544  0.6462625770361340   T   T   T
  0.2509793011545344  0.0595007112741077  0.6423557141243379   T   T   T
  0.9166666865332829  0.5625000000092442  0.3605200052333331   F   F   F
  0.4175653141061700  0.9349778907659325  0.6396565575119428   T   T   T
  0.5000147388694601  0.8734935605596620  0.5008700478650857   T   T   T
  0.4209463005298714  0.6761314934384578  0.6335624515564107   T   T   T
  0.8324041431661342  0.6231914683576546  0.5000282140433748   T   T   T
  0.8328652853540284  0.3732273208749746  0.4996039762264123   T   T   T
  0.9131774352249027  0.3120603512758396  0.6391880682215241   T   T   T
  0.1668111359340802  0.3762578815198558  0.4978160994596221   T   T   T
  0.5802424568244907  0.4375448861732132  0.6458859889544148   T   T   T
  0.5796019297873757  0.6850282314027506  0.6390926770918116   T   T   T
  0.9169449423957224  0.1870758286008570  0.6398355834586831   T   T   T
  0.4159694549924460  0.9371901448879503  0.5459637403131674   T   T   T
  0.1670824078556053  0.1246920843475137  0.4995830687198393   T   T   T
  0.7485036474200925  0.0586756878662553  0.5438189567337535   T   T   T
  0.1677252713788553  0.8732971310110547  0.4999281969909344   T   T   T
  0.5011635343511568  0.7563224019098349  0.5931034835760366   T   T   T
  0.5003689339796782  0.6210267557435677  0.4999510669028920   T   T   T
  0.7546496190097655  0.4350790792306878  0.6385419298563947   T   T   T
  0.2522920738520598  0.1883950963610595  0.5473180799527764   T   T   T
  0.7487076335098464  0.1820920749344209  0.5510908891014842   T   T   T
  0.0822037764976971  0.5644161407697459  0.5462970395360652   T   T   T
  0.3974839724450837  0.5505572537287574  0.6518016980912985   T   T   T
  0.1678113511637002  0.6242942449775895  0.5000414388583649   T   T   T
  0.8330396353309842  0.1245725094942399  0.4998434313667404   T   T   T
  0.0863339823419472  0.6895247728134367  0.5451576821505496   T   T   T
  0.5916309474670194  0.5643666842964912  0.6392300237122952   T   T   T
  0.0000000000000000  0.0000000000000000  0.4070133268666680   F   F   F
  0.5832394698919372  0.0637730267912564  0.4536965989031048   T   T   T
  0.9166666865332829  0.6874999999963620  0.3605200052333331   F   F   F
  0.9166666865332829  0.4374999701794380  0.3605200052333331   F   F   F
  0.9166666865332829  0.1875000000030838  0.3605200052333331   F   F   F
  0.5833333134730552  0.9375000000154046  0.3605200052333331   F   F   F
  0.5833333134730552  0.6874999999963620  0.3605200052333331   F   F   F
  0.5833333134730552  0.4374999701794380  0.3605200052333331   F   F   F
  0.5833333134730552  0.1875000000030838  0.3605200052333331   F   F   F
  0.2499999999799343  0.9375000000154046  0.3605200052333331   F   F   F
  0.9166666865332829  0.9375000000154046  0.3605200052333331   F   F   F
  0.9177266696948949  0.0632495978116804  0.5474953013820103   T   T   T
  0.2499999999799343  0.6874999999963620  0.3605200052333331   F   F   F
  0.7499999404149307  0.9375000000154046  0.3605200052333331   F   F   F
  0.7383250353257286  0.2175367616199725  0.7519249947910317   T   T   T
  0.5845896546152952  0.5628532687967741  0.4547808267332571   T   T   T
  0.7499999404149307  0.6874999999963620  0.3605200052333331   F   F   F
  0.4166666269218169  0.9375000000154046  0.3605200052333331   F   F   F
  0.4166666269218169  0.6874999999963620  0.3605200052333331   F   F   F
  0.4166666269218169  0.4374999701794380  0.3605200052333331   F   F   F
  0.2499999999799343  0.4374999701794380  0.3605200052333331   F   F   F
  0.0833333358191695  0.0625000000159659  0.3605200052333331   F   F   F
  0.9153435399926964  0.6867284815504487  0.4531203693022874   T   T   T
  0.6658616256778352  0.3788617076146801  0.5028210184390095   T   T   T
  0.3346863073973829  0.3777394464840863  0.5033168130943175   T   T   T
  0.3356688992120022  0.6258405128713904  0.5037473941905837   T   T   T
  0.2500791773034027  0.1884984487228794  0.4542234397990634   T   T   T
  0.2499999999799343  0.1875000000030838  0.3605200052333331   F   F   F
  0.2505211713987702  0.0620818354708222  0.4542721717123777   T   T   T
  0.7494646449551865  0.9384653886832035  0.4553646108231980   T   T   T
  0.7499999404149307  0.4374999701794380  0.3605200052333331   F   F   F
  0.7499999404149307  0.1875000000030838  0.3605200052333331   F   F   F
  0.5833333134730552  0.0625000000159659  0.3605200052333331   F   F   F
  0.7491555600666052  0.6886382775979270  0.4573676761202305   T   T   T
  0.7499924959672920  0.4385263264168493  0.4557791600920404   T   T   T
  0.9160164709927264  0.4371589187583419  0.4535651730982857   T   T   T
  0.7506304704482719  0.1903707838905012  0.4558664991129108   T   T   T
  0.4172079617327331  0.9359786756808900  0.4539864363165040   T   T   T
  0.4171235299815563  0.6847981421160607  0.4547161574286676   T   T   T
  0.4170505449794121  0.4351454108687106  0.4538206344007311   T   T   T
  0.0845955126035864  0.6868608223456928  0.4530026834652583   T   T   T
  0.0841182336546376  0.9367980577345607  0.4535696305602772   T   T   T
  0.0829511726775695  0.4368582037167661  0.4528578598337819   T   T   T
  0.0839497698826919  0.1866364197364827  0.4529595967487522   T   T   T
  0.9165755970948440  0.8120617008011908  0.4540625680125241   T   T   T
  0.9160704181637328  0.0621369447736615  0.4540231212576367   T   T   T
  0.7494410079689411  0.8131827742077233  0.4530302235070152   T   T   T
  0.9163065846492134  0.3123566080667751  0.4535723134249545   T   T   T
  0.2521447648228513  0.6875980835015867  0.4560854584074566   T   T   T
  0.7465151231494707  0.5575820937605699  0.5446083072805866   T   T   T
  0.9164796574963014  0.9370961914053856  0.4536140553900037   T   T   T
  0.0001047652925244  0.1247243255109075  0.4978405181285700   T   T   T
  0.5832484556805765  0.8105066423367588  0.4553473588268817   T   T   T
  0.0003377995158240  0.3737809623328976  0.4979267769458798   T   T   T
  0.9999432749907270  0.6271348480994154  0.4977023788053804   T   T   T
  0.3338895117978289  0.1257525037237543  0.4987391481215339   T   T   T
  0.0001366263619662  0.8751486968947216  0.4994609036137041   T   T   T
  0.3334737376473211  0.8739650329641454  0.4993174822563125   T   T   T
  0.6662318353951123  0.1260540473910571  0.4987588076880266   T   T   T
  0.2513899603587073  0.4392973540599707  0.4550387140688743   T   T   T
  0.0833333358191695  0.5625000000092442  0.3605200052333331   F   F   F
  0.9166666865332829  0.0625000000159659  0.3605200052333331   F   F   F
  0.4172736350994490  0.1871227012862001  0.4536485925837950   T   T   T
  0.9166744907629598  0.3128270048802066  0.5459479378329197   T   T   T
  0.4231962585483294  0.6880291043332744  0.5466030120008490   T   T   T
  0.5828556739239870  0.1903704827364625  0.4556763646413104   T   T   T
  0.2512012297250703  0.0626648795565712  0.5472443314641625   T   T   T
  0.5844324966939597  0.3102806202016939  0.5451074843167920   T   T   T
  0.2499999999799343  0.8124999999834799  0.3605200052333331   F   F   F
  0.0833333358191695  0.1875000000030838  0.3605200052333331   F   F   F
  0.0000000000000000  0.2500000000190425  0.4070133268666680   F   F   F
  0.0000000000000000  0.4999999999932783  0.4070133268666680   F   F   F
  0.7481432647852556  0.5641926266464923  0.4538036868583208   T   T   T
  0.3333333432766779  0.0000000000000000  0.4070133268666680   F   F   F
  0.3333333432766779  0.4999999999932783  0.4070133268666680   F   F   F
  0.3333333432766779  0.7500000000123208  0.4070133268666680   F   F   F
  0.5827952243542989  0.6860729838332935  0.4546183981732722   T   T   T
  0.6666666865533486  0.0000000000000000  0.4070133268666680   F   F   F
  0.6666666865533486  0.4999999999932783  0.4070133268666680   F   F   F
  0.8333332538436267  0.2500000000190425  0.4070133268666680   F   F   F
  0.1666666716383389  0.0000000000000000  0.4070133268666680   F   F   F
  0.1666666716383389  0.4999999999932783  0.4070133268666680   F   F   F
  0.1666666716383389  0.7500000000123208  0.4070133268666680   F   F   F
  0.5000000000021103  0.4999999999932783  0.4070133268666680   F   F   F
  0.5000000000021103  0.2500000000190425  0.4070133268666680   F   F   F
  0.9166666865332829  0.3124999999901945  0.3605200052333331   F   F   F
  0.3333333432766779  0.2500000000190425  0.4070133268666680   F   F   F
  0.7480822457158117  0.3147229109782123  0.4537942943960019   T   T   T
  0.0000000000000000  0.7500000000123208  0.4070133268666680   F   F   F
  0.4168548464179418  0.8103485776383254  0.4550070070805144   T   T   T
  0.5845062931541247  0.3154114231846036  0.4536631403309390   T   T   T
  0.5827192268734962  0.9371813393349928  0.4543214444671287   T   T   T
  0.6666666865533486  0.2500000000190425  0.4070133268666680   F   F   F
  0.2523237421392857  0.3141526587036624  0.4541528736978047   T   T   T
  0.1666666716383389  0.2500000000190425  0.4070133268666680   F   F   F
  0.2505168478943437  0.8108308776539979  0.4553228899401076   T   T   T
  0.5833333134730552  0.5625000000092442  0.3605200052333331   F   F   F
  0.2500393194385098  0.9360652939610692  0.4540532853218907   T   T   T
  0.8333332538436267  0.0000000000000000  0.4070133268666680   F   F   F
  0.5000000000021103  0.7500000000123208  0.4070133268666680   F   F   F
  0.6666666865533486  0.7500000000123208  0.4070133268666680   F   F   F
  0.5000000000021103  0.0000000000000000  0.4070133268666680   F   F   F
  0.6654740300266635  0.6260630708006117  0.5030176209225662   T   T   T
  0.2499999999799343  0.0625000000159659  0.3605200052333331   F   F   F
  0.2499999999799343  0.5625000000092442  0.3605200052333331   F   F   F
  0.2499999999799343  0.3124999999901945  0.3605200052333331   F   F   F
  0.7499999404149307  0.5625000000092442  0.3605200052333331   F   F   F
  0.7499999404149307  0.3124999999901945  0.3605200052333331   F   F   F
  0.7499999404149307  0.0625000000159659  0.3605200052333331   F   F   F
  0.4166666269218169  0.8124999999834799  0.3605200052333331   F   F   F
  0.4166666269218169  0.3124999999901945  0.3605200052333331   F   F   F
  0.7499999404149307  0.8124999999834799  0.3605200052333331   F   F   F
  0.4166666269218169  0.0625000000159659  0.3605200052333331   F   F   F
  0.4171795192339026  0.0618214512058720  0.4553969349516438   T   T   T
  0.0835507815422505  0.8120887481709572  0.4541904447015862   T   T   T
  0.4166666269218169  0.5625000000092442  0.3605200052333331   F   F   F
  0.5833333134730552  0.3124999999901945  0.3605200052333331   F   F   F
  0.5833333134730552  0.8124999999834799  0.3605200052333331   F   F   F
  0.0836690114962874  0.3120468219054458  0.4538938217510642   T   T   T
  0.8333332538436267  0.7500000000123208  0.4070133268666680   F   F   F
  0.4147839611499891  0.8119395872902370  0.5478708790488505   T   T   T
  0.8333332538436267  0.4999999999932783  0.4070133268666680   F   F   F
  0.7496736564303972  0.0647260839426267  0.4526254922525371   T   T   T
  0.4166666269218169  0.1875000000030838  0.3605200052333331   F   F   F
  0.0833333358191695  0.9375000000154046  0.3605200052333331   F   F   F
  0.0833333358191695  0.8124999999834799  0.3605200052333331   F   F   F
  0.0833333358191695  0.4374999701794380  0.3605200052333331   F   F   F
  0.2519174537771264  0.5646680643910907  0.4536766534181859   T   T   T
  0.4158730400644043  0.3112234839743511  0.4574513204182407   T   T   T
  0.0839193948744304  0.0619889078956293  0.4541098929044641   T   T   T
  0.4160568139500348  0.5594262160210153  0.4578431140328715   T   T   T
  0.0839586619498627  0.5624813817358567  0.4538648036031163   T   T   T
  0.0833333358191695  0.6874999999963620  0.3605200052333331   F   F   F
  0.8359991152910542  0.7517503610650237  0.5025785713319558   T   T   T
  0.1666666716383389  0.8749999404036828  0.4070133268666680   F   F   F
  0.0000000000000000  0.1249999999871179  0.4070133268666680   F   F   F
  0.8363422777952182  0.2487337196204096  0.5020371226097157   T   T   T
  0.9997117067611444  0.6227906600908262  0.6292078665263904   T   T   T
  0.8333332538436267  0.3750000000061604  0.4070133268666680   F   F   F
  0.8372983171713992  0.3740909330544550  0.6026270199653976   T   T   T
  0.5000000000021103  0.6249999999803961  0.4070133268666680   F   F   F
  0.1637829996562983  0.4998406036799368  0.5021314364142994   T   T   T
  0.9992223125588373  0.8749932533613688  0.6226285184598578   T   T   T
  0.3316800585068988  0.1197910131700750  0.6133049820583726   T   T   T
  0.8396167622704097  0.6271327131886719  0.6034337510642652   T   T   T
  0.5000000000021103  0.3750000000061604  0.4070133268666680   F   F   F
  0.5000000000021103  0.1249999999871179  0.4070133268666680   F   F   F
  0.8320027476733410  0.8761894624110887  0.6187390960423375   T   T   T
  0.8333332538436267  0.1249999999871179  0.4070133268666680   F   F   F
  0.6662848911114287  0.6262707975300912  0.5935917619028710   T   T   T
  0.5000000000021103  0.8749999404036828  0.4070133268666680   F   F   F
  0.5035773636084617  0.3706414472497845  0.5961249045731658   T   T   T
  0.5038000883824781  0.6248554453001866  0.5940406517669492   T   T   T
  0.8345361493628625  0.1243369835970411  0.6178936689751807   T   T   T
 -0.0002818254852388  0.3743856471550891  0.6244150910770160   T   T   T
  0.6653340097679177  0.8810686142180449  0.6073382320818439   T   T   T
  0.1666666716383389  0.6249999999803961  0.4070133268666680   F   F   F
  0.1635292845556234  0.3715830949480958  0.6078800808419993   T   T   T
  0.1594680392960067  0.6271326295910606  0.6013778019372628   T   T   T
  0.6727728743461344  0.3723952384190333  0.5941300882654542   T   T   T
  0.1663136513777246  0.8734523829429857  0.6180755988832608   T   T   T
  0.3344899514688922  0.8786553842024403  0.6029279220193718   T   T   T
  0.6666666865533486  0.8749999404036828  0.4070133268666680   F   F   F
  0.1676767138090443  0.1229191831098501  0.6219127255793536   T   T   T
  0.3344182742343789  0.6242482571194130  0.5952036272216876   T   T   T
  0.6659675887353789  0.1257232937993153  0.6134023032414972   T   T   T
  0.5005364842675578  0.1220131808580202  0.6060187832182472   T   T   T
  0.3264360119704288  0.3736259064767804  0.5927691939826233   T   T   T
  0.1666666716383389  0.1249999999871179  0.4070133268666680   F   F   F
  0.8361113926423905  0.5001402488403386  0.5028535871940574   T   T   T
  0.1644673001485889  0.7515654171285843  0.5033031216144582   T   T   T
  0.5016194974590145  0.4993960244961559  0.5003320777097121   T   T   T
  0.3303577399119415  0.2481645227754837  0.5027732111400218   T   T   T
  0.6666666865533486  0.3750000000061604  0.4070133268666680   F   F   F
  0.3313854529824251  0.4989414035851648  0.5011030863465576   T   T   T
  0.0006337990339090  0.1228140469400416  0.6201829796440631   T   T   T
  0.1666666716383389  0.3750000000061604  0.4070133268666680   F   F   F
  0.3331567103779571  0.0011615888273867  0.5058058625770842   T   T   T
  0.6659088802179537 -0.0001255264948604  0.5054765729168696   T   T   T
  0.1660214897776532  0.0012141283551864  0.5064943035206039   T   T   T
  0.6653955030807344  0.7518474906316310  0.5021916418041220   T   T   T
  0.6672712348385932  0.2473870221473358  0.5029505133388459   T   T   T
  0.8333332538436267  0.6249999999803961  0.4070133268666680   F   F   F
  0.0000000000000000  0.3750000000061604  0.4070133268666680   F   F   F
  0.3339750118709723  0.7510693079129712  0.5015874265790207   T   T   T
  0.5017118987529690  0.2480979046479715  0.5025261626634372   T   T   T
  0.0000915364699744 -0.0001258244987944  0.5065698453736213   T   T   T
  0.5011092686673373  0.7527626981569245  0.5039793914306104   T   T   T
  0.3333333432766779  0.3750000000061604  0.4070133268666680   F   F   F
  0.6685198820736928  0.4997790981726493  0.5006464407290696   T   T   T
  0.0000000000000000  0.8749999404036828  0.4070133268666680   F   F   F
  0.5002233124670629  0.9993000117376635  0.5054194839889594   T   T   T
  0.5007237857271728  0.8767233789070608  0.6095334858483247   T   T   T
  0.1663124243453638  0.2482164581072447  0.5062056837555725   T   T   T
  0.3333333432766779  0.8749999404036828  0.4070133268666680   F   F   F
  0.8343633810600238 -0.0000402922015819  0.5064796374920568   T   T   T
  0.0000000000000000  0.6249999999803961  0.4070133268666680   F   F   F
  0.3333333432766779  0.1249999999871179  0.4070133268666680   F   F   F
  0.3333333432766779  0.6249999999803961  0.4070133268666680   F   F   F
  0.8333332538436267  0.8749999404036828  0.4070133268666680   F   F   F
  0.6666666865533486  0.6249999999803961  0.4070133268666680   F   F   F
  0.0010299388221610  0.2499646347095639  0.5058965048490206   T   T   T
  0.0000119889940536  0.7509174706091205  0.5066154058399809   T   T   T
  0.9998100023706454  0.5006816997644276  0.5068627799902201   T   T   T
  0.6666666865533486  0.1249999999871179  0.4070133268666680   F   F   F
  0.7517947676206165  0.7525596498444846  0.5905029551928930   T   T   T
  0.0833333358191695  0.2500000000190425  0.4070133268666680   F   F   F
  0.9180282915741219  0.7518913782447461  0.6032735192664870   T   T   T
  0.0833333358191695  0.4999999999932783  0.4070133268666680   F   F   F
  0.4166666269218169  0.4999999999932783  0.4070133268666680   F   F   F
  0.2499999999799343  0.2500000000190425  0.4070133268666680   F   F   F
  0.5838013849232956  0.8757306670177164  0.5057638660656834   T   T   T
  0.9191540535423494  0.3748438724514963  0.5055662355565975   T   T   T
  0.0833333358191695  0.0000000000000000  0.4070133268666680   F   F   F
  0.9166666865332829  0.4999999999932783  0.4070133268666680   F   F   F
  0.9166666865332829  0.7500000000123208  0.4070133268666680   F   F   F
  0.5837631232146145  0.1233585532116191  0.5047343169872954   T   T   T
  0.7522632065369150  0.6245732108626313  0.5024531293940185   T   T   T
  0.0833333358191695  0.7500000000123208  0.4070133268666680   F   F   F
  0.9182114064924884  0.5000677818683144  0.6036988664460378   T   T   T
  0.2499999999799343  0.0000000000000000  0.4070133268666680   F   F   F
  0.4166069554347064  0.8768314730468811  0.5039172187944686   T   T   T
  0.4166666269218169  0.0000000000000000  0.4070133268666680   F   F   F
  0.9166666865332829  0.0000000000000000  0.4070133268666680   F   F   F