Au  O Sr Ti  H                          
   1.00000000000000     
    23.6707801818999997    0.0000000000000000    0.0000000000000000
     0.0000000000000000   22.3170261383000010    0.0000000000000000
     0.0000000000000000    0.0000000000000000   30.0000000000000000
   Au   O    Sr   Ti   H 
    50   264    72    72     1
Selective dynamics
Direct
  0.7182534716056447  0.5260322147475367  0.7541281855372874   T   T   T
  0.6247001272286312  0.5671340051049670  0.7039277718584120   T   T   T
  0.7191418451022248  0.2590425882017615  0.6918630423248684   T   T   T
  0.2912503469127581  0.7456670546157008  0.6984360661788558   T   T   T
  0.5137425535842333  0.6042018026275517  0.7767752933542507   T   T   T
  0.5771006132313873  0.7254407423410912  0.7927037939700945   T   T   T
  0.5502300635084554  0.3844070691353055  0.8295506780375556   T   T   T
  0.2416096040568302  0.4675165006394774  0.7093512673471208   T   T   T
  0.2832865824502011  0.6606069187609624  0.7658643460891731   T   T   T
  0.6024269594790217  0.2889031037430971  0.7877421815772627   T   T   T
  0.5146129532430493  0.4834395496970418  0.6781012967797198   T   T   T
  0.5625446917406398  0.4859531010222786  0.7627341887795679   T   T   T
  0.4637075242120237  0.6952119989817253  0.8298622136003454   T   T   T
  0.7645836762563067  0.4317436927880137  0.7057825210793223   T   T   T
  0.7335119487733973  0.6157857722691640  0.6939609583574309   T   T   T
  0.6355940462379394  0.5837106375423456  0.8001056917848256   T   T   T
  0.5946855642136861  0.7847718984919131  0.7126322685611917   T   T   T
  0.4838801095721455  0.7794595692508918  0.7571495958628017   T   T   T
  0.3493543913905974  0.5008698012229592  0.6974129485264372   T   T   T
  0.4309663800860059  0.3722404117962619  0.8156917805271093   T   T   T
  0.3728056366050806  0.2987729880533135  0.7557327729388910   T   T   T
  0.4409777534186131  0.2285581573102669  0.6970966970296013   T   T   T
  0.3895206801602906  0.8161003164783834  0.7066752150115927   T   T   T
  0.2900612712316182  0.5362273348887567  0.7776123195859194   T   T   T
  0.5554851639180277  0.2081584370605183  0.7118848834074927   T   T   T
  0.4538413874061457  0.5800807308633865  0.7027877280726491   T   T   T
  0.6136979140073953  0.3191186970088040  0.6975657474996749   T   T   T
  0.7055056989127694  0.7577578953056476  0.6883630562204340   T   T   T
  0.6562568952938381  0.4412586104032662  0.8124328122358362   T   T   T
  0.3686415176075700  0.6181005619347922  0.8201880226079803   T   T   T
  0.5713699531153847  0.5101665257240645  0.8571069151764276   T   T   T
  0.6645994439408558  0.1939812933091900  0.7522455443199565   T   T   T
  0.4725806262937799  0.4510925980102302  0.8794471675808657   T   T   T
  0.5162683768672681  0.3772090779669158  0.7341993842563148   T   T   T
  0.2836990252181317  0.3378429907367670  0.7026416427367392   T   T   T
  0.6692543944110247  0.6812401079112271  0.7487895106247956   T   T   T
  0.3977717253331056  0.3823009610459198  0.6902881836462472   T   T   T
  0.3761597421045206  0.4924280456000661  0.8335673897323757   T   T   T
  0.4640295248376449  0.5735180952312301  0.8632664004333221   T   T   T
  0.3267928435956307  0.4139034077058598  0.7695453688713753   T   T   T
  0.4873444375626205  0.2683872586827927  0.7753137693795407   T   T   T
  0.4252478838210009  0.6984259285003481  0.6992052263742097   T   T   T
  0.7001071727719901  0.3460926603758853  0.7566009619081336   T   T   T
  0.7742697246234401  0.4293296518727950  0.7960962172361143   T   T   T
  0.2563323168821683  0.5920444430629556  0.6949662716765745   T   T   T
  0.6476849139478684  0.4411610778456767  0.6967947073928904   T   T   T
  0.5656195886975762  0.6404160678500190  0.8611276980458628   T   T   T
  0.5453241524660710  0.6649527306133314  0.7013800914481049   T   T   T
  0.4431144469972659  0.4748053506256407  0.7560802835095267   T   T   T
  0.3730923477955363  0.7372186537492560  0.7780112256463693   T   T   T
  0.2502485670910151  0.1885811647268362  0.4540806509389380   T   T   T
  0.7493974522468477  0.9385115488355776  0.4553746097264612   T   T   T
  0.7490783426252512  0.6886391917747777  0.4572588832232131   T   T   T
  0.7494774845376706  0.4382851816672017  0.4557953763387135   T   T   T
  0.7495433630371505  0.1894926374450730  0.4557240439651057   T   T   T
  0.4173104762230244  0.9357190639507476  0.4539719518049480   T   T   T
  0.4169903101398373  0.6845574358383384  0.4547110081813733   T   T   T
  0.4164550297288806  0.4354512848459615  0.4538157905065719   T   T   T
  0.0845259264438112  0.6868105767463597  0.4530332576689287   T   T   T
  0.0837340886682926  0.9366640191890619  0.4534941973488668   T   T   T
  0.0827957356041076  0.4368655967954260  0.4529103390885979   T   T   T
  0.0837951097558569  0.1867526950829458  0.4530642146469546   T   T   T
  0.9169618101600969  0.8122785161325023  0.4540894535858158   T   T   T
  0.9161269215942982  0.5623821010537857  0.4538303492740509   T   T   T
  0.2512359617768558  0.4393605142720005  0.4549573921591021   T   T   T
  0.9162041013782802  0.0624699119013499  0.4538021940330957   T   T   T
  0.9162221402704616  0.3123526775884273  0.4536471778941905   T   T   T
  0.4169160355033630  0.1872505030402649  0.4535393562470880   T   T   T
  0.2524262283950647  0.6872928572624194  0.4560409800370139   T   T   T
  0.9164217871643126  0.9374442007441152  0.4537463424585927   T   T   T
  0.5828732056257840  0.1894425875130075  0.4551471958968409   T   T   T
  0.0003623251543342  0.1239635428387043  0.4988420727690404   T   T   T
  0.5838566039356925  0.8099275508195136  0.4554438860423062   T   T   T
 -0.0000116356351114  0.3733798239168609  0.4984451902603659   T   T   T
  0.9997089280541605  0.6270766038492001  0.4976514357137771   T   T   T
  0.3336287394568468  0.1257215507434247  0.4983700147698803   T   T   T
 -0.0001232437819248  0.8758379328131232  0.5000957502942929   T   T   T
  0.3334478947471990  0.8735993636783971  0.4988809921376988   T   T   T
  0.6659280021572108  0.1251062378716115  0.4999674040832903   T   T   T
  0.3357389509584208  0.6251560618027031  0.5040902741898735   T   T   T
  0.3343564556611173  0.3785013443694588  0.5029779676001342   T   T   T
  0.6655420988654268  0.3785769128971533  0.5033118688826335   T   T   T
  0.9153590954765337  0.6867417235075152  0.4529752775769854   T   T   T
  0.9161183692048119  0.4370060905583200  0.4536794326054914   T   T   T
  0.9166934218767995  0.1871927346901552  0.4537947286155929   T   T   T
  0.5829019592778808  0.9362697367307169  0.4537085525605303   T   T   T
  0.5827615392381565  0.6859954966128757  0.4545746329740569   T   T   T
  0.5827326153482548  0.4391124266407449  0.4560272684742488   T   T   T
  0.2500228653124434  0.9359818885270643  0.4540322964662282   T   T   T
  0.6653989875583209  0.6260668040088900  0.5029622678714292   T   T   T
  0.5846224046977325  0.5625304648828695  0.4550318810911945   T   T   T
  0.5830709255923248  0.0628543124887341  0.4543878606157529   T   T   T
  0.9166666865332829  0.6874999999963620  0.3605200052333331   F   F   F
  0.9166666865332829  0.4374999701794380  0.3605200052333331   F   F   F
  0.9166666865332829  0.1875000000030838  0.3605200052333331   F   F   F
  0.5833333134730552  0.9375000000154046  0.3605200052333331   F   F   F
  0.5833333134730552  0.6874999999963620  0.3605200052333331   F   F   F
  0.5833333134730552  0.4374999701794380  0.3605200052333331   F   F   F
  0.5833333134730552  0.1875000000030838  0.3605200052333331   F   F   F
  0.2499999999799343  0.9375000000154046  0.3605200052333331   F   F   F
  0.9166666865332829  0.9375000000154046  0.3605200052333331   F   F   F
  0.2499999999799343  0.6874999999963620  0.3605200052333331   F   F   F
  0.2499999999799343  0.1875000000030838  0.3605200052333331   F   F   F
  0.7499999404149307  0.9375000000154046  0.3605200052333331   F   F   F
  0.7499999404149307  0.6874999999963620  0.3605200052333331   F   F   F
  0.7499999404149307  0.4374999701794380  0.3605200052333331   F   F   F
  0.7499999404149307  0.1875000000030838  0.3605200052333331   F   F   F
  0.4166666269218169  0.9375000000154046  0.3605200052333331   F   F   F
  0.4166666269218169  0.6874999999963620  0.3605200052333331   F   F   F
  0.4166666269218169  0.4374999701794380  0.3605200052333331   F   F   F
  0.2499999999799343  0.4374999701794380  0.3605200052333331   F   F   F
  0.0833333358191695  0.0625000000159659  0.3605200052333331   F   F   F
  0.0833333358191695  0.3124999999901945  0.3605200052333331   F   F   F
  0.0833333358191695  0.5625000000092442  0.3605200052333331   F   F   F
  0.9166666865332829  0.3124999999901945  0.3605200052333331   F   F   F
  0.9166666865332829  0.0625000000159659  0.3605200052333331   F   F   F
  0.5833333134730552  0.8124999999834799  0.3605200052333331   F   F   F
  0.5833333134730552  0.5625000000092442  0.3605200052333331   F   F   F
  0.5833333134730552  0.3124999999901945  0.3605200052333331   F   F   F
  0.5833333134730552  0.0625000000159659  0.3605200052333331   F   F   F
  0.2499999999799343  0.8124999999834799  0.3605200052333331   F   F   F
  0.2499999999799343  0.5625000000092442  0.3605200052333331   F   F   F
  0.2499999999799343  0.3124999999901945  0.3605200052333331   F   F   F
  0.2499999999799343  0.0625000000159659  0.3605200052333331   F   F   F
  0.7499999404149307  0.8124999999834799  0.3605200052333331   F   F   F
  0.7499999404149307  0.5625000000092442  0.3605200052333331   F   F   F
  0.7499999404149307  0.3124999999901945  0.3605200052333331   F   F   F
  0.7499999404149307  0.0625000000159659  0.3605200052333331   F   F   F
  0.4166666269218169  0.8124999999834799  0.3605200052333331   F   F   F
  0.4166666269218169  0.5625000000092442  0.3605200052333331   F   F   F
  0.4166666269218169  0.3124999999901945  0.3605200052333331   F   F   F
  0.4166666269218169  0.0625000000159659  0.3605200052333331   F   F   F
  0.0833333358191695  0.8124999999834799  0.3605200052333331   F   F   F
  0.4166666269218169  0.1875000000030838  0.3605200052333331   F   F   F
  0.0833333358191695  0.9375000000154046  0.3605200052333331   F   F   F
  0.0833333358191695  0.6874999999963620  0.3605200052333331   F   F   F
  0.0833333358191695  0.4374999701794380  0.3605200052333331   F   F   F
  0.8333332538436267  0.4999999999932783  0.4070133268666680   F   F   F
  0.8333332538436267  0.7500000000123208  0.4070133268666680   F   F   F
  0.0837803299429293  0.0618674818942781  0.4541250269858602   T   T   T
  0.0835511939623637  0.3122515161153654  0.4537903849417151   T   T   T
  0.0839451626161718  0.5624831145768037  0.4538765029152846   T   T   T
  0.0834332170115209  0.8120601755984171  0.4541870575475916   T   T   T
  0.4168220372841878  0.0615169497399447  0.4553222266973535   T   T   T
  0.4155299974433637  0.3113971417637214  0.4573552309338492   T   T   T
  0.4160894344813559  0.5594440253050310  0.4578459477479023   T   T   T
  0.4161755061357333  0.8096271772086094  0.4551759889068169   T   T   T
  0.7495664180775746  0.0639024670489060  0.4534808443634440   T   T   T
  0.7474068636680424  0.3140578348834145  0.4545726951304394   T   T   T
  0.7481336990829304  0.5642386824337319  0.4537259544684615   T   T   T
  0.7487046200572305  0.8131878508512617  0.4531550586008939   T   T   T
  0.2504874715351997  0.0619460895044622  0.4541883612579186   T   T   T
  0.9157055502793150  0.3116721237446483  0.5464451948172723   T   T   T
  0.2522636296068381  0.3141805591462674  0.4541639527980770   T   T   T
  0.2519221999448297  0.5645590665030584  0.4537948198942405   T   T   T
  0.2503137781792603  0.8104256750707106  0.4555535182689037   T   T   T
  0.8333332538436267  0.2500000000190425  0.4070133268666680   F   F   F
  0.5842970905773058  0.3148026142521236  0.4540663854231776   T   T   T
  0.8333332538436267  0.0000000000000000  0.4070133268666680   F   F   F
  0.5000000000021103  0.4999999999932783  0.4070133268666680   F   F   F
  0.0833333358191695  0.1875000000030838  0.3605200052333331   F   F   F
  0.0000000000000000  0.0000000000000000  0.4070133268666680   F   F   F
  0.0000000000000000  0.2500000000190425  0.4070133268666680   F   F   F
  0.0000000000000000  0.4999999999932783  0.4070133268666680   F   F   F
  0.0000000000000000  0.7500000000123208  0.4070133268666680   F   F   F
  0.3333333432766779  0.0000000000000000  0.4070133268666680   F   F   F
  0.3333333432766779  0.2500000000190425  0.4070133268666680   F   F   F
  0.3333333432766779  0.4999999999932783  0.4070133268666680   F   F   F
  0.3333333432766779  0.7500000000123208  0.4070133268666680   F   F   F
  0.6666666865533486  0.0000000000000000  0.4070133268666680   F   F   F
  0.6666666865533486  0.2500000000190425  0.4070133268666680   F   F   F
  0.6666666865533486  0.4999999999932783  0.4070133268666680   F   F   F
  0.6666666865533486  0.7500000000123208  0.4070133268666680   F   F   F
  0.1666666716383389  0.0000000000000000  0.4070133268666680   F   F   F
  0.1666666716383389  0.2500000000190425  0.4070133268666680   F   F   F
  0.1666666716383389  0.4999999999932783  0.4070133268666680   F   F   F
  0.1666666716383389  0.7500000000123208  0.4070133268666680   F   F   F
  0.5000000000021103  0.0000000000000000  0.4070133268666680   F   F   F
  0.5000000000021103  0.2500000000190425  0.4070133268666680   F   F   F
  0.5000000000021103  0.7500000000123208  0.4070133268666680   F   F   F
  0.1672806425870539  0.1248037612527347  0.4988030335111874   T   T   T
  0.9162028308212641  0.0606426957394590  0.5463922970189248   T   T   T
  0.1679089258775550  0.8729779638306605  0.4996216726733194   T   T   T
  0.2519093184364306  0.1883026981448812  0.5472945547472816   T   T   T
  0.7511926554247431  0.9346091467260516  0.5479112873096726   T   T   T
  0.7517154130620557  0.6804333689117485  0.5530212334076583   T   T   T
  0.7529671923013345  0.4344663355701875  0.5494918695715646   T   T   T
  0.4231268609555651  0.4439249058040030  0.5455302659183198   T   T   T
  0.4231146532391420  0.6880123502255827  0.5465836983991641   T   T   T
  0.7485557088231803  0.1829909338856120  0.5510358707735736   T   T   T
  0.4158796723296697  0.9364940622770257  0.5460388427120827   T   T   T
  0.0862605619050323  0.9380218575635397  0.5459806179244572   T   T   T
  0.4156805785715031  0.1914559086815176  0.5465564334263314   T   T   T
  0.0864316005936488  0.6895976345373809  0.5451466740576578   T   T   T
  0.0826141620616128  0.4385220840780263  0.5451222292591376   T   T   T
  0.0838005194669478  0.1883751529686814  0.5460356177409723   T   T   T
  0.4991219283225656  0.1262057145567071  0.4989677353818375   T   T   T
  0.9995438186487716  0.4989390461882290  0.5944387498524697   T   T   T
  0.9994896951592781  0.7541345572991658  0.5923615572243797   T   T   T
  0.3346627371337408  0.2544924500917891  0.5926469975164042   T   T   T
  0.3340082684105762  0.9999266368895542  0.5919070783467844   T   T   T
  0.0029771553049882  0.9964988192382964  0.5914801981635196   T   T   T
  0.0010712060383182  0.2484027750944179  0.5923030643524906   T   T   T
  0.3333958795778539  0.4965403808401054  0.5910903754732934   T   T   T
  0.3355324466560642  0.7399096443690409  0.5907897490025071   T   T   T
  0.6633489048541734  0.2473211559733562  0.5908527768619183   T   T   T
  0.6631972275317923  0.0006978479688881  0.5905161534089803   T   T   T
  0.6658809185123280  0.7421488404708746  0.5899979533394943   T   T   T
  0.6670279122880602  0.4933567991981378  0.5911170724373778   T   T   T
  0.1684862119831909  0.9985033442697286  0.5923871267338082   T   T   T
  0.1685835293290997  0.2495032875426677  0.5931363915066958   T   T   T
  0.1709269411780861  0.7492992667325126  0.5950181117514581   T   T   T
  0.2483133822921680  0.4359215555151723  0.5491738376280175   T   T   T
  0.1654188190041136  0.5031841290738213  0.5876701098274055   T   T   T
  0.2493608638366187  0.6831265551427675  0.5519097589624390   T   T   T
  0.5808057585417007  0.1858366613783032  0.5494410003193482   T   T   T
  0.9143581313689938  0.8132479831662143  0.5468397798298948   T   T   T
  0.9167713080006905  0.5634885410236453  0.5464951084302766   T   T   T
  0.5814586798528041  0.5602521090475525  0.5494161816959159   T   T   T
  0.5861603204878613  0.8148581431019457  0.5504917558872146   T   T   T
  0.5828782788272678  0.3116820696463493  0.5455024097887269   T   T   T
  0.5805842387678029  0.0628060472296263  0.5461251604963190   T   T   T
  0.2534390788276031  0.8128607952946507  0.5514507572039241   T   T   T
  0.2523618927709623  0.5589910168959704  0.5440010927142838   T   T   T
  0.2494849737881853  0.3137502364986330  0.5459420809178206   T   T   T
  0.2514417928248969  0.0627709135526314  0.5471394917493630   T   T   T
  0.7488131602462061  0.8085911670613988  0.5458189432057029   T   T   T
  0.7464600424880736  0.5576812332066636  0.5445686650641625   T   T   T
  0.4139037329016981  0.8115571717734329  0.5481396561274302   T   T   T
  0.7506936669670587  0.0583634690422399  0.5445991183329779   T   T   T
  0.7477561881408197  0.3109677308136318  0.5477651540486955   T   T   T
  0.4159704360484383  0.3197335491891216  0.5525329601326621   T   T   T
  0.4202460833929498  0.5649730163212060  0.5554385242304730   T   T   T
  0.4163035049657613  0.0654114466423327  0.5472237445293957   T   T   T
  0.0851899068213584  0.8125304624458075  0.5474063923281302   T   T   T
  0.0824690759460937  0.5640547392141034  0.5463065814907450   T   T   T
  0.0862563520857054  0.3132333679819818  0.5469022641371281   T   T   T
  0.0845127345898138  0.0623950218217695  0.5471417468850250   T   T   T
  0.9127122891951287  0.9388770685176553  0.5465181735327734   T   T   T
  0.9132048934598588  0.6895415594363791  0.5450137994636374   T   T   T
  0.5818212754011458  0.9382584806600742  0.5452162819578223   T   T   T
  0.9167826519720097  0.1870451180916790  0.5461947432436207   T   T   T
  0.9155123091645059  0.4371631148804547  0.5457721008016899   T   T   T
  0.5765121060799220  0.4361311786466985  0.5516339820341816   T   T   T
  0.5795336308525526  0.6864821542214256  0.5471096047774129   T   T   T
  0.2518921547152873  0.9373283557164869  0.5450634897771152   T   T   T
  0.4976990683120699  0.5043536537506950  0.6089883254709710   T   T   T
  0.4985225354543655  0.2530600329619694  0.5902714189477137   T   T   T
  0.4985061949602274  0.0003786091247006  0.5907930303049267   T   T   T
  0.7536903694100470  0.6934975035574630  0.6574071617369367   T   T   T
  0.7467637749325794  0.9368443543863270  0.6392443138095328   T   T   T
  0.2535133863412799  0.1868253231157518  0.6413870382458570   T   T   T
  0.7457634445733402  0.1943512231743976  0.6467465817942978   T   T   T
  0.7560915892234285  0.4362612786814266  0.6392089238982890   T   T   T
  0.4171875193681175  0.9350342933986530  0.6398632231784148   T   T   T
  0.4216022104469268  0.6758767829188687  0.6336313336264580   T   T   T
  0.5898200515228574  0.8101924344422111  0.6458590006751701   T   T   T
  0.9181382480609900  0.0618128918935272  0.6395791784496778   T   T   T
  0.9130418438175192  0.5615648419147868  0.6426507145638466   T   T   T
  0.9152742417300183  0.3117238761337960  0.6394880859042379   T   T   T
  0.9135933724858787  0.8132948551062705  0.6411513652531181   T   T   T
  0.5812412896864991  0.0657820614465335  0.6395540689282778   T   T   T
  0.5829251253018798  0.3199183809966828  0.6341293990983514   T   T   T
  0.5918232149584494  0.5643169132148623  0.6396339737351239   T   T   T
  0.2474872837724645  0.5737086354625054  0.6289576817850401   T   T   T
  0.2618355808187132  0.7983172543245256  0.6469370949594894   T   T   T
  0.2497123332603164  0.3165710421211064  0.6414006926262373   T   T   T
  0.2511840174618046  0.0593575464400219  0.6424259124564290   T   T   T
  0.9166666865332829  0.5625000000092442  0.3605200052333331   F   F   F
  0.4995653223785482  0.3741763752215236  0.4997281746418716   T   T   T
  0.4996928294347959  0.8718459409468131  0.5001499529794420   T   T   T
  0.5004176429973757  0.6209965850916694  0.5001125834097240   T   T   T
  0.8322798202982388  0.6230105381796028  0.4999788752389349   T   T   T
  0.8324838457652055  0.8741120950570234  0.4975518341932855   T   T   T
  0.8326408661936942  0.3728857454862587  0.4994665634921623   T   T   T
  0.8329578598236789  0.1250134589787753  0.4994121750217556   T   T   T
  0.1667490741124321  0.3762183312231506  0.4977590914486221   T   T   T
  0.1677468765011558  0.6243308413537970  0.5000305882477650   T   T   T
  0.5815908653753926  0.4383347756501980  0.6459182746719325   T   T   T
  0.5805502152470761  0.6848858075414881  0.6385544848702299   T   T   T
  0.9164756087091174  0.1858255624296672  0.6404725011353909   T   T   T
  0.5804205861239973  0.9353979751740028  0.6386512349572200   T   T   T
  0.8303869729483225  0.7504853267085716  0.5928879938278492   T   T   T
  0.8315338608314247  0.2479228211046691  0.5913007959580785   T   T   T
  0.8333115136590220  0.5038607837498132  0.5893387525192295   T   T   T
  0.8317911170111257  0.0024844112041547  0.5993788548225164   T   T   T
  0.5010679956899924  0.7562843982934059  0.5927455471523859   T   T   T
  0.4174482798452619  0.0653699199726027  0.6401527166701503   T   T   T
  0.4269530195142937  0.3052163601322924  0.6550547640688005   T   T   T
  0.4118066104965152  0.8124259585769379  0.6397576952450426   T   T   T
  0.3981215222501456  0.5509379231898833  0.6521850119170720   T   T   T
  0.7520292964478049  0.5710850668318510  0.6342714680482255   T   T   T
  0.7410256621674107  0.8100393002508842  0.6398706793752434   T   T   T
  0.7467719941855472  0.3126487896015903  0.6400764309441137   T   T   T
  0.7462458017996653  0.0671182104406079  0.6386104947735962   T   T   T
  0.0835730868833615  0.3122250748377411  0.6404024376184025   T   T   T
  0.6665989527878117  0.8751906832487538  0.4996865241610722   T   T   T
  0.0867699717566900  0.5617294221435691  0.6419907110775134   T   T   T
  0.0844443720187448  0.0602002448484094  0.6420202716547077   T   T   T
  0.0869640698002092  0.4366775381200359  0.6395000923841823   T   T   T
  0.0854727422337269  0.1863052730790814  0.6417030552441704   T   T   T
  0.4183652550180600  0.1882219986342480  0.6398463511918674   T   T   T
  0.4150345817305364  0.4190835902231012  0.6298728445685240   T   T   T
  0.0860370042547034  0.9348451108036914  0.6413356296967079   T   T   T
  0.0829645363349069  0.6869718873119315  0.6398223442686064   T   T   T
  0.9125139406031505  0.4361494186127021  0.6397327209181896   T   T   T
  0.9165387243850875  0.6876681768744419  0.6398785393292936   T   T   T
  0.9154535291574876  0.9373571788662880  0.6395865200750211   T   T   T
  0.2406424560560131  0.4421269162002065  0.6416025559231601   T   T   T
  0.2540001927402721  0.6765924502877307  0.6637308104474822   T   T   T
  0.5783126751450726  0.1910690948054497  0.6442523360707878   T   T   T
  0.2524567708185065  0.9297280257093357  0.6374368875557852   T   T   T
  0.0850068440452134  0.8111281251824409  0.6421501249949056   T   T   T
  0.9166666865332829  0.8124999999834799  0.3605200052333331   F   F   F
  0.0023863954136133  0.1246735037324461  0.6207946792133411   T   T   T
  0.8333332538436267  0.6249999999803961  0.4070133268666680   F   F   F
  0.9993937810615858  0.5004724110069282  0.5071602344547751   T   T   T
  0.3311780358919357  0.4992851985452390  0.5010660823173224   T   T   T
  0.3301078654415570  0.2482084417192425  0.5027673302316269   T   T   T
  0.3331239848957661  0.0010527501953870  0.5056014531551718   T   T   T
  0.3337719472087848  0.7507901746316279  0.5016228944538715   T   T   T
  0.6649568474911385  0.0004447778527437  0.5050550042797533   T   T   T
  0.6686171761316410  0.4996862673595358  0.5007556532240350   T   T   T
  0.6670802735002267  0.2474804391509827  0.5030797750376235   T   T   T
  0.6655369502153348  0.7520718037785799  0.5021223244713724   T   T   T
  0.1667390707454897  0.0010569878099071  0.5064408410056678   T   T   T
  0.1663940645473000  0.2482592396969979  0.5062531511022171   T   T   T
  0.1633624785185480  0.4998665665111727  0.5021856988460868   T   T   T
  0.4995722598289686  0.9993740175770564  0.5052730836782880   T   T   T
  0.1643132840596209  0.7512557400480115  0.5033422322834490   T   T   T
  0.5008960105286188  0.7525292324992908  0.5038357837552525   T   T   T
  0.8340335029109351  0.0001632481843599  0.5061655472900696   T   T   T
  0.5013295863875367  0.4997801976897494  0.5003572941627448   T   T   T
  0.5010700186594693  0.2480048433785883  0.5019194376179309   T   T   T
  0.8355451486383971  0.2479277295316872  0.5032411367318265   T   T   T
  0.9995877997617089  0.7509696225328303  0.5066368000901741   T   T   T
  0.0008436885234902  0.2491815404827433  0.5060988125565061   T   T   T
  0.0016777012875560 -0.0003398077365743  0.5053820054293228   T   T   T
  0.8333332538436267  0.8749999404036828  0.4070133268666680   F   F   F
  0.0000000000000000  0.6249999999803961  0.4070133268666680   F   F   F
  0.0000000000000000  0.8749999404036828  0.4070133268666680   F   F   F
  0.3333333432766779  0.1249999999871179  0.4070133268666680   F   F   F
  0.3333333432766779  0.3750000000061604  0.4070133268666680   F   F   F
  0.3333333432766779  0.6249999999803961  0.4070133268666680   F   F   F
  0.3333333432766779  0.8749999404036828  0.4070133268666680   F   F   F
  0.6666666865533486  0.1249999999871179  0.4070133268666680   F   F   F
  0.6666666865533486  0.3750000000061604  0.4070133268666680   F   F   F
  0.6666666865533486  0.6249999999803961  0.4070133268666680   F   F   F
  0.8361107652982311  0.4998698835331537  0.5030904007430222   T   T   T
  0.6666666865533486  0.8749999404036828  0.4070133268666680   F   F   F
  0.1666666716383389  0.3750000000061604  0.4070133268666680   F   F   F
  0.1666666716383389  0.6249999999803961  0.4070133268666680   F   F   F
  0.1666666716383389  0.8749999404036828  0.4070133268666680   F   F   F
  0.5000000000021103  0.1249999999871179  0.4070133268666680   F   F   F
  0.5000000000021103  0.3750000000061604  0.4070133268666680   F   F   F
  0.5000000000021103  0.6249999999803961  0.4070133268666680   F   F   F
  0.5000000000021103  0.8749999404036828  0.4070133268666680   F   F   F
  0.8333332538436267  0.1249999999871179  0.4070133268666680   F   F   F
  0.8333332538436267  0.3750000000061604  0.4070133268666680   F   F   F
  0.1666666716383389  0.1249999999871179  0.4070133268666680   F   F   F
  0.0000000000000000  0.3750000000061604  0.4070133268666680   F   F   F
  0.8357346303665276  0.7517245626745640  0.5023896162571861   T   T   T
  0.8370882309099159  0.3724492209906325  0.6045389553951963   T   T   T
  0.8321399572910055  0.8755252649179867  0.6148191067753390   T   T   T
  0.8406223857761962  0.6268264124806914  0.6032247477406362   T   T   T
  0.0005010805553238  0.8738136847606530  0.6237596536151531   T   T   T
  0.3314885999546879  0.1201775245621079  0.6133902401311484   T   T   T
  0.3343268608910095  0.6238958539661592  0.5955227027581422   T   T   T
  0.3259201892634056  0.3738543381407485  0.5928488285022140   T   T   T
  0.6710683235902588  0.3720298234941277  0.5941942287194654   T   T   T
  0.6638047259185494  0.1265074969873897  0.6128271775038351   T   T   T
  0.3346080725022845  0.8784092375274417  0.6027405406545984   T   T   T
  0.1586520844808323  0.6268602124342701  0.6016340829758411   T   T   T
  0.1671917709589666  0.8718903202449296  0.6183574929801905   T   T   T
  0.5016521874680241  0.3715048953389037  0.5950140341943954   T   T   T
  0.4996542935692261  0.1225242627842942  0.6059926601946096   T   T   T
  0.1682791492975543  0.1226068426989607  0.6217106180742179   T   T   T
  0.1634161945629434  0.3716790046634619  0.6078032109321376   T   T   T
  0.6635290513175648  0.8796562708157306  0.6070205655601874   T   T   T
  0.6662088472997133  0.6266260873322975  0.5935032420632953   T   T   T
 -0.0001401858845652  0.3751572288092336  0.6225400447183708   T   T   T
  0.9995521232907298  0.6221917071915293  0.6435396972006483   T   T   T
  0.8337010646800971  0.1252219977254639  0.6160406928065789   T   T   T
  0.4996175573557091  0.8761284750331433  0.6096023184405543   T   T   T
  0.0000000000000000  0.1249999999871179  0.4070133268666680   F   F   F
  0.5039711042641176  0.6247144328389034  0.5939097893298990   T   T   T
  0.9251992271549493 -0.0006005508008670  0.6013347740218049   T   T   T
  0.5841498561431923  0.7497615270780217  0.5994207785788552   T   T   T
  0.5907670057246407  0.5008636661813683  0.5937278505524617   T   T   T
  0.2422867072972355  0.4980910400825630  0.5940053353655633   T   T   T
  0.2495216291625635  0.7522885770287885  0.5921420615651329   T   T   T
  0.5838997548759557  0.2478485033433615  0.5970300137453783   T   T   T
  0.5801631925131907  0.0012114247464640  0.6041302285700427   T   T   T
  0.2502693611766805  0.9973854005028727  0.6045203944919857   T   T   T
  0.2492627444174934  0.2461028740453388  0.6037813206925829   T   T   T
  0.4166344038980359  0.0003151009820003  0.6049026991245153   T   T   T
  0.4146348458347077  0.2488945125982993  0.5910834859933239   T   T   T
  0.4160357204033178  0.7499137415461107  0.5945294393929663   T   T   T
  0.7564954329298358  0.5026960546444986  0.5957026647136745   T   T   T
  0.7516858245511842  0.7525538335731343  0.5906056707087017   T   T   T
  0.7537287093140622  0.2481948685981406  0.5943971216769934   T   T   T
  0.7413315866098105  0.0018230766474540  0.6036346240974965   T   T   T
  0.0841368813646358  0.2482677292385096  0.6038927237951748   T   T   T
  0.0811445056857547  0.5004203421651632  0.6033597041753070   T   T   T
  0.0803153146446007  0.7504608110973644  0.6030959733319332   T   T   T
  0.0863595641628859  0.9979215573242383  0.6041093574416841   T   T   T