Au  C  H  O Sr Ti                       
   1.00000000000000     
    23.6707801818999997    0.0000000000000000    0.0000000000000000
     0.0000000000000000   22.3170261383000010    0.0000000000000000
     0.0000000000000000    0.0000000000000000   30.0000000000000000
   Au   C    H    O    Sr   Ti
    50     1     2   265    72    72
Selective dynamics
Direct
  0.7152762953147374  0.5244844464568530  0.7528422625844513   F   F   F
  0.6204337141765421  0.5711006303019701  0.7040889025434396   F   F   F
  0.7225116172888093  0.2591662927382643  0.6909394383873959   F   F   F
  0.2947637235567129  0.7461352143671434  0.6962136540669590   F   F   F
  0.5116055755053424  0.6032993474089281  0.7769768493648002   F   F   F
  0.5786890968238367  0.7256717449655596  0.7939971306915083   F   F   F
  0.2403879096543591  0.4691464134627381  0.7087399816701634   F   F   F
  0.2859844254815727  0.6622822989330928  0.7640364743855059   F   F   F
  0.5999261592415763  0.2863660498935232  0.7833795996172697   F   F   F
  0.5141049745045976  0.4844179950558072  0.6779628688653077   F   F   F
  0.5627722629122687  0.4859508012170011  0.7622050904396787   F   F   F
  0.5486511714554894  0.2157847634715537  0.7088222693704367   F   F   F
  0.5471525837800968  0.3839492570638967  0.8272335002332767   F   F   F
  0.3920604396351735  0.8173100711667303  0.7066493732479344   F   F   F
  0.4638199473648825  0.6951025859174891  0.8305712054958718   F   F   F
  0.4321545984595758  0.2269883757457976  0.6986513144658915   F   F   F
  0.3684794640212914  0.2994358798964782  0.7562003036991385   F   F   F
  0.3494259911845177  0.4994617661458278  0.6977520072623875   F   F   F
  0.4268269895823522  0.3718824151821352  0.8166686444976392   F   F   F
  0.5965691022961650  0.7845650209857666  0.7129612467959277   F   F   F
  0.6347575656294850  0.5839020654351259  0.8001024916411623   F   F   F
  0.7325056004073573  0.6144912855235205  0.6939989337373333   F   F   F
  0.4859224451891819  0.7750473087174470  0.7545708165671954   F   F   F
  0.7634919961910285  0.4307136731261565  0.7042190335052183   F   F   F
  0.4832563697215164  0.2713054678476468  0.7751828231185911   F   F   F
  0.2891097068945925  0.5383927196118634  0.7772179942336734   F   F   F
  0.6171653335131140  0.3202897154600635  0.6956401793100540   F   F   F
  0.3683811451728261  0.6189487058645042  0.8202981474416120   F   F   F
  0.5691600146121942  0.5093031688737923  0.8564093542123814   F   F   F
  0.6563976465517030  0.1885784446244756  0.7446453224253986   T   T   T
  0.4703053763115932  0.4507320400346302  0.8794030413129121   F   F   F
  0.5176790684711889  0.3772259526375237  0.7319063103220174   F   F   F
  0.2815584754422957  0.3406725649452156  0.7023735153012112   F   F   F
  0.6694563293777023  0.6811587452662380  0.7487789046275637   F   F   F
  0.3976286349570373  0.3815715697926620  0.6904756477181024   F   F   F
  0.4520912842568166  0.5794936096202008  0.7028801775318527   F   F   F
  0.3746999520585916  0.4932583142815758  0.8329242685364022   F   F   F
  0.3245156851690894  0.4153450149522442  0.7695424885491136   F   F   F
  0.4148967763450031  0.6950428723870203  0.6997355684244297   F   F   F
  0.6998811462842482  0.3438955337755374  0.7573889360039061   F   F   F
  0.7733356710771133  0.4284711033699082  0.7943261564896247   F   F   F
  0.2568155095225322  0.5926128434017670  0.6942536427972854   F   F   F
  0.6484111436251681  0.4456313369430021  0.6945370396147936   F   F   F
  0.5645388442699115  0.6392612638544293  0.8610742926886346   F   F   F
  0.5396528543648529  0.6681151429490910  0.7020641732045618   F   F   F
  0.4434914954091198  0.4731508993084432  0.7564568147275992   F   F   F
  0.3745106493613974  0.7399398912766628  0.7792606871630525   F   F   F
  0.4624420492663575  0.5731556897244801  0.8643458456718562   F   F   F
  0.6550249343903403  0.4404757670549913  0.8125495540032190   F   F   F
  0.7065402247127963  0.7569035591225770  0.6883808318595825   F   F   F
  0.7026718385757889  0.1144449542345711  0.7330932297809056   T   T   T
  0.7403075714638376  0.1130291666813648  0.7118239611950159   T   T   T
  0.6550775709486842  0.0589552196183192  0.7632715271659123   T   T   T
  0.2492255066035014  0.3137662968115649  0.5458625373753137   F   F   F
  0.7502728608086073  0.1895762045799358  0.4557071246717825   F   F   F
  0.4172432179374894  0.9360490264855770  0.4540559024274060   F   F   F
  0.4172018262583421  0.6851518802397720  0.4550372789195620   F   F   F
  0.4166845470883871  0.4355761108694693  0.4539808731187023   F   F   F
  0.0843674031521431  0.6869523603304444  0.4531757657574218   F   F   F
  0.0840784361923568  0.9368904960054749  0.4537036849903302   F   F   F
  0.0827552793141848  0.4367892389214418  0.4528312463855784   F   F   F
  0.0838476970685988  0.1865479161132129  0.4530063509858948   F   F   F
  0.9165545561851687  0.8122959299680232  0.4540822596431369   F   F   F
  0.0833333358191695  0.3124999999901945  0.3605200052333331   F   F   F
  0.7464309730621110  0.5577251945796391  0.5446550692683729   F   F   F
  0.9161286555612165  0.0622206323628447  0.4541185126827045   F   F   F
  0.9160863284780589  0.3121437104483888  0.4538915875099718   F   F   F
  0.4169155435551062  0.1872680365462571  0.4536666613980103   F   F   F
  0.2520678614139911  0.6875995136127102  0.4560588183282945   F   F   F
  0.9163723189851893  0.9371064199545103  0.4536861349499617   F   F   F
  0.5830323702235276  0.1904187534064263  0.4556956773041847   F   F   F
  0.0000663998245898  0.1251127009091562  0.4985204977593938   F   F   F
  0.5828598013534219  0.8108148256684089  0.4552573049181703   F   F   F
  0.9999859843157424  0.3734261707412756  0.4983841989790534   F   F   F
  0.9996362693391347  0.6271536044050663  0.4976371797163708   F   F   F
  0.3336317756006935  0.1256623399075210  0.4987280817800368   F   F   F
  0.0001177572926068  0.8752137361405516  0.4996369227124688   F   F   F
  0.3335056359159836  0.8741364398324691  0.4991093509163065   F   F   F
  0.6658419628984831  0.1274380468067591  0.5009403390258171   F   F   F
  0.2511982779445603  0.4394209220102638  0.4549001536298007   F   F   F
  0.0833333358191695  0.5625000000092442  0.3605200052333331   F   F   F
  0.9166666865332829  0.0625000000159659  0.3605200052333331   F   F   F
  0.7495411739393418  0.8131763050389296  0.4530250169347667   F   F   F
  0.7496442721220546  0.4382743974828429  0.4558266831395059   F   F   F
  0.2504832718960159  0.0620888192697961  0.4542950045619705   F   F   F
  0.7490614101143720  0.6886312980872304  0.4575317511042414   F   F   F
  0.2500084659024111  0.1887238672974121  0.4543593930157641   F   F   F
  0.2499782792531491  0.9361038017492831  0.4540207880435574   F   F   F
  0.6653342711580379  0.6260301335730034  0.5030513344765666   F   F   F
  0.5845304304440475  0.5629478571181110  0.4548685051057433   F   F   F
  0.5837628485255877  0.0641889243571043  0.4538496511738899   F   F   F
  0.9166666865332829  0.6874999999963620  0.3605200052333331   F   F   F
  0.9166666865332829  0.4374999701794380  0.3605200052333331   F   F   F
  0.9166666865332829  0.1875000000030838  0.3605200052333331   F   F   F
  0.5833333134730552  0.9375000000154046  0.3605200052333331   F   F   F
  0.5833333134730552  0.6874999999963620  0.3605200052333331   F   F   F
  0.5833333134730552  0.4374999701794380  0.3605200052333331   F   F   F
  0.5833333134730552  0.1875000000030838  0.3605200052333331   F   F   F
  0.2499999999799343  0.9375000000154046  0.3605200052333331   F   F   F
  0.9166666865332829  0.9375000000154046  0.3605200052333331   F   F   F
  0.2499999999799343  0.6874999999963620  0.3605200052333331   F   F   F
  0.2499999999799343  0.1875000000030838  0.3605200052333331   F   F   F
  0.7499999404149307  0.9375000000154046  0.3605200052333331   F   F   F
  0.7499999404149307  0.6874999999963620  0.3605200052333331   F   F   F
  0.7499999404149307  0.4374999701794380  0.3605200052333331   F   F   F
  0.7499999404149307  0.1875000000030838  0.3605200052333331   F   F   F
  0.4166666269218169  0.9375000000154046  0.3605200052333331   F   F   F
  0.4166666269218169  0.6874999999963620  0.3605200052333331   F   F   F
  0.4166666269218169  0.4374999701794380  0.3605200052333331   F   F   F
  0.2499999999799343  0.4374999701794380  0.3605200052333331   F   F   F
  0.0833333358191695  0.0625000000159659  0.3605200052333331   F   F   F
  0.9152889780765960  0.6868844725776952  0.4533582762216568   F   F   F
  0.6654009606971627  0.3786101695323580  0.5031542002729381   F   F   F
  0.3343536508191960  0.3784702234539665  0.5029259941072723   F   F   F
  0.3356496920421677  0.6258287428646412  0.5037744262048705   F   F   F
  0.9171224274544230  0.0633576240272973  0.5474866897243942   F   F   F
  0.7497893114320746  0.9384522726550344  0.4554831734370737   F   F   F
  0.9156575143325725  0.3124511530741572  0.5466765779685119   F   F   F
  0.2522270536418105  0.3143976835109825  0.4539497965360795   F   F   F
  0.2518169564433848  0.5648118753383997  0.4536457171443544   F   F   F
  0.2499999999799343  0.8124999999834799  0.3605200052333331   F   F   F
  0.2499999999799343  0.5625000000092442  0.3605200052333331   F   F   F
  0.2499999999799343  0.3124999999901945  0.3605200052333331   F   F   F
  0.2499999999799343  0.0625000000159659  0.3605200052333331   F   F   F
  0.7499999404149307  0.5625000000092442  0.3605200052333331   F   F   F
  0.7499999404149307  0.3124999999901945  0.3605200052333331   F   F   F
  0.7499999404149307  0.0625000000159659  0.3605200052333331   F   F   F
  0.4166666269218169  0.8124999999834799  0.3605200052333331   F   F   F
  0.4166666269218169  0.5625000000092442  0.3605200052333331   F   F   F
  0.4166666269218169  0.3124999999901945  0.3605200052333331   F   F   F
  0.7499999404149307  0.8124999999834799  0.3605200052333331   F   F   F
  0.0834715074978831  0.3119725311469068  0.4540459699034045   F   F   F
  0.4166666269218169  0.0625000000159659  0.3605200052333331   F   F   F
  0.4168146738248737  0.0616079950698989  0.4553299710198360   F   F   F
  0.0834639687385632  0.8121697863390906  0.4541743619927345   F   F   F
  0.0839670353917654  0.5625229226858579  0.4539773586043836   F   F   F
  0.4159765836936842  0.5596183030636581  0.4578698578054485   F   F   F
  0.0838066445691794  0.0619965814673336  0.4541811427889826   F   F   F
  0.4155475407366822  0.3113893727803827  0.4573808574885163   F   F   F
  0.8333332538436267  0.7500000000123208  0.4070133268666680   F   F   F
  0.0833333358191695  0.4374999701794380  0.3605200052333331   F   F   F
  0.0833333358191695  0.6874999999963620  0.3605200052333331   F   F   F
  0.0833333358191695  0.9375000000154046  0.3605200052333331   F   F   F
  0.4166666269218169  0.1875000000030838  0.3605200052333331   F   F   F
  0.0833333358191695  0.8124999999834799  0.3605200052333331   F   F   F
  0.8333332538436267  0.4999999999932783  0.4070133268666680   F   F   F
  0.6900710894263611  0.0606592600268101  0.7457076118967074   T   T   T
  0.2511203037854060  0.0624733903227224  0.5473004903438365   F   F   F
  0.4140904180039584  0.8117894222173518  0.5478499242220352   F   F   F
  0.5833333134730552  0.0625000000159659  0.3605200052333331   F   F   F
  0.5833333134730552  0.3124999999901945  0.3605200052333331   F   F   F
  0.5833333134730552  0.8124999999834799  0.3605200052333331   F   F   F
  0.7485834975286068  0.0641558600330399  0.4536920774066573   F   F   F
  0.2504008030657374  0.8107951315350022  0.4553446526771907   F   F   F
  0.8333332538436267  0.2500000000190425  0.4070133268666680   F   F   F
  0.5843632913145314  0.3155529980848115  0.4536529380525067   F   F   F
  0.8333332538436267  0.0000000000000000  0.4070133268666680   F   F   F
  0.7476357289701028  0.8073307933352183  0.5453658315212593   F   F   F
  0.0833333358191695  0.1875000000030838  0.3605200052333331   F   F   F
  0.0000000000000000  0.0000000000000000  0.4070133268666680   F   F   F
  0.0000000000000000  0.2500000000190425  0.4070133268666680   F   F   F
  0.0000000000000000  0.4999999999932783  0.4070133268666680   F   F   F
  0.7482350117167798  0.5642465408561250  0.4538350440740899   F   F   F
  0.3333333432766779  0.0000000000000000  0.4070133268666680   F   F   F
  0.3333333432766779  0.4999999999932783  0.4070133268666680   F   F   F
  0.3333333432766779  0.7500000000123208  0.4070133268666680   F   F   F
  0.6666666865533486  0.0000000000000000  0.4070133268666680   F   F   F
  0.5826855865758347  0.4396685321598000  0.4565147416787241   F   F   F
  0.6666666865533486  0.2500000000190425  0.4070133268666680   F   F   F
  0.6666666865533486  0.7500000000123208  0.4070133268666680   F   F   F
  0.1666666716383389  0.0000000000000000  0.4070133268666680   F   F   F
  0.1666666716383389  0.2500000000190425  0.4070133268666680   F   F   F
  0.1666666716383389  0.4999999999932783  0.4070133268666680   F   F   F
  0.1666666716383389  0.7500000000123208  0.4070133268666680   F   F   F
  0.5000000000021103  0.0000000000000000  0.4070133268666680   F   F   F
  0.5000000000021103  0.2500000000190425  0.4070133268666680   F   F   F
  0.5000000000021103  0.7500000000123208  0.4070133268666680   F   F   F
  0.9166666865332829  0.3124999999901945  0.3605200052333331   F   F   F
  0.3333333432766779  0.2500000000190425  0.4070133268666680   F   F   F
  0.7473317250571512  0.3140162862966420  0.4551286574424438   F   F   F
  0.0000000000000000  0.7500000000123208  0.4070133268666680   F   F   F
  0.4168601224572441  0.8103862716476584  0.4549586105570214   F   F   F
  0.5833333134730552  0.5625000000092442  0.3605200052333331   F   F   F
  0.6666666865533486  0.4999999999932783  0.4070133268666680   F   F   F
  0.5827031135665592  0.6865375820802484  0.4549013683144381   F   F   F
  0.5000000000021103  0.4999999999932783  0.4070133268666680   F   F   F
  0.9156711769299122  0.1866095165892219  0.4532084350630399   F   F   F
  0.4159789800989131  0.9371674115191269  0.5460978175232469   F   F   F
  0.4982062153260784  0.2535104414019926  0.5909589759470038   F   F   F
  0.4159477077579510  0.1913450493184428  0.5465990480285541   F   F   F
  0.0854098818528044  0.6891633870312006  0.5454933362886223   F   F   F
  0.0827855825551111  0.4385229977127452  0.5448906952672345   F   F   F
  0.0838145312904359  0.1888025244271176  0.5458500762712575   F   F   F
  0.4994576833403102  0.1256162514587800  0.4991473721023425   F   F   F
  0.9995679060424720  0.4984109694557475  0.5941209568252575   F   F   F
  0.5794285075421683  0.1848787048806599  0.5505669712471288   F   F   F
  0.9996115777058137  0.7538797827306425  0.5929144792266001   F   F   F
  0.3340658655313433  0.9998490328583429  0.5919920730538593   F   F   F
  0.9999052063817757  0.9991378617765960  0.5932868211389106   F   F   F
  0.0011112341024599  0.2487930258491176  0.5922611141171572   F   F   F
  0.3332497181759919  0.4963725594468897  0.5909254579370611   F   F   F
  0.3353112437956369  0.7412102827373417  0.5904259454388026   F   F   F
  0.6632724075623457  0.2472162712024470  0.5907760055984212   F   F   F
  0.6662825647616089  0.0013505701511178  0.5919992513744887   F   F   F
  0.6654806723244278  0.7410595754500733  0.5909160571397365   F   F   F
  0.6666217318063801  0.4946508996313881  0.5914639700815130   F   F   F
  0.1675086759211837  0.9983046920258829  0.5923176342636509   F   F   F
  0.1685474856498317  0.2485576557951319  0.5933592261263669   F   F   F
  0.1707539739348078  0.7500823199096658  0.5950117282156810   F   F   F
  0.2485265787317559  0.4359478058130364  0.5489052382699811   F   F   F
  0.1654879773337044  0.5028610785783556  0.5869083003895170   F   F   F
  0.3345437843925865  0.2546912203410798  0.5926325189098307   F   F   F
  0.4999087918247014  0.0001762413698145  0.5911930044397948   F   F   F
  0.8326300137128797  0.8741995525503654  0.4992508273960397   F   F   F
  0.7479991613695063  0.9392506299283312  0.6414210398065947   F   F   F
  0.8317309672329287  0.0026798282466061  0.5924686368137557   F   F   F
  0.7489352309622106  0.1841986094082912  0.5506704214308371   F   F   F
  0.4231226172519484  0.6878998105143452  0.5469031381180613   F   F   F
  0.4231279526994385  0.4435582366822715  0.5459668174740742   F   F   F
  0.7519562557818560  0.4353391096751054  0.5489988937743249   F   F   F
  0.5828693373704255  0.3110024669898976  0.5450762582130864   F   F   F
  0.2531110107948180  0.8125880381234083  0.5506315341251096   F   F   F
  0.5830359651177943  0.0620330640168945  0.5455488957329138   F   F   F
  0.5825395204040404  0.9376798345955351  0.4547047358228866   F   F   F
  0.5858716910723132  0.8141920872644519  0.5504019981374739   F   F   F
  0.7475822983970204  0.3119574320572838  0.5486807189849472   F   F   F
  0.5811342384837204  0.5600063947090064  0.5489132463079756   F   F   F
  0.2525886785999063  0.5590802892306925  0.5437437794253412   F   F   F
  0.4158890846028314  0.3194744309676807  0.5524394263402002   F   F   F
  0.5766677010201988  0.4358172044553541  0.5522299680145792   F   F   F
  0.4166620491307569  0.0654032306068686  0.5473618128461197   F   F   F
  0.0852836951244882  0.8125436643775927  0.5473595945139138   F   F   F
  0.0808302243436145  0.5643351169346857  0.5463725836456419   F   F   F
  0.0866424890385176  0.3134305353588758  0.5470978928611459   F   F   F
  0.5003111331277594  0.7570945421139541  0.5928843976597875   F   F   F
  0.0824910348266457  0.0630359978301058  0.5475327892016750   F   F   F
  0.9143959034830473  0.6885929533755544  0.5459159179936464   F   F   F
  0.5839270279831013  0.9375203645845218  0.5463761147717960   F   F   F
  0.9164554384436130  0.1886938370014803  0.5453990385241170   F   F   F
  0.9154549027263670  0.4373255674994425  0.5457436285668109   F   F   F
  0.5790992256311043  0.6860181165122725  0.5476764180757101   F   F   F
  0.2515032803526864  0.9372900101401029  0.5452634186485668   F   F   F
  0.4974305689623151  0.5043708013048800  0.6089691532058481   F   F   F
  0.9179660076682126  0.5637268519382417  0.5470671970292074   F   F   F
  0.4200018055088535  0.5648478158765613  0.5553764853271801   F   F   F
  0.9155747088269095  0.8126532861152356  0.5468501374360315   F   F   F
  0.0840743185034682  0.9383770612177855  0.5461667957437939   F   F   F
  0.2489630209337790  0.6833037150412338  0.5518060964813785   F   F   F
  0.7487671839973444  0.9335189235579335  0.5482017639734309   F   F   F
  0.7517724298992476  0.6799587844304611  0.5535185321700240   F   F   F
  0.9156464936724973  0.9386486985544664  0.5465038628473806   F   F   F
  0.4176606242657357  0.0651617437314940  0.6401026296348249   F   F   F
  0.9160875441224263  0.5622002650867728  0.4540829764170340   F   F   F
  0.4124860791571621  0.8130219746945428  0.6396978746084301   F   F   F
  0.9159455977689390  0.0629999837784965  0.6412266872785111   F   F   F
  0.9139134176196819  0.5628393971391361  0.6407459179018460   F   F   F
  0.9152428637199748  0.3119039855511119  0.6396787122964867   F   F   F
  0.9131563939728338  0.8135564249729228  0.6421721054314204   F   F   F
  0.5831615967466419  0.0668667197064892  0.6391422762185357   F   F   F
  0.5833269340266369  0.3210575773411222  0.6334954913854816   F   F   F
  0.5905070866836084  0.5662010839968445  0.6388205189094194   F   F   F
  0.2474440857900859  0.5736324136682711  0.6285051191514057   F   F   F
  0.7539013586025334  0.6918161996184153  0.6572943019387054   F   F   F
  0.2620270575984662  0.7995087575048885  0.6463612399195782   F   F   F
  0.2510157959801518  0.0594116411895698  0.6423259169334514   F   F   F
  0.9166666865332829  0.5625000000092442  0.3605200052333331   F   F   F
  0.4995509771310012  0.3742330828585523  0.4999005582796983   F   F   F
  0.5002597207724548  0.6210238745587517  0.5000969222952918   F   F   F
  0.8324300368789395  0.6230499410056893  0.5001783833034565   F   F   F
  0.2519496680517008  0.1880645306335538  0.5474262833990267   F   F   F
  0.8323458114500752  0.3730253684661733  0.4998681022810345   F   F   F
  0.8325031447333586  0.1241263010181370  0.5001216000257571   F   F   F
  0.1667267581083536  0.3762206744483976  0.4977311985104222   F   F   F
  0.1675076238295503  0.6243022255390756  0.5002758881726237   F   F   F
  0.5813056324601362  0.4390038945967945  0.6462341149246598   F   F   F
  0.5768203978567357  0.6865110520239739  0.6398303183576246   F   F   F
  0.9158897399320765  0.1861955841695959  0.6398738406889635   F   F   F
  0.2491505465345938  0.3164732563290755  0.6412537645110348   F   F   F
  0.9158031374101583  0.4368932717214733  0.4536575490896766   F   F   F
  0.1671046460397676  0.1244743391537639  0.4994825845841078   F   F   F
  0.7479453499969111  0.0605891243915053  0.5451517946126430   F   F   F
  0.1677255244196232  0.8732674500046684  0.4998744989907848   F   F   F
  0.4266182349821719  0.3042774354307127  0.6557038858015147   F   F   F
  0.5909821388190650  0.8105747727697974  0.6460749544661866   F   F   F
  0.4203105446690074  0.6759671428926382  0.6336898333970638   F   F   F
  0.4999534433301420  0.8733276236678478  0.5010337483420884   F   F   F
  0.7546308767756358  0.4328928316909497  0.6375876595548746   F   F   F
  0.7533394271783891  0.5681100667941408  0.6357763736811961   F   F   F
  0.3971963386724866  0.5505097636641736  0.6519759107343077   F   F   F
  0.4176530000780545  0.9349673564176513  0.6398055574143839   F   F   F
  0.7410823839212455  0.8099431585581414  0.6399572212662363   F   F   F
  0.7471627249062536  0.3125941802235133  0.6407720813610140   F   F   F
  0.7478635096846560  0.0704811503493445  0.6400049261417422   F   F   F
  0.0838566081377152  0.3118857913781667  0.6406007911189207   F   F   F
  0.6664471550931879  0.8742726873972089  0.4986952738930270   F   F   F
  0.0865872622701147  0.5627024413255910  0.6398529155103034   F   F   F
  0.0874152786895834  0.4365936786282631  0.6397021193632213   F   F   F
  0.0843149027533130  0.1859883705483156  0.6420103535272759   F   F   F
  0.4173469405947472  0.1870917743697760  0.6396095140092442   F   F   F
  0.4151825186824851  0.4186116824663273  0.6301617990366992   F   F   F
  0.0844960896669988  0.9357074329333841  0.6410491998754893   F   F   F
  0.0831157397942590  0.6870121588316707  0.6389010052670017   F   F   F
  0.0843273343310997  0.0606207458031633  0.6421297628684428   F   F   F
  0.8332893497379175  0.5030038959815002  0.5889121667461907   F   F   F
  0.9123709958338253  0.4361538684628670  0.6399964751722109   F   F   F
  0.8303274965492022  0.7509461873472958  0.5928275402919283   F   F   F
  0.8317387834040275  0.2491940571991691  0.5907539232656092   F   F   F
  0.7463851042838385  0.1944559712284999  0.6467777063397335   F   F   F
  0.9166666865332829  0.8124999999834799  0.3605200052333331   F   F   F
  0.5825102748341351  0.9364877392066120  0.6398534203086115   F   F   F
  0.0846582541704421  0.8126740653897215  0.6424750115428495   F   F   F
  0.5779341889024465  0.1923073553279693  0.6452467093426080   F   F   F
  0.2550134042898407  0.6771946406543350  0.6626391210707041   F   F   F
  0.2404972814319990  0.4420661513888433  0.6411858555253147   F   F   F
  0.9141354748316317  0.9375141670998985  0.6415119951816877   F   F   F
  0.9163822406345403  0.6876753943344269  0.6390728260587792   F   F   F
  0.2520407683109767  0.9301713427449982  0.6373657357267462   F   F   F
  0.2536862621993450  0.1865740483770750  0.6414692280067982   F   F   F
  0.0010005317049320  0.1232507317727780  0.6205774771858117   F   F   F
  0.1666666716383389  0.3750000000061604  0.4070133268666680   F   F   F
  0.6652765665537572  0.7518692741255464  0.5022008508206000   F   F   F
  0.5011429494355752  0.7529008637621573  0.5038566643487883   F   F   F
  0.6660438581342234  0.9995917971621751  0.5056710784146006   F   F   F
  0.1643151389926345  0.7513297665633090  0.5034564286919192   F   F   F
  0.8333332538436267  0.6249999999803961  0.4070133268666680   F   F   F
  0.6684021445285993  0.4999965416526209  0.5005877899862199   F   F   F
  0.3311521380867077  0.4992644911788062  0.5008565477983495   F   F   F
  0.3301138290546675  0.2480103863482981  0.5028637114442205   F   F   F
  0.3339149896380675  0.7511750202038030  0.5015752268021387   F   F   F
  0.6668199022269832  0.2483773067244428  0.5023464919130376   F   F   F
  0.5010867415309477  0.4998060261625668  0.5002581683076954   F   F   F
  0.9995312961712841  0.4998066630996760  0.5067631859560393   F   F   F
  0.8362753860589223  0.5001245392378166  0.5027796251790448   F   F   F
  0.8360802647227885  0.2485174632903906  0.5023778986807628   F   F   F
  0.6666666865533486  0.3750000000061604  0.4070133268666680   F   F   F
  0.1659960368860069  0.0011384591180104  0.5065735396377846   F   F   F
  0.0000000000000000  0.8749999404036828  0.4070133268666680   F   F   F
  0.5009208486198915  0.2479806667134028  0.5020922504564851   F   F   F
  0.9998351474895202  0.7511234690757078  0.5068272936505522   F   F   F
  0.0010218468041714  0.2496281976635757  0.5062249344812599   F   F   F
  0.0001523777096821  0.9999456397395718  0.5068672070368692   F   F   F
  0.6666666865533486  0.6249999999803961  0.4070133268666680   F   F   F
  0.8333332538436267  0.8749999404036828  0.4070133268666680   F   F   F
  0.3333333432766779  0.6249999999803961  0.4070133268666680   F   F   F
  0.3333333432766779  0.1249999999871179  0.4070133268666680   F   F   F
  0.3333333432766779  0.3750000000061604  0.4070133268666680   F   F   F
  0.8340631706977746  0.9999128915184272  0.5067452012557752   F   F   F
  0.3333333432766779  0.8749999404036828  0.4070133268666680   F   F   F
  0.6666666865533486  0.1249999999871179  0.4070133268666680   F   F   F
  0.0000000000000000  0.6249999999803961  0.4070133268666680   F   F   F
  0.1664450032881248  0.2480814874275481  0.5063698882796075   F   F   F
  0.3331858339283897  0.0010221248002651  0.5057973371783859   F   F   F
  0.5003303580792604  0.9991527746321793  0.5056787738284640   F   F   F
  0.5012277135929111  0.8772084178885606  0.6096753253139227   F   F   F
  0.3259705114811737  0.3735410026716437  0.5926934662636540   F   F   F
  0.0000000000000000  0.3750000000061604  0.4070133268666680   F   F   F
  0.3340094619539542  0.6246490938405174  0.5949645636934520   F   F   F
  0.5000000000021103  0.8749999404036828  0.4070133268666680   F   F   F
  0.8333332538436267  0.3750000000061604  0.4070133268666680   F   F   F
  0.1666666716383389  0.1249999999871179  0.4070133268666680   F   F   F
  0.6649664234295756  0.1245263240126491  0.6052798660503740   F   F   F
  0.5000000000021103  0.6249999999803961  0.4070133268666680   F   F   F
  0.8394853157909310  0.6271874427723958  0.6041765938658585   F   F   F
  0.3314970238942294  0.1196361463612234  0.6126033159356865   F   F   F
  0.9989866954374733  0.8750823782754722  0.6239916902711755   F   F   F
  0.1633325239607402  0.4997794667729210  0.5018288500005141   F   F   F
  0.5000000000021103  0.1249999999871179  0.4070133268666680   F   F   F
  0.8313137721288939  0.8774318520836388  0.6185542755781128   F   F   F
  0.8382612280108290  0.3727752379933307  0.6028670430262864   F   F   F
  0.8361768999707735  0.7518350770278559  0.5027171840457143   F   F   F
  0.1666666716383389  0.8749999404036828  0.4070133268666680   F   F   F
  0.8333332538436267  0.1249999999871179  0.4070133268666680   F   F   F
  0.0000000000000000  0.1249999999871179  0.4070133268666680   F   F   F
  0.5036620039880262  0.6249250513183284  0.5941368572132149   F   F   F
  0.6703484955570076  0.3726927809636962  0.5929455148044482   F   F   F
  0.5000000000021103  0.3750000000061604  0.4070133268666680   F   F   F
  0.6666666865533486  0.8749999404036828  0.4070133268666680   F   F   F
  0.3346843091416787  0.8787316961203402  0.6029358820218320   F   F   F
  0.1595277946459603  0.6274594875600599  0.6014037885220986   F   F   F
  0.1661954099317953  0.8738262358128779  0.6174245071522151   F   F   F
  0.5015129348520873  0.3715439988577174  0.5946447337972813   F   F   F
  0.1666666716383389  0.6249999999803961  0.4070133268666680   F   F   F
  0.1679174376464729  0.1229444643069755  0.6220056905743121   F   F   F
  0.5003025929112752  0.1223324201052307  0.6064797626672771   F   F   F
  0.9997287009072906  0.6234827378505017  0.6237235882028997   F   F   F
  0.0001696114225282  0.3755105084644867  0.6244745828757274   F   F   F
  0.8352532372818047  0.1240652949596281  0.6122481893797485   F   F   F
  0.6657597615511222  0.8819076729404429  0.6074098950974189   F   F   F
  0.1632939963993891  0.3712950039704310  0.6073656219012094   F   F   F
  0.6664923355612444  0.6259278687971204  0.5932669632844210   F   F   F
  0.0839358394687295  0.2478899156889511  0.6041456306781896   F   F   F
  0.7495969762812180  0.0032731493550813  0.6054060419564777   F   F   F
  0.5827979329005331  0.0014598642431451  0.6044999264325739   F   F   F
  0.9166651872917768  0.0000972780527562  0.6039019677096320   F   F   F
  0.5849147588361632  0.7500551231178534  0.5997595663871849   F   F   F
  0.5902078826206392  0.5014221026927572  0.5935018413142501   F   F   F
  0.2423324573243946  0.4979986715739386  0.5935934454590921   F   F   F
  0.5843585085680871  0.2477506840339885  0.5963578934627591   F   F   F
  0.2497530296591748  0.9976682370818963  0.6042193418622190   F   F   F
  0.7544220437204743  0.2481486615696653  0.5921089161059925   F   F   F
  0.2494453410519313  0.2457547591562914  0.6038576697496865   F   F   F
  0.4173207297846986  0.0000327563217013  0.6046906585612746   F   F   F
  0.2497562438520831  0.7528098908450360  0.5919282875052545   F   F   F
  0.0815234658256969  0.4996129235832782  0.6029517088295648   F   F   F
  0.0808732364350604  0.6258014638746872  0.5054137898454059   F   F   F