 C  H                                   
   1.00000000000000     
    23.6707801818999997    0.0000000000000000    0.0000000000000000
     0.0000000000000000   22.3170261383000010    0.0000000000000000
     0.0000000000000000    0.0000000000000000   30.0000000000000000
   C    H 
     1     4
Direct
  0.4999996533212823  0.5000001625093589  0.5000043038595763
  0.5233457645968400  0.5357337597197684  0.5165046984032244
  0.5287900379200963  0.4636491888644159  0.4915681436453525
  0.4672121689755997  0.4833088067271163  0.5222457909214171
  0.4806481505683493  0.5173125630630934  0.4691770631704225
 
  0.00000000E+00  0.00000000E+00  0.00000000E+00
  0.00000000E+00  0.00000000E+00  0.00000000E+00
  0.00000000E+00  0.00000000E+00  0.00000000E+00
  0.00000000E+00  0.00000000E+00  0.00000000E+00
  0.00000000E+00  0.00000000E+00  0.00000000E+00
