Au  C  H  O Sr Ti 
 1.0000000000000000
    23.6707801818999997    0.0000000000000000    0.0000000000000000
     0.0000000000000000   22.3170261383000010    0.0000000000000000
     0.0000000000000000    0.0000000000000000   30.0000000000000000
 Au  C   H   O   Sr  Ti 
  50   2   5 265  72  72
Selective dynamics
Cartesian
 16.8891810506007829 11.7637226374034274 22.5982103833341483   F   F   F
  6.6506125646969307  7.6202647346967343 21.0771622868568151   F   F   F
 15.8241944243751025 15.2340102246427698 22.4612842444590264   F   F   F
  9.3967865326181244  8.5325989868918537 20.7237190627312522   F   F   F
 10.6726073440532314 12.9508464375031966 21.1034144323726629   F   F   F
  8.8520294460633142 11.0558885573412855 24.9939519956397547   F   F   F
  7.6552854249154976  9.2945171048947426 23.0976103781212316   F   F   F
  8.7250068618686836 13.8526907339339473 24.6042806689942388   F   F   F
  8.2304461873235493 11.1668944071663621 20.9066995289379918   F   F   F
 12.2361593586021158  8.4567206527901053 21.9869465689956911   F   F   F
  6.0614856799108408 13.2628117836038495 20.8348410665299326   F   F   F
 11.1066033010105389 10.0991436324969062 26.3698423720355670   F   F   F
 15.3500361153054463  9.9918001590695837 20.8273576133136515   F   F   F
 12.7441477844031965 14.9310601951154069 21.0663009257041551   F   F   F
 10.4470688440056243 10.5709747758715178 22.6817463046053156   F   F   F
 16.7193824222569809 16.9081930112204724 20.6429991747575947   F   F   F
  8.8605449142407746 16.5590616140121263 23.3827365893626791   F   F   F
 10.9301367067856248 12.8407022736462579 25.9602281457495607   F   F   F
 15.4603281384865099  9.8710467779389504 24.3773764859464741   F   F   F
  9.8029842041315831 15.5355514812468254 20.9979230422294023   F   F   F
 18.2607001820772510  9.6377449593818358 23.8567867442296198   F   F   F
 15.7212015306797124  4.3086417843929183 22.4857023081877117   T   T   T
 13.4536080650328973 11.4182047362421066 25.7102225716610100   F   F   F
 13.3355092716351127 14.3194493733943791 25.8653043043516782   F   F   F
 13.0777791996672903  4.8086816381851722 21.3156344854825335   F   F   F
  6.8320442173219842 12.0451584957823812 23.3120107533107550   F   F   F
 13.6745648453165707 16.2144960869457364 23.8238179539650510   F   F   F
  5.6636641381612023 10.4948896469860387 21.2744249831350523   F   F   F
  6.7730278542129545 14.8125012014332675 22.9185511100581962   F   F   F
 14.1718325956858511  6.4981894471086505 23.5340888006228965   F   F   F
 12.1525841986165819 10.8368161325126735 20.3425856505692089   F   F   F
 13.2737695742690001 10.9014143198628073 22.8728558184074586   F   F   F
 11.4348300249734915  6.0643360628740854 23.2496409022047992   F   F   F
 12.9184557766198207  8.6239930347428047 24.8492626444120219   F   F   F
 14.5732889762613294  7.2098587670970167 20.8729280555362386   F   F   F
  9.2662075742251897 18.2648168780616551 21.1951403315326026   F   F   F
 10.3094154321883824  5.0867248020337970 20.9426254066855861   F   F   F
 16.5375969092322919  7.7468983517685333 22.7024314140215644   F   F   F
  8.7168460342415042  6.6971262262939666 22.6835406132665227   F   F   F
 14.1135266535769137 17.5204785016496736 21.3784447000482487   F   F   F
 14.9629782604653609 13.0888762254035029 23.9968084924335621   F   F   F
 17.3050168770803730 13.7487673229056711 20.8031649207180429   F   F   F
 11.4969201270802035 17.3464675483551503 22.6339178220309591   F   F   F
 18.0691919191656929  9.6650601977103783 21.1483074326425893   F   F   F
 17.0284424664520522  5.7946321047515550 20.7286879556001153   F   F   F
 14.6623338701505919 12.7811421749918104 21.1162342300606447   F   F   F
 10.9610903100455026 15.5832780222559233 24.9500929972999259   F   F   F
 12.0562992693002187 13.5211407351119508 23.3327707852907338   F   F   F
  6.9641050420274180 16.6818408304168813 20.8781329711334394   F   F   F
 10.0765746552088427  8.3248216469551455 24.4986614368500781   F   F   F
 17.3719357739724529  2.9221131268090241 22.7640919115161680   T   T   T
 16.7781439049720333  1.6888785643323960 23.4033539278168163   T   T   T
 17.5676785266228528  0.9283255105317798 23.4678078957394050   T   T   T
 16.4036403303041673  1.8796821004858120 24.4134484763280533   T   T   T
 17.6892994403708528  2.7901117412989738 21.7295644073524024   T   T   T
 15.9710329201477528  1.2784794805301571 22.7962572284974314   T   T   T
 18.2441184572061879  3.4633545689599656 24.4164848894230317   T   T   T
  1.9964798427623438 15.3312576936921054 13.5945175541234065   F   F   F
 13.8608733047575630 18.1696149443863995 16.5117146466583300   F   F   F
 17.7049209435268082  6.9520695256153253 16.4413009629104785   F   F   F
 13.7556519734451950 12.4965230825028133 16.4633073088687070   F   F   F
  5.9784068260481469 12.4775369837850256 16.3153161707000613   F   F   F
  9.8425490885866491  7.1294399566163058 16.5731059717672835   F   F   F
 13.6467939033617469  9.7276309301308732 16.5695180262785620   F   F   F
  9.8626492140543593  1.4603510322890685 16.4200174041613884   F   F   F
 11.8259777740489724 16.8936398614086869 17.7758659349460864   F   F   F
  1.9515344752901158  1.4081348319108056 16.4273632653145967   F   F   F
  1.9725650740000149  6.9740706679999214 10.8156001569999933   F   F   F
 21.6473711283078423 15.3671663194902610 16.3779645924431492   F   F   F
 17.7558561035336488  4.2361561814463968 13.6753148629642549   F   F   F
 21.7045581766220401  4.2151765215470833 16.3629372009529952   F   F   F
 13.7069307535732730 15.3104880688763885 16.4284858399391531   F   F   F
  5.9537739900922295 20.9173040840481654 16.3566724849500673   F   F   F
 11.7732094364339286 11.2574040421166348 18.2673127363189991   F   F   F
 21.7336412389644131 12.5798398758267922 16.4096238152863165   F   F   F
  9.9393808882218462 12.6071921827602544 16.6606294855362123   F   F   F
 21.6720054262227535 18.1362560166850706 16.4054827836836914   F   F   F
  1.9907823135812306 20.9416518060406851 16.3839689242086450   F   F   F
  5.8896062639408742 15.2494142760701905 16.5485025337208107   F   F   F
 17.7375277540017358 20.8413327353755200 16.4304106847845404   F   F   F
 17.7911625844697738 15.1874560311800533 16.5977126136431963   F   F   F
 21.6720609598000671 20.9443825730229669 16.3908493465262133   F   F   F
  9.8894038551678243  1.4550203704388154 19.2015761823921025   F   F   F
 13.8215012070447170 20.9229205219331860 16.3916231300392177   F   F   F
  9.7474326002321270 18.1411821561531639 19.1808925171688109   F   F   F
  5.8604794953164623 12.8109530811041736 18.8621625989964130   F   F   F
 13.7883573215183954  1.3786494751501002 16.3630198639318074   F   F   F
 21.6773684388900847  4.1691961565586730 13.5959232440741093   F   F   F
  3.9905669839303082  5.5407196022686724 17.7953512965624476   F   F   F
 11.8210099018419506  2.8047040756268991 14.9705738299391005   F   F   F
 23.6617044913021601 11.1219580473270838 17.8229531805409067   F   F   F
 13.7193485536405841  4.1266589026866454 16.5133470747001994   F   F   F
 23.6670247124412256 16.8205361473184922 17.7860301429416232   F   F   F
  7.9077012500173156 22.3147159151125472 17.7593146869421474   F   F   F
 23.6691883041337299 22.2923064401052073 17.7912986045439609   F   F   F
  0.0284859358620045  5.5747223079993855 17.7652699220222559   F   F   F
  7.8858931000308532 11.0759276117004948 17.7298423899423625   F   F   F
  7.9223557784677068 16.5342385043643176 17.7040618164886396   F   F   F
 15.6975122168863006  5.5281218160872756 17.7101668821393261   F   F   F
 15.7692525413494096  0.0262585239130173 17.7577314303782678   F   F   F
 15.7454787403729792 16.5454742313098002 17.7293663494828877   F   F   F
 15.7787575028200973 11.0392558799651272 17.7446361946633573   F   F   F
 13.7882672315891348 20.9156164451044972 13.6351908975605660   F   F   F
 21.6673179230799597  9.7613394531078850 16.3721638840541743   F   F   F
 18.3889345684465653  3.5423729626710121 23.4611473567495530   T   T   T
  5.8766168709784132  9.7283860989512512 16.4743891761603791   F   F   F
  3.9162396617174182 11.2343319211943999 17.6173363210881178   F   F   F
  7.9189271287271401  5.6812998070721044 17.7798100758156146   F   F   F
 11.8301639081433834  0.0028333676092180 17.7335156861195706   F   F   F
 19.7092881903512769 19.5065278326477411 14.9612603295967173   F   F   F
 17.7176939751440514 20.9187442540721911 19.2104056645245720   F   F   F
 19.6989892202377916  0.0473903547935199 17.7680298002618215   F   F   F
 17.7164243975125579  4.0990465213243708 16.5288584010487973   F   F   F
 10.0067045118024698 15.3485957618505449 16.4062683110253360   F   F   F
 10.0150540679067639  9.8994498284371950 16.3785704189732293   F   F   F
 17.8038337395725357  9.7160376158742814 16.4722286914651690   F   F   F
 13.7878330388159505  6.9424169097179833 16.3460706122285622   F   F   F
  5.9904213854611124 18.1364120081225622 16.5141992271130746   F   F   F
  3.9650265272678018 22.2791344778943312 17.7694676239027949   F   F   F
  4.0436844000679351 16.7445417076297858 17.8465947043063693   F   F   F
 21.6408356330170939 12.5580930308781671 19.2256688169682874   F   F   F
  9.8571809338342149  9.7193205585174329 13.6173353932374184   F   F   F
 13.7951734315715981  1.4940537467230401 19.1696341907819452   F   F   F
  1.9632574239017853  9.7945887360835400 16.3457385386464189   F   F   F
  9.8861835433282668 20.8655161885965121 19.1934880138890129   F   F   F
 17.7124063243559426  1.5198132278340324 19.1918529040363630   F   F   F
  1.9968449379927020  6.9454738037070936 19.2275555025631100   F   F   F
 15.7754431769977757 19.5121634081267814 14.9657497817733649   F   F   F
  2.0450721258989804 12.5647592178253369 19.1965232567507229   F   F   F
  2.0694979087818313  9.7447349912164558 19.1922054880101598   F   F   F
  9.8855389608756017  4.1828564429431330 19.1934764282923176   F   F   F
  1.9996883194853223 20.8803134878481949 19.2310998881884849   F   F   F
  1.9739065413218855 15.3347030418828840 19.1656592216818957   F   F   F
  1.9926480041883143  1.3446835812766476 19.2651136299562964   F   F   F
 19.7239595247550987 11.2433688632814341 17.6701891737695753   F   F   F
  1.9861052921191051  4.1340754856842743 19.2373483672531123   F   F   F
  5.6832284465268268  9.8710685168986121 19.2480565828072834   F   F   F
  9.8196559685199638  9.3481096136315607 18.9102701706380039   F   F   F
 13.7856212135578495 20.9014393480420537 19.1892542039920784   F   F   F
  5.9678387144137863 20.7631860067474889 19.1229729737387721   F   F   F
 21.6903045316251450 15.3462234803177715 19.1718031854259578   F   F   F
 21.6435999557031806 20.9142414249101378 19.2330465587777937   F   F   F
  9.4014696993562623 12.2886162850274108 19.5585554321018158   F   F   F
  6.0224141192213763 15.1434167247501588 19.8769037610207029   F   F   F
  6.0026678144114074  4.1595042272194043 19.2385978676226550   F   F   F
 13.7134845360390152  4.3041167410094481 19.3671595454904626   F   F   F
  2.0061004868503152 18.1369299753805393 19.2748982034513148   F   F   F
 21.6982156369999721 18.1325837370000720 10.8156001569999933   F   F   F
 17.6469684622178633  4.3508222377709567 19.4058324330787038   F   F   F
 19.6821366809592817  5.5484339374985616 17.7369904217830872   F   F   F
 21.5975587400442457  9.7322763453264969 19.1991723429921421   F   F   F
 19.6584194427334715 16.7601120166421538 17.7818132330280250   F   F   F
 17.6606284185086260  6.9798108089000408 19.2142498320108999   F   F   F
 17.8123254095073342 12.6965706237027476 19.0698414337611339   F   F   F
 13.6324674905559142 15.3343631691048472 19.1969230634781383   F   F   F
 17.5460767095064902 18.0851829894942000 19.1932196492828382   F   F   F
  5.9002563162003678  7.0026987554580531 16.3781849475372887   F   F   F
 13.9740706763666793 12.6509481238977450 19.1514183391981234   F   F   F
 17.8483842935870811 15.4668188135263662 19.6993123796546321   F   F   F
  5.9418423674516809  1.3258002074530062 19.2699703269450033   F   F   F
 21.6982156369999721 12.5533272030000536 10.8156001569999933   F   F   F
 11.8232597170168265  8.3533203611906188 14.9937589495192114   F   F   F
 11.8390035363417905 13.8610025992704333 15.0007804884815439   F   F   F
 19.7061922254527424 13.9060587176512502 15.0071549766370556   F   F   F
  5.9647855696108385  4.1999255917811631 16.4165567628611271   F   F   F
 19.7043537160738715  8.3260044927735581 14.9915948454363015   F   F   F
 21.6625147159958438  6.9592205301586905 19.1933524726253602   F   F   F
  3.9464295301462826  8.3953896424987260 14.9312052976690861   F   F   F
 13.7496801593070188  9.8188112423256992 19.4064743589988780   F   F   F
 19.7140382376316836  2.7801699463979075 15.0049828710234987   F   F   F
  1.9809765214976118  4.2139863789278982 16.3706954944185732   F   F   F
 21.7003013572461363  4.1526316916394945 19.1943809034070085   F   F   F
 21.6802366060635094  9.7502546774719807 13.6090995335323601   F   F   F
  3.9555937626396971  2.7747015674496156 14.9801599233785154   F   F   F
 17.7158003003185591  1.3354500453670399 16.3391286885800397   F   F   F
 10.0827419250996222  6.8022069039367201 19.6843355108736340   F   F   F
 13.9674878739119528 18.1030303448194587 19.3715847476130385   F   F   F
  9.9459959088259460 15.0930033930460734 19.0170917611132140   F   F   F
 17.8822793531537592  9.7000433265723967 19.1465684428084444   F   F   F
 11.7928134313021236  5.6598824950012725 17.7358723275974590   F   F   F
 21.6813650485789324  1.3983327248481445 19.2408140290916378   F   F   F
  3.9646801176521032 13.9304535084611683 15.0052474575732084   F   F   F
 11.8336787681176272 19.4902623044461265 15.0302963993795000   F   F   F
  9.8470223358660363  4.2711706675231218 16.3985170992728513   F   F   F
 21.6191450524363269 18.1519476477916086 19.2604406072222432   F   F   F
  5.8982318063336088  7.0607513972809031 19.2400989190223477   F   F   F
  3.9704209756056805 19.4889177067423134 14.9956045023419673   F   F   F
  2.0253824464080097 15.3813934568523383 16.3630545469360911   F   F   F
  6.2127762894016527 17.8778306407891598 19.3749837817538371   F   F   F
  9.8688641903769430  4.1794359085699950 13.6091651264688860   F   F   F
 13.8079546360000549 20.9222120050000342 10.8156001569999933   F   F   F
  1.9123717788478753 12.5963891722794497 16.3908953042396028   F   F   F
 13.8079546360000549  9.7636982699999884 10.8156001569999933   F   F   F
 13.8079546360000549  4.1844424010000720 10.8156001569999933   F   F   F
  5.9176950450000287 20.9222120050000342 10.8156001569999933   F   F   F
 21.6982156369999721 20.9222120050000342 10.8156001569999933   F   F   F
  5.9176950450000287 15.3429554700000619 10.8156001569999933   F   F   F
  5.9176950450000287  4.1844424010000720 10.8156001569999933   F   F   F
 17.7530837259999217 20.9222120050000342 10.8156001569999933   F   F   F
 17.7530837259999217 15.3429554700000619 10.8156001569999933   F   F   F
  9.8762267109234898 20.8897909281059349 13.6199700770023249   F   F   F
 17.7530837259999217  9.7636982699999884 10.8156001569999933   F   F   F
 21.6982156369999721 15.3429554700000619 10.8156001569999933   F   F   F
 -0.0001418956655563  8.3333694137016856 14.9531506020798961   F   F   F
 21.6982156369999721  4.1844424010000720 10.8156001569999933   F   F   F
  9.8628241350000643 20.9222120050000342 10.8156001569999933   F   F   F
  1.9725650740000149  1.3948141340000613 10.8156001569999933   F   F   F
 21.6657056169360551 15.3286987459938917 13.6002705826435548   F   F   F
 15.7503242073332359  8.4512717140485485 15.0977389977844094   F   F   F
  7.9126670702955169  8.4484192161917591 15.0896876327059530   F   F   F
  7.9411934805070521 13.9634426958638294 15.1091909997651257   F   F   F
 21.7205377528704346  1.4139998062973989 16.4234319700008093   F   F   F
 17.7413267098542953 20.9427947314188323 13.6604387193591634   F   F   F
  5.9167568535429655 20.8912882423063166 13.6195648179368192   F   F   F
  5.9149181972083422  4.2068906165059099 13.6230550538932338   F   F   F
 17.7322872295905611 15.3686366783156263 13.7222433925443230   F   F   F
 17.7530837259999217  4.1844424010000720 10.8156001569999933   F   F   F
 13.8079546360000549  1.3948141340000613 10.8156001569999933   F   F   F
  9.8628241350000643 15.3429554700000619 10.8156001569999933   F   F   F
  9.8628241350000643  9.7636982699999884 10.8156001569999933   F   F   F
  5.9176950450000287  9.7636982699999884 10.8156001569999933   F   F   F
 17.7019205447776073 18.0291185153872391 16.3681662904941483   F   F   F
  9.8685607154534321 18.0864696627665715 13.6471378546261572   F   F   F
 13.8079546360000549 15.3429554700000619 10.8156001569999933   F   F   F
 17.7124380189255319 12.5939504368393784 13.6152667194573738   F   F   F
  5.9658145682905399 15.3444170033175169 13.6788414505016043   F   F   F
  1.9898269708722591 20.9079338108775410 13.6109045150743047   F   F   F
  1.9581570147011256  9.7482022026188027 13.5847304210059576   F   F   F
  1.9860492728371326  4.1634995329348312 13.5898259118008706   F   F   F
 21.6971272431024538 18.1248276815849358 13.6225960230742835   F   F   F
 17.6660073119056094 12.4576855554413033 16.3400656170033258   F   F   F
 21.6848902566381483 12.5471511778593747 13.6217834595246874   F   F   F
 21.6850732933164565  1.3900954397007479 13.6230289485439648   F   F   F
 21.6862358719577060  6.9662312220617375 13.6161052175800439   F   F   F
 13.7944817592492530  9.8121547974381027 13.6921620634268884   F   F   F
 13.8027657790403211  4.2477329890055335 13.6704763016640598   F   F   F
 21.6931507240890582 20.9137504972142665 13.6098240366961463   F   F   F
  5.9302116518350410  1.3842293026171668 13.6276249973962074   F   F   F
 13.8061487996973558  1.4222084499368881 13.6156422369820884   F   F   F
 13.8057268674300619 18.0875226233616750 13.6604790332131181   F   F   F
  7.8974058934513867  2.8035306709678869 14.9570230100666812   F   F   F
  0.0023129167808681 19.5315501724028735 14.9879940791651798   F   F   F
  7.8930546581118159 19.5103869398808172 14.9677454045844840   F   F   F
 15.7607898946680205  2.8164691239333668 14.9987122898271430   F   F   F
  5.9455006028935022  9.8035676353963002 13.6469389832836825   F   F   F
  1.9725650740000149 12.5533272030000536 10.8156001569999933   F   F   F
 21.6982156369999721  1.3948141340000613 10.8156001569999933   F   F   F
 17.7363584261612814 18.1479040950073198 13.5905252342659502   F   F   F
 17.7449358928418981  9.7834111177206680 13.6735036706681861   F   F   F
 21.6695536514886768  6.9714509930629251 16.4008331146249482   F   F   F
  9.8752683379821597 15.2910218022944662 13.6503404851531016   F   F   F
  0.0036973380907427  2.7917731082331896 14.9535228072797928   F   F   F
  9.8439375770292390 20.9173534696030607 16.3795778361026017   F   F   F
 13.8101285007026764  7.1835814464306083 18.9869551048280627   F   F   F
 23.6641678478899564 13.9984456384772766 14.9275336459473955   F   F   F
  2.0521862219955382  6.9964075496776408 16.4143274924498108   F   F   F
  2.0144995223726037 18.1350120565575885 16.4200638406595942   F   F   F
 15.7805205919999434 16.7377696039999648 12.2103998060000407   F   F   F
  0.0000000000000000  5.5792565349999723 12.2103998060000407   F   F   F
  0.0000000000000000 11.1585130689999925 12.2103998060000407   F   F   F
  7.8902602960000570  0.0000000000000000 12.2103998060000407   F   F   F
  7.8902602960000570 11.1585130689999925 12.2103998060000407   F   F   F
  7.8902602960000570 16.7377696039999648 12.2103998060000407   F   F   F
 15.7805205919999434  0.0000000000000000 12.2103998060000407   F   F   F
 15.7805205919999434  5.5792565349999723 12.2103998060000407   F   F   F
 15.7805205919999434 11.1585130689999925 12.2103998060000407   F   F   F
 19.7256482699999580  5.5792565349999723 12.2103998060000407   F   F   F
  3.9451301480000271  0.0000000000000000 12.2103998060000407   F   F   F
 13.8326092034831358  7.0412573939231562 13.6083975526302030   F   F   F
  3.9451301480000271 11.1585130689999925 12.2103998060000407   F   F   F
  1.9725650740000149  4.1844424010000720 10.8156001569999933   F   F   F
 21.6982156369999721  9.7636982699999884 10.8156001569999933   F   F   F
  0.0000000000000000  0.0000000000000000 12.2103998060000407   F   F   F
  7.8902602960000570  5.5792565349999723 12.2103998060000407   F   F   F
  0.0000000000000000 16.7377696039999648 12.2103998060000407   F   F   F
 13.8348125205720098 12.5618141204011824 13.6452245578449176   F   F   F
 17.7357624230932487  1.4349409869749772 13.6009825554010018   F   F   F
 19.7256482699999580  0.0000000000000000 12.2103998060000407   F   F   F
 13.7942607852173467 15.3132780465349256 13.6394724495977044   F   F   F
  5.9596437053950782 12.6011606776409621 13.6096184929792088   F   F   F
  3.9451301480000271  5.5792565349999723 12.2103998060000407   F   F   F
  5.9283141044791945 18.0951706096864164 13.6588774100000698   F   F   F
  3.9451301480000271 16.7377696039999648 12.2103998060000407   F   F   F
 15.7477099459683600 13.9734184167307163 15.0893609019053869   F   F   F
  5.9176950450000287 18.1325837370000720 10.8156001569999933   F   F   F
 11.8353900909999528 16.7377696039999648 12.2103998060000407   F   F   F
 21.6982156369999721  6.9740706679999214 10.8156001569999933   F   F   F
  5.9176950450000287  6.9740706679999214 10.8156001569999933   F   F   F
 17.6894503797927669  7.0115622546540406 13.6412090470658534   F   F   F
 11.8353900909999528 11.1585130689999925 12.2103998060000407   F   F   F
 11.8353900909999528  5.5792565349999723 12.2103998060000407   F   F   F
 13.8079546360000549 18.1325837370000720 10.8156001569999933   F   F   F
 17.7530837259999217  6.9740706679999214 10.8156001569999933   F   F   F
 11.8353900909999528  0.0000000000000000 12.2103998060000407   F   F   F
  5.9176950450000287  1.3948141340000613 10.8156001569999933   F   F   F
 17.7530837259999217  1.3948141340000613 10.8156001569999933   F   F   F
  9.8628241350000643 18.1325837370000720 10.8156001569999933   F   F   F
  9.8628241350000643  6.9740706679999214 10.8156001569999933   F   F   F
 17.7530837259999217 18.1325837370000720 10.8156001569999933   F   F   F
  1.9762161594500345  6.9614585616257489 13.6213907450118388   F   F   F
  9.8665767264937490  1.3744561329706155 13.6596988467332103   F   F   F
  9.8628241350000643 12.5533272030000536 10.8156001569999933   F   F   F
  9.7924396007765662 18.1183363183576205 16.4294826157134679   F   F   F
 13.8079546360000549  6.9740706679999214 10.8156001569999933   F   F   F
  1.9873807366843024 12.5536575669240946 13.6181148813637254   F   F   F
  9.8628241350000643  1.3948141340000613 10.8156001569999933   F   F   F
  1.9817455606501335  1.3811491591420424 13.6260573594997645   F   F   F
  1.9756916427113920 18.1250828602871081 13.6246080744093518   F   F   F
  9.8449911853445347 12.4889379928850843 13.7342688488400029   F   F   F
  9.8628241350000643  4.1844424010000720 10.8156001569999933   F   F   F
  1.9725650740000149 20.9222120050000342 10.8156001569999933   F   F   F
  1.9725650740000149 18.1325837370000720 10.8156001569999933   F   F   F
  1.9725650740000149  9.7636982699999884 10.8156001569999933   F   F   F
 19.7256482699999580 16.7377696039999648 12.2103998060000407   F   F   F
  9.8354545860582618  6.9496826567264183 13.7209104329053435   F   F   F
  5.9176950450000287 12.5533272030000536 10.8156001569999933   F   F   F
 17.7530837259999217 12.5533272030000536 10.8156001569999933   F   F   F
  1.9725650740000149 15.3429554700000619 10.8156001569999933   F   F   F
  5.9712934325002873  7.0115584409690896 13.6248108405242299   F   F   F
  5.9433029307798870  1.3957904546215441 16.4180439371389397   F   F   F
 19.7256482699999580 11.1585130689999925 12.2103998060000407   F   F   F
 13.8079546360000549 12.5533272030000536 10.8156001569999933   F   F   F
 19.7256482699999580  2.7896282670000101 12.2103998060000407   F   F   F
  3.9451301480000271 19.5273965409999306 12.2103998060000407   F   F   F
  7.8502691017958250  2.6715914897675472 18.3877494399671164   F   F   F
 15.7554148475791376  2.7911326583012825 18.3010809451625391   F   F   F
 11.8455957324211809  2.7377877263907808 18.2056815471197666   F   F   F
 11.8353900909999528  2.7896282670000101 12.2103998060000407   F   F   F
 23.6665318731320049 13.9202027933481887 18.7097678150280800   F   F   F
 11.8353900909999528 19.5273965409999306 12.2103998060000407   F   F   F
 19.7912275903505588 11.1586739656824694 15.0868304097257138   F   F   F
 11.8353900909999528 13.9481413360000008 12.2103998060000407   F   F   F
 19.6924444209975000 19.5690410223153144 18.5251952157028121   F   F   F
  3.8695716554436443 11.1551286454476379 15.0596855575827995   F   F   F
 19.7256482699999580  8.3688848019999824 12.2103998060000407   F   F   F
 15.7745607883705929 13.9707157946885054 17.7871887154959012   F   F   F
  3.9451301480000271 13.9481413360000008 12.2103998060000407   F   F   F
 19.7924914498498126 16.7742322033286371 15.0792247309619718   F   F   F
  0.0084278983567117  8.3707654183803264 18.7468373488134219   F   F   F
  0.0000000000000000  8.3688848019999824 12.2103998060000407   F   F   F
 15.8829890536554714  8.3190955563267099 17.7966611219143189   F   F   F
 19.8245305319908702  8.3106223220262336 18.1194926312805578   F   F   F
 23.6505291196021972 19.5239326975737093 18.7080570800335586   F   F   F
 19.7541623724763333  2.7756798444297583 18.4540571690215565   F   F   F
 15.7509961190343297 19.6747006811964944 18.2141344298320824   F   F   F
  3.8659759792900301  8.2849110296183870 18.2248601615243260   F   F   F
  3.9734963115696367  2.7367024134146534 18.6530397259680818   F   F   F
  3.7792817589924610 14.0044818207012369 18.0409815341951116   F   F   F
  7.9074890402486897 13.9427749412093380 17.8495228302195450   F   F   F
  3.9410469915026418 19.5006783167436915 18.5298793499555075   F   F   F
  7.9227196615826685 19.6163072923852546 18.0768798778691071   F   F   F
 15.7805205919999434 19.5273965409999306 12.2103998060000407   F   F   F
 11.8353900909999528  8.3688848019999824 12.2103998060000407   F   F   F
 11.9188644190686528 13.9466487339932659 17.8261356938866733   F   F   F
  3.9451301480000271  2.7896282670000101 12.2103998060000407   F   F   F
 11.8648701013844917  8.2963903658015603 17.8439806263392526   F   F   F
  0.0000000000000000  2.7896282670000101 12.2103998060000407   F   F   F
 19.8720816479694697 13.9920134205699931 18.1279971736480334   F   F   F
  7.8864585270375596  0.0255610645081830 15.1718914901989894   F   F   F
 15.7805205919999434  8.3688848019999824 12.2103998060000407   F   F   F
 11.8600138717205681 16.8019140391375252 15.1145446619472175   F   F   F
  7.9054131332084010 16.7637958675000185 15.0455586319895112   F   F   F
  3.8930017501782110 16.7692034260001819 15.1040579654326059   F   F   F
 15.7651439356440939  0.0017073832012967 15.1691014677291971   F   F   F
  7.8147361999467693  5.5351134107285658 15.0859481665534663   F   F   F
  0.0209122926701353  2.7367306349146507 18.5901869746795292   F   F   F
 19.7256482699999580 13.9481413360000008 12.2103998060000407   F   F   F
  3.9451301480000271  8.3688848019999824 12.2103998060000407   F   F   F
 23.6701417639673970 16.7624177555091762 15.2032828081637490   F   F   F
 11.8624632506677248 19.5756705833737001 18.2918221413194679   F   F   F
  7.8372175585812718 11.1423971801800104 15.0279286445776989   F   F   F
  7.7153459494433729  8.3357117352196628 17.7830897861910557   F   F   F
 15.7878365047905653  5.5373427845714618 15.0796745013615823   F   F   F
 15.8260625850569721 11.1562720751350444 15.0192820379492922   F   F   F
 15.7514660033328191 16.7795138363148233 15.0664749917570937   F   F   F
  0.0038188323013239 22.3140067763930645 15.2008084059304807   F   F   F
 19.7819104329189379  5.5467806470084060 15.0874398109095615   F   F   F
  7.8902602960000570  8.3688848019999824 12.2103998060000407   F   F   F
 11.8620536593485291 11.1534730340356383 15.0071536402274504   F   F   F
  7.8902602960000570  2.7896282670000101 12.2103998060000407   F   F   F
 23.6602279100787563 11.1552905526539661 15.2018103731296179   F   F   F
  3.9304395498364717  0.0247950018988854 15.1965265264888831   F   F   F
 11.8425524266814950 22.3008024866817749 15.1663737611102203   F   F   F
 15.7805205919999434  2.7896282670000101 12.2103998060000407   F   F   F
 19.7462543412657361  0.0036511262339881 15.1951851565379936   F   F   F
  3.9396162569790292  5.5394401086126628 15.1882651648675520   F   F   F
  7.8902602960000570 19.5273965409999306 12.2103998060000407   F   F   F
  7.8902602960000570 13.9481413360000008 12.2103998060000407   F   F   F
 19.7256482699999580 19.5273965409999306 12.2103998060000407   F   F   F
 15.7805205919999434 13.9481413360000008 12.2103998060000407   F   F   F
  0.0241412499924908  5.5758575047857235 15.1822056837101069   F   F   F
 11.8598518102881378  5.5347051783697596 15.0653125087529016   F   F   F
  0.0000000000000000 19.5273965409999306 12.2103998060000407   F   F   F
  0.0000000000000000 13.9481413360000008 12.2103998060000407   F   F   F
  1.9725650740000149  5.5792565349999723 12.2103998060000407   F   F   F
  1.9725650740000149 11.1585130689999925 12.2103998060000407   F   F   F
  1.9791919967613973 22.2839251227260462 18.1102044343703632   F   F   F
  1.9725650740000149 16.7377696039999648 12.2103998060000407   F   F   F
 21.7418116011955682  8.3511207250470108 15.1785428630045622   F   F   F
 17.8061790024538134 16.7948533680136585 17.7188284021267997   F   F   F
 13.8200239128500364 19.5469873051115073 15.1728926046941126   F   F   F
  9.8628241350000643 11.1585130689999925 12.2103998060000407   F   F   F
  1.9725650740000149  0.0000000000000000 12.2103998060000407   F   F   F
 21.6982156369999721 16.7377696039999648 12.2103998060000407   F   F   F
 21.7362766451396929 11.1566551131776084 18.1154786978292108   F   F   F
 13.8068444340531631  2.7567314339734494 15.1384377055960400   F   F   F