Au  C  H  O Sr Ti                       
   1.00000000000000     
    23.6707801818999997    0.0000000000000000    0.0000000000000000
     0.0000000000000000   22.3170261383000010    0.0000000000000000
     0.0000000000000000    0.0000000000000000   30.0000000000000000
   Au   C    H    O    Sr   Ti
    50     1     1   266    72    72
Selective dynamics
Direct
  0.7166595372451710  0.5254968035291654  0.7533975941537960   F   F   F
  0.5564289167066505  0.2127884005984981  0.7109058671334978   F   F   F
  0.6227275799277265  0.5700998059958664  0.7040966668207176   F   F   F
  0.7228382364414898  0.2573049101728060  0.6921071428969654   F   F   F
  0.2936394326843299  0.7463533675941108  0.6975593121522152   F   F   F
  0.5123081017277400  0.6034050334067089  0.7766165102349305   F   F   F
  0.5783601090569093  0.7252605284486080  0.7937131617343596   F   F   F
  0.2405636638341520  0.4694462666763428  0.7090107863193964   F   F   F
  0.2849018367429395  0.6619076294892139  0.7649462844815886   F   F   F
  0.6017643104056560  0.2871166856353113  0.7841971875368969   F   F   F
  0.5145888663301861  0.4842187841221133  0.6780373877869863   F   F   F
  0.2893373995464756  0.5375737617215961  0.7775105987868969   F   F   F
  0.5634078798102919  0.4857334582173749  0.7623388220725857   F   F   F
  0.7640341920972418  0.4315252341201017  0.7044166236085232   F   F   F
  0.3915412846333481  0.8170600652624529  0.7065536147230276   F   F   F
  0.4636358048319380  0.6950127842411291  0.8301125832925464   F   F   F
  0.4400804689231563  0.2280832506344481  0.6973785094370086   F   F   F
  0.3710780250974750  0.2983566628015808  0.7550072376456569   F   F   F
  0.3496571248836986  0.4994659013202636  0.6977457051671507   F   F   F
  0.4297415016969168  0.3710239478077995  0.8151536408676208   F   F   F
  0.5961634976278702  0.7844013615046563  0.7130216602156878   F   F   F
  0.6351074131794121  0.5841244534242875  0.8000567901016566   F   F   F
  0.7334710693823681  0.6153716559109697  0.6937956982506748   F   F   F
  0.5496649048518591  0.3838056718795855  0.8279038152517444   F   F   F
  0.4857200828170249  0.7769924285084429  0.7556879856225720   F   F   F
  0.4863789894563340  0.2699106518568044  0.7752733681204660   F   F   F
  0.4628270877339133  0.5729315845505809  0.8639739889864941   F   F   F
  0.7063698552333193  0.7571707511606505  0.6882442281720884   F   F   F
  0.6562002660484580  0.4410546746600730  0.8124434125298876   F   F   F
  0.3685370590132422  0.6184086051186384  0.8202006817654635   F   F   F
  0.5700574583904867  0.5098259608005549  0.8564984048615756   F   F   F
  0.6681558792429314  0.1907741552143207  0.7520182690422246   T   T   T
  0.4715741693395543  0.4500162992507413  0.8782375592381939   F   F   F
  0.5183120389699596  0.3769737865177802  0.7322422304616367   F   F   F
  0.2826441547097645  0.3397866269069780  0.7022082909431546   F   F   F
  0.6696128676549407  0.6812374300135673  0.7486709124578539   F   F   F
  0.3980741352588169  0.3813883545122110  0.6901757792017946   F   F   F
  0.4524821384000361  0.5796836968212631  0.7026886635258833   F   F   F
  0.6178570182615104  0.3205493515987641  0.6958358965398403   F   F   F
  0.3259715563858094  0.4143387578088706  0.7690965851963725   F   F   F
  0.4194661549298715  0.6967121940252241  0.6994171817716648   F   F   F
  0.7009366292408004  0.3443612593993493  0.7572597001839867   F   F   F
  0.7743334975901632  0.4289147797752406  0.7944752506895227   F   F   F
  0.2567999651857207  0.5928018551058472  0.6945703478546363   F   F   F
  0.6488495862031911  0.4448606251336074  0.6946295113728596   F   F   F
  0.5645543793215637  0.6393948339321085  0.8610340148992535   F   F   F
  0.5420020380221615  0.6663902200971137  0.7012401658870715   F   F   F
  0.4442674554010324  0.4734823059481457  0.7560506276062497   F   F   F
  0.3742261425225237  0.7391821614738348  0.7786543632884317   F   F   F
  0.3756540516897999  0.4925581843472813  0.8325663300157302   F   F   F
  0.7209085155972730  0.1173270465808471  0.7560559667392539   T   T   T
  0.7979296949211019  0.0941356093915076  0.7548942862284562   T   T   T
  0.7464861557907696  0.5578862925188872  0.5446033074346985   F   F   F
  0.7496508331150622  0.4383297329869080  0.4557296365016299   F   F   F
  0.7508099585531482  0.1898494368755124  0.4557332266389196   F   F   F
  0.4171703703435270  0.9358357480151369  0.4540077384595236   F   F   F
  0.4170916522614903  0.6846677711104761  0.4547141903314227   F   F   F
  0.4164379920523302  0.4354396432522663  0.4538235590267305   F   F   F
  0.0845965688625583  0.6868973801291602  0.4530190580295042   F   F   F
  0.0838886220769837  0.9366769535307000  0.4534839095934231   F   F   F
  0.0827907544031703  0.4367803917204469  0.4528586260819978   F   F   F
  0.0838720485451674  0.1865694441211545  0.4529790270299827   F   F   F
  0.9165767851545823  0.8121069433090327  0.4540701093873949   F   F   F
  0.7761154583978254  0.1314378649373253  0.7535304519124040   T   T   T
  0.9161949882839551  0.5623394230486696  0.4539139451973071   F   F   F
  0.9161024938714064  0.0622016814651474  0.4541140835389470   F   F   F
  0.9161922634184450  0.3121562056692966  0.4538829332218484   F   F   F
  0.4171412127229601  0.1871396831993977  0.4535386805403618   F   F   F
  0.2522095314485995  0.6876086189260420  0.4561598041996220   F   F   F
  0.9164686305342613  0.9371348135336888  0.4536506708099992   F   F   F
  0.5826226712691565  0.1902780953011032  0.4554924218286445   F   F   F
  0.0000933159084084  0.1250532396730293  0.4983303797903318   F   F   F
  0.5832881071125655  0.8104631472668302  0.4553571004463492   F   F   F
  0.9999913301798031  0.3735265455429584  0.4983175359446648   F   F   F
  0.9999518158297462  0.6271522343360516  0.4976812357154898   F   F   F
  0.3336092787733591  0.1256713522298583  0.4985121688107697   F   F   F
  0.0000398710599399  0.8751484482433440  0.4995464307693496   F   F   F
  0.3334346064030314  0.8738329710762898  0.4993812320156437   F   F   F
  0.6661711282560816  0.1266964858211708  0.4989901749164574   F   F   F
  0.2511685891685147  0.4392816288568113  0.4549178290950948   F   F   F
  0.0833333358191695  0.5625000000092442  0.3605200052333331   F   F   F
  0.9166666865332829  0.0625000000159659  0.3605200052333331   F   F   F
  0.7490750955257468  0.6886677587885188  0.4573820378035123   F   F   F
  0.7492794031355743  0.8131868175601440  0.4530285309688011   F   F   F
  0.7495094460652538  0.9384302922382091  0.4553130671654841   F   F   F
  0.9176539020300751  0.0634363514814211  0.5475426622356707   F   F   F
  0.5827246583834480  0.4394329984637935  0.4562508799913019   F   F   F
  0.2500692214799258  0.9360359048521261  0.4540986483890066   F   F   F
  0.6654133811323817  0.6260016505796813  0.5029410112334745   F   F   F
  0.5845230349561561  0.5627824681619629  0.4549014212653688   F   F   F
  0.5832495005069944  0.0637059580807957  0.4538299351927506   F   F   F
  0.9166666865332829  0.6874999999963620  0.3605200052333331   F   F   F
  0.9166666865332829  0.4374999701794380  0.3605200052333331   F   F   F
  0.9166666865332829  0.1875000000030838  0.3605200052333331   F   F   F
  0.5833333134730552  0.9375000000154046  0.3605200052333331   F   F   F
  0.5833333134730552  0.6874999999963620  0.3605200052333331   F   F   F
  0.5833333134730552  0.4374999701794380  0.3605200052333331   F   F   F
  0.5833333134730552  0.1875000000030838  0.3605200052333331   F   F   F
  0.2499999999799343  0.9375000000154046  0.3605200052333331   F   F   F
  0.9166666865332829  0.9375000000154046  0.3605200052333331   F   F   F
  0.2499999999799343  0.6874999999963620  0.3605200052333331   F   F   F
  0.2499999999799343  0.1875000000030838  0.3605200052333331   F   F   F
  0.7499999404149307  0.9375000000154046  0.3605200052333331   F   F   F
  0.7499999404149307  0.6874999999963620  0.3605200052333331   F   F   F
  0.7499999404149307  0.4374999701794380  0.3605200052333331   F   F   F
  0.7499999404149307  0.1875000000030838  0.3605200052333331   F   F   F
  0.4166666269218169  0.9375000000154046  0.3605200052333331   F   F   F
  0.4166666269218169  0.6874999999963620  0.3605200052333331   F   F   F
  0.4166666269218169  0.4374999701794380  0.3605200052333331   F   F   F
  0.2499999999799343  0.4374999701794380  0.3605200052333331   F   F   F
  0.0833333358191695  0.0625000000159659  0.3605200052333331   F   F   F
  0.9153952600977675  0.6867524321099054  0.4531066592118478   F   F   F
  0.6654620389546437  0.3785527754136453  0.5029925223093556   F   F   F
  0.3343537101853471  0.3784448006870278  0.5029699387135551   F   F   F
  0.3356845100699459  0.6254992481875519  0.5040007496246091   F   F   F
  0.2498417240030264  0.1884954659394680  0.4540903138744738   F   F   F
  0.2504985022008057  0.0620312445334292  0.4542376312483256   F   F   F
  0.9155662812732004  0.3129314410047002  0.5467844417459347   F   F   F
  0.2522476900719752  0.3141451113559199  0.4541653974817024   F   F   F
  0.5833333134730552  0.0625000000159659  0.3605200052333331   F   F   F
  0.2499999999799343  0.8124999999834799  0.3605200052333331   F   F   F
  0.2499999999799343  0.5625000000092442  0.3605200052333331   F   F   F
  0.2499999999799343  0.3124999999901945  0.3605200052333331   F   F   F
  0.2499999999799343  0.0625000000159659  0.3605200052333331   F   F   F
  0.7499999404149307  0.5625000000092442  0.3605200052333331   F   F   F
  0.7499999404149307  0.3124999999901945  0.3605200052333331   F   F   F
  0.7499999404149307  0.0625000000159659  0.3605200052333331   F   F   F
  0.4166666269218169  0.8124999999834799  0.3605200052333331   F   F   F
  0.4166666269218169  0.5625000000092442  0.3605200052333331   F   F   F
  0.4166666269218169  0.3124999999901945  0.3605200052333331   F   F   F
  0.7499999404149307  0.8124999999834799  0.3605200052333331   F   F   F
  0.0835414630268261  0.3120103551404938  0.4539946525389524   F   F   F
  0.4166666269218169  0.0625000000159659  0.3605200052333331   F   F   F
  0.4169162107123228  0.0615484803052269  0.4553580132736244   F   F   F
  0.0834677797423282  0.8121474151413040  0.4541880784584293   F   F   F
  0.0839602909615351  0.5624992780985281  0.4538885350765156   F   F   F
  0.4160718540834338  0.5595198682598479  0.4578676501635073   F   F   F
  0.0837309629061878  0.0618636651412388  0.4541906204844253   F   F   F
  0.4155492286430942  0.3113819298162284  0.4573765129377421   F   F   F
  0.8333332538436267  0.7500000000123208  0.4070133268666680   F   F   F
  0.0833333358191695  0.4374999701794380  0.3605200052333331   F   F   F
  0.0833333358191695  0.6874999999963620  0.3605200052333331   F   F   F
  0.0833333358191695  0.9375000000154046  0.3605200052333331   F   F   F
  0.4166666269218169  0.1875000000030838  0.3605200052333331   F   F   F
  0.0833333358191695  0.8124999999834799  0.3605200052333331   F   F   F
  0.8333332538436267  0.4999999999932783  0.4070133268666680   F   F   F
  0.4146910678610496  0.8119141023221701  0.5480003998094602   F   F   F
  0.7011732548095678  0.0680832965109204  0.7611861068352774   T   T   T
  0.5833333134730552  0.3124999999901945  0.3605200052333331   F   F   F
  0.5833333134730552  0.8124999999834799  0.3605200052333331   F   F   F
  0.7496503086004083  0.0641187875102958  0.4533790969370131   F   F   F
  0.5833333134730552  0.5625000000092442  0.3605200052333331   F   F   F
  0.2519392665261933  0.5646072938873132  0.4538409035036324   F   F   F
  0.2505168641657249  0.8107827114830997  0.4553837148239808   F   F   F
  0.8333332538436267  0.2500000000190425  0.4070133268666680   F   F   F
  0.2510695569662431  0.0625970908536289  0.5472572921670391   F   F   F
  0.8333332538436267  0.0000000000000000  0.4070133268666680   F   F   F
  0.5000000000021103  0.4999999999932783  0.4070133268666680   F   F   F
  0.0833333358191695  0.1875000000030838  0.3605200052333331   F   F   F
  0.0000000000000000  0.0000000000000000  0.4070133268666680   F   F   F
  0.0000000000000000  0.2500000000190425  0.4070133268666680   F   F   F
  0.0000000000000000  0.4999999999932783  0.4070133268666680   F   F   F
  0.7481569665744345  0.5642592836972966  0.4537567014869595   F   F   F
  0.3333333432766779  0.0000000000000000  0.4070133268666680   F   F   F
  0.3333333432766779  0.4999999999932783  0.4070133268666680   F   F   F
  0.3333333432766779  0.7500000000123208  0.4070133268666680   F   F   F
  0.5827878870665728  0.6861210372858082  0.4545568365132553   F   F   F
  0.6666666865533486  0.0000000000000000  0.4070133268666680   F   F   F
  0.6666666865533486  0.4999999999932783  0.4070133268666680   F   F   F
  0.6666666865533486  0.7500000000123208  0.4070133268666680   F   F   F
  0.1666666716383389  0.0000000000000000  0.4070133268666680   F   F   F
  0.1666666716383389  0.2500000000190425  0.4070133268666680   F   F   F
  0.1666666716383389  0.4999999999932783  0.4070133268666680   F   F   F
  0.1666666716383389  0.7500000000123208  0.4070133268666680   F   F   F
  0.5000000000021103  0.0000000000000000  0.4070133268666680   F   F   F
  0.5000000000021103  0.2500000000190425  0.4070133268666680   F   F   F
  0.5000000000021103  0.7500000000123208  0.4070133268666680   F   F   F
  0.9166666865332829  0.3124999999901945  0.3605200052333331   F   F   F
  0.3333333432766779  0.2500000000190425  0.4070133268666680   F   F   F
  0.7473631597097778  0.3140957278462508  0.4548039246190712   F   F   F
  0.0000000000000000  0.7500000000123208  0.4070133268666680   F   F   F
  0.4166637186432069  0.8099481866182714  0.4551579434913364   F   F   F
  0.6666666865533486  0.2500000000190425  0.4070133268666680   F   F   F
  0.5827153007718167  0.9371629546359301  0.4542957877695031   F   F   F
  0.5842294985264687  0.3153433922223243  0.4536323970299208   F   F   F
  0.9157700453261555  0.4369638681952779  0.4536583055283074   F   F   F
  0.4232007929778305  0.6881077416598913  0.5466169988332865   F   F   F
  0.7486562010522420  0.1838112904750773  0.5508961747293810   F   F   F
  0.4158519138727002  0.9372406422295185  0.5459946845583588   F   F   F
  0.4988535067992856  0.2526116379361341  0.5905004200851920   F   F   F
  0.4157267841627288  0.1914538539153412  0.5465034198038552   F   F   F
  0.0864206867195705  0.6895907648086279  0.5452106405060846   F   F   F
  0.0824031832288057  0.4388150694887401  0.5449464606338665   F   F   F
  0.0835884731403382  0.1889222612981811  0.5455391290032239   F   F   F
  0.4994927904909474  0.1256451045851890  0.4995931660515822   F   F   F
  0.9996575353878043  0.5006527444021174  0.5943552668348673   F   F   F
  0.5808314722271533  0.1852620373149421  0.5499217548314448   F   F   F
  0.9995867043147371  0.7532860521211902  0.5923110873693318   F   F   F
  0.3340080679163151  0.9998528950885301  0.5920062568938604   F   F   F
  0.9997399513648304  0.9993520984005073  0.5931776766260697   F   F   F
  0.0008079912221461  0.2499535488383984  0.5918950082808436   F   F   F
  0.3333120406855556  0.4964212397358523  0.5908980894035594   F   F   F
  0.3359409685609691  0.7412093754532521  0.5905314085698379   F   F   F
  0.6637805914247750  0.2477823606023932  0.5904163886110183   F   F   F
  0.6659891463775338  0.0005912695882699  0.5919703332953077   F   F   F
  0.6659509717170451  0.7417363268754897  0.5900230977501906   F   F   F
  0.6668171110904879  0.4943088114457197  0.5912825907036066   F   F   F
  0.1674264310839177  0.9984153013148287  0.5923121240002160   F   F   F
  0.1683773287608759  0.2491817871475490  0.5930689427587552   F   F   F
  0.1707474311578849  0.7500687539282822  0.5950666918778893   F   F   F
  0.2484276306079423  0.4359467844486247  0.5490663367031487   F   F   F
  0.1655393302886523  0.5027027211904738  0.5874144445894487   F   F   F
  0.3348203062029427  0.2545029409526975  0.5928520388442422   F   F   F
  0.4996165646781634  0.0000173649946902  0.5909896013396221   F   F   F
  0.8328061635413349  0.8744373606859810  0.4985258418373490   F   F   F
  0.4231323389558597  0.4439666177353203  0.5455881164334073   F   F   F
  0.7519786832137356  0.4353281746780482  0.5488603859863375   F   F   F
  0.7519650606930171  0.6802966931875645  0.5531982402660844   F   F   F
  0.7494541315665657  0.9341428464717012  0.5476326924630257   F   F   F
  0.7484473829326603  0.8082525831390939  0.5456406655960038   F   F   F
  0.2495332597813231  0.3137407537250922  0.5459730480652212   F   F   F
  0.9157887696825071  0.1868018553360642  0.4531673948467301   F   F   F
  0.5828670590829148  0.3111410361978670  0.5450042698021065   F   F   F
  0.2531221524193867  0.8126767322710293  0.5510901866889881   F   F   F
  0.5829931633071155  0.0619836060209167  0.5453734469674245   F   F   F
  0.5861314555242885  0.8145713772064553  0.5503704007392685   F   F   F
  0.7479595208677026  0.3119952820339194  0.5485331065129699   F   F   F
  0.5812599134984140  0.5601551773672711  0.5491754073009716   F   F   F
  0.2523774911654115  0.5590376350287798  0.5439706596261757   F   F   F
  0.4160569213426584  0.3196326665045035  0.5525879640219173   F   F   F
  0.5767407775200724  0.4358544948809069  0.5520828419979793   F   F   F
  0.4165070776670916  0.0654339565838953  0.5473714890590315   F   F   F
  0.0848859791936434  0.8129144521088350  0.5473170638420157   F   F   F
  0.7486957030383650  0.9371530111986601  0.6401969761163926   F   F   F
  0.0823279234070213  0.5643642837140419  0.5462983282246725   F   F   F
  0.0822742400414285  0.0632761283280914  0.5475684116361705   F   F   F
  0.9156902715729416  0.9385739630177099  0.5464215872357556   F   F   F
  0.9138698075428096  0.6892013752137203  0.5452219597086341   F   F   F
  0.5838021551398853  0.9378301952972024  0.5461010128890535   F   F   F
  0.9169478972450449  0.1890360075056776  0.5452859019061336   F   F   F
  0.9159712801700763  0.4376362866460823  0.5457831860817492   F   F   F
  0.5795438802982460  0.6862968220580896  0.5472235223577329   F   F   F
  0.2515228463816328  0.9373301931637386  0.5452960151106083   F   F   F
  0.4976625071228895  0.5044532002517954  0.6089876833013150   F   F   F
  0.9172524572006040  0.5637735507144583  0.5468001318092632   F   F   F
  0.4201742900992400  0.5650983612604890  0.5554634529948785   F   F   F
  0.9154940662763309  0.8129380130707915  0.5468962270534306   F   F   F
  0.0836195720148609  0.9389197619142990  0.5457840275939247   F   F   F
  0.2493009464185931  0.6832553581204976  0.5520981959993847   F   F   F
  0.0863471592448875  0.3134877004744041  0.5468870238025829   F   F   F
  0.8321920314257625  0.0020833575762822  0.5922539168107122   F   F   F
  0.0833333358191695  0.3124999999901945  0.3605200052333331   F   F   F
  0.4176864288724005  0.0651576276923436  0.6400809049297109   F   F   F
  0.4210651159478473  0.6758971262039495  0.6335063789716315   F   F   F
  0.5911503152131701  0.8100650994385390  0.6460782707747654   F   F   F
  0.9155978560309066  0.0627492823326037  0.6417149705170999   F   F   F
  0.9126251461091215  0.5617409073307655  0.6418487183735735   F   F   F
  0.9151105318813606  0.3118897345048381  0.6396420575355819   F   F   F
  0.9141190230271761  0.8132490482073749  0.6415358197785963   F   F   F
  0.5822309002075059  0.0667491636883923  0.6385185750083977   F   F   F
  0.5836218432439324  0.3205583808089827  0.6335560749201292   F   F   F
  0.5912782938467487  0.5647946945885209  0.6394201322204438   F   F   F
  0.2475748112332070  0.5739541337179759  0.6287540195834396   F   F   F
  0.7539914699457100  0.6928222792672898  0.6567180157504779   F   F   F
  0.2620803229396813  0.7989225570688205  0.6466499309721598   F   F   F
  0.2509731600037171  0.0594687256451962  0.6423225290814472   F   F   F
  0.9166666865332829  0.5625000000092442  0.3605200052333331   F   F   F
  0.4173960226391245  0.9349739735931308  0.6397307819236033   F   F   F
  0.5000058729708243  0.8734403738705012  0.5008927363364464   F   F   F
  0.8323764546395722  0.6230575070254929  0.5000018100147301   F   F   F
  0.2518119351035892  0.1883659347763640  0.5470975219629182   F   F   F
  0.8324795898197905  0.3730899315404912  0.4997555949647960   F   F   F
  0.8329280785855673  0.1245547625484491  0.5001580042479716   F   F   F
  0.1667189879023354  0.3762720370510877  0.4978500624218114   F   F   F
  0.1678022115706170  0.6243297389497187  0.5000232607035073   F   F   F
  0.5815805365883051  0.4383966746403303  0.6462528500647338   F   F   F
  0.5800170810601557  0.6853051140392310  0.6391416930142171   F   F   F
  0.9162976482118665  0.1862688711879272  0.6398920786286979   F   F   F
  0.2491699255564157  0.3163460854443443  0.6413274141659144   F   F   F
  0.1670712651040915  0.1242985627756283  0.4993033049892759   F   F   F
  0.7482006527659237  0.0598781497224650  0.5444682588433665   F   F   F
  0.1677522479998714  0.8732919117790772  0.4998986547814752   F   F   F
  0.5012858673007869  0.7563279458993080  0.5930388884838891   F   F   F
  0.5003340029805727  0.6210736189035870  0.5000804718250649   F   F   F
  0.7550411245056168  0.4336950613251531  0.6377474368173708   F   F   F
  0.4995944515386199  0.3742815243127851  0.4997745081015879   F   F   F
  0.2532996076803329  0.1865253345453297  0.6410236696880247   F   F   F
  0.4127999373792193  0.8127888877585931  0.6396474296712995   F   F   F
  0.7464643578993275  0.1944009381613796  0.6463853216192206   F   F   F
  0.4294167114871001  0.3049540341391861  0.6550598491765527   F   F   F
  0.3972220361151031  0.5506169720604390  0.6519763542275072   F   F   F
  0.7529695088048669  0.5690453409629654  0.6351566520478826   F   F   F
  0.7410756997929013  0.8100022572229122  0.6399014850859857   F   F   F
  0.7465503002023297  0.3116886691732361  0.6417141193985501   F   F   F
  0.7483509083135758  0.0678116367521966  0.6390396576672970   F   F   F
  0.0837421292669376  0.3117889839966210  0.6404515116843896   F   F   F
  0.0873812411727286  0.5621209566642378  0.6410814172872108   F   F   F
  0.0842424997032154  0.0606349621988471  0.6421131811875469   F   F   F
  0.0867472219062009  0.4364420189123308  0.6394077949701398   F   F   F
  0.0834922414775292  0.1857439259522096  0.6409750899676538   F   F   F
  0.4182501967769099  0.1875887790314081  0.6397985044622700   F   F   F
  0.4150869301550060  0.4188089955195622  0.6299231723832435   F   F   F
  0.6666115164031012  0.8746022322258540  0.4989065248078006   F   F   F
  0.8316177337234834  0.2490440591554375  0.5908700107133740   F   F   F
  0.8305521748228770  0.7508677230792600  0.5928307397734542   F   F   F
  0.0842261986863306  0.9356343530503608  0.6406656536931834   F   F   F
  0.8332836613194985  0.5030325711790056  0.5887756905645887   F   F   F
  0.9166666865332829  0.8124999999834799  0.3605200052333331   F   F   F
  0.2519529130502889  0.9301627651612776  0.6373807665400832   F   F   F
  0.5800304101633955  0.1918143016254277  0.6450048525829857   F   F   F
  0.0841452377416871  0.8122635938021574  0.6420549884115587   F   F   F
  0.2406401417544899  0.4420637061696482  0.6415400668532172   F   F   F
  0.9143536838806696  0.9371803171555655  0.6410420616131844   F   F   F
  0.9162525009318969  0.6875014967741961  0.6393793029066828   F   F   F
  0.9125937282170611  0.4360201005396576  0.6396670052763085   F   F   F
  0.0830776787695768  0.6870338632803410  0.6392105526988274   F   F   F
  0.2546243865730844  0.6775004468534860  0.6635192393971323   F   F   F
  0.5820209680717880  0.9359708670608740  0.6392968134052239   F   F   F
  0.6659588651498822  0.9999865042378886  0.5056064743496833   F   F   F
  0.8333332538436267  0.6249999999803961  0.4070133268666680   F   F   F
  0.5011997426304049  0.7528672130510330  0.5039452131103914   F   F   F
  0.1644211070385140  0.7515280485420348  0.5034130873901717   F   F   F
  0.1666666716383389  0.3750000000061604  0.4070133268666680   F   F   F
  0.0005813962495225  0.1227177001808712  0.6195421772437726   F   F   F
  0.6654496788485176  0.7520103646351401  0.5022007903930543   F   F   F
  0.3312023036322600  0.4992892316774089  0.5009547509843699   F   F   F
  0.3300996792680024  0.2480925740108688  0.5028392919539968   F   F   F
  0.3330950142501052  0.0011110179043641  0.5058391816148173   F   F   F
  0.3339055296112861  0.7511166505327935  0.5016606575264859   F   F   F
  0.6670019558608971  0.2480567853126132  0.5025984926999740   F   F   F
  0.5013361765345934  0.4998981753843452  0.5002625530668823   F   F   F
  0.9996825962895599  0.5006278262829014  0.5070460736881657   F   F   F
  0.8361525817244555  0.5000864803003893  0.5027494136285142   F   F   F
  0.8358708845145912  0.2486672134253283  0.5027533537733717   F   F   F
  0.6666666865533486  0.3750000000061604  0.4070133268666680   F   F   F
  0.1659340221616787  0.0012050898274225  0.5065623917412552   F   F   F
  0.0000000000000000  0.8749999404036828  0.4070133268666680   F   F   F
  0.5010424198814363  0.2479257878758858  0.5020176421356481   F   F   F
  0.9998189887420637  0.7508585194801682  0.5066041640918897   F   F   F
  0.0008475118040394  0.2498199739881528  0.5058833511589071   F   F   F
  0.9999900272471791  0.0001049173132515  0.5066526354733583   F   F   F
  0.6666666865533486  0.6249999999803961  0.4070133268666680   F   F   F
  0.8333332538436267  0.8749999404036828  0.4070133268666680   F   F   F
  0.3333333432766779  0.6249999999803961  0.4070133268666680   F   F   F
  0.3333333432766779  0.1249999999871179  0.4070133268666680   F   F   F
  0.3333333432766779  0.3750000000061604  0.4070133268666680   F   F   F
  0.8342371290365165  0.0002462866960329  0.5064480295370757   F   F   F
  0.3333333432766779  0.8749999404036828  0.4070133268666680   F   F   F
  0.6666666865533486  0.1249999999871179  0.4070133268666680   F   F   F
  0.0000000000000000  0.6249999999803961  0.4070133268666680   F   F   F
  0.1661799823143895  0.2482400409138918  0.5061139902260265   F   F   F
  0.6685957684182924  0.4998813114703964  0.5006229698342182   F   F   F
  0.5002328716906348  0.9993921263220642  0.5054886803915437   F   F   F
  0.5007845246473721  0.8767955871077007  0.6096898166763651   F   F   F
  0.3259323501693387  0.3737548802673700  0.5927128396020862   F   F   F
  0.0000000000000000  0.3750000000061604  0.4070133268666680   F   F   F
  0.3343186147141566  0.6244388555256251  0.5952325425243572   F   F   F
  0.5000000000021103  0.8749999404036828  0.4070133268666680   F   F   F
  0.8333332538436267  0.1249999999871179  0.4070133268666680   F   F   F
  0.1666666716383389  0.1249999999871179  0.4070133268666680   F   F   F
  0.6653955843042283  0.1245820243491949  0.6111079190559892   F   F   F
  0.5000000000021103  0.6249999999803961  0.4070133268666680   F   F   F
  0.8398248387040610  0.6269331919118954  0.6033859864395197   F   F   F
  0.3315596550577524  0.1199029304825174  0.6134631399662709   F   F   F
  0.9990606200701819  0.8750910178420170  0.6220512858086806   F   F   F
  0.5000000000021103  0.1249999999871179  0.4070133268666680   F   F   F
  0.1635202303824101  0.4998737823286206  0.5020821200341175   F   F   F
  0.8320826648051138  0.8762547455286551  0.6178916988672611   F   F   F
  0.8376731151776156  0.3725667083442019  0.6033571786433924   F   F   F
  0.8360279738376022  0.7517448425841309  0.5026054732990843   F   F   F
  0.1666666716383389  0.8749999404036828  0.4070133268666680   F   F   F
  0.8333332538436267  0.3750000000061604  0.4070133268666680   F   F   F
  0.0000000000000000  0.1249999999871179  0.4070133268666680   F   F   F
  0.5039945595654416  0.6251237406413566  0.5939361839107491   F   F   F
  0.1666666716383389  0.6249999999803961  0.4070133268666680   F   F   F
  0.5000000000021103  0.3750000000061604  0.4070133268666680   F   F   F
  0.6666666865533486  0.8749999404036828  0.4070133268666680   F   F   F
  0.6710272539559199  0.3725400609652141  0.5932934110077852   F   F   F
  0.3344822577728550  0.8785573778180122  0.6030583395659548   F   F   F
  0.1660672118485849  0.8734377803724485  0.6179378459413343   F   F   F
  0.5017371899973995  0.3712939450381469  0.5948604932009616   F   F   F
  0.1592070455025549  0.6272146346156049  0.6014668147711575   F   F   F
  0.1676480443849897  0.1228092050455984  0.6217690290164413   F   F   F
  0.1631547269792364  0.3714529982611694  0.6076546526595124   F   F   F
  0.6653530452544416  0.8813785436141401  0.6074914549209325   F   F   F
  0.6664551480376701  0.6263932572542785  0.5934650818203977   F   F   F
  0.0000271685363273  0.3747750308497402  0.6232289693741606   F   F   F
  0.9996017069248921  0.6220041487742520  0.6325235392500304   F   F   F
  0.8340498211369010  0.1246072710336961  0.6157304531500003   F   F   F
  0.5002081688862248  0.1225119503025169  0.6062144286658793   F   F   F
  0.5847588206277550  0.7500193084539646  0.5997579833320685   F   F   F
  0.0833566722008001  0.2481437795048933  0.6035787079607644   F   F   F
  0.7495485637871724  0.0019453475816462  0.6043991050567996   F   F   F
  0.5824853138832609  0.0010881951119686  0.6041331104085828   F   F   F
  0.9162808387016170  0.0003145181381825  0.6038991309442281   F   F   F
  0.5904605090868102  0.5012099348308965  0.5936279791707690   F   F   F
  0.4147553720558932  0.2484749992613615  0.5912724382877528   F   F   F
  0.2492791546985629  0.7526662962806938  0.5921748568382270   F   F   F
  0.5847562285977048  0.2477694027432022  0.5966553981221736   F   F   F
  0.2496250207779767  0.9976757345021880  0.6042526920028948   F   F   F
  0.7539378577467204  0.2482908184059056  0.5930424421795948   F   F   F
  0.2489442997223250  0.2460091162721341  0.6036058261703019   F   F   F
  0.4170925234559064  0.0000766094033651  0.6046376049572402   F   F   F
  0.2424110257220633  0.4979531942074402  0.5939825219234862   F   F   F
  0.0815037617220185  0.5001013852228411  0.6032162925652429   F   F   F