Au  C  H  O Sr Ti                       
   1.00000000000000     
    23.6707801818999997    0.0000000000000000    0.0000000000000000
     0.0000000000000000   22.3170261383000010    0.0000000000000000
     0.0000000000000000    0.0000000000000000   30.0000000000000000
   Au   C    H    O    Sr   Ti
    50     1     1   266    72    72
Selective dynamics
Direct
  0.7166595372451684  0.5254968035291662  0.7533975941537926   F   F   F  
  0.5564289167066527  0.2127884005985015  0.7109058671334998   F   F   F
  0.6227275799277298  0.5700998059958694  0.7040966668207179   F   F   F
  0.7228382364414870  0.2573049101728058  0.6921071428969688   F   F   F
  0.2936394326843332  0.7463533675941126  0.6975593121522122   F   F   F
  0.5123081017277372  0.6034050334067073  0.7766165102349285   F   F   F
  0.5783601090569112  0.7252605284486099  0.7937131617343560   F   F   F
  0.2405636638341505  0.4694462666763417  0.7090107863193994   F   F   F
  0.2849018367429370  0.6619076294892166  0.7649462844815901   F   F   F
  0.6017643104056550  0.2871166856353088  0.7841971875368974   F   F   F
  0.5145888663301833  0.4842187841221133  0.6780373877869835   F   F   F
  0.2893373995464741  0.5375737617215963  0.7775105987868957   F   F   F
  0.5634078798102914  0.4857334582173749  0.7623388220725891   F   F   F
  0.7640341920972388  0.4315252341201039  0.7044166236085211   F   F   F
  0.3915412846333451  0.8170600652624518  0.7065536147230255   F   F   F
  0.4636358048319394  0.6950127842411259  0.8301125832925439   F   F   F
  0.4400804689231555  0.2280832506344458  0.6973785094370074   F   F   F
  0.3710780250974774  0.2983566628015825  0.7550072376456598   F   F   F
  0.3496571248836993  0.4994659013202629  0.6977457051671487   F   F   F
  0.4297415016969182  0.3710239478077960  0.8151536408676177   F   F   F
  0.5961634976278704  0.7844013615046549  0.7130216602156846   F   F   F
  0.6351074131794141  0.5841244534242848  0.8000567901016568   F   F   F
  0.7334710693823703  0.6153716559109703  0.6937956982506773   F   F   F
  0.5496649048518560  0.3838056718795880  0.8279038152517423   F   F   F
  0.4857200828170223  0.7769924285084444  0.7556879856225711   F   F   F
  0.4863789894563351  0.2699106518568065  0.7752733681204665   F   F   F
  0.4628270877339132  0.5729315845505817  0.8639739889864928   F   F   F
  0.7063698552333174  0.7571707511606480  0.6882442281720856   F   F   F
  0.6562002660484550  0.4410546746600723  0.8124434125298906   F   F   F
  0.3685370590132444  0.6184086051186388  0.8202006817654649   F   F   F
  0.5700574583904888  0.5098259608005544  0.8564984048615755   F   F   F
  0.6681558792429332  0.1907741552143240  0.7520182690422212   T   T   T
  0.4715741693395522  0.4500162992507443  0.8782375592381968   F   F   F
  0.5183120389699579  0.3769737865177780  0.7322422304616342   F   F   F
  0.2826441547097666  0.3397866269069813  0.7022082909431563   F   F   F
  0.6696128676549417  0.6812374300135657  0.7486709124578520   F   F   F
  0.3980741352588176  0.3813883545122095  0.6901757792017934   F   F   F
  0.4524821384000327  0.5796836968212596  0.7026886635258839   F   F   F
  0.6178570182615098  0.3205493515987609  0.6958358965398396   F   F   F
  0.3259715563858072  0.4143387578088686  0.7690965851963739   F   F   F
  0.4194661549298730  0.6967121940252218  0.6994171817716626   F   F   F
  0.7009366292407980  0.3443612593993509  0.7572597001839884   F   F   F
  0.7743334975901620  0.4289147797752418  0.7944752506895235   F   F   F
  0.2567999651857221  0.5928018551058448  0.6945703478546332   F   F   F
  0.6488495862031890  0.4448606251336064  0.6946295113728571   F   F   F
  0.5645543793215667  0.6393948339321086  0.8610340148992541   F   F   F
  0.5420020380221641  0.6663902200971111  0.7012401658870707   F   F   F
  0.4442674554010299  0.4734823059481444  0.7560506276062477   F   F   F
  0.3742261425225265  0.7391821614738313  0.7786543632884345   F   F   F
  0.3756540516898009  0.4925581843472779  0.8325663300157328   F   F   F
  0.7209085155972712  0.1173270465808481  0.7560559667392508   T   T   T
  0.7979296949211034  0.0941356093915052  0.7548942862284533   T   T   T
  0.7464861557907723  0.5578862925188899  0.5446033074346996   F   F   F
  0.7496508331150620  0.4383297329869079  0.4557296365016321   F   F   F
  0.7508099585531508  0.1898494368755093  0.4557332266389174   F   F   F
  0.4171703703435254  0.9358357480151405  0.4540077384595270   F   F   F
  0.4170916522614893  0.6846677711104731  0.4547141903314227   F   F   F
  0.4164379920523274  0.4354396432522670  0.4538235590267312   F   F   F
  0.0845965688625584  0.6868973801291589  0.4530190580295057   F   F   F
  0.0838886220769822  0.9366769535306980  0.4534839095934229   F   F   F
  0.0827907544031680  0.4367803917204495  0.4528586260819955   F   F   F
  0.0838720485451690  0.1865694441211564  0.4529790270299851   F   F   F
  0.9165767851545825  0.8121069433090324  0.4540701093873940   F   F   F
  0.7761154583978246  0.1314378649373227  0.7535304519124042   T   T   T
  0.9161949882839567  0.5623394230486712  0.4539139451973044   F   F   F
  0.9161024938714076  0.0622016814651443  0.4541140835389479   F   F   F
  0.9161922634184432  0.3121562056692993  0.4538829332218464   F   F   F
  0.4171412127229602  0.1871396831993966  0.4535386805403637   F   F   F
  0.2522095314485993  0.6876086189260423  0.4561598041996221   F   F   F
  0.9164686305342588  0.9371348135336919  0.4536506708100008   F   F   F
  0.5826226712691578  0.1902780953011059  0.4554924218286410   F   F   F
  0.0000933159084059  0.1250532396730317  0.4983303797903326   F   F   F
  0.5832881071125637  0.8104631472668271  0.4553571004463480   F   F   F
  0.9999913301798052  0.3735265455429577  0.4983175359446630   F   F   F
  0.9999518158297436  0.6271522343360550  0.4976812357154882   F   F   F
  0.3336092787733574  0.1256713522298596  0.4985121688107699   F   F   F
  0.0000398710599419  0.8751484482433468  0.4995464307693511   F   F   F
  0.3334346064030338  0.8738329710762880  0.4993812320156404   F   F   F
  0.6661711282560842  0.1266964858211680  0.4989901749164590   F   F   F
  0.2511685891685158  0.4392816288568104  0.4549178290950942   F   F   F
  0.0833333358191695  0.5625000000092442  0.3605200052333331   F   F   F
  0.9166666865332829  0.0625000000159659  0.3605200052333331   F   F   F
  0.7490750955257445  0.6886677587885169  0.4573820378035151   F   F   F
  0.7492794031355755  0.8131868175601424  0.4530285309688035   F   F   F
  0.7495094460652522  0.9384302922382071  0.4553130671654870   F   F   F
  0.9176539020300756  0.0634363514814206  0.5475426622356685   F   F   F
  0.5827246583834470  0.4394329984637957  0.4562508799912994   F   F   F
  0.2500692214799270  0.9360359048521226  0.4540986483890042   F   F   F
  0.6654133811323787  0.6260016505796819  0.5029410112334712   F   F   F
  0.5845230349561543  0.5627824681619614  0.4549014212653655   F   F   F
  0.5832495005069951  0.0637059580807926  0.4538299351927539   F   F   F
  0.9166666865332829  0.6874999999963620  0.3605200052333331   F   F   F
  0.9166666865332829  0.4374999701794380  0.3605200052333331   F   F   F
  0.9166666865332829  0.1875000000030838  0.3605200052333331   F   F   F
  0.5833333134730552  0.9375000000154046  0.3605200052333331   F   F   F
  0.5833333134730552  0.6874999999963620  0.3605200052333331   F   F   F
  0.5833333134730552  0.4374999701794380  0.3605200052333331   F   F   F
  0.5833333134730552  0.1875000000030838  0.3605200052333331   F   F   F
  0.2499999999799343  0.9375000000154046  0.3605200052333331   F   F   F
  0.9166666865332829  0.9375000000154046  0.3605200052333331   F   F   F
  0.2499999999799343  0.6874999999963620  0.3605200052333331   F   F   F
  0.2499999999799343  0.1875000000030838  0.3605200052333331   F   F   F
  0.7499999404149307  0.9375000000154046  0.3605200052333331   F   F   F
  0.7499999404149307  0.6874999999963620  0.3605200052333331   F   F   F
  0.7499999404149307  0.4374999701794380  0.3605200052333331   F   F   F
  0.7499999404149307  0.1875000000030838  0.3605200052333331   F   F   F
  0.4166666269218169  0.9375000000154046  0.3605200052333331   F   F   F
  0.4166666269218169  0.6874999999963620  0.3605200052333331   F   F   F
  0.4166666269218169  0.4374999701794380  0.3605200052333331   F   F   F
  0.2499999999799343  0.4374999701794380  0.3605200052333331   F   F   F
  0.0833333358191695  0.0625000000159659  0.3605200052333331   F   F   F
  0.9153952600977667  0.6867524321099077  0.4531066592118445   F   F   F
  0.6654620389546426  0.3785527754136419  0.5029925223093560   F   F   F
  0.3343537101853437  0.3784448006870245  0.5029699387135582   F   F   F
  0.3356845100699448  0.6254992481875545  0.5040007496246062   F   F   F
  0.2498417240030277  0.1884954659394699  0.4540903138744773   F   F   F
  0.2504985022008030  0.0620312445334300  0.4542376312483236   F   F   F
  0.9155662812732031  0.3129314410047031  0.5467844417459335   F   F   F
  0.2522476900719759  0.3141451113559199  0.4541653974817029   F   F   F
  0.5833333134730552  0.0625000000159659  0.3605200052333331   F   F   F
  0.2499999999799343  0.8124999999834799  0.3605200052333331   F   F   F
  0.2499999999799343  0.5625000000092442  0.3605200052333331   F   F   F
  0.2499999999799343  0.3124999999901945  0.3605200052333331   F   F   F
  0.2499999999799343  0.0625000000159659  0.3605200052333331   F   F   F
  0.7499999404149307  0.5625000000092442  0.3605200052333331   F   F   F
  0.7499999404149307  0.3124999999901945  0.3605200052333331   F   F   F
  0.7499999404149307  0.0625000000159659  0.3605200052333331   F   F   F
  0.4166666269218169  0.8124999999834799  0.3605200052333331   F   F   F
  0.4166666269218169  0.5625000000092442  0.3605200052333331   F   F   F
  0.4166666269218169  0.3124999999901945  0.3605200052333331   F   F   F
  0.7499999404149307  0.8124999999834799  0.3605200052333331   F   F   F
  0.0835414630268238  0.3120103551404907  0.4539946525389503   F   F   F
  0.4166666269218169  0.0625000000159659  0.3605200052333331   F   F   F
  0.4169162107123252  0.0615484803052261  0.4553580132736266   F   F   F
  0.0834677797423315  0.8121474151413065  0.4541880784584297   F   F   F
  0.0839602909615373  0.5624992780985281  0.4538885350765170   F   F   F
  0.4160718540834363  0.5595198682598485  0.4578676501635091   F   F   F
  0.0837309629061880  0.0618636651412400  0.4541906204844285   F   F   F
  0.4155492286430976  0.3113819298162265  0.4573765129377392   F   F   F
  0.8333332538436267  0.7500000000123208  0.4070133268666680   F   F   F
  0.0833333358191695  0.4374999701794380  0.3605200052333331   F   F   F
  0.0833333358191695  0.6874999999963620  0.3605200052333331   F   F   F
  0.0833333358191695  0.9375000000154046  0.3605200052333331   F   F   F
  0.4166666269218169  0.1875000000030838  0.3605200052333331   F   F   F
  0.0833333358191695  0.8124999999834799  0.3605200052333331   F   F   F
  0.8333332538436267  0.4999999999932783  0.4070133268666680   F   F   F
  0.4146910678610517  0.8119141023221679  0.5480003998094585   F   F   F
  0.7011732548095653  0.0680832965109174  0.7616861068352800   T   T   T
  0.5833333134730552  0.3124999999901945  0.3605200052333331   F   F   F
  0.5833333134730552  0.8124999999834799  0.3605200052333331   F   F   F
  0.7496503086004087  0.0641187875102948  0.4533790969370097   F   F   F
  0.5833333134730552  0.5625000000092442  0.3605200052333331   F   F   F
  0.2519392665261966  0.5646072938873148  0.4538409035036318   F   F   F
  0.2505168641657273  0.8107827114831017  0.4553837148239820   F   F   F
  0.8333332538436267  0.2500000000190425  0.4070133268666680   F   F   F
  0.2510695569662428  0.0625970908536262  0.5472572921670360   F   F   F
  0.8333332538436267  0.0000000000000000  0.4070133268666680   F   F   F
  0.5000000000021103  0.4999999999932783  0.4070133268666680   F   F   F
  0.0833333358191695  0.1875000000030838  0.3605200052333331   F   F   F
  0.0000000000000000  0.0000000000000000  0.4070133268666680   F   F   F
  0.0000000000000000  0.2500000000190425  0.4070133268666680   F   F   F
  0.0000000000000000  0.4999999999932783  0.4070133268666680   F   F   F
  0.7481569665744321  0.5642592836972967  0.4537567014869572   F   F   F
  0.3333333432766779  0.0000000000000000  0.4070133268666680   F   F   F
  0.3333333432766779  0.4999999999932783  0.4070133268666680   F   F   F
  0.3333333432766779  0.7500000000123208  0.4070133268666680   F   F   F
  0.5827878870665736  0.6861210372858048  0.4545568365132581   F   F   F
  0.6666666865533486  0.0000000000000000  0.4070133268666680   F   F   F
  0.6666666865533486  0.4999999999932783  0.4070133268666680   F   F   F
  0.6666666865533486  0.7500000000123208  0.4070133268666680   F   F   F
  0.1666666716383389  0.0000000000000000  0.4070133268666680   F   F   F
  0.1666666716383389  0.2500000000190425  0.4070133268666680   F   F   F
  0.1666666716383389  0.4999999999932783  0.4070133268666680   F   F   F
  0.1666666716383389  0.7500000000123208  0.4070133268666680   F   F   F
  0.5000000000021103  0.0000000000000000  0.4070133268666680   F   F   F
  0.5000000000021103  0.2500000000190425  0.4070133268666680   F   F   F
  0.5000000000021103  0.7500000000123208  0.4070133268666680   F   F   F
  0.9166666865332829  0.3124999999901945  0.3605200052333331   F   F   F
  0.3333333432766779  0.2500000000190425  0.4070133268666680   F   F   F
  0.7473631597097813  0.3140957278462544  0.4548039246190693   F   F   F
  0.0000000000000000  0.7500000000123208  0.4070133268666680   F   F   F
  0.4166637186432043  0.8099481866182739  0.4551579434913391   F   F   F
  0.6666666865533486  0.2500000000190425  0.4070133268666680   F   F   F
  0.5827153007718164  0.9371629546359274  0.4542957877695013   F   F   F
  0.5842294985264708  0.3153433922223253  0.4536323970299230   F   F   F
  0.9157700453261549  0.4369638681952814  0.4536583055283088   F   F   F
  0.4232007929778334  0.6881077416598934  0.5466169988332865   F   F   F
  0.7486562010522448  0.1838112904750745  0.5508961747293837   F   F   F
  0.4158519138727013  0.9372406422295168  0.5459946845583566   F   F   F
  0.4988535067992877  0.2526116379361306  0.5905004200851954   F   F   F
  0.4157267841627263  0.1914538539153405  0.5465034198038551   F   F   F
  0.0864206867195718  0.6895907648086259  0.5452106405060843   F   F   F
  0.0824031832288088  0.4388150694887387  0.5449464606338648   F   F   F
  0.0835884731403384  0.1889222612981817  0.5455391290032218   F   F   F
  0.4994927904909466  0.1256451045851903  0.4995931660515800   F   F   F
  0.9996575353878075  0.5006527444021202  0.5943552668348654   F   F   F
  0.5808314722271553  0.1852620373149395  0.5499217548314456   F   F   F
  0.9995867043147393  0.7532860521211878  0.5923110873693304   F   F   F
  0.3340080679163138  0.9998528950885330  0.5920062568938570   F   F   F
  0.9997399513648338  0.9993520984005045  0.5931776766260684   F   F   F
  0.0008079912221437  0.2499535488383964  0.5918950082808445   F   F   F
  0.3333120406855565  0.4964212397358526  0.5908980894035621   F   F   F
  0.3359409685609690  0.7412093754532539  0.5905314085698395   F   F   F
  0.6637805914247732  0.2477823606023952  0.5904163886110156   F   F   F
  0.6659891463775371  0.0005912695882667  0.5919703332953107   F   F   F
  0.6659509717170481  0.7417363268754903  0.5900230977501936   F   F   F
  0.6668171110904908  0.4943088114457197  0.5912825907036044   F   F   F
  0.1674264310839207  0.9984153013148293  0.5923121240002143   F   F   F
  0.1683773287608736  0.2491817871475499  0.5930689427587538   F   F   F
  0.1707474311578848  0.7500687539282803  0.5950666918778913   F   F   F
  0.2484276306079407  0.4359467844486223  0.5490663367031521   F   F   F
  0.1655393302886527  0.5027027211904703  0.5874144445894510   F   F   F
  0.3348203062029442  0.2545029409526953  0.5928520388442411   F   F   F
  0.4996165646781615  0.0000173649946914  0.5909896013396245   F   F   F
  0.8328061635413351  0.8744373606859833  0.4985258418373519   F   F   F
  0.4231323389558577  0.4439666177353226  0.5455881164334094   F   F   F
  0.7519786832137334  0.4353281746780511  0.5488603859863359   F   F   F
  0.7519650606930175  0.6802966931875634  0.5531982402660865   F   F   F
  0.7494541315665673  0.9341428464717014  0.5476326924630278   F   F   F
  0.7484473829326576  0.8082525831390942  0.5456406655960061   F   F   F
  0.2495332597813199  0.3137407537250900  0.5459730480652242   F   F   F
  0.9157887696825086  0.1868018553360630  0.4531673948467314   F   F   F
  0.5828670590829184  0.3111410361978637  0.5450042698021098   F   F   F
  0.2531221524193875  0.8126767322710320  0.5510901866889902   F   F   F
  0.5829931633071157  0.0619836060209193  0.5453734469674232   F   F   F
  0.5861314555242855  0.8145713772064583  0.5503704007392686   F   F   F
  0.7479595208677011  0.3119952820339204  0.5485331065129715   F   F   F
  0.5812599134984110  0.5601551773672740  0.5491754073009741   F   F   F
  0.2523774911654110  0.5590376350287785  0.5439706596261760   F   F   F
  0.4160569213426578  0.3196326665045053  0.5525879640219168   F   F   F
  0.5767407775200754  0.4358544948809052  0.5520828419979804   F   F   F
  0.4165070776670945  0.0654339565838926  0.5473714890590297   F   F   F
  0.0848859791936416  0.8129144521088326  0.5473170638420130   F   F   F
  0.7486957030383659  0.9371530111986609  0.6401969761163944   F   F   F
  0.0823279234070221  0.5643642837140421  0.5462983282246693   F   F   F
  0.0822742400414307  0.0632761283280897  0.5475684116361734   F   F   F
  0.9156902715729437  0.9385739630177086  0.5464215872357545   F   F   F
  0.9138698075428068  0.6892013752137190  0.5452219597086352   F   F   F
  0.5838021551398829  0.9378301952971991  0.5461010128890538   F   F   F
  0.9169478972450467  0.1890360075056775  0.5452859019061331   F   F   F
  0.9159712801700760  0.4376362866460825  0.5457831860817475   F   F   F
  0.5795438802982484  0.6862968220580903  0.5472235223577353   F   F   F
  0.2515228463816330  0.9373301931637414  0.5452960151106087   F   F   F
  0.4976625071228891  0.5044532002517947  0.6089876833013167   F   F   F
  0.9172524572006027  0.5637735507144611  0.5468001318092633   F   F   F
  0.4201742900992383  0.5650983612604886  0.5554634529948814   F   F   F
  0.9154940662763302  0.8129380130707921  0.5468962270534317   F   F   F
  0.0836195720148622  0.9389197619142983  0.5457840275939272   F   F   F
  0.2493009464185939  0.6832553581204943  0.5520981959993870   F   F   F
  0.0863471592448866  0.3134877004744014  0.5468870238025857   F   F   F
  0.8321920314257625  0.0020833575762823  0.5922539168107107   F   F   F
  0.0833333358191695  0.3124999999901945  0.3605200052333331   F   F   F
  0.4176864288724038  0.0651576276923462  0.6400809049297107   F   F   F
  0.4210651159478487  0.6758971262039494  0.6335063789716326   F   F   F
  0.5911503152131679  0.8100650994385374  0.6460782707747679   F   F   F
  0.9155978560309088  0.0627492823326015  0.6417149705171029   F   F   F
  0.9126251461091194  0.5617409073307640  0.6418487183735733   F   F   F
  0.9151105318813606  0.3118897345048388  0.6396420575355791   F   F   F
  0.9141190230271776  0.8132490482073761  0.6415358197785980   F   F   F
  0.5822309002075089  0.0667491636883937  0.6385185750083952   F   F   F
  0.5836218432439342  0.3205583808089828  0.6335560749201261   F   F   F
  0.5912782938467486  0.5647946945885197  0.6394201322204454   F   F   F
  0.2475748112332037  0.5739541337179758  0.6287540195834419   F   F   F
  0.7539914699457096  0.6928222792672878  0.6567180157504786   F   F   F
  0.2620803229396785  0.7989225570688215  0.6466499309721563   F   F   F
  0.2509731600037195  0.0594687256451974  0.6423225290814485   F   F   F
  0.9166666865332829  0.5625000000092442  0.3605200052333331   F   F   F
  0.4173960226391259  0.9349739735931307  0.6397307819236069   F   F   F
  0.5000058729708278  0.8734403738705028  0.5008927363364446   F   F   F
  0.8323764546395708  0.6230575070254927  0.5000018100147329   F   F   F
  0.2518119351035911  0.1883659347763617  0.5470975219629174   F   F   F
  0.8324795898197878  0.3730899315404898  0.4997555949647975   F   F   F
  0.8329280785855685  0.1245547625484517  0.5001580042479730   F   F   F
  0.1667189879023341  0.3762720370510900  0.4978500624218101   F   F   F
  0.1678022115706195  0.6243297389497173  0.5000232607035053   F   F   F
  0.5815805365883087  0.4383966746403324  0.6462528500647330   F   F   F
  0.5800170810601563  0.6853051140392328  0.6391416930142151   F   F   F
  0.9162976482118640  0.1862688711879291  0.6398920786286961   F   F   F
  0.2491699255564183  0.3163460854443440  0.6413274141659143   F   F   F
  0.1670712651040880  0.1242985627756313  0.4993033049892766   F   F   F
  0.7482006527659224  0.0598781497224644  0.5444682588433681   F   F   F
  0.1677522479998721  0.8732919117790749  0.4998986547814780   F   F   F
  0.5012858673007864  0.7563279458993064  0.5930388884838890   F   F   F
  0.5003340029805712  0.6210736189035896  0.5000804718250632   F   F   F
  0.7550411245056133  0.4336950613251535  0.6377474368173696   F   F   F
  0.4995944515386214  0.3742815243127828  0.4997745081015862   F   F   F
  0.2532996076803332  0.1865253345453320  0.6410236696880277   F   F   F
  0.4127999373792204  0.8127888877585961  0.6396474296712973   F   F   F
  0.7464643578993263  0.1944009381613805  0.6463853216192194   F   F   F
  0.4294167114870997  0.3049540341391880  0.6550598491765535   F   F   F
  0.3972220361151008  0.5506169720604400  0.6519763542275054   F   F   F
  0.7529695088048687  0.5690453409629680  0.6351566520478831   F   F   F
  0.7410756997929016  0.8100022572229109  0.6399014850859877   F   F   F
  0.7465503002023316  0.3116886691732389  0.6417141193985493   F   F   F
  0.7483509083135784  0.0678116367521961  0.6390396576672969   F   F   F
  0.0837421292669362  0.3117889839966229  0.6404515116843901   F   F   F
  0.0873812411727312  0.5621209566642408  0.6410814172872092   F   F   F
  0.0842424997032126  0.0606349621988468  0.6421131811875439   F   F   F
  0.0867472219061989  0.4364420189123316  0.6394077949701418   F   F   F
  0.0834922414775295  0.1857439259522082  0.6409750899676533   F   F   F
  0.4182501967769118  0.1875887790314074  0.6397985044622684   F   F   F
  0.4150869301550076  0.4188089955195632  0.6299231723832421   F   F   F
  0.6666115164031008  0.8746022322258507  0.4989065248078010   F   F   F
  0.8316177337234808  0.2490440591554348  0.5908700107133755   F   F   F
  0.8305521748228772  0.7508677230792573  0.5928307397734510   F   F   F
  0.0842261986863275  0.9356343530503612  0.6406656536931818   F   F   F
  0.8332836613194960  0.5030325711790036  0.5887756905645880   F   F   F
  0.9166666865332829  0.8124999999834799  0.3605200052333331   F   F   F
  0.2519529130502883  0.9301627651612792  0.6373807665400842   F   F   F
  0.5800304101633934  0.1918143016254305  0.6450048525829842   F   F   F
  0.0841452377416864  0.8122635938021588  0.6420549884115563   F   F   F
  0.2406401417544898  0.4420637061696465  0.6415400668532200   F   F   F
  0.9143536838806723  0.9371803171555680  0.6410420616131827   F   F   F
  0.9162525009318989  0.6875014967741974  0.6393793029066834   F   F   F
  0.9125937282170615  0.4360201005396567  0.6396670052763050   F   F   F
  0.0830776787695766  0.6870338632803422  0.6392105526988290   F   F   F
  0.2546243865730859  0.6775004468534856  0.6635192393971319   F   F   F
  0.5820209680717909  0.9359708670608733  0.6392968134052217   F   F   F
  0.6659588651498830 -0.0000134957621084  0.5056064743496811   F   F   F
  0.8333332538436267  0.6249999999803961  0.4070133268666680   F   F   F
  0.5011997426304066  0.7528672130510357  0.5039452131103931   F   F   F
  0.1644211070385162  0.7515280485420327  0.5034130873901682   F   F   F
  0.1666666716383389  0.3750000000061604  0.4070133268666680   F   F   F
  0.0005813962495197  0.1227177001808685  0.6195421772437746   F   F   F
  0.6654496788485156  0.7520103646351421  0.5022007903930570   F   F   F
  0.3312023036322566  0.4992892316774094  0.5009547509843678   F   F   F
  0.3300996792680025  0.2480925740108670  0.5028392919539980   F   F   F
  0.3330950142501062  0.0011110179043673  0.5058391816148173   F   F   F
  0.3339055296112867  0.7511166505327913  0.5016606575264824   F   F   F
  0.6670019558608961  0.2480567853126151  0.5025984926999774   F   F   F
  0.5013361765345947  0.4998981753843476  0.5002625530668827   F   F   F
  0.9996825962895570  0.5006278262829039  0.5070460736881670   F   F   F
  0.8361525817244523  0.5000864803003926  0.5027494136285164   F   F   F
  0.8358708845145895  0.2486672134253308  0.5027533537733702   F   F   F
  0.6666666865533486  0.3750000000061604  0.4070133268666680   F   F   F
  0.1659340221616764  0.0012050898274196  0.5065623917412585   F   F   F
  0.0000000000000000  0.8749999404036828  0.4070133268666680   F   F   F
  0.5010424198814397  0.2479257878758879  0.5020176421356475   F   F   F
  0.9998189887420671  0.7508585194801660  0.5066041640918899   F   F   F
  0.0008475118040367  0.2498199739881496  0.5058833511589081   F   F   F
  0.9999900272471808  0.0001049173132510  0.5066526354733608   F   F   F
  0.6666666865533486  0.6249999999803961  0.4070133268666680   F   F   F
  0.8333332538436267  0.8749999404036828  0.4070133268666680   F   F   F
  0.3333333432766779  0.6249999999803961  0.4070133268666680   F   F   F
  0.3333333432766779  0.1249999999871179  0.4070133268666680   F   F   F
  0.3333333432766779  0.3750000000061604  0.4070133268666680   F   F   F
  0.8342371290365135  0.0002462866960307  0.5064480295370769   F   F   F
  0.3333333432766779  0.8749999404036828  0.4070133268666680   F   F   F
  0.6666666865533486  0.1249999999871179  0.4070133268666680   F   F   F
  0.0000000000000000  0.6249999999803961  0.4070133268666680   F   F   F
  0.1661799823143892  0.2482400409138890  0.5061139902260235   F   F   F
  0.6685957684182947  0.4998813114703966  0.5006229698342216   F   F   F
  0.5002328716906362  0.9993921263220629  0.5054886803915419   F   F   F
  0.5007845246473727  0.8767955871077028  0.6096898166763679   F   F   F
  0.3259323501693376  0.3737548802673678  0.5927128396020874   F   F   F
  0.0000000000000000  0.3750000000061604  0.4070133268666680   F   F   F
  0.3343186147141567  0.6244388555256231  0.5952325425243574   F   F   F
  0.5000000000021103  0.8749999404036828  0.4070133268666680   F   F   F
  0.8333332538436267  0.1249999999871179  0.4070133268666680   F   F   F
  0.1666666716383389  0.1249999999871179  0.4070133268666680   F   F   F
  0.6653955843042259  0.1245820243491922  0.6111079190559915   F   F   F
  0.5000000000021103  0.6249999999803961  0.4070133268666680   F   F   F
  0.8398248387040612  0.6269331919118922  0.6033859864395182   F   F   F
  0.3315596550577497  0.1199029304825161  0.6134631399662742   F   F   F
  0.9990606200701795  0.8750910178420194  0.6220512858086791   F   F   F
  0.5000000000021103  0.1249999999871179  0.4070133268666680   F   F   F
  0.1635202303824131  0.4998737823286199  0.5020821200341156   F   F   F
  0.8320826648051135  0.8762547455286516  0.6178916988672646   F   F   F
  0.8376731151776162  0.3725667083442003  0.6033571786433928   F   F   F
  0.8360279738376014  0.7517448425841297  0.5026054732990821   F   F   F
  0.1666666716383389  0.8749999404036828  0.4070133268666680   F   F   F
  0.8333332538436267  0.3750000000061604  0.4070133268666680   F   F   F
  0.0000000000000000  0.1249999999871179  0.4070133268666680   F   F   F
  0.5039945595654386  0.6251237406413561  0.5939361839107477   F   F   F
  0.1666666716383389  0.6249999999803961  0.4070133268666680   F   F   F
  0.5000000000021103  0.3750000000061604  0.4070133268666680   F   F   F
  0.6666666865533486  0.8749999404036828  0.4070133268666680   F   F   F
  0.6710272539559164  0.3725400609652109  0.5932934110077868   F   F   F
  0.3344822577728515  0.8785573778180155  0.6030583395659556   F   F   F
  0.1660672118485853  0.8734377803724485  0.6179378459413352   F   F   F
  0.5017371899973984  0.3712939450381471  0.5948604932009582   F   F   F
  0.1592070455025532  0.6272146346156054  0.6014668147711603   F   F   F
  0.1676480443849868  0.1228092050455995  0.6217690290164443   F   F   F
  0.1631547269792339  0.3714529982611711  0.6076546526595148   F   F   F
  0.6653530452544435  0.8813785436141429  0.6074914549209337   F   F   F
  0.6664551480376680  0.6263932572542801  0.5934650818204011   F   F   F
  0.0000271685363279  0.3747750308497368  0.6232289693741626   F   F   F
  0.9996017069248946  0.6220041487742525  0.6325235392500275   F   F   F
  0.8340498211369025  0.1246072710336957  0.6157304531500019   F   F   F
  0.5002081688862269  0.1225119503025140  0.6062144286658785   F   F   F
  0.5847588206277580  0.7500193084539645  0.5997579833320674   F   F   F
  0.0833566722008023  0.2481437795048902  0.6035787079607654   F   F   F
  0.7495485637871752  0.0019453475816490  0.6043991050568006   F   F   F
  0.5824853138832624  0.0010881951119658  0.6041331104085816   F   F   F
  0.9162808387016178  0.0003145181381816  0.6038991309442263   F   F   F
  0.5904605090868087  0.5012099348308973  0.5936279791707693   F   F   F
  0.4147553720558931  0.2484749992613602  0.5912724382877526   F   F   F
  0.2492791546985628  0.7526662962806974  0.5921748568382245   F   F   F
  0.5847562285977046  0.2477694027432054  0.5966553981221758   F   F   F
  0.2496250207779737  0.9976757345021849  0.6042526920028978   F   F   F
  0.7539378577467221  0.2482908184059046  0.5930424421795946   F   F   F
  0.2489442997223268  0.2460091162721324  0.6036058261703037   F   F   F
  0.4170925234559050  0.0000766094033648  0.6046376049572402   F   F   F
  0.2424110257220655  0.4979531942074389  0.5939825219234847   F   F   F
  0.0815037617220198  0.5001013852228438  0.6032162925652432   F   F   F