 C  H                                   
   1.00000000000000     
    23.6707801818999997    0.0000000000000000    0.0000000000000000
     0.0000000000000000   22.3170261383000010    0.0000000000000000
     0.0000000000000000    0.0000000000000000   30.0000000000000000
   C    H 
     1     4
Direct
  0.4999996533212803  0.5000001625093595  0.5000043038595766
  0.5233457645968385  0.5357337597197687  0.5165046984032270
  0.5287900379200946  0.4636491888644171  0.4915681436453555
  0.4672121689756027  0.4833088067271186  0.5222457909214181
  0.4806481505683514  0.5173125630630963  0.4696770631704229
 
  0.00000000E+00  0.00000000E+00  0.00000000E+00
  0.00000000E+00  0.00000000E+00  0.00000000E+00
  0.00000000E+00  0.00000000E+00  0.00000000E+00
  0.00000000E+00  0.00000000E+00  0.00000000E+00
  0.00000000E+00  0.00000000E+00  0.00000000E+00
