 C  H 
 1.0000000000000000
    23.6707801818999997    0.0000000000000000    0.0000000000000000
     0.0000000000000000   22.3170261383000010    0.0000000000000000
     0.0000000000000000    0.0000000000000000   30.0000000000000000
 C   H  
   1   4
Cartesian
 11.8353900909499998 11.1585130691500005 15.0000000000000000
 12.3894900909499999 11.9581130691500004 15.4964999999999993
 12.5186900909499990 10.3451130691500008 14.7463999999999995
 11.0571900909499998 10.7850130691500006 15.6692000000000000
 11.3760900909499991 11.5459130691500000 14.0878999999999994
