Au  O Sr Ti  H                          
   1.00000000000000     
    23.6707801818999997    0.0000000000000000    0.0000000000000000
     0.0000000000000000   22.3170261383000010    0.0000000000000000
     0.0000000000000000    0.0000000000000000   30.0000000000000000
   Au   O    Sr   Ti   H 
    50   264    72    72     1
Selective dynamics
Direct
  0.7175592626443592  0.5270442791042466  0.7542857834978670   T   T   T
  0.6246493022841000  0.5677341671452886  0.7036502767486267   T   T   T
  0.7329601912069732  0.2563929099328093  0.6929500214096199   T   T   T
  0.2918802727867677  0.7461638984942150  0.6981276203993593   T   T   T
  0.5123373447270647  0.6038843123895613  0.7772768030242072   T   T   T
  0.5771542582932261  0.7245961956788467  0.7925991352807340   T   T   T
  0.5477855521482261  0.3903592128184655  0.8320026822290785   T   T   T
  0.2405638101499940  0.4694059993127219  0.7091464622673075   T   T   T
  0.2827933031277443  0.6616874237761926  0.7655345503639792   T   T   T
  0.5968418115772008  0.2971641376018543  0.7881583909763008   T   T   T
  0.5145385065166951  0.4835006824268598  0.6780893363796134   T   T   T
  0.5628010409192298  0.4869885159866015  0.7624334106594312   T   T   T
  0.4631038811038864  0.6956919927091841  0.8299828300715661   T   T   T
  0.7636633747154978  0.4323143110006600  0.7057281919707574   T   T   T
  0.7339954705643016  0.6159838255073821  0.6937053566198537   T   T   T
  0.6345653278021327  0.5843886480855734  0.8003404617991168   T   T   T
  0.5948277819135250  0.7844683828059329  0.7127197954716450   T   T   T
  0.4841491308923704  0.7790953091900743  0.7572700052235931   T   T   T
  0.3493231196359038  0.5003921438660975  0.6979473904698189   T   T   T
  0.4303183761096954  0.3729539328271488  0.8161545420203487   T   T   T
  0.3691569567370199  0.3001095878815470  0.7569878276121400   T   T   T
  0.4300314223261196  0.2267858175511875  0.6982091021021734   T   T   T
  0.3903237052695056  0.8165810345169516  0.7064710476297430   T   T   T
  0.2884746492586669  0.5376207570137826  0.7779817803339213   T   T   T
  0.5465501832558152  0.2122351960280052  0.7088202378337429   T   T   T
  0.4532396292796390  0.5797379201029915  0.7029480088294278   T   T   T
  0.6168204898350557  0.3173162654841445  0.6969857292467155   T   T   T
  0.7055621090889217  0.7576111671957358  0.6882758619250379   T   T   T
  0.6553858549645882  0.4416246687963505  0.8121647180803861   T   T   T
  0.3674108368079773  0.6191253661393891  0.8201823321929694   T   T   T
  0.5687937600804595  0.5123067878098905  0.8574429392505167   T   T   T
  0.6535920463318429  0.2053821121221338  0.7459606970197766   T   T   T
  0.4687851493047784  0.4534991441829166  0.8816318791295014   T   T   T
  0.5188577205091023  0.3771401392514990  0.7343586842324255   T   T   T
  0.2820888222706880  0.3402143578080863  0.7027196276456327   T   T   T
  0.6696404129039834  0.6810952936833602  0.7487099792587528   T   T   T
  0.3978068745939141  0.3820550792629596  0.6908717920404402   T   T   T
  0.3753281482612152  0.4936278968027343  0.8328108656292054   T   T   T
  0.4618817969198319  0.5752546820640800  0.8642397251476295   T   T   T
  0.3252078866464118  0.4153594241295988  0.7696515381762767   T   T   T
  0.4829896776920962  0.2688288053508310  0.7743232344807294   T   T   T
  0.4237215792250645  0.6980083943574060  0.6994027666542088   T   T   T
  0.7014574317026285  0.3440197001524374  0.7566653823640119   T   T   T
  0.7732133014063660  0.4294321114216159  0.7958052001327984   T   T   T
  0.2561606759981506  0.5926497386785828  0.6947228894978839   T   T   T
  0.6479234130581226  0.4419859989590187  0.6959595803920569   T   T   T
  0.5647929821710862  0.6410997230216540  0.8618287290034796   T   T   T
  0.5444169049050127  0.6647228108599695  0.7015660044441812   T   T   T
  0.4436229732950465  0.4735991250529182  0.7559144125229024   T   T   T
  0.3728770369363949  0.7382451741732953  0.7779914035432721   T   T   T
  0.2498826287233924  0.1884747688120517  0.4540948318245639   T   T   T
  0.7494814220233239  0.9384028911924462  0.4552981904469351   T   T   T
  0.7490671396175348  0.6886417801802897  0.4573250604501023   T   T   T
  0.7496682262841919  0.4384666511412800  0.4557899951124006   T   T   T
  0.7506696695432099  0.1896239941506272  0.4555112990087049   T   T   T
  0.4175574851201278  0.9356969775793071  0.4539082591993220   T   T   T
  0.4169159686034071  0.6846079560216941  0.4548306204335673   T   T   T
  0.4172701660382018  0.4355600259828187  0.4542049824290017   T   T   T
  0.0845323309538703  0.6868456361058386  0.4529969941844491   T   T   T
  0.0840001121538707  0.9366952476238354  0.4534847303258920   T   T   T
  0.0829285406343378  0.4368662745831464  0.4529495981188108   T   T   T
  0.0838905573319147  0.1866045800371769  0.4529713726531078   T   T   T
  0.9165914664846244  0.8120454108031416  0.4540949206721591   T   T   T
  0.9161613825804695  0.5623877153786575  0.4538132325027935   T   T   T
  0.2511908253616780  0.4392568278831828  0.4549283788509132   T   T   T
  0.9161185316113829  0.0621651451682152  0.4540906627386355   T   T   T
  0.9162961327005965  0.3122559964027520  0.4538261323849550   T   T   T
  0.4172834032367989  0.1870585918319585  0.4534893712093915   T   T   T
  0.2524323019197381  0.6873114456926557  0.4561367619487916   T   T   T
  0.9165420472149024  0.9368968601584384  0.4534329876895232   T   T   T
  0.5827093221555411  0.1896473549623562  0.4553200375646453   T   T   T
  0.0001428889757202  0.1250511764670230  0.4983104584091777   T   T   T
  0.5836471502284217  0.8100430744472166  0.4554771672015687   T   T   T
  0.0001270662208125  0.3737043796010360  0.4983314779595620   T   T   T
  0.9998909928291129  0.6272008504227362  0.4976632299771470   T   T   T
  0.3337765276005106  0.1257700283705373  0.4985178062167910   T   T   T
  0.0000505039640952  0.8751252846272762  0.4995346241821990   T   T   T
  0.3335638929841942  0.8737943841637934  0.4989198021230534   T   T   T
  0.6661529829671318  0.1263321905696432  0.4990699530684740   T   T   T
  0.3358024101058499  0.6251819248400570  0.5044075156531231   T   T   T
  0.3344539072672862  0.3784581641802553  0.5030106219978649   T   T   T
  0.6655377789322638  0.3791044045806640  0.5030395991242712   T   T   T
  0.9153445999498188  0.6866897938112168  0.4529841692179168   T   T   T
  0.9158563515489485  0.4370815817225474  0.4536554272794016   T   T   T
  0.9158644335331640  0.1868377529568682  0.4531264406774665   T   T   T
  0.5827524672591394  0.9366523099718378  0.4540438100843149   T   T   T
  0.5827623571635843  0.6859818959713542  0.4545989354818087   T   T   T
  0.5824193204463337  0.4388345785525127  0.4562638176884585   T   T   T
  0.2499860177624009  0.9360125012534475  0.4540573150554416   T   T   T
  0.6654248681309648  0.6258237053333577  0.5029627907183657   T   T   T
  0.5846268626460907  0.5624632112682051  0.4550701001947502   T   T   T
  0.5831644862980895  0.0629874621219700  0.4543246227624056   T   T   T
  0.9166666865332829  0.6874999999963620  0.3605200052333331   F   F   F
  0.9166666865332829  0.4374999701794380  0.3605200052333331   F   F   F
  0.9166666865332829  0.1875000000030838  0.3605200052333331   F   F   F
  0.5833333134730552  0.9375000000154046  0.3605200052333331   F   F   F
  0.5833333134730552  0.6874999999963620  0.3605200052333331   F   F   F
  0.5833333134730552  0.4374999701794380  0.3605200052333331   F   F   F
  0.5833333134730552  0.1875000000030838  0.3605200052333331   F   F   F
  0.2499999999799343  0.9375000000154046  0.3605200052333331   F   F   F
  0.9166666865332829  0.9375000000154046  0.3605200052333331   F   F   F
  0.2499999999799343  0.6874999999963620  0.3605200052333331   F   F   F
  0.2499999999799343  0.1875000000030838  0.3605200052333331   F   F   F
  0.7499999404149307  0.9375000000154046  0.3605200052333331   F   F   F
  0.7499999404149307  0.6874999999963620  0.3605200052333331   F   F   F
  0.7499999404149307  0.4374999701794380  0.3605200052333331   F   F   F
  0.7499999404149307  0.1875000000030838  0.3605200052333331   F   F   F
  0.4166666269218169  0.9375000000154046  0.3605200052333331   F   F   F
  0.4166666269218169  0.6874999999963620  0.3605200052333331   F   F   F
  0.4166666269218169  0.4374999701794380  0.3605200052333331   F   F   F
  0.2499999999799343  0.4374999701794380  0.3605200052333331   F   F   F
  0.0833333358191695  0.0625000000159659  0.3605200052333331   F   F   F
  0.0833333358191695  0.3124999999901945  0.3605200052333331   F   F   F
  0.0833333358191695  0.5625000000092442  0.3605200052333331   F   F   F
  0.9166666865332829  0.3124999999901945  0.3605200052333331   F   F   F
  0.9166666865332829  0.0625000000159659  0.3605200052333331   F   F   F
  0.5833333134730552  0.8124999999834799  0.3605200052333331   F   F   F
  0.5833333134730552  0.5625000000092442  0.3605200052333331   F   F   F
  0.5833333134730552  0.3124999999901945  0.3605200052333331   F   F   F
  0.5833333134730552  0.0625000000159659  0.3605200052333331   F   F   F
  0.2499999999799343  0.8124999999834799  0.3605200052333331   F   F   F
  0.2499999999799343  0.5625000000092442  0.3605200052333331   F   F   F
  0.2499999999799343  0.3124999999901945  0.3605200052333331   F   F   F
  0.2499999999799343  0.0625000000159659  0.3605200052333331   F   F   F
  0.7499999404149307  0.8124999999834799  0.3605200052333331   F   F   F
  0.7499999404149307  0.5625000000092442  0.3605200052333331   F   F   F
  0.7499999404149307  0.3124999999901945  0.3605200052333331   F   F   F
  0.7499999404149307  0.0625000000159659  0.3605200052333331   F   F   F
  0.4166666269218169  0.8124999999834799  0.3605200052333331   F   F   F
  0.4166666269218169  0.5625000000092442  0.3605200052333331   F   F   F
  0.4166666269218169  0.3124999999901945  0.3605200052333331   F   F   F
  0.4166666269218169  0.0625000000159659  0.3605200052333331   F   F   F
  0.0833333358191695  0.8124999999834799  0.3605200052333331   F   F   F
  0.4166666269218169  0.1875000000030838  0.3605200052333331   F   F   F
  0.0833333358191695  0.9375000000154046  0.3605200052333331   F   F   F
  0.0833333358191695  0.6874999999963620  0.3605200052333331   F   F   F
  0.0833333358191695  0.4374999701794380  0.3605200052333331   F   F   F
  0.8333332538436267  0.4999999999932783  0.4070133268666680   F   F   F
  0.8333332538436267  0.7500000000123208  0.4070133268666680   F   F   F
  0.0837706034971241  0.0618486582097609  0.4541604278029829   T   T   T
  0.0835085348266588  0.3120505213633394  0.4539693814395588   T   T   T
  0.0839650468521864  0.5624760770859346  0.4538730833447084   T   T   T
  0.0835028800950814  0.8121223689715665  0.4541702020896768   T   T   T
  0.4170013114538555  0.0615545753343097  0.4553329595568494   T   T   T
  0.4155852783842356  0.3113638214323226  0.4573622743207392   T   T   T
  0.4160661017830380  0.5594994521782470  0.4578895633228522   T   T   T
  0.4166562018287810  0.8097868638844138  0.4551433223403093   T   T   T
  0.7495422958984631  0.0639855511824996  0.4533852190289658   T   T   T
  0.7474704578528678  0.3141799272393072  0.4545217556492474   T   T   T
  0.7481274060711379  0.5643414125192145  0.4536576590948107   T   T   T
  0.7494464346167402  0.8131671645954494  0.4530532631024198   T   T   T
  0.2505212919605685  0.0620189772592952  0.4542338125303791   T   T   T
  0.9158592249367691  0.3130071639988217  0.5466628683443324   T   T   T
  0.2522822355807788  0.3141346558097814  0.4541544073401206   T   T   T
  0.2519465923697108  0.5645454167445515  0.4538590284021521   T   T   T
  0.2502331170615995  0.8105063561744194  0.4554870072551062   T   T   T
  0.8333332538436267  0.2500000000190425  0.4070133268666680   F   F   F
  0.5842461543034159  0.3146580389995144  0.4542699848418366   T   T   T
  0.8333332538436267  0.0000000000000000  0.4070133268666680   F   F   F
  0.5000000000021103  0.4999999999932783  0.4070133268666680   F   F   F
  0.0833333358191695  0.1875000000030838  0.3605200052333331   F   F   F
  0.0000000000000000  0.0000000000000000  0.4070133268666680   F   F   F
  0.0000000000000000  0.2500000000190425  0.4070133268666680   F   F   F
  0.0000000000000000  0.4999999999932783  0.4070133268666680   F   F   F
  0.0000000000000000  0.7500000000123208  0.4070133268666680   F   F   F
  0.3333333432766779  0.0000000000000000  0.4070133268666680   F   F   F
  0.3333333432766779  0.2500000000190425  0.4070133268666680   F   F   F
  0.3333333432766779  0.4999999999932783  0.4070133268666680   F   F   F
  0.3333333432766779  0.7500000000123208  0.4070133268666680   F   F   F
  0.6666666865533486  0.0000000000000000  0.4070133268666680   F   F   F
  0.6666666865533486  0.2500000000190425  0.4070133268666680   F   F   F
  0.6666666865533486  0.4999999999932783  0.4070133268666680   F   F   F
  0.6666666865533486  0.7500000000123208  0.4070133268666680   F   F   F
  0.1666666716383389  0.0000000000000000  0.4070133268666680   F   F   F
  0.1666666716383389  0.2500000000190425  0.4070133268666680   F   F   F
  0.1666666716383389  0.4999999999932783  0.4070133268666680   F   F   F
  0.1666666716383389  0.7500000000123208  0.4070133268666680   F   F   F
  0.5000000000021103  0.0000000000000000  0.4070133268666680   F   F   F
  0.5000000000021103  0.2500000000190425  0.4070133268666680   F   F   F
  0.5000000000021103  0.7500000000123208  0.4070133268666680   F   F   F
  0.1671187691670067  0.1243320180101907  0.4994070196016151   T   T   T
  0.9176786423808634  0.0634446562424919  0.5474929182082572   T   T   T
  0.1677691304535755  0.8732552169149846  0.4999279893079288   T   T   T
  0.2519871339874813  0.1882348525491391  0.5472339346598012   T   T   T
  0.7494061882997816  0.9341570235062664  0.5475707165258940   T   T   T
  0.7517958357448080  0.6803656842124709  0.5530339896633775   T   T   T
  0.7527804162744310  0.4344405530826905  0.5496919904810208   T   T   T
  0.4232491563994076  0.4433943956510832  0.5461224593718487   T   T   T
  0.4233290112848524  0.6878292484517952  0.5467399752441114   T   T   T
  0.7489414892066071  0.1839505074751895  0.5502967447237674   T   T   T
  0.4159453431889821  0.9369883603717484  0.5459449093947670   T   T   T
  0.0836182076501307  0.9389622636247767  0.5457044776318944   T   T   T
  0.4161605427547480  0.1915006157500139  0.5462882867637543   T   T   T
  0.0867633771489297  0.6898265373191350  0.5450868264491543   T   T   T
  0.0826914001228107  0.4386016310284578  0.5451891971919743   T   T   T
  0.0838302248191677  0.1889748419004544  0.5456178490918047   T   T   T
  0.4996017744677181  0.1255510760109682  0.4995104451663261   T   T   T
  0.9996604554662929  0.4995450923244000  0.5944181596469121   T   T   T
  0.9994866606933710  0.7535940580846966  0.5922398013329161   T   T   T
  0.3347707746262353  0.2545296576835087  0.5925795452849434   T   T   T
  0.3340053376027987  0.9997666595259415  0.5920048660901629   T   T   T
  0.9998350668234619  0.9989072228733497  0.5929446412860400   T   T   T
  0.0010358155872997  0.2502461231107500  0.5915259537691382   T   T   T
  0.3334019305312055  0.4963930870594664  0.5911558722046392   T   T   T
  0.3358397802981788  0.7401827565543107  0.5907238887348981   T   T   T
  0.6642067732609683  0.2461333192969440  0.5912435800518505   T   T   T
  0.6658776818146455  0.0003201437172914  0.5919153843759387   T   T   T
  0.6659395816250170  0.7418259136689626  0.5900306605336509   T   T   T
  0.6670242578811418  0.4936809822915121  0.5913989826602636   T   T   T
  0.1674127844246381  0.9984347547555323  0.5922096068417619   T   T   T
  0.1685969200276790  0.2492805317115788  0.5932739842756624   T   T   T
  0.1707867025074205  0.7500527505539162  0.5950712900080080   T   T   T
  0.2484132949816360  0.4359351097699848  0.5491900693462477   T   T   T
  0.1655406209138606  0.5030900385540684  0.5876780531837932   T   T   T
  0.2491676268841271  0.6833108611437058  0.5520384528249661   T   T   T
  0.5807886094646268  0.1854612935080899  0.5497986548924695   T   T   T
  0.9153998893023590  0.8130899017390444  0.5469825581215417   T   T   T
  0.9167808715257298  0.5635316297207542  0.5465127853832299   T   T   T
  0.5814169911840829  0.5600618233894262  0.5494578974895915   T   T   T
  0.5862223557439689  0.8147818101411897  0.5505365684877825   T   T   T
  0.5840944396561132  0.3109609426524192  0.5457327077998860   T   T   T
  0.5829004095617490  0.0625430205541200  0.5461150127926263   T   T   T
  0.2534670627271470  0.8127578234586925  0.5511410412831461   T   T   T
  0.2524073879773754  0.5590460153725929  0.5441533184832188   T   T   T
  0.2494103038857623  0.3138151449223330  0.5459649519972868   T   T   T
  0.2514776322033117  0.0625809037710699  0.5471338419251871   T   T   T
  0.7484561815138626  0.8082766350316630  0.5456515320172578   T   T   T
  0.7465481076489573  0.5575364632658847  0.5444656712049102   T   T   T
  0.4143537879484072  0.8116634284642595  0.5480039872157343   T   T   T
  0.7483358502511294  0.0598070525554700  0.5445626178675977   T   T   T
  0.7475033895641131  0.3111810103134028  0.5474167720996636   T   T   T
  0.4159893258583232  0.3193309904296397  0.5525995585961452   T   T   T
  0.4203984125901694  0.5645929473391353  0.5555616778398333   T   T   T
  0.4165009650377401  0.0654343076341239  0.5473073020928246   T   T   T
  0.0848538669913975  0.8129459536471640  0.5473341880812456   T   T   T
  0.0825456616921607  0.5642559874450269  0.5462837719401434   T   T   T
  0.0866223088870972  0.3135108581122010  0.5469495254908194   T   T   T
  0.0822529591731337  0.0632781585371317  0.5475792901525954   T   T   T
  0.9157920478013343  0.9387156087266690  0.5461792723768479   T   T   T
  0.9132572279137250  0.6894704894255493  0.5449706970297449   T   T   T
  0.5836108446981140  0.9381392312244001  0.5457251877878228   T   T   T
  0.9170860423922114  0.1890007240576236  0.5452029300511213   T   T   T
  0.9158695006561705  0.4376797449881516  0.5458302740616053   T   T   T
  0.5767011945833472  0.4357091846787155  0.5521660926048227   T   T   T
  0.5795168182512664  0.6864371556781540  0.5471590110449971   T   T   T
  0.2515910810804243  0.9372952814563024  0.5451607959406103   T   T   T
  0.4975450627793631  0.5042662772500652  0.6091513628822882   T   T   T
  0.4988143544464976  0.2531543997274314  0.5911248116874660   T   T   T
  0.4996432620754461  0.0000502859904645  0.5909903518266553   T   T   T
  0.7539776677432136  0.6937778055534665  0.6570509088880997   T   T   T
  0.7485299174086799  0.9366036915360988  0.6399246168933089   T   T   T
  0.2535537480068119  0.1865223766183193  0.6411713775687313   T   T   T
  0.7493070121431343  0.1925461723110579  0.6447804077890490   T   T   T
  0.7556291188372301  0.4360337129529962  0.6393656445726493   T   T   T
  0.4173499820387688  0.9350161495204740  0.6397720679193234   T   T   T
  0.4217236473218371  0.6759354161332578  0.6336923482131875   T   T   T
  0.5910919871212379  0.8099461523799805  0.6459772639751559   T   T   T
  0.9163171698141884  0.0624916708219436  0.6415115592498023   T   T   T
  0.9128422531411178  0.5616386909002767  0.6423391339277614   T   T   T
  0.9151918089425807  0.3119968874330991  0.6395650151118805   T   T   T
  0.9139767623024297  0.8127021792767161  0.6416103791578632   T   T   T
  0.5823648069431587  0.0656191290907652  0.6393930245261179   T   T   T
  0.5850498383109700  0.3198320694093814  0.6340113634301633   T   T   T
  0.5915175652907765  0.5643160923651189  0.6396150232201598   T   T   T
  0.2476115784685258  0.5739998058161583  0.6288104821802881   T   T   T
  0.2621214051787499  0.7988711483367319  0.6467526819922731   T   T   T
  0.2497313547173002  0.3164860635938747  0.6414171012814336   T   T   T
  0.2508521548143090  0.0594531316465438  0.6420549027056428   T   T   T
  0.9166666865332829  0.5625000000092442  0.3605200052333331   F   F   F
  0.4997066538203112  0.3731131713918972  0.5007355871584313   T   T   T
  0.5000740934725949  0.8727884447526241  0.5008295438093424   T   T   T
  0.5004162231799234  0.6208687452900820  0.5001357005144402   T   T   T
  0.8322880784700892  0.6230699171558539  0.4999618806872281   T   T   T
  0.8327880878592998  0.8745720701205891  0.4985254781493912   T   T   T
  0.8326131951559103  0.3730885958630958  0.4996280720170350   T   T   T
  0.8329627561783554  0.1244201233638887  0.4997232744777197   T   T   T
  0.1668043935241956  0.3762541123567610  0.4977581969258934   T   T   T
  0.1678320516755227  0.6243335531953308  0.5000051125565633   T   T   T
  0.5813503519652690  0.4379875462801868  0.6460866936348831   T   T   T
  0.5799225012835422  0.6851172181327958  0.6389509327322733   T   T   T
  0.9167153904994066  0.1866996918096614  0.6398543640808947   T   T   T
  0.5817861636159408  0.9352405622626992  0.6390611201526868   T   T   T
  0.8304860503956270  0.7506492607454415  0.5927873803345532   T   T   T
  0.8322183143399128  0.2493568676552082  0.5903485031538224   T   T   T
  0.8333381063378116  0.5034224207480767  0.5892592859414838   T   T   T
  0.8324161652790616  0.0018068827754507  0.5922609132452922   T   T   T
  0.5012721012218367  0.7565229108199580  0.5929840113098691   T   T   T
  0.4176964346733951  0.0651637733988961  0.6400005069382522   T   T   T
  0.4263833900671274  0.3043427646711499  0.6561864870244040   T   T   T
  0.4121366718973599  0.8126357800892842  0.6396623520412200   T   T   T
  0.3977190028881148  0.5505023577920231  0.6523865645664384   T   T   T
  0.7524218543959778  0.5708711986685024  0.6343081025425845   T   T   T
  0.7410352488677288  0.8100396042834181  0.6399249652341916   T   T   T
  0.7480304727526728  0.3120252256394446  0.6405562494055477   T   T   T
  0.7478107452891267  0.0668679824856321  0.6389841048262785   T   T   T
  0.0837024211105734  0.3120148590624044  0.6405041573000900   T   T   T
  0.6665870759219176  0.8745118187716602  0.4989159847575196   T   T   T
  0.0871003630311052  0.5617484323177810  0.6418295761585897   T   T   T
  0.0840521324462720  0.0608004142162647  0.6418826399141506   T   T   T
  0.0869690224904149  0.4365846435810690  0.6395232141518040   T   T   T
  0.0834518505545896  0.1859312565370359  0.6409583883390586   T   T   T
  0.4174974182976617  0.1866242968146894  0.6390889154240503   T   T   T
  0.4154663796495895  0.4180824550393180  0.6301934531581082   T   T   T
  0.0842613895444711  0.9355409148856760  0.6406068168458372   T   T   T
  0.0830744699649126  0.6871030958976131  0.6397381805751582   T   T   T
  0.9125949395749784  0.4361836235812091  0.6397116886907482   T   T   T
  0.9163956798369516  0.6874437283720686  0.6396235699606556   T   T   T
  0.9146634747669582  0.9367340958643338  0.6409568177906364   T   T   T
  0.2408025975717617  0.4420980790285384  0.6417457535393111   T   T   T
  0.2542587715650689  0.6771647815160888  0.6635395947357856   T   T   T
  0.5793588497890024  0.1909660634504978  0.6453515306052001   T   T   T
  0.2518515304150559  0.9300892664365609  0.6373711834289256   T   T   T
  0.0840164742040606  0.8119083201802489  0.6418803231355875   T   T   T
  0.9166666865332829  0.8124999999834799  0.3605200052333331   F   F   F
  0.0006488402692533  0.1229624107068115  0.6191952774017021   T   T   T
  0.8333332538436267  0.6249999999803961  0.4070133268666680   F   F   F
  0.9997507298169946  0.5008306734108438  0.5071339696254389   T   T   T
  0.3312477915278683  0.4991911143257080  0.5010931901213492   T   T   T
  0.3302412463307707  0.2481629167239420  0.5028344790601510   T   T   T
  0.3331235825996306  0.0010408412023279  0.5057388648195972   T   T   T
  0.3337961479933356  0.7510086828079221  0.5016433292900773   T   T   T
  0.6660013788548202  0.0000746592237716  0.5055353671453554   T   T   T
  0.6685971586344387  0.4997708112490721  0.5006050939561688   T   T   T
  0.6673149252651195  0.2476520755433900  0.5028596094377380   T   T   T
  0.6654546630862109  0.7519261842504927  0.5021671147718672   T   T   T
  0.1660415158959827  0.0012081592403357  0.5064882930845289   T   T   T
  0.1664921663539927  0.2483230376847229  0.5062733505573026   T   T   T
  0.1634597994324343  0.4999180638216340  0.5021304512650624   T   T   T
  0.5002440877432850  0.9992908017568788  0.5054730556837225   T   T   T
  0.1643876552467457  0.7515061873756187  0.5033248766037728   T   T   T
  0.5010001592163862  0.7527421122009813  0.5039675490704664   T   T   T
  0.8342197402000748  0.0002947974761869  0.5064563299189954   T   T   T
  0.5013160360904159  0.4996368084612981  0.5004331030417037   T   T   T
  0.5015991736058352  0.2479249610005290  0.5021272689689049   T   T   T
  0.8357909985179486  0.2486426903040566  0.5027096627006287   T   T   T
  0.9997514034712377  0.7507878239737931  0.5065935312376433   T   T   T
  0.0009839378838795  0.2499062464666675  0.5057297426270183   T   T   T
  0.0000515040378642  0.0000135553562229  0.5065325632396366   T   T   T
  0.8333332538436267  0.8749999404036828  0.4070133268666680   F   F   F
  0.0000000000000000  0.6249999999803961  0.4070133268666680   F   F   F
  0.0000000000000000  0.8749999404036828  0.4070133268666680   F   F   F
  0.3333333432766779  0.1249999999871179  0.4070133268666680   F   F   F
  0.3333333432766779  0.3750000000061604  0.4070133268666680   F   F   F
  0.3333333432766779  0.6249999999803961  0.4070133268666680   F   F   F
  0.3333333432766779  0.8749999404036828  0.4070133268666680   F   F   F
  0.6666666865533486  0.1249999999871179  0.4070133268666680   F   F   F
  0.6666666865533486  0.3750000000061604  0.4070133268666680   F   F   F
  0.6666666865533486  0.6249999999803961  0.4070133268666680   F   F   F
  0.8361387871957433  0.5000015995713811  0.5028803399009060   T   T   T
  0.6666666865533486  0.8749999404036828  0.4070133268666680   F   F   F
  0.1666666716383389  0.3750000000061604  0.4070133268666680   F   F   F
  0.1666666716383389  0.6249999999803961  0.4070133268666680   F   F   F
  0.1666666716383389  0.8749999404036828  0.4070133268666680   F   F   F
  0.5000000000021103  0.1249999999871179  0.4070133268666680   F   F   F
  0.5000000000021103  0.3750000000061604  0.4070133268666680   F   F   F
  0.5000000000021103  0.6249999999803961  0.4070133268666680   F   F   F
  0.5000000000021103  0.8749999404036828  0.4070133268666680   F   F   F
  0.8333332538436267  0.1249999999871179  0.4070133268666680   F   F   F
  0.8333332538436267  0.3750000000061604  0.4070133268666680   F   F   F
  0.1666666716383389  0.1249999999871179  0.4070133268666680   F   F   F
  0.0000000000000000  0.3750000000061604  0.4070133268666680   F   F   F
  0.8358873930899835  0.7517910522427428  0.5025464247509748   T   T   T
  0.8369476285707620  0.3728449326083214  0.6042395559040382   T   T   T
  0.8321756763410993  0.8759359264000992  0.6182237091562816   T   T   T
  0.8404625011335342  0.6267758628000332  0.6029431081388856   T   T   T
  0.9991108537015190  0.8747807660492273  0.6218917888338988   T   T   T
  0.3313671011626421  0.1195972795743126  0.6122449884621615   T   T   T
  0.3344052359850517  0.6241237293427397  0.5954503852675936   T   T   T
  0.3263605426319723  0.3734774958250887  0.5927954611447366   T   T   T
  0.6717644349572336  0.3721341334652921  0.5941045482494319   T   T   T
  0.6657581336696952  0.1242932442688245  0.6117147164639721   T   T   T
  0.3343928404482874  0.8787096198228976  0.6029953400545626   T   T   T
  0.1587952313280527  0.6270017534133527  0.6014191351970217   T   T   T
  0.1659374088755956  0.8731339137097178  0.6178831146852760   T   T   T
  0.5024267105349499  0.3709058448413117  0.5952980162016759   T   T   T
  0.5004788722979858  0.1218781335951609  0.6061743093613793   T   T   T
  0.1676591943096289  0.1230386201162891  0.6218033667275304   T   T   T
  0.1634826122253668  0.3714906208400339  0.6077490738179986   T   T   T
  0.6652421718634473  0.8808900902639193  0.6069075944687859   T   T   T
  0.6662838942099649  0.6264412472518550  0.5933136989853445   T   T   T
  0.0000419604810850  0.3750720694345485  0.6225629164224304   T   T   T
  0.9997283348617483  0.6220514986278555  0.6411682501043420   T   T   T
  0.8342575420713461  0.1239908779032566  0.6172254038353223   T   T   T
  0.5003571261043994  0.8765807610208531  0.6094164067837563   T   T   T
  0.0000000000000000  0.1249999999871179  0.4070133268666680   F   F   F
  0.5040126405991820  0.6248092880178064  0.5939103011594685   T   T   T
  0.9164894543935654 -0.0000730475089118  0.6038758668620844   T   T   T
  0.5844542491304087  0.7498438339297138  0.5995085223193097   T   T   T
  0.5907474398665213  0.5007679129421514  0.5936528272006389   T   T   T
  0.2424120983802441  0.4979034541627752  0.5940118250325301   T   T   T
  0.2492393173949672  0.7525867225114469  0.5921517495931774   T   T   T
  0.5853124921283067  0.2472641784476860  0.5970168743715488   T   T   T
  0.5826346473195215  0.0008057291778222  0.6042004735639853   T   T   T
  0.2494424770782180  0.9975246938777034  0.6041904071294357   T   T   T
  0.2495304075589920  0.2460865771666398  0.6037609615087175   T   T   T
  0.4170690105288034  0.0000385390754828  0.6046582315882048   T   T   T
  0.4152293702381991  0.2483564175283648  0.5909563288067062   T   T   T
  0.4161232220375535  0.7500157827540224  0.5944459248011947   T   T   T
  0.7564985905542240  0.5028997295910721  0.5950207188834737   T   T   T
  0.7517557782716853  0.7525453314102736  0.5905226465525123   T   T   T
  0.7545760679564608  0.2485684308848425  0.5934506440106292   T   T   T
  0.7498413089352106  0.0015762876810516  0.6041671325459481   T   T   T
  0.0836685507026597  0.2484236356613645  0.6036159002675795   T   T   T
  0.0814038319588038  0.5002587791666842  0.6033594884212854   T   T   T
  0.0802625148501879  0.7508332401091490  0.6032310696702696   T   T   T
  0.0834998205424290  0.9987294090141297  0.6036331473162302   T   T   T