Au  C  H  O Sr Ti                       
   1.00000000000000     
    23.6707801818999997    0.0000000000000000    0.0000000000000000
     0.0000000000000000   22.3170261383000010    0.0000000000000000
     0.0000000000000000    0.0000000000000000   30.0000000000000000
   Au   C    H    O    Sr   Ti
    50     2     2   265    72    72
Selective dynamics
Direct
  0.7160766759256603  0.5251457946490535  0.7534185653323594   T   T   T
  0.5482258246814639  0.2197663624036731  0.7071248562583209   T   T   T
  0.6224960191197216  0.5694818163503603  0.7039892457910020   T   T   T
  0.7514253754112948  0.2618108765606829  0.6950943804765524   T   T   T
  0.2935545899864814  0.7464428704991982  0.6969725660177284   T   T   T
  0.5782815682382423  0.7256442000689621  0.7939255194098065   T   T   T
  0.2407717430166287  0.4696609761362599  0.7092234579275094   T   T   T
  0.2853108382978538  0.6625378533572381  0.7646292511795728   T   T   T
  0.6013720621674994  0.2896547845246486  0.7837572132214273   T   T   T
  0.5146854962434815  0.4837672221687344  0.6779266507584950   T   T   T
  0.2895429885789462  0.5382706768697610  0.7775275220738679   T   T   T
  0.4857165856563853  0.7769789709213358  0.7556516670956664   T   T   T
  0.5118431480882393  0.6040305071509993  0.7769217721167641   T   T   T
  0.7330707512461779  0.6150421258433885  0.6940969616826086   T   T   T
  0.5628975066757458  0.4864996178805207  0.7623998630954251   T   T   T
  0.6348408574419602  0.5842143909945932  0.7999913386384966   T   T   T
  0.4271704854825420  0.3714426861579915  0.8170484492007528   T   T   T
  0.3499467856295975  0.4998258141641353  0.6980796966607395   T   T   T
  0.5959656655124783  0.7844033731006055  0.7129238041708164   T   T   T
  0.3689699876396267  0.2994120228453202  0.7564756217345840   T   T   T
  0.4314109315646900  0.2265321219874004  0.6985626160337599   T   T   T
  0.4636800924628797  0.6953960702656536  0.8307241485927882   T   T   T
  0.3916278040530889  0.8167977961640637  0.7065067070385601   T   T   T
  0.7639908236320828  0.4315364910726273  0.7045159961405213   T   T   T
  0.5475123292703791  0.3838768133262221  0.8275099666831989   T   T   T
  0.7048411505604575  0.3428140795821440  0.7574936785481757   T   T   T
  0.4838650706092437  0.2722845063542624  0.7741695947725753   T   T   T
  0.7064109591229929  0.7569345626868814  0.6883462289384700   T   T   T
  0.6555801288385174  0.4383363484921887  0.8110447515025513   T   T   T
  0.3684650237782458  0.6190130743393257  0.8203127371639803   T   T   T
  0.5706059804795649  0.5090464616077969  0.8561226025039415   T   T   T
  0.6513221411668573  0.1881134767196370  0.7433265953146962   T   T   T
  0.4713495628044942  0.4508249788046243  0.8786264459531512   T   T   T
  0.5255587439167919  0.3754954229562392  0.7310466137632808   T   T   T
  0.2821252231279021  0.3398179217624127  0.7024366199969293   T   T   T
  0.6693671146306184  0.6811587415924806  0.7487679905492194   T   T   T
  0.3978406524312532  0.3814820960694975  0.6904604252702584   T   T   T
  0.4629446919801684  0.5731908504019553  0.8642936563693543   T   T   T
  0.4526089934019790  0.5789605794505791  0.7031875370608576   T   T   T
  0.3251426234677668  0.4152116151385657  0.7695138206095804   T   T   T
  0.4184526957012145  0.6959502524229043  0.6998506207061618   T   T   T
  0.7749377845668469  0.4302817951595489  0.7946795289844726   T   T   T
  0.2569588602567778  0.5930298077335460  0.6946121890780091   T   T   T
  0.6483385142479644  0.4432276739976472  0.6948448524075911   T   T   T
  0.5645687230158545  0.6392609771624279  0.8610627721857932   T   T   T
  0.5415422191634870  0.6664055268589377  0.7013724472508372   T   T   T
  0.4450177068646522  0.4691697415303941  0.7550869179726044   T   T   T
  0.3743442207874754  0.7396763079350636  0.7788585946698035   T   T   T
  0.3762814254973375  0.4935348574959376  0.8320918987614065   T   T   T
  0.6265855096026973  0.3162494791654950  0.6946663328657132   T   T   T
  0.7181409852987017  0.1385760918139229  0.7599056613860063   T   T   T
  0.7724148883413313  0.1617540042485965  0.7602112961319153   T   T   T
  0.8071650077574235  0.1345689440860457  0.7733947759520262   T   T   T
  0.7126934554207007  0.0925757578802667  0.7709583612097695   T   T   T
  0.5767140562224866  0.4354266842907811  0.5522225404523290   T   T   T
  0.7507469676216186  0.1898346875040948  0.4556100331482216   T   T   T
  0.4172328530005828  0.9360340123569341  0.4540050052955031   T   T   T
  0.4171836681172794  0.6851980159274043  0.4550144127899811   T   T   T
  0.4173889380145187  0.4355473804815947  0.4541383624260230   T   T   T
  0.0845595094172923  0.6870395217521710  0.4531891496372285   T   T   T
  0.0841346130948426  0.9367685955193148  0.4535891206277046   T   T   T
  0.0827964802569366  0.4367993363663792  0.4528274426715790   T   T   T
  0.0838426259854114  0.1865219220045759  0.4529908726311173   T   T   T
  0.9166010844060372  0.8121452229300120  0.4540523399437058   T   T   T
  0.9161100986513659  0.0622235422142124  0.4541250827844033   T   T   T
  0.7494217935952946  0.8132034146392060  0.4530562664889262   T   T   T
  0.9161168170353480  0.3123308372016832  0.4537339717723607   T   T   T
  0.2521035962429607  0.6876600184943602  0.4561436777259200   T   T   T
  0.9163829148526790  0.9371495347527536  0.4536489697922466   T   T   T
  0.5828670856284842  0.1903811527605656  0.4556082625837110   T   T   T
 -0.0000352195919923  0.1251153860506290  0.4985292628189566   T   T   T
  0.5832590570054740  0.8105216105322101  0.4553122176368954   T   T   T
  0.0000640735711136  0.3737496381262773  0.4981966818486248   T   T   T
  0.9999179001828241  0.6273341807609882  0.4976271740256092   T   T   T
  0.3337620483887273  0.1257537548771049  0.4984938804913573   T   T   T
  0.0000579115990991  0.8751791089237225  0.4995113317907745   T   T   T
  0.3335968551038882  0.8741760690636829  0.4991840868138085   T   T   T
  0.6661231486497274  0.1267110990249486  0.4990334173862491   T   T   T
  0.2513020115634667  0.4394986960296771  0.4550362973337169   T   T   T
  0.0833333358191695  0.5625000000092442  0.3605200052333331   F   F   F
  0.9166666865332829  0.0625000000159659  0.3605200052333331   F   F   F
  0.4170716642503479  0.1871349610725303  0.4534518934770314   T   T   T
  0.9158187865585300  0.3126670499901658  0.5463602971979002   T   T   T
  0.4232503035254295  0.6878244382602019  0.5468579086352465   T   T   T
  0.7497283583512591  0.4384198311070570  0.4556296901339917   T   T   T
  0.7465361098126381  0.5582859546820237  0.5446419980893421   T   T   T
  0.7490617284518915  0.6887195293589737  0.4573525516205328   T   T   T
  0.5845263811730179  0.5628191678893066  0.4548230377201983   T   T   T
  0.5833274116292093  0.0636094796470956  0.4538067747513174   T   T   T
  0.9166666865332829  0.6874999999963620  0.3605200052333331   F   F   F
  0.9166666865332829  0.4374999701794380  0.3605200052333331   F   F   F
  0.9166666865332829  0.1875000000030838  0.3605200052333331   F   F   F
  0.5833333134730552  0.9375000000154046  0.3605200052333331   F   F   F
  0.5833333134730552  0.6874999999963620  0.3605200052333331   F   F   F
  0.5833333134730552  0.4374999701794380  0.3605200052333331   F   F   F
  0.5833333134730552  0.1875000000030838  0.3605200052333331   F   F   F
  0.2499999999799343  0.9375000000154046  0.3605200052333331   F   F   F
  0.9166666865332829  0.9375000000154046  0.3605200052333331   F   F   F
  0.9175770319423107  0.0633434786731628  0.5474918624546484   T   T   T
  0.2499999999799343  0.6874999999963620  0.3605200052333331   F   F   F
  0.7499999404149307  0.9375000000154046  0.3605200052333331   F   F   F
  0.7883242974297467  0.2143855392561715  0.7467168442286042   T   T   T
  0.7499999404149307  0.6874999999963620  0.3605200052333331   F   F   F
  0.7499999404149307  0.1875000000030838  0.3605200052333331   F   F   F
  0.4166666269218169  0.9375000000154046  0.3605200052333331   F   F   F
  0.4166666269218169  0.6874999999963620  0.3605200052333331   F   F   F
  0.4166666269218169  0.4374999701794380  0.3605200052333331   F   F   F
  0.2499999999799343  0.4374999701794380  0.3605200052333331   F   F   F
  0.0833333358191695  0.0625000000159659  0.3605200052333331   F   F   F
  0.9153112649644704  0.6869052383617271  0.4533040496329619   T   T   T
  0.6653045705924455  0.3794070400302628  0.5026651118548429   T   T   T
  0.3344547275712230  0.3784737334521804  0.5029760552329541   T   T   T
  0.3356672586368711  0.6259853249171252  0.5038700529471822   T   T   T
  0.2500077748686891  0.1886858481423488  0.4543029941703924   T   T   T
  0.2499999999799343  0.1875000000030838  0.3605200052333331   F   F   F
  0.2505695199094613  0.0620555437019912  0.4542526516426226   T   T   T
  0.7495106517319101  0.9384186544515046  0.4553275529316091   T   T   T
  0.7499999404149307  0.4374999701794380  0.3605200052333331   F   F   F
  0.5833333134730552  0.0625000000159659  0.3605200052333331   F   F   F
  0.2515123812465406  0.0626279832486762  0.5473525968414507   T   T   T
  0.8333332538436267  0.0000000000000000  0.4070133268666680   F   F   F
  0.2499999999799343  0.8124999999834799  0.3605200052333331   F   F   F
  0.2499999999799343  0.3124999999901945  0.3605200052333331   F   F   F
  0.2499999999799343  0.0625000000159659  0.3605200052333331   F   F   F
  0.7499999404149307  0.5625000000092442  0.3605200052333331   F   F   F
  0.7499999404149307  0.3124999999901945  0.3605200052333331   F   F   F
  0.7499999404149307  0.0625000000159659  0.3605200052333331   F   F   F
  0.4166666269218169  0.8124999999834799  0.3605200052333331   F   F   F
  0.4166666269218169  0.3124999999901945  0.3605200052333331   F   F   F
  0.7499999404149307  0.8124999999834799  0.3605200052333331   F   F   F
  0.0835081548848327  0.3119595326858886  0.4540503694325661   T   T   T
  0.4166666269218169  0.0625000000159659  0.3605200052333331   F   F   F
  0.4169287686066864  0.0615507002775994  0.4553267532213539   T   T   T
  0.0834590860282292  0.8121741629766568  0.4541640186542402   T   T   T
  0.4166666269218169  0.5625000000092442  0.3605200052333331   F   F   F
  0.5833333134730552  0.3124999999901945  0.3605200052333331   F   F   F
  0.5833333134730552  0.8124999999834799  0.3605200052333331   F   F   F
  0.0839981571866301  0.5625348170747766  0.4539511982759166   T   T   T
  0.4145120562744418  0.8116366196675163  0.5477031940099308   T   T   T
  0.8333332538436267  0.4999999999932783  0.4070133268666680   F   F   F
  0.7495352595789808  0.0640715621414267  0.4533915342377152   T   T   T
  0.4166666269218169  0.1875000000030838  0.3605200052333331   F   F   F
  0.0833333358191695  0.9375000000154046  0.3605200052333331   F   F   F
  0.0833333358191695  0.8124999999834799  0.3605200052333331   F   F   F
  0.0833333358191695  0.4374999701794380  0.3605200052333331   F   F   F
  0.8333332538436267  0.7500000000123208  0.4070133268666680   F   F   F
  0.4155730452168098  0.3113465447665463  0.4573722746485420   T   T   T
  0.0837446415274893  0.0618664706478736  0.4541978482847362   T   T   T
  0.4159075749933364  0.5596643392291746  0.4578705813627374   T   T   T
  0.0833333358191695  0.6874999999963620  0.3605200052333331   F   F   F
  0.2519285856944312  0.5647083641193883  0.4538284443729099   T   T   T
  0.6653355251307866  0.6260539723378725  0.5029608173388944   T   T   T
  0.2499999999799343  0.5625000000092442  0.3605200052333331   F   F   F
  0.6666666865533486  0.7500000000123208  0.4070133268666680   F   F   F
  0.5000000000021103  0.4999999999932783  0.4070133268666680   F   F   F
  0.0833333358191695  0.1875000000030838  0.3605200052333331   F   F   F
  0.0000000000000000  0.2500000000190425  0.4070133268666680   F   F   F
  0.0000000000000000  0.4999999999932783  0.4070133268666680   F   F   F
  0.7481991217008086  0.5643217169824283  0.4537863352260375   T   T   T
  0.3333333432766779  0.0000000000000000  0.4070133268666680   F   F   F
  0.3333333432766779  0.4999999999932783  0.4070133268666680   F   F   F
  0.3333333432766779  0.7500000000123208  0.4070133268666680   F   F   F
  0.5827683060005221  0.6861442421926804  0.4545781362477440   T   T   T
  0.6666666865533486  0.0000000000000000  0.4070133268666680   F   F   F
  0.6666666865533486  0.4999999999932783  0.4070133268666680   F   F   F
  0.8333332538436267  0.2500000000190425  0.4070133268666680   F   F   F
  0.1666666716383389  0.0000000000000000  0.4070133268666680   F   F   F
  0.1666666716383389  0.4999999999932783  0.4070133268666680   F   F   F
  0.1666666716383389  0.7500000000123208  0.4070133268666680   F   F   F
  0.5000000000021103  0.0000000000000000  0.4070133268666680   F   F   F
  0.5000000000021103  0.2500000000190425  0.4070133268666680   F   F   F
  0.5000000000021103  0.7500000000123208  0.4070133268666680   F   F   F
  0.9166666865332829  0.3124999999901945  0.3605200052333331   F   F   F
  0.3333333432766779  0.2500000000190425  0.4070133268666680   F   F   F
  0.7472770644196477  0.3141219195946358  0.4546245487576404   T   T   T
  0.0000000000000000  0.7500000000123208  0.4070133268666680   F   F   F
  0.4169080189286302  0.8104264781767341  0.4549026847252325   T   T   T
  0.5843105254629009  0.3154155028181269  0.4536580185683438   T   T   T
  0.5827283958808781  0.9371302500046963  0.4542937559959748   T   T   T
  0.6666666865533486  0.2500000000190425  0.4070133268666680   F   F   F
  0.2522632429140504  0.3144170780834442  0.4539590313172069   T   T   T
  0.1666666716383389  0.2500000000190425  0.4070133268666680   F   F   F
  0.2506818810964064  0.8108553884198584  0.4553362039280003   T   T   T
  0.5833333134730552  0.5625000000092442  0.3605200052333331   F   F   F
  0.2500508604123096  0.9360917236662916  0.4539787937103337   T   T   T
  0.0000000000000000  0.0000000000000000  0.4070133268666680   F   F   F
  0.9156552122218504  0.4369945643638617  0.4535953171821966   T   T   T
  0.0858524628632347  0.6893248055593939  0.5454479275905479   T   T   T
  0.0830251696212638  0.4389628334520394  0.5447974829161728   T   T   T
  0.0833065634057347  0.1889792108857537  0.5455438669213517   T   T   T
  0.0833333358191695  0.3124999999901945  0.3605200052333331   F   F   F
  0.9997450374222583  0.4981852878760976  0.5938119633092790   T   T   T
  0.5792488645231545  0.1842639849700700  0.5502108024371456   T   T   T
  0.9998864682387202  0.7532308781785912  0.5924092487947102   T   T   T
  0.3340839327333608  0.9998414256381145  0.5919884044956494   T   T   T
  0.9998702353980905  0.9992035105050227  0.5932935655212178   T   T   T
  0.0005292108459283  0.2514068779563522  0.5924030068334604   T   T   T
  0.3333704189866786  0.4959758453527089  0.5910604328155143   T   T   T
  0.3355365439669279  0.7410655562658223  0.5903513297488499   T   T   T
  0.6642576984174271  0.2423960221574095  0.5900447723563080   T   T   T
  0.6660776091438276  0.0006322500688757  0.5920601565584326   T   T   T
  0.4161345487455674  0.1916231770512069  0.5463981156919607   T   T   T
  0.6657975433413558  0.7416831401302736  0.5901991817328552   T   T   T
  0.1675336930052297  0.9983418209896455  0.5922978120590688   T   T   T
  0.1684799521173407  0.2485058184609523  0.5932263489615898   T   T   T
  0.1708271686077490  0.7503624611587845  0.5950076772071817   T   T   T
  0.2484328556609342  0.4356875836645161  0.5492532251739028   T   T   T
  0.1657269961479953  0.5028170435338428  0.5874184109891195   T   T   T
  0.3347980402743622  0.2546108624960334  0.5926388376610857   T   T   T
  0.4997271213088267  0.0001250852918487  0.5910446619569717   T   T   T
  0.8327667770999139  0.8743318680405346  0.4986458173503408   T   T   T
  0.4232749841090640  0.4434996128223656  0.5459135936800628   T   T   T
  0.7521269270070635  0.4356242686007514  0.5488398468088878   T   T   T
  0.7518488032313034  0.6805375996038174  0.5531833304091488   T   T   T
  0.7482910824954626  0.8081820346662946  0.5456846300978434   T   T   T
  0.4176389016100547  0.0651510666940658  0.6400984751882326   T   T   T
  0.2491816756942552  0.3164558799401382  0.6412482750516628   T   T   T
  0.6666957273327943  0.4946945355362196  0.5910988776357287   T   T   T
  0.5910810722545301  0.8100973154291634  0.6460629345973065   T   T   T
  0.4990529829551954  0.2537302541984768  0.5909206359240340   T   T   T
  0.4994414363216473  0.1256215777601051  0.4990478130056749   T   T   T
  0.5818932958920850  0.4394088485730079  0.4565347265840629   T   T   T
  0.7483628562228621  0.9370392237943951  0.6401227817131694   T   T   T
  0.0849765322803255  0.8128951337603274  0.5473300640677424   T   T   T
  0.4166155615642367  0.0654994782696058  0.5473424597195173   T   T   T
  0.4159654125256179  0.3195977799353265  0.5527238397805524   T   T   T
  0.2533308838466376  0.8125790813493842  0.5506807324777357   T   T   T
  0.5811236508464569  0.5599968110147033  0.5489047340317081   T   T   T
  0.7461630679191795  0.3121313216859466  0.5479557575528182   T   T   T
  0.5858612809696134  0.8142901698513881  0.5503352075902486   T   T   T
  0.5825613288197515  0.0614601709306820  0.5452580483912162   T   T   T
  0.5844856418196916  0.3101283122640955  0.5451432687680737   T   T   T
  0.2526509944789168  0.5590672715466097  0.5439709291529025   T   T   T
  0.0823270609024404  0.0632113299200754  0.5475799050730437   T   T   T
  0.2490958162425763  0.6831895549632900  0.5521264904341484   T   T   T
  0.7492610749786268  0.9340251854226693  0.5476036034612212   T   T   T
  0.9142548780093006  0.6887291650409318  0.5455838130607583   T   T   T
  0.9162785681949377  0.1888392174302988  0.5457211507229085   T   T   T
  0.9153579244449382  0.4375158803368425  0.5455860189976485   T   T   T
  0.5794118533651829  0.6860811189169583  0.5473533872272091   T   T   T
  0.2516321090101553  0.9373862239722740  0.5452338986756525   T   T   T
  0.4976933859656778  0.5044601729122193  0.6089709796290642   T   T   T
  0.9181691236861199  0.5637460813549936  0.5466533327580435   T   T   T
  0.4200466014519080  0.5647456045105267  0.5554984450514182   T   T   T
  0.9155701016094762  0.8127224421218711  0.5468328783354497   T   T   T
  0.0836473125998537  0.9389005820413475  0.5459087625568739   T   T   T
  0.0866802380261399  0.3135106597012696  0.5471248011424743   T   T   T
  0.8323683886583378  0.0015328202227685  0.5920937792912098   T   T   T
  0.9157727844722902  0.1869461874300516  0.4533218359719367   T   T   T
  0.9158598623560650  0.9385903739570942  0.5463991637350941   T   T   T
  0.2493921571851216  0.3136480439794833  0.5458831507320845   T   T   T
  0.5838600474628232  0.9375972327437747  0.5461736132604500   T   T   T
  0.4265816078821766  0.3039982094982069  0.6559206012794471   T   T   T
  0.9161476205772219  0.5623817904223717  0.4538793421192552   T   T   T
  0.7530527194677900  0.5690666829784196  0.6354222535959942   T   T   T
  0.9139450733434342  0.8132009598359887  0.6419088760031892   T   T   T
  0.5825032875097476  0.0665381222891404  0.6391625389100604   T   T   T
  0.5882742995309297  0.3194248969993982  0.6333382761239302   T   T   T
  0.5912452554471060  0.5648490777374867  0.6391389664175015   T   T   T
  0.2477173502075628  0.5737146760913291  0.6288603463004879   T   T   T
  0.7538661969951971  0.6923847707207517  0.6570198149998033   T   T   T
  0.2621078133995527  0.7995046335122488  0.6463761808937691   T   T   T
  0.2509877410287125  0.0594592594619507  0.6423240423569980   T   T   T
  0.9166666865332829  0.5625000000092442  0.3605200052333331   F   F   F
  0.4175875167613412  0.9349418590887111  0.6396807641362980   T   T   T
  0.5000121284311757  0.8734550681225546  0.5008905014529306   T   T   T
  0.4205122128569124  0.6761966132146355  0.6337659140075806   T   T   T
  0.8324038090585264  0.6230837699298102  0.5000334134054599   T   T   T
  0.8322401596136966  0.3728933688839133  0.4999335195527763   T   T   T
  0.9131688011921514  0.3121995289630477  0.6398530068726678   T   T   T
  0.1667938557747131  0.3762021284405900  0.4977241436207002   T   T   T
  0.5814513577264330  0.4378727623979007  0.6458542153929540   T   T   T
  0.5796348320277995  0.6853883926090885  0.6393381681225737   T   T   T
  0.9160714052154454  0.1868394207657429  0.6397029015922633   T   T   T
  0.4159823920560329  0.9371626841416612  0.5460713667183841   T   T   T
  0.1671441758964627  0.1244533221674937  0.4995337741047061   T   T   T
  0.7484119078249205  0.0597911404754708  0.5445437546533712   T   T   T
  0.1678081002445794  0.8733108127432299  0.4999372961356793   T   T   T
  0.5010075659933279  0.7563563910478835  0.5930500454598555   T   T   T
  0.5002468451850415  0.6211056630653745  0.4999927700828126   T   T   T
  0.7553028978658679  0.4345291661383214  0.6378758373365869   T   T   T
  0.2520666002318598  0.1882394989578671  0.5472783066917796   T   T   T
  0.7498746742810000  0.1836920619983591  0.5506123730381398   T   T   T
  0.0813690850093049  0.5644558764678000  0.5463832684685539   T   T   T
  0.3976764916632108  0.5504219852568778  0.6520633585108458   T   T   T
  0.1677477410181276  0.6243372640388363  0.5002053496196838   T   T   T
  0.9142046607172758  0.5626916718359284  0.6401562785819592   T   T   T
  0.8328737435184472  0.1241642449843634  0.4998844283133531   T   T   T
  0.4998052130859084  0.3727427423537267  0.5007310492772233   T   T   T
  0.7403987063289176  0.3114644023813457  0.6404158692827069   T   T   T
  0.9158681149689157  0.0625603469880023  0.6414721402269162   T   T   T
  0.7411078715688580  0.8098978147177536  0.6399651749092894   T   T   T
  0.7491822991308871  0.0675022055485516  0.6389765137250012   T   T   T
  0.0844555568408822  0.3113908059726795  0.6412173477799242   T   T   T
  0.0860220105534915  0.5625704820553246  0.6397497185574527   T   T   T
  0.0841880687350213  0.0608776709782508  0.6419933158102250   T   T   T
  0.0873051644907600  0.4363270996942401  0.6398804913279552   T   T   T
  0.0834050768788911  0.1857610098634652  0.6409429225339536   T   T   T
  0.4158798706938326  0.4181782039528731  0.6300740982610799   T   T   T
  0.6665573741062998  0.8744275468289324  0.4988806883280744   T   T   T
  0.8311799538071454  0.2512347826024392  0.5902492654235600   T   T   T
  0.8305044396959492  0.7509150236486335  0.5928340956344340   T   T   T
  0.0845450843881351  0.9357825611298558  0.6408758072560341   T   T   T
  0.8332805114506779  0.5031935141014312  0.5887563390234676   T   T   T
  0.4175125850533522  0.1870049012270598  0.6392622747607550   T   T   T
  0.0833855271355325  0.6870379356117687  0.6388002623274970   T   T   T
  0.2521246959782428  0.9303128812089088  0.6374312103211780   T   T   T
  0.5783214497645466  0.1919468093892601  0.6453297830511601   T   T   T
  0.0843885985593751  0.8126134971639821  0.6424119596048546   T   T   T
  0.2405809946968710  0.4420967759018156  0.6418397818264620   T   T   T
  0.9142875582822277  0.9369605222027475  0.6412554876683417   T   T   T
  0.9164631895359817  0.6873436630289261  0.6387798999351297   T   T   T
  0.9122590160841897  0.4361174660955754  0.6398777273065392   T   T   T
  0.2535646226951164  0.1864707854779096  0.6412023366361755   T   T   T
  0.2548457245433745  0.6774012664692169  0.6630083441853082   T   T   T
  0.5821217322528092  0.9361473569660261  0.6391732911328154   T   T   T
  0.7530359135787636  0.1950866437507187  0.6464682682226499   T   T   T
  0.9166666865332829  0.8124999999834799  0.3605200052333331   F   F   F
  0.4123731352001902  0.8128526427091824  0.6394153599726768   T   T   T
  0.0000000000000000  0.3750000000061604  0.4070133268666680   F   F   F
  0.8333332538436267  0.6249999999803961  0.4070133268666680   F   F   F
  0.6672936601479331  0.2478281897131254  0.5023556806882429   T   T   T
  0.6654241206932062  0.7519657931708782  0.5021827853669750   T   T   T
  0.1662188180312820  0.0012553533012882  0.5065959660240855   T   T   T
  0.6661381585811457 -0.0000167301276858  0.5057506890654599   T   T   T
  0.5011668936745095  0.7529423767561514  0.5039502820678978   T   T   T
  0.3333245332688664  0.0011954984750650  0.5056897638791110   T   T   T
  0.1666666716383389  0.3750000000061604  0.4070133268666680   F   F   F
  0.0003665261234721  0.1228752631943596  0.6198843603163332   T   T   T
  0.3314098252230858  0.4992028153482861  0.5010890122133540   T   T   T
  0.6666666865533486  0.3750000000061604  0.4070133268666680   F   F   F
  0.3303082390264342  0.2479572244013460  0.5027822711685282   T   T   T
  0.5010737310516428  0.4998283790050619  0.5004054030474183   T   T   T
  0.1645192760797596  0.7515494114687427  0.5034556751552139   T   T   T
  0.5013097429847587  0.2478202685449042  0.5020245633636298   T   T   T
  0.0000246725843399  0.0000636997553997  0.5067920608756098   T   T   T
  0.6686781600115922  0.5000476871283901  0.5005701714405778   T   T   T
  0.3333333432766779  0.3750000000061604  0.4070133268666680   F   F   F
  0.9997588731042683  0.5000219494267409  0.5066233894605098   T   T   T
 -0.0000017348598940  0.7511808833665833  0.5066180237367117   T   T   T
  0.0007791579423680  0.2498623394912065  0.5062047716432063   T   T   T
  0.6666666865533486  0.6249999999803961  0.4070133268666680   F   F   F
  0.8333332538436267  0.8749999404036828  0.4070133268666680   F   F   F
  0.3333333432766779  0.6249999999803961  0.4070133268666680   F   F   F
  0.3333333432766779  0.1249999999871179  0.4070133268666680   F   F   F
  0.6666666865533486  0.1249999999871179  0.4070133268666680   F   F   F
  0.8342194418126435  0.0001252507768530  0.5063722900782294   T   T   T
  0.3333333432766779  0.8749999404036828  0.4070133268666680   F   F   F
  0.0000000000000000  0.6249999999803961  0.4070133268666680   F   F   F
  0.1664658186245127  0.2480276795010328  0.5063691688365277   T   T   T
  0.5009552446627734  0.8770163585430927  0.6095231387734772   T   T   T
  0.5003265340927120  0.9992613221153429  0.5054125111454454   T   T   T
  0.0000000000000000  0.8749999404036828  0.4070133268666680   F   F   F
  0.8358663376301512  0.5000280991647781  0.5026935521766339   T   T   T
  0.3340547293335131  0.7512858752027497  0.5014996940628439   T   T   T
  0.3263321783573053  0.3734161352919131  0.5928146339712904   T   T   T
  0.5036784991687624  0.6250597876641283  0.5941995701874345   T   T   T
  0.5000000000021103  0.1249999999871179  0.4070133268666680   F   F   F
  0.0000000000000000  0.1249999999871179  0.4070133268666680   F   F   F
  0.1666666716383389  0.1249999999871179  0.4070133268666680   F   F   F
  0.5000000000021103  0.6249999999803961  0.4070133268666680   F   F   F
  0.8395500615971132  0.6269617494450239  0.6037065424175920   T   T   T
  0.3315270651228343  0.1196507903936409  0.6125169771601178   T   T   T
  0.9992128343681014  0.8751002631739129  0.6231555616446622   T   T   T
  0.1638147588513409  0.4999149573009795  0.5021163228757197   T   T   T
  0.8318484441178093  0.8763037112971355  0.6184419424613524   T   T   T
  0.8367541372488285  0.3732399108561385  0.6023250376301615   T   T   T
  0.8359641888224092  0.7517477917970591  0.5026538316021121   T   T   T
  0.1666666716383389  0.8749999404036828  0.4070133268666680   F   F   F
  0.8333332538436267  0.3750000000061604  0.4070133268666680   F   F   F
  0.8353673365159692  0.2485571322947873  0.5027936258736180   T   T   T
  0.9998848200290500  0.6235839623479443  0.6234022915872995   T   T   T
  0.5000000000021103  0.3750000000061604  0.4070133268666680   F   F   F
  0.8333332538436267  0.1249999999871179  0.4070133268666680   F   F   F
  0.5003782902208795  0.1222410429665574  0.6064196829546189   T   T   T
  0.5000000000021103  0.8749999404036828  0.4070133268666680   F   F   F
  0.6661000320838393  0.1259281506107867  0.6161561208009282   T   T   T
  0.3343598321605160  0.6244511037113311  0.5952806799194770   T   T   T
  0.1677687420225066  0.1230818921703179  0.6219126884981363   T   T   T
  0.6666666865533486  0.8749999404036828  0.4070133268666680   F   F   F
  0.3346213859799934  0.8788256184396109  0.6028802419382018   T   T   T
  0.1664242913228613  0.8736349142169498  0.6183058136767197   T   T   T
  0.6707461254908552  0.3740490055874707  0.5926731220747739   T   T   T
  0.1596617176318331  0.6270999196228809  0.6015996826322886   T   T   T
  0.1635453105335478  0.3712082916214158  0.6078163256555512   T   T   T
  0.1666666716383389  0.6249999999803961  0.4070133268666680   F   F   F
  0.6653187137347232  0.8812166161926747  0.6072990409494543   T   T   T
  0.6664674490691022  0.6262324009087885  0.5935430206758723   T   T   T
  0.9997869263434145  0.3744625552689675  0.6261441936799621   T   T   T
  0.8344970825573556  0.1243453329434178  0.6149958440412868   T   T   T
  0.5027795756737585  0.3706706788780588  0.5954415097105369   T   T   T
  0.5829427686493480  0.0014701938577290  0.6040900852729686   T   T   T
  0.0813785027715581  0.6259350147092912  0.5054982701595229   T   T   T
  0.5848036134296416  0.7498613488014548  0.5997597161105288   T   T   T
  0.0834232386018994  0.2484343210347243  0.6037765290569524   T   T   T
  0.7496729912012253  0.0017812308778256  0.6043386632153623   T   T   T
  0.9164202381993484  0.9999000701349792  0.6039365915931797   T   T   T
  0.4173001656860815  0.0001016937480129  0.6046371380530715   T   T   T
  0.4149385300266552  0.2485886180386497  0.5911858637016658   T   T   T
  0.2497241637485009  0.7528954632102125  0.5920003055101327   T   T   T
  0.5848215000763721  0.2478917524882404  0.5960008504135668   T   T   T
  0.2498208523216277  0.9977823260816836  0.6042654138986683   T   T   T
  0.7529933295058413  0.2479572852051262  0.5934248023612462   T   T   T
  0.2492724411126542  0.2458881115439754  0.6037584288117616   T   T   T
  0.5902560732386374  0.5014956000504435  0.5935689441184403   T   T   T