Au  C  H  O Sr Ti                       
   1.00000000000000     
    23.6707801818999997    0.0000000000000000    0.0000000000000000
     0.0000000000000000   22.3170261383000010    0.0000000000000000
     0.0000000000000000    0.0000000000000000   30.0000000000000000
   Au   C    H    O    Sr   Ti
    50     2     2   265    72    72
Selective dynamics
Direct
  0.7160838352231425  0.5251788017678920  0.7534243365116933   T   T   T
  0.5494670262933702  0.2190133772266125  0.7071621902760638   T   T   T
  0.6225336255186998  0.5698491797739847  0.7040338845967112   T   T   T
  0.7512748202963667  0.2621922086843696  0.6951594599896840   T   T   T
  0.2936168495645029  0.7465404120530291  0.6970263559918687   T   T   T
  0.5783039855138982  0.7255519047240223  0.7938930486542168   T   T   T
  0.2407869441587621  0.4695959960834141  0.7091454809244809   T   T   T
  0.2852937612032877  0.6625373346269636  0.7646404136302827   T   T   T
  0.6015286177938787  0.2889950821288245  0.7838183238954605   T   T   T
  0.5146696910994046  0.4838726503939191  0.6779298374906366   T   T   T
  0.2895440732287821  0.5382192129056202  0.7774910249900473   T   T   T
  0.4857276179008719  0.7769540205347817  0.7556664094735446   T   T   T
  0.5118516284002126  0.6038955571059093  0.7768471655251540   T   T   T
  0.7331807580515943  0.6150136745589549  0.6941097645083594   T   T   T
  0.5629541686216643  0.4865092360011059  0.7624306058403201   T   T   T
  0.6348381909938071  0.5841696329212961  0.8001067895829986   T   T   T
  0.4273143820111765  0.3712226483865750  0.8168781957817683   T   T   T
  0.3499229487139618  0.4998139679905642  0.6979980887392256   T   T   T
  0.5959621040454808  0.7843862009302309  0.7129399456543349   T   T   T
  0.3691450907525983  0.2990823580832149  0.7562577119496847   T   T   T
  0.4326415780245013  0.2265890874388816  0.6984873944068015   T   T   T
  0.4636290823120690  0.6953870039281628  0.8306857450732025   T   T   T
  0.3917430130499525  0.8169443730656876  0.7065499253429062   T   T   T
  0.7640430806492744  0.4315929696853671  0.7045035727455122   T   T   T
  0.5477292950567139  0.3837660110366337  0.8276054455994745   T   T   T
  0.7045287216787637  0.3433490348527365  0.7577685980342070   T   T   T
  0.4842761576530061  0.2720823196851544  0.7740424658689952   T   T   T
  0.7064450877686104  0.7569191431518727  0.6883605757334901   T   T   T
  0.6557010486440566  0.4391924109838868  0.8115853377025277   T   T   T
  0.3684442503168119  0.6189843653538689  0.8203259882767824   T   T   T
  0.5703930228920028  0.5092648463805192  0.8563009842688533   T   T   T
  0.6519353367728419  0.1863025970473136  0.7441061219092233   T   T   T
  0.4712542925302492  0.4506863827325256  0.8785050331144112   T   T   T
  0.5248937565717022  0.3758693764123551  0.7313116581794943   T   T   T
  0.2822925931190620  0.3396861012189409  0.7023490008000266   T   T   T
  0.6694099648308165  0.6811334822097874  0.7487855914430049   T   T   T
  0.3978886423696267  0.3814251306703319  0.6904319668795310   T   T   T
  0.4628475397685248  0.5731787702238919  0.8643138255174819   T   T   T
  0.4525036993756460  0.5790096420741562  0.7031043281082302   T   T   T
  0.3252681814638561  0.4150258584520454  0.7694263072065093   T   T   T
  0.4182344974849961  0.6960055991139552  0.6997523516837012   T   T   T
  0.7750090250584357  0.4305224560694392  0.7947305134364073   T   T   T
  0.2569452426136419  0.5930639864392395  0.6946108168585414   T   T   T
  0.6484476043560866  0.4436773995270669  0.6947562337417400   T   T   T
  0.5644587133414247  0.6393107339989675  0.8611019100798484   T   T   T
  0.5414094633104403  0.6665246300282653  0.7013513094337298   T   T   T
  0.4448548860877904  0.4694575451661325  0.7551335526362574   T   T   T
  0.3742795494553030  0.7397715115814933  0.7788195092463547   T   T   T
  0.3761633575379633  0.4934099651887375  0.8321219960880361   T   T   T
  0.6259219611892611  0.3169184246864911  0.6950399909894279   T   T   T
  0.7200145607513232  0.1378044865053118  0.7596351306954254   T   T   T
  0.7738488124416671  0.1621048887914668  0.7597958903496141   T   T   T
  0.8092282795682549  0.1353000844679376  0.7724507588580997   T   T   T
  0.7156259845450430  0.0914842202503643  0.7699506546601494   T   T   T
  0.5766705697694937  0.4355388413941402  0.5522881258775277   T   T   T
  0.7507213008161301  0.1898623643056614  0.4556734877668604   T   T   T
  0.4172468356408048  0.9360286320446318  0.4540197875024775   T   T   T
  0.4172065168917012  0.6851512553296020  0.4549660628059408   T   T   T
  0.4171189360700748  0.4356075526961162  0.4541197432770668   T   T   T
  0.0845471734113498  0.6870351247588885  0.4531570582788263   T   T   T
  0.0841066319774501  0.9367367428373902  0.4535676523579070   T   T   T
  0.0827901591201411  0.4368158160025386  0.4528365636769630   T   T   T
  0.0838310455327316  0.1865330853976716  0.4529803714564145   T   T   T
  0.9166315836818127  0.8121330077430824  0.4540184350743019   T   T   T
  0.9160962577768609  0.0622587483570254  0.4541377346545137   T   T   T
  0.7494353080352260  0.8131763165124970  0.4530780294173813   T   T   T
  0.9161684838414108  0.3122980094888370  0.4537193804248624   T   T   T
  0.2520739270423148  0.6876286718993435  0.4561313815380367   T   T   T
  0.9164714623298366  0.9371274949162407  0.4536325630331092   T   T   T
  0.5827682922940816  0.1903365862521130  0.4555875134818526   T   T   T
 -0.0000015178466757  0.1251431132345422  0.4984859098765206   T   T   T
  0.5832814165565027  0.8104924276434948  0.4553407480332957   T   T   T
  0.0000918317994483  0.3737376861831990  0.4981731943711047   T   T   T
  0.9999399849757661  0.6273000255356320  0.4976123582387587   T   T   T
  0.3337332364601445  0.1257763181229874  0.4985217959107914   T   T   T
  0.0000662317519271  0.8751383953682988  0.4994979345889606   T   T   T
  0.3335524632796207  0.8740925033437305  0.4991903245394713   T   T   T
  0.6661733953352127  0.1268017781682998  0.4989662522625801   T   T   T
  0.2512678501146453  0.4394514651727793  0.4550156391361311   T   T   T
  0.0833333358191695  0.5625000000092442  0.3605200052333331   F   F   F
  0.9166666865332829  0.0625000000159659  0.3605200052333331   F   F   F
  0.4172763234760258  0.1871473076935102  0.4535042495938856   T   T   T
  0.9158342060927396  0.3126577192687577  0.5463213524808018   T   T   T
  0.4232055091688282  0.6878563067966948  0.5468358921517206   T   T   T
  0.7497845629673734  0.4384267397497401  0.4556458131868849   T   T   T
  0.7466013675500658  0.5583877694544376  0.5446458211440718   T   T   T
  0.7490828795218287  0.6886988137834905  0.4573631977251532   T   T   T
  0.5845232852572367  0.5628177438578860  0.4548269682162422   T   T   T
  0.5833042122114671  0.0636397394038693  0.4538233858968852   T   T   T
  0.9166666865332829  0.6874999999963620  0.3605200052333331   F   F   F
  0.9166666865332829  0.4374999701794380  0.3605200052333331   F   F   F
  0.9166666865332829  0.1875000000030838  0.3605200052333331   F   F   F
  0.5833333134730552  0.9375000000154046  0.3605200052333331   F   F   F
  0.5833333134730552  0.6874999999963620  0.3605200052333331   F   F   F
  0.5833333134730552  0.4374999701794380  0.3605200052333331   F   F   F
  0.5833333134730552  0.1875000000030838  0.3605200052333331   F   F   F
  0.2499999999799343  0.9375000000154046  0.3605200052333331   F   F   F
  0.9166666865332829  0.9375000000154046  0.3605200052333331   F   F   F
  0.9176719047748337  0.0633487759078285  0.5474964685143380   T   T   T
  0.2499999999799343  0.6874999999963620  0.3605200052333331   F   F   F
  0.7499999404149307  0.9375000000154046  0.3605200052333331   F   F   F
  0.7886875112383590  0.2154190698838481  0.7468624599326568   T   T   T
  0.7499999404149307  0.6874999999963620  0.3605200052333331   F   F   F
  0.7499999404149307  0.1875000000030838  0.3605200052333331   F   F   F
  0.4166666269218169  0.9375000000154046  0.3605200052333331   F   F   F
  0.4166666269218169  0.6874999999963620  0.3605200052333331   F   F   F
  0.4166666269218169  0.4374999701794380  0.3605200052333331   F   F   F
  0.2499999999799343  0.4374999701794380  0.3605200052333331   F   F   F
  0.0833333358191695  0.0625000000159659  0.3605200052333331   F   F   F
  0.9153137539579753  0.6868531311611588  0.4533024141866704   T   T   T
  0.6653303769388279  0.3793243967043248  0.5028095320203080   T   T   T
  0.3344608707148628  0.3785100551093647  0.5029766496302694   T   T   T
  0.3356508272177890  0.6259581627723166  0.5038833636413192   T   T   T
  0.2499860855064456  0.1887017370746130  0.4543155297072555   T   T   T
  0.2499999999799343  0.1875000000030838  0.3605200052333331   F   F   F
  0.2505084999619411  0.0620296327707946  0.4542875454345672   T   T   T
  0.7495207892986246  0.9384119775075210  0.4553518894390108   T   T   T
  0.7499999404149307  0.4374999701794380  0.3605200052333331   F   F   F
  0.5833333134730552  0.0625000000159659  0.3605200052333331   F   F   F
  0.2514219123205908  0.0627355248943757  0.5473472655252060   T   T   T
  0.8333332538436267  0.0000000000000000  0.4070133268666680   F   F   F
  0.2499999999799343  0.8124999999834799  0.3605200052333331   F   F   F
  0.2499999999799343  0.3124999999901945  0.3605200052333331   F   F   F
  0.2499999999799343  0.0625000000159659  0.3605200052333331   F   F   F
  0.7499999404149307  0.5625000000092442  0.3605200052333331   F   F   F
  0.7499999404149307  0.3124999999901945  0.3605200052333331   F   F   F
  0.7499999404149307  0.0625000000159659  0.3605200052333331   F   F   F
  0.4166666269218169  0.8124999999834799  0.3605200052333331   F   F   F
  0.4166666269218169  0.3124999999901945  0.3605200052333331   F   F   F
  0.7499999404149307  0.8124999999834799  0.3605200052333331   F   F   F
  0.0835064528445775  0.3119551945674836  0.4540543066078176   T   T   T
  0.4166666269218169  0.0625000000159659  0.3605200052333331   F   F   F
  0.4169843755286801  0.0616586603883917  0.4553321169528146   T   T   T
  0.0834503660959140  0.8121674500258028  0.4541252305805483   T   T   T
  0.4166666269218169  0.5625000000092442  0.3605200052333331   F   F   F
  0.5833333134730552  0.3124999999901945  0.3605200052333331   F   F   F
  0.5833333134730552  0.8124999999834799  0.3605200052333331   F   F   F
  0.0839718165756872  0.5625415957321603  0.4539394681145721   T   T   T
  0.4144835312486866  0.8116958111867025  0.5477556782197548   T   T   T
  0.8333332538436267  0.4999999999932783  0.4070133268666680   F   F   F
  0.7495724706658976  0.0640790805208677  0.4534144488942896   T   T   T
  0.4166666269218169  0.1875000000030838  0.3605200052333331   F   F   F
  0.0833333358191695  0.9375000000154046  0.3605200052333331   F   F   F
  0.0833333358191695  0.8124999999834799  0.3605200052333331   F   F   F
  0.0833333358191695  0.4374999701794380  0.3605200052333331   F   F   F
  0.8333332538436267  0.7500000000123208  0.4070133268666680   F   F   F
  0.4156726787809573  0.3114474854002058  0.4573991428148700   T   T   T
  0.0836898797305556  0.0618905830296560  0.4541721413003170   T   T   T
  0.4159484467333102  0.5596552024733453  0.4578435517210124   T   T   T
  0.0833333358191695  0.6874999999963620  0.3605200052333331   F   F   F
  0.2519384875075401  0.5647055392382584  0.4538050338702450   T   T   T
  0.6653949923195844  0.6260520616158775  0.5029570726860531   T   T   T
  0.2499999999799343  0.5625000000092442  0.3605200052333331   F   F   F
  0.6666666865533486  0.7500000000123208  0.4070133268666680   F   F   F
  0.5000000000021103  0.4999999999932783  0.4070133268666680   F   F   F
  0.0833333358191695  0.1875000000030838  0.3605200052333331   F   F   F
  0.0000000000000000  0.2500000000190425  0.4070133268666680   F   F   F
  0.0000000000000000  0.4999999999932783  0.4070133268666680   F   F   F
  0.7482437594127128  0.5643248031923299  0.4538092937752409   T   T   T
  0.3333333432766779  0.0000000000000000  0.4070133268666680   F   F   F
  0.3333333432766779  0.4999999999932783  0.4070133268666680   F   F   F
  0.3333333432766779  0.7500000000123208  0.4070133268666680   F   F   F
  0.5827693607747585  0.6861351509970114  0.4545981651004578   T   T   T
  0.6666666865533486  0.0000000000000000  0.4070133268666680   F   F   F
  0.6666666865533486  0.4999999999932783  0.4070133268666680   F   F   F
  0.8333332538436267  0.2500000000190425  0.4070133268666680   F   F   F
  0.1666666716383389  0.0000000000000000  0.4070133268666680   F   F   F
  0.1666666716383389  0.4999999999932783  0.4070133268666680   F   F   F
  0.1666666716383389  0.7500000000123208  0.4070133268666680   F   F   F
  0.5000000000021103  0.0000000000000000  0.4070133268666680   F   F   F
  0.5000000000021103  0.2500000000190425  0.4070133268666680   F   F   F
  0.5000000000021103  0.7500000000123208  0.4070133268666680   F   F   F
  0.9166666865332829  0.3124999999901945  0.3605200052333331   F   F   F
  0.3333333432766779  0.2500000000190425  0.4070133268666680   F   F   F
  0.7473697036191504  0.3141609673122794  0.4547278923488007   T   T   T
  0.0000000000000000  0.7500000000123208  0.4070133268666680   F   F   F
  0.4169061727000672  0.8104087867730331  0.4549210991058273   T   T   T
  0.5841992200702313  0.3153726010136838  0.4538507405766804   T   T   T
  0.5827213498066515  0.9371930145515970  0.4543660769522828   T   T   T
  0.6666666865533486  0.2500000000190425  0.4070133268666680   F   F   F
  0.2522313481599251  0.3144260584514343  0.4540328460848085   T   T   T
  0.1666666716383389  0.2500000000190425  0.4070133268666680   F   F   F
  0.2504896212170351  0.8107874449415732  0.4553422447975643   T   T   T
  0.5833333134730552  0.5625000000092442  0.3605200052333331   F   F   F
  0.2500149360937094  0.9360416454121165  0.4540174032124760   T   T   T
  0.0000000000000000  0.0000000000000000  0.4070133268666680   F   F   F
  0.9157602028856013  0.4370294926794683  0.4535861009581342   T   T   T
  0.0858159319861063  0.6892993802756971  0.5454613602692484   T   T   T
  0.0830707493713983  0.4389651188860825  0.5447920524296189   T   T   T
  0.0833130791484277  0.1890224932447629  0.5455418133352932   T   T   T
  0.0833333358191695  0.3124999999901945  0.3605200052333331   F   F   F
  0.9997171735952934  0.4981848881240227  0.5938015308506938   T   T   T
  0.5797519287621382  0.1845702570737470  0.5500362412920271   T   T   T
  0.9998786333553289  0.7532417916019312  0.5923762062314376   T   T   T
  0.3340607040931963  0.9998700962525890  0.5919825017848339   T   T   T
  0.9999001288167593  0.9991988393461740  0.5932663975913866   T   T   T
  0.0005076347708081  0.2512627407000699  0.5923452027058488   T   T   T
  0.3333588192306173  0.4961244158686683  0.5910413432192293   T   T   T
  0.3355635041614572  0.7411162516857748  0.5903467843069570   T   T   T
  0.6643123897981063  0.2429123178926663  0.5901853617310702   T   T   T
  0.6660860879785128  0.0005227481754967  0.5921371765099868   T   T   T
  0.4161633454886044  0.1914742274835206  0.5464678509122332   T   T   T
  0.6658123990132991  0.7416393747155521  0.5902067779551062   T   T   T
  0.1674886902354257  0.9983443008175552  0.5922747852400313   T   T   T
  0.1684201854577471  0.2484245986516032  0.5931585400239147   T   T   T
  0.1707709745423151  0.7504329431332937  0.5949643681214112   T   T   T
  0.2484674905945070  0.4358560157886824  0.5491263873278590   T   T   T
  0.1657161627431405  0.5028762725822662  0.5874538132656961   T   T   T
  0.3348159247160060  0.2545977861928097  0.5926480318981797   T   T   T
  0.4997340262699969  0.0001232262413488  0.5910737839658645   T   T   T
  0.8328439387655466  0.8743132377170982  0.4986199651336246   T   T   T
  0.4231943468929873  0.4435766218229858  0.5459031355679418   T   T   T
  0.7521303389704500  0.4356845085338182  0.5488355640847724   T   T   T
  0.7519111713327508  0.6805584245008455  0.5531868658951737   T   T   T
  0.7482592942721055  0.8081722812188823  0.5456559337114953   T   T   T
  0.4176346146217966  0.0651402132388993  0.6401216434113148   T   T   T
  0.2491285371072519  0.3163770802775391  0.6412448502188286   T   T   T
  0.6667342462189245  0.4947015516810705  0.5910828561543341   T   T   T
  0.5910369653292089  0.8100667919935440  0.6460624011584193   T   T   T
  0.4990419771592847  0.2534304998494603  0.5908067116629289   T   T   T
  0.4996282427192314  0.1255501880769096  0.4993962954430224   T   T   T
  0.5823219600606088  0.4394465729337454  0.4565330138475963   T   T   T
  0.7484751638141531  0.9370951860227719  0.6402398977175128   T   T   T
  0.0849343094028576  0.8129011151541572  0.5473158825370563   T   T   T
  0.4165836793014219  0.0654106929182946  0.5473698432204125   T   T   T
  0.4160500063902362  0.3195577456974735  0.5526618210176584   T   T   T
  0.2533160987678781  0.8125992143280188  0.5507044436349359   T   T   T
  0.5811434546037129  0.5600052187769513  0.5488982436485537   T   T   T
  0.7464702204697725  0.3122158944720945  0.5481252426930531   T   T   T
  0.5859046960661110  0.8143344300685547  0.5503740034043277   T   T   T
  0.5828171017586198  0.0615299116431576  0.5453534538267421   T   T   T
  0.5843086942296483  0.3104190577999068  0.5453389821696334   T   T   T
  0.2526286670213047  0.5590732058878796  0.5439445398241852   T   T   T
  0.0822731320899410  0.0632733022314552  0.5475603502203706   T   T   T
  0.2490829577280997  0.6831977861501197  0.5521220253780604   T   T   T
  0.7492708076415805  0.9340049105784500  0.5476183105865595   T   T   T
  0.9143671464449653  0.6887721159346767  0.5455522136421954   T   T   T
  0.9164331956109779  0.1888542138759532  0.5456671055216781   T   T   T
  0.9153943859216070  0.4374653252670853  0.5455491253684321   T   T   T
  0.5794176017515638  0.6860447910915353  0.5473618719369090   T   T   T
  0.2515780463329821  0.9373355764683908  0.5452219188241726   T   T   T
  0.4976984625346462  0.5044686709966120  0.6089685887177207   T   T   T
  0.9182313473311370  0.5637565508335418  0.5466605797486175   T   T   T
  0.4200148982565325  0.5647342901533029  0.5553841262402583   T   T   T
  0.9155064424183025  0.8127519689884831  0.5468166674669244   T   T   T
  0.0835531819106405  0.9389961826671441  0.5458115703962811   T   T   T
  0.0866764032203198  0.3135207176320662  0.5471238243972623   T   T   T
  0.8323756608247947  0.0016628198470526  0.5921117615014957   T   T   T
  0.9158581447151630  0.1869330208003819  0.4532827103965978   T   T   T
  0.9159493692729506  0.9385660453972611  0.5463710510160588   T   T   T
  0.2494252024157947  0.3137233042270127  0.5459304006423855   T   T   T
  0.5838553967874093  0.9376048771913301  0.5462365611798867   T   T   T
  0.4267073295099839  0.3039833351457665  0.6557622926299420   T   T   T
  0.9161985439120106  0.5623598746792232  0.4539076292746992   T   T   T
  0.7530518374057662  0.5690444571130351  0.6354237249300555   T   T   T
  0.9139789925823197  0.8132426688998761  0.6418215307585853   T   T   T
  0.5824955671961956  0.0665285063236891  0.6391739275614942   T   T   T
  0.5877626401307250  0.3191698406173500  0.6336101081521642   T   T   T
  0.5912832749162744  0.5648516634211533  0.6391825303155856   T   T   T
  0.2476914646728619  0.5737276529744252  0.6288752324930458   T   T   T
  0.7538713238403877  0.6923746953930425  0.6570304956957135   T   T   T
  0.2621450704824291  0.7994844797342286  0.6463514117810917   T   T   T
  0.2509816111706246  0.0594501135919139  0.6423336240695711   T   T   T
  0.9166666865332829  0.5625000000092442  0.3605200052333331   F   F   F
  0.4175679806043909  0.9349173063719228  0.6396906466621383   T   T   T
  0.5000289282071525  0.8734225270976052  0.5008770065598720   T   T   T
  0.4206621636838810  0.6761592851323512  0.6337187190454177   T   T   T
  0.8324832022754195  0.6230787723832494  0.5001239207759522   T   T   T
  0.8323165774937661  0.3729551174164181  0.4999241788814374   T   T   T
  0.9133360603506621  0.3121828216521675  0.6397380320627774   T   T   T
  0.1667722219960417  0.3762396218200962  0.4977472456976858   T   T   T
  0.5815117755010532  0.4378852678694522  0.6458876174934663   T   T   T
  0.5796411386779969  0.6854064395206063  0.6393472144179682   T   T   T
  0.9160806233712444  0.1868106259220090  0.6397959837967231   T   T   T
  0.4159420256938822  0.9372433066892353  0.5460253712229935   T   T   T
  0.1670748917459975  0.1244366600724974  0.4995031765253282   T   T   T
  0.7484209253505911  0.0597991221109801  0.5445910102364031   T   T   T
  0.1677711634495667  0.8732537784860226  0.4999080436492401   T   T   T
  0.5010079192645738  0.7562566740254305  0.5929287126357355   T   T   T
  0.5002791115118475  0.6211217537321780  0.5000073145308158   T   T   T
  0.7553831553479516  0.4345174532937436  0.6378509025719905   T   T   T
  0.2520438900797777  0.1882988791576315  0.5472495252943969   T   T   T
  0.7497060938078705  0.1837398336201838  0.5506855596333993   T   T   T
  0.0813523881315010  0.5644702849888151  0.5463664448217759   T   T   T
  0.3975493162871028  0.5504891577870802  0.6519302954794771   T   T   T
  0.1677285953060652  0.6243285166268212  0.5001935365983795   T   T   T
  0.9142349237401800  0.5627375142512890  0.6401347077606494   T   T   T
  0.8329385656641508  0.1243719840502405  0.4999849161057783   T   T   T
  0.4997800444279692  0.3735630581129224  0.5006076775761887   T   T   T
  0.7405738365274924  0.3115675236130416  0.6404234052123139   T   T   T
  0.9158580783317296  0.0625769658187229  0.6414462421697634   T   T   T
  0.7411149056738143  0.8099151546824618  0.6399898563095521   T   T   T
  0.7489884449296109  0.0675347423810232  0.6389864028544561   T   T   T
  0.0843336176108784  0.3113418862889976  0.6411075640249787   T   T   T
  0.0859838378444768  0.5626344049344257  0.6397131048107398   T   T   T
  0.0841751768023979  0.0608752592944447  0.6420011194076412   T   T   T
  0.0871948154962738  0.4364503622960749  0.6398072939486985   T   T   T
  0.0833869619224123  0.1857464714605445  0.6409404244979734   T   T   T
  0.4158361470191956  0.4183416614448699  0.6301044820541638   T   T   T
  0.6665572174488262  0.8744075948752608  0.4989123042261782   T   T   T
  0.8313140463692916  0.2509377082125626  0.5903069621655701   T   T   T
  0.8305754877948612  0.7508756611538048  0.5928585933609530   T   T   T
  0.0844908188761008  0.9357882660946938  0.6408048874827824   T   T   T
  0.8333451968214061  0.5032566347380064  0.5887634918846286   T   T   T
  0.4176943992655587  0.1870322887773933  0.6394186984870451   T   T   T
  0.0833634311153241  0.6870281940294380  0.6388166748878584   T   T   T
  0.2520438177978505  0.9302655502037804  0.6373940700961735   T   T   T
  0.5784077006690579  0.1914316194732089  0.6450247443563654   T   T   T
  0.0843694908688904  0.8126285246389990  0.6423878257422380   T   T   T
  0.2407718062248048  0.4419993196226104  0.6417116449418732   T   T   T
  0.9143858644614584  0.9370259196224410  0.6411958534374707   T   T   T
  0.9164900304368666  0.6873802393609521  0.6387802374728808   T   T   T
  0.9122976264850969  0.4361692447527803  0.6398687370367894   T   T   T
  0.2535824055679277  0.1864967759840122  0.6411881855405510   T   T   T
  0.2548618165211937  0.6774641655200437  0.6630090088106172   T   T   T
  0.5821231809382523  0.9361725278536249  0.6392889923103330   T   T   T
  0.7530438574833614  0.1951745617461630  0.6466558548219081   T   T   T
  0.9166666865332829  0.8124999999834799  0.3605200052333331   F   F   F
  0.4124690429350554  0.8128434416997898  0.6394339238286567   T   T   T
  0.0000000000000000  0.3750000000061604  0.4070133268666680   F   F   F
  0.8333332538436267  0.6249999999803961  0.4070133268666680   F   F   F
  0.6672237743839617  0.2478870221876772  0.5024041971389054   T   T   T
  0.6654669274054932  0.7519500033294367  0.5022044123601771   T   T   T
  0.1660681581630233  0.0012328658810350  0.5065733198644906   T   T   T
  0.6661043710725814  0.0000068190951920  0.5058008854746551   T   T   T
  0.5011593044271742  0.7529088554547941  0.5039304310146961   T   T   T
  0.3332084279496784  0.0011402315208402  0.5057454640368684   T   T   T
  0.1666666716383389  0.3750000000061604  0.4070133268666680   F   F   F
  0.0004057385839310  0.1228659287536283  0.6198708116547913   T   T   T
  0.3313289897389141  0.4992360016701655  0.5010391490730656   T   T   T
  0.6666666865533486  0.3750000000061604  0.4070133268666680   F   F   F
  0.3302068284143063  0.2480810658780949  0.5028226680342407   T   T   T
  0.5010859951661812  0.4998103044338458  0.5003888263802554   T   T   T
  0.1644344103986846  0.7515473155868968  0.5034042996587023   T   T   T
  0.5011341593191947  0.2479032080475002  0.5020042355976356   T   T   T
  0.0000604786669026  0.0000652717039657  0.5067142822365782   T   T   T
  0.6687228251273288  0.5000613334593983  0.5006081810601908   T   T   T
  0.3333333432766779  0.3750000000061604  0.4070133268666680   F   F   F
  0.9997973562543163  0.5000229867672863  0.5065624225527643   T   T   T
  0.0000064262100083  0.7511946959035778  0.5065414819484387   T   T   T
  0.0008127559568313  0.2499306449044449  0.5061009131806453   T   T   T
  0.6666666865533486  0.6249999999803961  0.4070133268666680   F   F   F
  0.8333332538436267  0.8749999404036828  0.4070133268666680   F   F   F
  0.3333333432766779  0.6249999999803961  0.4070133268666680   F   F   F
  0.3333333432766779  0.1249999999871179  0.4070133268666680   F   F   F
  0.6666666865533486  0.1249999999871179  0.4070133268666680   F   F   F
  0.8343155083936830  0.0001473956800917  0.5063445386131680   T   T   T
  0.3333333432766779  0.8749999404036828  0.4070133268666680   F   F   F
  0.0000000000000000  0.6249999999803961  0.4070133268666680   F   F   F
  0.1663804038523678  0.2481669109357544  0.5063172798827839   T   T   T
  0.5010031349140329  0.8770097692598975  0.6095828209895373   T   T   T
  0.5003015809590904  0.9992575752006917  0.5054992001255378   T   T   T
  0.0000000000000000  0.8749999404036828  0.4070133268666680   F   F   F
  0.8360026260388964  0.5000448714198525  0.5026754875366997   T   T   T
  0.3339701438153815  0.7512247947869117  0.5015129829229974   T   T   T
  0.3262135048233617  0.3734883926639577  0.5927978440243086   T   T   T
  0.5037318119959889  0.6250551988963630  0.5941394702469083   T   T   T
  0.5000000000021103  0.1249999999871179  0.4070133268666680   F   F   F
  0.0000000000000000  0.1249999999871179  0.4070133268666680   F   F   F
  0.1666666716383389  0.1249999999871179  0.4070133268666680   F   F   F
  0.5000000000021103  0.6249999999803961  0.4070133268666680   F   F   F
  0.8396399376057553  0.6269319969427433  0.6036729359257785   T   T   T
  0.3314974310901177  0.1197318971709855  0.6127670773956428   T   T   T
  0.9992277990845796  0.8750827277191935  0.6229017612772229   T   T   T
  0.1637696450234690  0.4999234009748140  0.5020859166514137   T   T   T
  0.8319868937977638  0.8762463590069374  0.6183007736166660   T   T   T
  0.8369015292864648  0.3732153282552278  0.6022634541277935   T   T   T
  0.8361011892337121  0.7517500481385145  0.5026472407482312   T   T   T
  0.1666666716383389  0.8749999404036828  0.4070133268666680   F   F   F
  0.8333332538436267  0.3750000000061604  0.4070133268666680   F   F   F
  0.8355679372693318  0.2485873974631019  0.5028068272550801   T   T   T
  0.9998961459634891  0.6236640191943988  0.6231854149889789   T   T   T
  0.5000000000021103  0.3750000000061604  0.4070133268666680   F   F   F
  0.8333332538436267  0.1249999999871179  0.4070133268666680   F   F   F
  0.5002426837069728  0.1222220621645593  0.6063010233719587   T   T   T
  0.5000000000021103  0.8749999404036828  0.4070133268666680   F   F   F
  0.6660731573767882  0.1259171641090995  0.6156772376311875   T   T   T
  0.3343441617693350  0.6244529437299962  0.5952577705004894   T   T   T
  0.1677166900697516  0.1230898577568170  0.6219372261222581   T   T   T
  0.6666666865533486  0.8749999404036828  0.4070133268666680   F   F   F
  0.3346234438240264  0.8787640276204380  0.6029355111950403   T   T   T
  0.1663453417090718  0.8735676705720472  0.6183313301067481   T   T   T
  0.6705944991314104  0.3739399731759815  0.5927758657506083   T   T   T
  0.1596845939638301  0.6272062096015404  0.6015701484150126   T   T   T
  0.1634224039830836  0.3712146138384079  0.6077465126357297   T   T   T
  0.1666666716383389  0.6249999999803961  0.4070133268666680   F   F   F
  0.6653417934316082  0.8812175288776994  0.6073395704942395   T   T   T
  0.6665047734120269  0.6262151876431679  0.5935295333668631   T   T   T
  0.9998778686239059  0.3745559935532762  0.6259263084738851   T   T   T
  0.8345251573584852  0.1243921100898106  0.6151714567682085   T   T   T
  0.5026862000260790  0.3707247647621261  0.5954824241595466   T   T   T
  0.5829231357537099  0.0014187755551975  0.6041032678335430   T   T   T
  0.0813487976953714  0.6259270461983174  0.5054738193912699   T   T   T
  0.5848168555291462  0.7498432408493764  0.5997568084834098   T   T   T
  0.0832984605128098  0.2483296237530836  0.6036768402400733   T   T   T
  0.7496747756534791  0.0017555298005386  0.6043636608343552   T   T   T
  0.9165353340011591  0.9999423966588342  0.6039195794530452   T   T   T
  0.4172684601579338  0.0001019837364811  0.6046836820203420   T   T   T
  0.4148376877270002  0.2485726519839422  0.5912060233989458   T   T   T
  0.2496752398480214  0.7528802218629368  0.5920054649651658   T   T   T
  0.5846893136546397  0.2480210803745359  0.5959488187409615   T   T   T
  0.2497384652031873  0.9977651357442033  0.6042515712902897   T   T   T
  0.7531246299795635  0.2479391682401141  0.5934059118191638   T   T   T
  0.2490952415699691  0.2458514654764745  0.6036817006738154   T   T   T
  0.5902668529082284  0.5015320469489845  0.5935680986053312   T   T   T