H2                                      
   1.00000000000000     
    23.6707801818999997    0.0000000000000000    0.0000000000000000
     0.0000000000000000   22.3170261383000010    0.0000000000000000
     0.0000000000000000    0.0000000000000000   30.0000000000000000
   H 
     2
Direct
  0.5000004186194928  0.4999994143865791  0.4995566260536984
  0.5000004186194928  0.4999994143865791  0.5240767072796378
 
  0.00000000E+00  0.00000000E+00  0.00000000E+00
  0.00000000E+00  0.00000000E+00  0.00000000E+00
