Au  C  H  O Sr Ti                       
   1.00000000000000     
    23.6707801818999997    0.0000000000000000    0.0000000000000000
     0.0000000000000000   22.3170261383000010    0.0000000000000000
     0.0000000000000000    0.0000000000000000   30.0000000000000000
   Au   C    H    O    Sr   Ti
    50     2     3   265    72    72
Selective dynamics
Direct
  0.7128105252607781  0.5253395123067435  0.7541131881023730   F   F   F
  0.2881822694263292  0.5396446239858861  0.7773945456152305   F   F   F
  0.5675267105006014  0.5116883838300907  0.8570631818868222   F   F   F
  0.6599786864382864  0.1967429907044931  0.7484844586736514   T   T   T
  0.4679876483445327  0.4538578500817323  0.8810177597538953   F   F   F
  0.2807736343520517  0.3416117293317953  0.7025807998775093   F   F   F
  0.6686065696493131  0.6819877288551339  0.7487687655336046   F   F   F
  0.3965098135348839  0.3829414380684071  0.6909062253030953   F   F   F
  0.4508416414368170  0.5803569929634804  0.7035038272281326   F   F   F
  0.3735980594754480  0.4955528023390769  0.8334056164335237   F   F   F
  0.3228627757545723  0.4167783360877024  0.7703031749769096   F   F   F
  0.6987658388285212  0.3448419227573751  0.7573144075732330   F   F   F
  0.3680389040157266  0.6208011894770067  0.8199535583694626   F   F   F
  0.7700558051923210  0.4295701263035951  0.7958076401751768   F   F   F
  0.2559224721339461  0.5942016846004350  0.6945036529501039   F   F   F
  0.6473312686206967  0.4459025950753599  0.6950710454326980   F   F   F
  0.5396619243196241  0.6679512751653931  0.7021147601391533   F   F   F
  0.4408983086810991  0.4735578508793878  0.7564013650078039   F   F   F
  0.7062810108537363  0.7572604068775632  0.6883526365988786   F   F   F
  0.3736119841982131  0.7413581371317335  0.7788528254333968   F   F   F
  0.4611364315091961  0.5761691474551256  0.8654055149142721   F   F   F
  0.6512045327120859  0.4403709208441242  0.8125237557750609   F   F   F
  0.4166977630343709  0.6973036723869299  0.6995662753379293   F   F   F
  0.5166555273126221  0.3787814524801405  0.7330355910527331   F   F   F
  0.3474778008157813  0.5007226679053574  0.6969885619593441   F   F   F
  0.5631863733476692  0.6416712353798175  0.8622056302525749   F   F   F
  0.4626733055410028  0.6985146902073183  0.8314722207704008   F   F   F
  0.6156780298406588  0.3216205471983784  0.6960235876853602   F   F   F
  0.2938953444087176  0.7474237838015156  0.6965778415667145   F   F   F
  0.5089039599877054  0.6061516475537587  0.7778303235161843   F   F   F
  0.5778603965095144  0.7265303392132836  0.7941405609294847   F   F   F
  0.2848203395281814  0.6634823094722648  0.7643834380499612   F   F   F
  0.5965430521445612  0.2935934431888327  0.7848239435053586   F   F   F
  0.5125492247975032  0.4849381067244352  0.6781138354428293   F   F   F
  0.5600123094094442  0.4882693696282487  0.7625314085010615   F   F   F
  0.4814394392722861  0.2724801005202764  0.7754098835530101   F   F   F
  0.5436352619306817  0.3871507478700522  0.8299019663634013   F   F   F
  0.5494075357114525  0.2169732058718807  0.7099985257752621   F   F   F
  0.2391676507520799  0.4701182406805771  0.7093109974117979   F   F   F
  0.4322279707412378  0.2283509625391531  0.6986629165325411   F   F   F
  0.3673573762954021  0.3010258557545527  0.7568744802083387   F   F   F
  0.4248050431889467  0.3738367916159362  0.8180594906265313   F   F   F
  0.6197948750317650  0.5710984140632789  0.7040635731630118   F   F   F
  0.5960333054599261  0.7849844153447592  0.7128400506685608   F   F   F
  0.6315662357313840  0.5861867617749184  0.7998416097994863   F   F   F
  0.7312000284255618  0.6147831666053278  0.6941232678637874   F   F   F
  0.3913922049262553  0.8186069896666623  0.7064921505875787   F   F   F
  0.4854765535108143  0.7771100100455186  0.7547970042375383   F   F   F
  0.7624617853284974  0.4322628026668767  0.7052793459778854   F   F   F
  0.7197756342161270  0.2591372344007752  0.6901362206635682   F   F   F
  0.7732361141711053  0.1548507869909628  0.7829515232474265   T   T   T
  0.7259023411662326  0.1347655930448326  0.7532153423116128   T   T   T
  0.7413382055283364  0.1231593343002118  0.7199023781946110   T   T   T
  0.7060258816556342  0.0944122545715516  0.7671170941125567   T   T   T
  0.8098773972129365  0.1234993572250076  0.7824221124522808   T   T   T
  0.7477439972329805  0.3115113938356231  0.5479248558072243   F   F   F
  0.5859648801501720  0.8142673808438019  0.5503847246509252   F   F   F
  0.5812025038570567  0.5598918677311957  0.5489651751321389   F   F   F
  0.2525906072009860  0.5591478025095213  0.5438828982582251   F   F   F
  0.4159079316399783  0.3193225977717447  0.5525905225487122   F   F   F
  0.5764785603162537  0.4356967425954821  0.5523076643361264   F   F   F
  0.4165892071807136  0.0652796970865595  0.5472890526462706   F   F   F
  0.0851581345900669  0.8125993197076937  0.5473423945807312   F   F   F
  0.0866813050238093  0.3135297150048189  0.5470830124299439   F   F   F
  0.5005144387344700  0.7565720423873969  0.5925099413173811   F   F   F
  0.0823963660263871  0.0631254478477672  0.5475488680393994   F   F   F
  0.0833333358191695  0.3124999999901945  0.3605200052333331   F   F   F
  0.9168436026388420  0.1887974544530167  0.5453930624863830   F   F   F
  0.5838715799062442  0.9375915288493246  0.5462424933514995   F   F   F
  0.5794372154592580  0.6860994536480050  0.5475252669819284   F   F   F
  0.2515232946104362  0.9372840399166478  0.5452160164713575   F   F   F
  0.4971934886954230  0.5044603637622131  0.6090338323808524   F   F   F
  0.9179003303469315  0.5637781698731956  0.5470989848529797   F   F   F
  0.4197909635052852  0.5649126613644952  0.5553883444758227   F   F   F
  0.9154557159342289  0.8126354927496706  0.5467897434041333   F   F   F
  0.0840993315527143  0.9383847872582649  0.5461146708443962   F   F   F
  0.2489532174685962  0.6833584371309200  0.5518266418236522   F   F   F
  0.7493211839954910  0.9339289964261468  0.5476448437275465   F   F   F
  0.7516714969964369  0.6800903533381160  0.5533836059708932   F   F   F
  0.9156366779354741  0.9384843448766915  0.5463886551710786   F   F   F
  0.4176640479180804  0.0651919660951350  0.6400797475133047   F   F   F
  0.4123750548906173  0.8128557745791767  0.6394009529081899   F   F   F
  0.5824771499365511  0.0616557995295537  0.5453252574014584   F   F   F
  0.9154515114692074  0.4375172423774529  0.5457673801436513   F   F   F
  0.7500931326891589  0.1896847406018622  0.4556067119548501   F   F   F
  0.3340503903803338  0.9998783032456444  0.5919391929870201   F   F   F
  0.5825653800186856  0.9372658789972164  0.4544271503095203   F   F   F
  0.4993989674943009  0.1256510441519652  0.4989863447227023   F   F   F
  0.9996228836298897  0.4987130352831102  0.5941456600903194   F   F   F
  0.5793539469179976  0.1847032331198903  0.5505244345341893   F   F   F
  0.9996664391564138  0.7536938172705590  0.5928184613745628   F   F   F
  0.9140609880811041  0.5627899416589912  0.6408350457550966   F   F   F
  0.9998887650984756  0.9988384023671770  0.5930495111210661   F   F   F
  0.0012075319000147  0.2497621509382952  0.5920508582149111   F   F   F
  0.3330770185678915  0.4961710362527612  0.5911097026170609   F   F   F
  0.3353759332630091  0.7409520744217701  0.5903515371693686   F   F   F
  0.6635047875467990  0.2467895935971711  0.5903169786563964   F   F   F
  0.6661348781933043  0.0010902886845940  0.5918864488892055   F   F   F
  0.6655456638896169  0.7412412842484315  0.5908586908115083   F   F   F
  0.6664930425882289  0.4938307797871317  0.5915527351457115   F   F   F
  0.1674959278219390  0.9983203503393696  0.5922945006068616   F   F   F
  0.1685505217808014  0.2482806594958404  0.5931514605866468   F   F   F
  0.1709330739962525  0.7504361944253048  0.5950918641957657   F   F   F
  0.2482765699982252  0.4358957025139887  0.5491362960481894   F   F   F
  0.1654854611242200  0.5034029056178397  0.5872449172697785   F   F   F
  0.3346447671795190  0.2544684545394347  0.5926017584285859   F   F   F
  0.4997151382713767  0.0001282463679573  0.5911008959611337   F   F   F
  0.8326786881614652  0.8742009523497813  0.4986320617910778   F   F   F
  0.7484270443438632  0.9374258631942922  0.6402192783157616   F   F   F
  0.8323673399951161  0.0016826497168623  0.5920732471516672   F   F   F
  0.7490829888818169  0.1836545481360545  0.5506520434107642   F   F   F
  0.4229262195832746  0.6878318316257790  0.5467450252270183   F   F   F
  0.4230146804309669  0.4436271746894889  0.5459939619921954   F   F   F
  0.7524684246771827  0.4350192706603480  0.5492604023880574   F   F   F
  0.5830522018952422  0.3106387183624904  0.5447759291843113   F   F   F
  0.2532290023541819  0.8125804219130828  0.5506295946134259   F   F   F
  0.9158204551949751  0.1869108431707573  0.4531917057922854   F   F   F
  0.9132300000664557  0.8133867640422636  0.6419403098067349   F   F   F
  0.7550200917337051  0.4341498316067316  0.6384819688670760   F   F   F
  0.2492539471490502  0.3137863421417819  0.5459614950193412   F   F   F
  0.4175430630466650  0.9349534376661524  0.6397375814675570   F   F   F
  0.7466389975954257  0.3123765797373323  0.6404295330877261   F   F   F
  0.7489594617391049  0.0683772626770320  0.6386882558790177   F   F   F
  0.0843752940218110  0.3114065562919137  0.6407476954728892   F   F   F
  0.6664874363363964  0.8743234100664736  0.4987777359846604   F   F   F
  0.0865115712118154  0.5628893990703290  0.6400881066997286   F   F   F
  0.0874344533153106  0.4366865170299690  0.6397275868578092   F   F   F
  0.4173061397944551  0.1874582349860390  0.6399790057825214   F   F   F
  0.4151184179751297  0.4187198048035938  0.6303001945746018   F   F   F
  0.0844866681958365  0.9356554318194625  0.6409975796116285   F   F   F
  0.0833903608653159  0.6871272627272518  0.6388110667866229   F   F   F
  0.0841101479904083  0.0603656999107471  0.6421400818099059   F   F   F
  0.8331701537084371  0.5034058549695928  0.5892897118523379   F   F   F
  0.0837302151457209  0.1854244909915295  0.6412255668932403   F   F   F
  0.2400615229758998  0.4423709907639335  0.6416486549382867   F   F   F
  0.9124792997753417  0.4361482159908121  0.6399831757428771   F   F   F
  0.2520775984457018  0.9303096676658811  0.6373124283388094   F   F   F
  0.9162964804062526  0.6876550250431990  0.6390307689639769   F   F   F
  0.9143673843640698  0.9371410935367095  0.6413962378849476   F   F   F
  0.3971689087268260  0.5506416404511896  0.6520161044312047   F   F   F
  0.2544312293210282  0.6785768628512869  0.6626294481979329   F   F   F
  0.2536067049067867  0.1864796583904464  0.6412736248230857   F   F   F
  0.5789964621366153  0.1930533501037743  0.6459212382506934   F   F   F
  0.5821380731079628  0.9361612140616415  0.6393468264806543   F   F   F
  0.9166666865332829  0.8124999999834799  0.3605200052333331   F   F   F
  0.7463631763016068  0.1950295202687187  0.6461726670231585   F   F   F
  0.8319762051170372  0.2493443404733142  0.5905866892045992   F   F   F
  0.8303195228895959  0.7507486832663304  0.5927144493029104   F   F   F
  0.0846365626521859  0.8126578934663158  0.6424565238511093   F   F   F
  0.7524653585007215  0.5687802891538780  0.6357387963454499   F   F   F
  0.5827916157175395  0.0668683183333769  0.6387872279489457   F   F   F
  0.7411262340355549  0.8098850996790929  0.6399374515050624   F   F   F
  0.8328818996773322  0.1245390772458848  0.4998312154446083   F   F   F
  0.5906448670700328  0.5661303810108080  0.6386254535389497   F   F   F
  0.2476135748414805  0.5740614490681324  0.6287455022051915   F   F   F
  0.7535665024906706  0.6920631097486734  0.6574757749527791   F   F   F
  0.2627234431530212  0.8006435892989785  0.6460179879193220   F   F   F
  0.2510126926995966  0.0594342925281737  0.6423077047240113   F   F   F
  0.9166666865332829  0.5625000000092442  0.3605200052333331   F   F   F
  0.4994459891930063  0.3740210113053450  0.5003711778666329   F   F   F
  0.5002840373066846  0.6210439181981116  0.5001261719080361   F   F   F
  0.8323590448633382  0.6230574935344961  0.5001569262178549   F   F   F
  0.2519991425073300  0.1882719025369894  0.5471826894645915   F   F   F
  0.8325469698476482  0.3730985676521712  0.4995985050226608   F   F   F
  0.9152221325859387  0.3118778874382997  0.6397599942250380   F   F   F
  0.1667373870315672  0.3762089632888674  0.4976992561706055   F   F   F
  0.5801451624872627  0.4393864834403516  0.6469904629116598   F   F   F
  0.5768763950086395  0.6864417082816914  0.6398037820604827   F   F   F
  0.9161111791706276  0.1862378573964136  0.6396838138702492   F   F   F
  0.2491904580995694  0.3164539870635821  0.6412903635144147   F   F   F
  0.1677674859103533  0.8732556872972168  0.4998869261417127   F   F   F
  0.9159038310186176  0.4369579435389497  0.4535961739614578   F   F   F
  0.1670922550345679  0.1244143610181894  0.4993491747453973   F   F   F
  0.7485053292276973  0.0598435823757555  0.5444002687849547   F   F   F
  0.4255914818772979  0.3052063395980653  0.6567432566534279   F   F   F
  0.5906442344358780  0.8106123929311408  0.6459172200181271   F   F   F
  0.4203852365897731  0.6762140121796207  0.6337323251057683   F   F   F
  0.0835941887107978  0.1888594042573999  0.5456162167236442   F   F   F
  0.4983311348800896  0.2539609785508361  0.5917545496680319   F   F   F
  0.9158650472566165  0.0626566401820909  0.6411807474697468   F   F   F
  0.1675465161422167  0.6242797159909870  0.5002410461683624   F   F   F
  0.4999994093350111  0.8731768106644893  0.5008791941802642   F   F   F
  0.4165121270123961  0.1911448415565147  0.5468549287702800   F   F   F
  0.0829236543273026  0.4389476081231365  0.5448208640692016   F   F   F
  0.9143063178412234  0.6887558104362697  0.5456695875491917   F   F   F
  0.5850652730609269  0.3217317681535263  0.6325591783772566   F   F   F
  0.9166666865332829  0.6874999999963620  0.3605200052333331   F   F   F
  0.9166666865332829  0.4374999701794380  0.3605200052333331   F   F   F
  0.9166666865332829  0.1875000000030838  0.3605200052333331   F   F   F
  0.5833333134730552  0.9375000000154046  0.3605200052333331   F   F   F
  0.0809455325362265  0.5645307170373499  0.5464352085420359   F   F   F
  0.5833333134730552  0.4374999701794380  0.3605200052333331   F   F   F
  0.5833333134730552  0.1875000000030838  0.3605200052333331   F   F   F
  0.2499999999799343  0.9375000000154046  0.3605200052333331   F   F   F
  0.9166666865332829  0.9375000000154046  0.3605200052333331   F   F   F
  0.2499999999799343  0.6874999999963620  0.3605200052333331   F   F   F
  0.2499999999799343  0.1875000000030838  0.3605200052333331   F   F   F
  0.7499999404149307  0.9375000000154046  0.3605200052333331   F   F   F
  0.7499999404149307  0.6874999999963620  0.3605200052333331   F   F   F
  0.4174185300898188  0.9357825164205877  0.4539082178113674   F   F   F
  0.5833290747258317  0.0639133063678230  0.4537430055169125   F   F   F
  0.7499999404149307  0.4374999701794380  0.3605200052333331   F   F   F
  0.4166666269218169  0.6874999999963620  0.3605200052333331   F   F   F
  0.4166666269218169  0.4374999701794380  0.3605200052333331   F   F   F
  0.2499999999799343  0.4374999701794380  0.3605200052333331   F   F   F
  0.0833333358191695  0.0625000000159659  0.3605200052333331   F   F   F
  0.9153004373133129  0.6868637499746697  0.4533265007140983   F   F   F
  0.6653913631839714  0.3790301827050371  0.5031367203464612   F   F   F
  0.3343543409557341  0.3784790958308264  0.5030082076058733   F   F   F
  0.3355764895083055  0.6257898166693607  0.5037396114758508   F   F   F
  0.9174642512351170  0.0634175056841428  0.5473975577922872   F   F   F
  0.7494961281462338  0.9384298465757297  0.4553544609905344   F   F   F
  0.2499915104112986  0.9360774681066744  0.4539860877913782   F   F   F
  0.2501018263885797  0.1884785292832660  0.4541038415817056   F   F   F
  0.7490751906134108  0.6886559243889394  0.4574617251832649   F   F   F
  0.7499999404149307  0.1875000000030838  0.3605200052333331   F   F   F
  0.4166666269218169  0.9375000000154046  0.3605200052333331   F   F   F
  0.5833333134730552  0.0625000000159659  0.3605200052333331   F   F   F
  0.2505317291141509  0.0620399416375434  0.4542541481477400   F   F   F
  0.4159808548566275  0.9370003645277976  0.5460375896764802   F   F   F
  0.0843755851754651  0.6869593202971345  0.4531662558663854   F   F   F
  0.2520810287584254  0.6875660742803618  0.4560018367948189   F   F   F
  0.0840677440396647  0.9368577803605191  0.4536845068091324   F   F   F
  0.0827910887056476  0.4368078244674010  0.4528159137725680   F   F   F
  0.0856825117196607  0.6893272033285101  0.5454303149563771   F   F   F
  0.0838560119345146  0.1865681136732675  0.4529806389283877   F   F   F
  0.9165940581552974  0.8121396273757426  0.4540646259667938   F   F   F
  0.7463990314325102  0.5576953843673493  0.5446672952283578   F   F   F
  0.9161014056337891  0.5622239049248492  0.4540590875540218   F   F   F
  0.9161158667464449  0.0622463257373127  0.4540667161178717   F   F   F
  0.9162353570130293  0.3121994294124590  0.4538097769532143   F   F   F
  0.4169291983228121  0.4355387901651255  0.4540591884060348   F   F   F
  0.5822734240415102  0.4395821408162277  0.4564249854162483   F   F   F
  0.5830091789560328  0.1904210499496628  0.4556857119554962   F   F   F
  0.5833333134730552  0.6874999999963620  0.3605200052333331   F   F   F
  0.9164682472075683  0.9371206216504646  0.4536636873407147   F   F   F
  0.0000917217224057  0.3737285549117928  0.4981962720091460   F   F   F
  0.9996848541308552  0.6271623007960159  0.4976382539059330   F   F   F
  0.3337283775499742  0.1257489164508243  0.4987557538652396   F   F   F
  0.0000897084634204  0.8751697577740956  0.4995977705078190   F   F   F
  0.3334973860884674  0.8741598759071891  0.4991074443795895   F   F   F
  0.6658667249884971  0.1263181850362116  0.4998773081348560   F   F   F
  0.2511657859350507  0.4392779687100230  0.4549213042710960   F   F   F
  0.0833333358191695  0.5625000000092442  0.3605200052333331   F   F   F
  0.9166666865332829  0.0625000000159659  0.3605200052333331   F   F   F
  0.7494148333034900  0.8131790635675529  0.4530457909307515   F   F   F
  0.7496598376682968  0.4384191788336267  0.4557928899348269   F   F   F
  0.9157756016619345  0.3126213529241895  0.5465399173301648   F   F   F
  0.4171654660511734  0.6847546303288041  0.4547379588890976   F   F   F
  0.0001367105040160  0.1250729918787457  0.4983427490844292   F   F   F
  0.5832748702131454  0.8104945378748667  0.4553352073507853   F   F   F
  0.4166062942111211  0.8099818668819054  0.4550540399921772   F   F   F
  0.7744531065797986  0.1993848279686005  0.8058978024163346   T   T   T
  0.2499999999799343  0.8124999999834799  0.3605200052333331   F   F   F
  0.0000000000000000  0.2500000000190425  0.4070133268666680   F   F   F
  0.0000000000000000  0.4999999999932783  0.4070133268666680   F   F   F
  0.7482004257471147  0.5642740014606176  0.4537942617279924   F   F   F
  0.3333333432766779  0.0000000000000000  0.4070133268666680   F   F   F
  0.3333333432766779  0.4999999999932783  0.4070133268666680   F   F   F
  0.3333333432766779  0.7500000000123208  0.4070133268666680   F   F   F
  0.6666666865533486  0.0000000000000000  0.4070133268666680   F   F   F
  0.6666666865533486  0.2500000000190425  0.4070133268666680   F   F   F
  0.6666666865533486  0.4999999999932783  0.4070133268666680   F   F   F
  0.8333332538436267  0.2500000000190425  0.4070133268666680   F   F   F
  0.1666666716383389  0.0000000000000000  0.4070133268666680   F   F   F
  0.5843082116743474  0.3155301913643740  0.4536263564386687   F   F   F
  0.1666666716383389  0.4999999999932783  0.4070133268666680   F   F   F
  0.5000000000021103  0.2500000000190425  0.4070133268666680   F   F   F
  0.0000000000000000  0.0000000000000000  0.4070133268666680   F   F   F
  0.5000000000021103  0.7500000000123208  0.4070133268666680   F   F   F
  0.3333333432766779  0.2500000000190425  0.4070133268666680   F   F   F
  0.7473209679148312  0.3141404672594490  0.4547351450069002   F   F   F
  0.0000000000000000  0.7500000000123208  0.4070133268666680   F   F   F
  0.5844907118695275  0.5628016002400358  0.4548704813128737   F   F   F
  0.7493000999568977  0.0642515477276646  0.4533346823145337   F   F   F
  0.8333332538436267  0.0000000000000000  0.4070133268666680   F   F   F
  0.5827440543085274  0.6861137143173366  0.4546461800064421   F   F   F
  0.2517908699988922  0.5645927094745886  0.4537773973362391   F   F   F
  0.4168904597800704  0.1872682139447335  0.4537046685801798   F   F   F
  0.6653345788312421  0.6259892508584244  0.5029971810916933   F   F   F
  0.1666666716383389  0.7500000000123208  0.4070133268666680   F   F   F
  0.2505041685838947  0.8108135620852579  0.4553240351108201   F   F   F
  0.1666666716383389  0.2500000000190425  0.4070133268666680   F   F   F
  0.7478415406460854  0.8078367534428210  0.5455562128100340   F   F   F
  0.9166666865332829  0.3124999999901945  0.3605200052333331   F   F   F
  0.0833333358191695  0.1875000000030838  0.3605200052333331   F   F   F
  0.5000000000021103  0.0000000000000000  0.4070133268666680   F   F   F
  0.6666666865533486  0.7500000000123208  0.4070133268666680   F   F   F
  0.4141076706353743  0.8116500607671568  0.5476600977979018   F   F   F
  0.4166666269218169  0.5625000000092442  0.3605200052333331   F   F   F
  0.0834562428060934  0.8121705999391864  0.4541723736403611   F   F   F
  0.4168106282468926  0.0615320788516911  0.4553345130484985   F   F   F
  0.0835032447951747  0.3119546549544623  0.4540302881932732   F   F   F
  0.7499999404149307  0.8124999999834799  0.3605200052333331   F   F   F
  0.5833333134730552  0.3124999999901945  0.3605200052333331   F   F   F
  0.4166666269218169  0.3124999999901945  0.3605200052333331   F   F   F
  0.7499999404149307  0.0625000000159659  0.3605200052333331   F   F   F
  0.7499999404149307  0.3124999999901945  0.3605200052333331   F   F   F
  0.7499999404149307  0.5625000000092442  0.3605200052333331   F   F   F
  0.5000000000021103  0.4999999999932783  0.4070133268666680   F   F   F
  0.2499999999799343  0.3124999999901945  0.3605200052333331   F   F   F
  0.2499999999799343  0.0625000000159659  0.3605200052333331   F   F   F
  0.4166666269218169  0.8124999999834799  0.3605200052333331   F   F   F
  0.0839696378234009  0.5625059701580213  0.4539860867545684   F   F   F
  0.4166666269218169  0.0625000000159659  0.3605200052333331   F   F   F
  0.5833333134730552  0.5625000000092442  0.3605200052333331   F   F   F
  0.2499999999799343  0.5625000000092442  0.3605200052333331   F   F   F
  0.2511061996810326  0.0626020723857152  0.5472392474785224   F   F   F
  0.2522693632293880  0.3141284477082351  0.4541713020067775   F   F   F
  0.0833333358191695  0.6874999999963620  0.3605200052333331   F   F   F
  0.5833333134730552  0.8124999999834799  0.3605200052333331   F   F   F
  0.0837610486387561  0.0618900776663764  0.4541783371562929   F   F   F
  0.4155569897728668  0.3114209185127024  0.4573644419433052   F   F   F
  0.4160510162161302  0.5595224729382551  0.4578659664647304   F   F   F
  0.0833333358191695  0.4374999701794380  0.3605200052333331   F   F   F
  0.0833333358191695  0.8124999999834799  0.3605200052333331   F   F   F
  0.0833333358191695  0.9375000000154046  0.3605200052333331   F   F   F
  0.4166666269218169  0.1875000000030838  0.3605200052333331   F   F   F
  0.8333332538436267  0.4999999999932783  0.4070133268666680   F   F   F
  0.8333332538436267  0.7500000000123208  0.4070133268666680   F   F   F
  0.3315617428644089  0.1197791385216576  0.6127518324255377   F   F   F
  0.1666666716383389  0.6249999999803961  0.4070133268666680   F   F   F
  0.9997931133899840  0.6236004742354950  0.6243239598073842   F   F   F
  0.8360580268478728  0.5000597154143733  0.5030085778124729   F   F   F
  0.1666666716383389  0.8749999404036828  0.4070133268666680   F   F   F
  0.5000000000021103  0.1249999999871179  0.4070133268666680   F   F   F
  0.5000000000021103  0.6249999999803961  0.4070133268666680   F   F   F
  0.8377716897976768  0.3727582421522797  0.6039367205338593   F   F   F
  0.8317895575275216  0.8767191887330981  0.6180347281295582   F   F   F
  0.5000000000021103  0.8749999404036828  0.4070133268666680   F   F   F
  0.8393299938505692  0.6270399828349795  0.6043358641674459   F   F   F
  0.5003628459540437  0.1226400730124055  0.6071028396382374   F   F   F
  0.8360304927413509  0.7515919719055617  0.5026397153203845   F   F   F
  0.1666666716383389  0.1249999999871179  0.4070133268666680   F   F   F
  0.8349384620659848  0.1240548148228839  0.6134277593572790   F   F   F
  0.5035684866576631  0.6249741600929610  0.5941192455815809   F   F   F
  0.6656550940389039  0.1247207940096047  0.6101806234991471   F   F   F
  0.5017155958990358  0.3714276983565767  0.5950422229673578   F   F   F
  0.0003670021745208  0.3751937107317147  0.6252406198210281   F   F   F
  0.6663442453389052  0.6260473566505027  0.5932786031062918   F   F   F
  0.6653440157537034  0.8814616780762563  0.6072996143811906   F   F   F
  0.1633881032731210  0.3713073357799175  0.6074478476472862   F   F   F
  0.0000000000000000  0.3750000000061604  0.4070133268666680   F   F   F
  0.1678242875047928  0.1227721122610248  0.6220745437277202   F   F   F
  0.6712845386095836  0.3727893642290354  0.5932166095253848   F   F   F
  0.1663419822031003  0.8737790960738607  0.6176354388421927   F   F   F
  0.3346364642780628  0.8788535902302428  0.6026179163719689   F   F   F
  0.3340524720067251  0.6246803556264453  0.5950617210907154   F   F   F
  0.6666666865533486  0.8749999404036828  0.4070133268666680   F   F   F
  0.5000000000021103  0.3750000000061604  0.4070133268666680   F   F   F
  0.1596007881708132  0.6274743212637262  0.6013168219141392   F   F   F
  0.8333332538436267  0.1249999999871179  0.4070133268666680   F   F   F
  0.1635502554980306  0.4998883631782363  0.5019833826497262   F   F   F
  0.9990812519419592  0.8748533724028320  0.6239422012006344   F   F   F
  0.9998548498381794  0.7510950645194185  0.5067579039104686   F   F   F
  0.0000000000000000  0.8749999404036828  0.4070133268666680   F   F   F
  0.5010729246404750  0.7528023347547759  0.5038465040044997   F   F   F
  0.3311571428312519  0.4991996957393496  0.5009491050927721   F   F   F
  0.6684454285965913  0.4998693589751042  0.5006885751077590   F   F   F
  0.1644289834332682  0.7514210892986313  0.5034458057419045   F   F   F
  0.6659428113114814  0.9999673928462585  0.5055784662819249   F   F   F
  0.3338566825782863  0.7511060458583998  0.5014904874817816   F   F   F
  0.3302594725087005  0.2480618812469757  0.5028798490402124   F   F   F
  0.0007186273593760  0.1228069066387150  0.6198401822137356   F   F   F
  0.6666666865533486  0.3750000000061604  0.4070133268666680   F   F   F
  0.8333332538436267  0.3750000000061604  0.4070133268666680   F   F   F
  0.8359889706345598  0.2486726123288392  0.5025017492335238   F   F   F
  0.6670204806185964  0.2480543746048767  0.5025246414708420   F   F   F
  0.3261143439209206  0.3733407315542507  0.5927379937749251   F   F   F
  0.1666666716383389  0.3750000000061604  0.4070133268666680   F   F   F
  0.6652979574899689  0.7518039787958273  0.5022204406590873   F   F   F
  0.5011599924587884  0.4997166451926489  0.5002632618237115   F   F   F
  0.8333332538436267  0.6249999999803961  0.4070133268666680   F   F   F
  0.5012001436498679  0.2479658406340803  0.5022230659983933   F   F   F
  0.3333333432766779  0.1249999999871179  0.4070133268666680   F   F   F
  0.1660181496867494  0.0011758484272946  0.5065331137815718   F   F   F
  0.3331322144995639  0.0011168550193048  0.5057299972399321   F   F   F
  0.5009021728578489  0.8769671563106058  0.6095375410023465   F   F   F
  0.0000000000000000  0.1249999999871179  0.4070133268666680   F   F   F
  0.5002233189157081  0.9991560781844484  0.5055225818885560   F   F   F
  0.1664230017888073  0.2482008787255339  0.5062505989637245   F   F   F
  0.0000000000000000  0.6249999999803961  0.4070133268666680   F   F   F
  0.9996253707780980  0.5000436108819812  0.5067620520363505   F   F   F
  0.8343280967407054  0.0000989870610795  0.5062826419979700   F   F   F
  0.6666666865533486  0.1249999999871179  0.4070133268666680   F   F   F
  0.0001290514822969  0.9999115081839278  0.5066929336515003   F   F   F
  0.6666666865533486  0.6249999999803961  0.4070133268666680   F   F   F
  0.0010162347053324  0.2498870392838128  0.5060076552157113   F   F   F
  0.3333333432766779  0.6249999999803961  0.4070133268666680   F   F   F
  0.3333333432766779  0.8749999404036828  0.4070133268666680   F   F   F
  0.3333333432766779  0.3750000000061604  0.4070133268666680   F   F   F
  0.8333332538436267  0.8749999404036828  0.4070133268666680   F   F   F
  0.4166020331080773  0.8767839426094923  0.5038736230600236   F   F   F
  0.2491971581743684  0.8787202347161980  0.5024039855415552   F   F   F
  0.9188493430861300  0.3745039333351627  0.5059115413884356   F   F   F
  0.0833333358191695  0.2500000000190425  0.4070133268666680   F   F   F
  0.7517990199599467  0.7525360359025441  0.5905192821788390   F   F   F
  0.2499999999799343  0.2500000000190425  0.4070133268666680   F   F   F
  0.0833333358191695  0.4999999999932783  0.4070133268666680   F   F   F
  0.0833333358191695  0.0000000000000000  0.4070133268666680   F   F   F
  0.9166666865332829  0.7500000000123208  0.4070133268666680   F   F   F
  0.9183020484654492  0.4999577709990604  0.6038649681205186   F   F   F
  0.5831594746890332  0.1234151777736798  0.5046017605792130   F   F   F
  0.7522924447080470  0.6244810328536445  0.5024824072597909   F   F   F
  0.0833333358191695  0.7500000000123208  0.4070133268666680   F   F   F