Au  C  H  O Sr Ti                       
   1.00000000000000     
    23.6707801818999997    0.0000000000000000    0.0000000000000000
     0.0000000000000000   22.3170261383000010    0.0000000000000000
     0.0000000000000000    0.0000000000000000   30.0000000000000000
   Au   C    H    O    Sr   Ti
    50     1     3   265    72    72
Selective dynamics
Direct
  0.7154480527232323  0.5245848997686551  0.7529773346556183   F   F   F
  0.6206300723789937  0.5712666826192105  0.7040721563073902   F   F   F
  0.7207709805696183  0.2587364380864372  0.6912471013457733   F   F   F
  0.2949024117598569  0.7463154257841893  0.6961173110745591   F   F   F
  0.5116634104872020  0.6034284543680357  0.7769274384776210   F   F   F
  0.5784763470497367  0.7256606541771404  0.7939801421274240   F   F   F
  0.2402360779717796  0.4693710264331230  0.7088854522756876   F   F   F
  0.2860174381175540  0.6623145647717052  0.7640709942694173   F   F   F
  0.6003066678680185  0.2878831238634447  0.7842069922565216   F   F   F
  0.5140990822392340  0.4843503024337039  0.6779522923752381   F   F   F
  0.5626968540752131  0.4860814827334679  0.7622369334444841   F   F   F
  0.5541957477981185  0.2139615325486801  0.7109218014476610   F   F   F
  0.5469381461969007  0.3843398939738876  0.8276210916498670   F   F   F
  0.3920775656633992  0.8173493035564761  0.7066835729326471   F   F   F
  0.4637949173288689  0.6952300650051271  0.8304730925769519   F   F   F
  0.4381191607988271  0.2283576893450388  0.6976314213840666   F   F   F
  0.3694441698138391  0.2990967420308763  0.7555144753377121   F   F   F
  0.3493786914385026  0.4995509375850276  0.6977654186221898   F   F   F
  0.4266500193961349  0.3716457716630828  0.8166929357770556   F   F   F
  0.5964893424088160  0.7846074019715843  0.7129333026493612   F   F   F
  0.6347834558658363  0.5839140557422482  0.8000756086720813   F   F   F
  0.7325582729812652  0.6145415648881354  0.6940019298207289   F   F   F
  0.4860396025495675  0.7757517191490777  0.7546178485867401   F   F   F
  0.7634659560518386  0.4307568513635402  0.7044844001113333   F   F   F
  0.4843190566700599  0.2711533049092480  0.7753628156761110   F   F   F
  0.2891566871176892  0.5383975130581504  0.7771706354347714   F   F   F
  0.6166898947729464  0.3215100021788828  0.6959272368646054   F   F   F
  0.3683568107403516  0.6191017356045094  0.8203197385106407   F   F   F
  0.5692292194679212  0.5095680040930191  0.8564749013742201   F   F   F
  0.6676807917348810  0.1900815093982402  0.7490870038585911   T   T   T
  0.4701364038083682  0.4509402905730298  0.8790569487384943   F   F   F
  0.5174926997148930  0.3773265216579631  0.7321031949271628   F   F   F
  0.2816902869770885  0.3406773067641069  0.7022919408905466   F   F   F
  0.6694125744061168  0.6811521242327530  0.7487779503136025   F   F   F
  0.3975837952279235  0.3817137761463059  0.6904241236401774   F   F   F
  0.4520906842424353  0.5794383770641431  0.7028847122506292   F   F   F
  0.3745874827717444  0.4934583479066532  0.8330061986556174   F   F   F
  0.3247632909778844  0.4151929381705628  0.7694803522972293   F   F   F
  0.4150938852919808  0.6951501814903338  0.6997464470229531   F   F   F
  0.6996804738529150  0.3448261737769158  0.7573447298360279   F   F   F
  0.7734113259571842  0.4286119252973535  0.7946389081184293   F   F   F
  0.2568656082952927  0.5927284674230435  0.6942847569356019   F   F   F
  0.6483894793718150  0.4458023800254054  0.6945746408051647   F   F   F
  0.5645493396831185  0.6393215988273511  0.8610437148060726   F   F   F
  0.5396518003926687  0.6681127182391151  0.7020500525342968   F   F   F
  0.4434280128556125  0.4730663913929263  0.7566223491436332   F   F   F
  0.3746034478059954  0.7399887671866878  0.7791429729152668   F   F   F
  0.4624029069102917  0.5733782932657192  0.8643351448933672   F   F   F
  0.6549264823524723  0.4406032951206527  0.8128218193577084   F   F   F
  0.7065030398587027  0.7569191747182273  0.6883906504944335   F   F   F
  0.7239708426039329  0.1139656169989038  0.7449904214587519   T   T   T
  0.7433416904175161  0.1180990722418400  0.7122123085569712   T   T   T
  0.7510957815805952  0.1221599674012452  0.7736583654365816   T   T   T
  0.6809243058996159  0.0471525466046216  0.7224922944410892   T   T   T
  0.2492836777964982  0.3137502531668233  0.5458720519568629   F   F   F
  0.7507130964879138  0.1899412153266908  0.4558311195258540   F   F   F
  0.4171014579589709  0.9360760477463543  0.4540078322823220   F   F   F
  0.4171716374268115  0.6851960203526133  0.4550054433362973   F   F   F
  0.4164372464573489  0.4354788292827223  0.4538457447440365   F   F   F
  0.0843796337334055  0.6869698016083916  0.4531656474514705   F   F   F
  0.0840969725414737  0.9367945205241881  0.4536087888555187   F   F   F
  0.0827333266593797  0.4368257544562155  0.4528145571673647   F   F   F
  0.0838605157228329  0.1865600830706029  0.4529846314588539   F   F   F
  0.9165896544640688  0.8121354290214953  0.4540607026084160   F   F   F
  0.0833333358191695  0.3124999999901945  0.3605200052333331   F   F   F
  0.7465383485764789  0.5581919963982500  0.5446697215572271   F   F   F
  0.9161200585418712  0.0623038912943130  0.4541060720868870   F   F   F
  0.9161117481017556  0.3121291341279360  0.4538835089720408   F   F   F
  0.4170555450056952  0.1871561949875016  0.4536006522725557   F   F   F
  0.2520792552726405  0.6875743414690945  0.4559928058725546   F   F   F
  0.9164328855561834  0.9371385113215638  0.4536536282542940   F   F   F
  0.5830149548325565  0.1903352220160670  0.4556564053931282   F   F   F
  0.0000779012248202  0.1251799808157017  0.4984917358992647   F   F   F
  0.5831468836623301  0.8105150125010283  0.4553167365402970   F   F   F
  0.9998960048686953  0.3737186992643657  0.4981690867762936   F   F   F
  0.9997768867902863  0.6272241345239280  0.4976446025850478   F   F   F
  0.3336006772277642  0.1255916708030398  0.4985801509651608   F   F   F
  0.0000584162283275  0.8751474441875899  0.4995257972200449   F   F   F
  0.3334588353699530  0.8741475834520926  0.4991227538666152   F   F   F
  0.6663197260528193  0.1266661135677936  0.4997886075553737   F   F   F
  0.2511513869269280  0.4393513569921055  0.4548756168293977   F   F   F
  0.0833333358191695  0.5625000000092442  0.3605200052333331   F   F   F
  0.9166666865332829  0.0625000000159659  0.3605200052333331   F   F   F
  0.7493597231146012  0.8131800727551521  0.4530159580341433   F   F   F
  0.7496481368966030  0.4383866260643643  0.4557202463044874   F   F   F
  0.2502717260693004  0.0621196284707963  0.4542352748662140   F   F   F
  0.7491003585890326  0.6886526802923285  0.4573815341105103   F   F   F
  0.2499836330543488  0.1887359125249191  0.4543436531036562   F   F   F
  0.2499983097092340  0.9361028788990637  0.4539966282619332   F   F   F
  0.6653352595773043  0.6260432507946376  0.5030038530817365   F   F   F
  0.5844904818338179  0.5628614242102117  0.4548422511741848   F   F   F
  0.5834396304455751  0.0639938386154526  0.4537845323525644   F   F   F
  0.9166666865332829  0.6874999999963620  0.3605200052333331   F   F   F
  0.9166666865332829  0.4374999701794380  0.3605200052333331   F   F   F
  0.9166666865332829  0.1875000000030838  0.3605200052333331   F   F   F
  0.5833333134730552  0.9375000000154046  0.3605200052333331   F   F   F
  0.5833333134730552  0.6874999999963620  0.3605200052333331   F   F   F
  0.5833333134730552  0.4374999701794380  0.3605200052333331   F   F   F
  0.5833333134730552  0.1875000000030838  0.3605200052333331   F   F   F
  0.2499999999799343  0.9375000000154046  0.3605200052333331   F   F   F
  0.9166666865332829  0.9375000000154046  0.3605200052333331   F   F   F
  0.2499999999799343  0.6874999999963620  0.3605200052333331   F   F   F
  0.2499999999799343  0.1875000000030838  0.3605200052333331   F   F   F
  0.7499999404149307  0.9375000000154046  0.3605200052333331   F   F   F
  0.7499999404149307  0.6874999999963620  0.3605200052333331   F   F   F
  0.7499999404149307  0.4374999701794380  0.3605200052333331   F   F   F
  0.7499999404149307  0.1875000000030838  0.3605200052333331   F   F   F
  0.4166666269218169  0.9375000000154046  0.3605200052333331   F   F   F
  0.4166666269218169  0.6874999999963620  0.3605200052333331   F   F   F
  0.4166666269218169  0.4374999701794380  0.3605200052333331   F   F   F
  0.2499999999799343  0.4374999701794380  0.3605200052333331   F   F   F
  0.0833333358191695  0.0625000000159659  0.3605200052333331   F   F   F
  0.9153048415665666  0.6868671037911085  0.4533252314652785   F   F   F
  0.6654332509426695  0.3785925012914575  0.5029988633013716   F   F   F
  0.3343525910977903  0.3784564834723341  0.5029496959214441   F   F   F
  0.3355574681989992  0.6257924179400902  0.5037347735881994   F   F   F
  0.9174579104625451  0.0634037108554821  0.5474389635853427   F   F   F
  0.7494875384878057  0.9384240301524329  0.4553587108556556   F   F   F
  0.9156810220960168  0.3125115421854758  0.5467290340547351   F   F   F
  0.2522236864476710  0.3143907675511883  0.4539460515159064   F   F   F
  0.2518480614086300  0.5647123886097347  0.4536302522531273   F   F   F
  0.2499999999799343  0.8124999999834799  0.3605200052333331   F   F   F
  0.2499999999799343  0.5625000000092442  0.3605200052333331   F   F   F
  0.2499999999799343  0.3124999999901945  0.3605200052333331   F   F   F
  0.2499999999799343  0.0625000000159659  0.3605200052333331   F   F   F
  0.7499999404149307  0.5625000000092442  0.3605200052333331   F   F   F
  0.7499999404149307  0.3124999999901945  0.3605200052333331   F   F   F
  0.7499999404149307  0.0625000000159659  0.3605200052333331   F   F   F
  0.4166666269218169  0.8124999999834799  0.3605200052333331   F   F   F
  0.4166666269218169  0.5625000000092442  0.3605200052333331   F   F   F
  0.4166666269218169  0.3124999999901945  0.3605200052333331   F   F   F
  0.7499999404149307  0.8124999999834799  0.3605200052333331   F   F   F
  0.0834856023264905  0.3119727166851405  0.4540289469544518   F   F   F
  0.4166666269218169  0.0625000000159659  0.3605200052333331   F   F   F
  0.4169373580055620  0.0616366432872653  0.4553424213340307   F   F   F
  0.0834467597171198  0.8121570818672339  0.4541648898566706   F   F   F
  0.0839656962802309  0.5625088898416237  0.4539760612554744   F   F   F
  0.4159933622252652  0.5596230320885525  0.4578239693139281   F   F   F
  0.0837062150460000  0.0619006837383935  0.4542337913509513   F   F   F
  0.4154966520116901  0.3113359761054824  0.4573561368917822   F   F   F
  0.8333332538436267  0.7500000000123208  0.4070133268666680   F   F   F
  0.0833333358191695  0.4374999701794380  0.3605200052333331   F   F   F
  0.0833333358191695  0.6874999999963620  0.3605200052333331   F   F   F
  0.0833333358191695  0.9375000000154046  0.3605200052333331   F   F   F
  0.4166666269218169  0.1875000000030838  0.3605200052333331   F   F   F
  0.0833333358191695  0.8124999999834799  0.3605200052333331   F   F   F
  0.8333332538436267  0.4999999999932783  0.4070133268666680   F   F   F
  0.6928773208217578  0.0630721640753222  0.7507360228056990   T   T   T
  0.2510692665840608  0.0624696123407560  0.5472710062477120   F   F   F
  0.4139142634178867  0.8117654301152584  0.5476727176366012   F   F   F
  0.5833333134730552  0.0625000000159659  0.3605200052333331   F   F   F
  0.5833333134730552  0.3124999999901945  0.3605200052333331   F   F   F
  0.5833333134730552  0.8124999999834799  0.3605200052333331   F   F   F
  0.7495337992796252  0.0641904468463466  0.4534372594955727   F   F   F
  0.2504670325811418  0.8108298248930694  0.4552973020081836   F   F   F
  0.8333332538436267  0.2500000000190425  0.4070133268666680   F   F   F
  0.5843465713164449  0.3154412661671913  0.4535644483148999   F   F   F
  0.8333332538436267  0.0000000000000000  0.4070133268666680   F   F   F
  0.7478579978715132  0.8079142695102348  0.5456200311351438   F   F   F
  0.0833333358191695  0.1875000000030838  0.3605200052333331   F   F   F
  0.0000000000000000  0.0000000000000000  0.4070133268666680   F   F   F
  0.0000000000000000  0.2500000000190425  0.4070133268666680   F   F   F
  0.0000000000000000  0.4999999999932783  0.4070133268666680   F   F   F
  0.7482576528007243  0.5642998065775018  0.4538042668475910   F   F   F
  0.3333333432766779  0.0000000000000000  0.4070133268666680   F   F   F
  0.3333333432766779  0.4999999999932783  0.4070133268666680   F   F   F
  0.3333333432766779  0.7500000000123208  0.4070133268666680   F   F   F
  0.6666666865533486  0.0000000000000000  0.4070133268666680   F   F   F
  0.5827338704405207  0.4396577470115730  0.4562946514654271   F   F   F
  0.6666666865533486  0.2500000000190425  0.4070133268666680   F   F   F
  0.6666666865533486  0.7500000000123208  0.4070133268666680   F   F   F
  0.1666666716383389  0.0000000000000000  0.4070133268666680   F   F   F
  0.1666666716383389  0.2500000000190425  0.4070133268666680   F   F   F
  0.1666666716383389  0.4999999999932783  0.4070133268666680   F   F   F
  0.1666666716383389  0.7500000000123208  0.4070133268666680   F   F   F
  0.5000000000021103  0.0000000000000000  0.4070133268666680   F   F   F
  0.5000000000021103  0.2500000000190425  0.4070133268666680   F   F   F
  0.5000000000021103  0.7500000000123208  0.4070133268666680   F   F   F
  0.9166666865332829  0.3124999999901945  0.3605200052333331   F   F   F
  0.3333333432766779  0.2500000000190425  0.4070133268666680   F   F   F
  0.7473907073554003  0.3141824553228787  0.4546296026929681   F   F   F
  0.0000000000000000  0.7500000000123208  0.4070133268666680   F   F   F
  0.4169123413090858  0.8104563326189904  0.4549103396276237   F   F   F
  0.5833333134730552  0.5625000000092442  0.3605200052333331   F   F   F
  0.6666666865533486  0.4999999999932783  0.4070133268666680   F   F   F
  0.5827655005586223  0.6861748292472640  0.4546471829598246   F   F   F
  0.5000000000021103  0.4999999999932783  0.4070133268666680   F   F   F
  0.9157862559619758  0.1868687066018424  0.4532403567537386   F   F   F
  0.4159908237086256  0.9371704067760831  0.5460973713393642   F   F   F
  0.4985961835960353  0.2529278203995702  0.5906295314520165   F   F   F
  0.4157073023932796  0.1913639418266371  0.5465095948356833   F   F   F
  0.0856815332606686  0.6893153816525199  0.5454305486815301   F   F   F
  0.0828665152099717  0.4387209602444955  0.5448315035891440   F   F   F
  0.0837203042200798  0.1888245094764542  0.5456855263432345   F   F   F
  0.4995807676848898  0.1256880524294246  0.4994908939718243   F   F   F
  0.9996334295435503  0.4983653732477293  0.5941104095867971   F   F   F
  0.5807326459020885  0.1852114694205440  0.5500840283637132   F   F   F
  0.9996743390798457  0.7535829887484482  0.5926725542507967   F   F   F
  0.3340878244553167  0.9998581120147847  0.5919981731537405   F   F   F
  0.9997727287226965  0.9993054591933941  0.5931920294696909   F   F   F
  0.0008460392818890  0.2483997442461856  0.5922401528710992   F   F   F
  0.3332085243926031  0.4963088258803907  0.5908610210322252   F   F   F
  0.3350911088783946  0.7412035621869819  0.5903230151957075   F   F   F
  0.6635308812871372  0.2478838576746725  0.5903443744375494   F   F   F
  0.6663017585356599  0.0010593832595518  0.5917541890785145   F   F   F
  0.6654485874725964  0.7412760120591244  0.5908438759296715   F   F   F
  0.6666695411881207  0.4947431777077895  0.5912021557232734   F   F   F
  0.1674831333591484  0.9983201219702238  0.5923130385574069   F   F   F
  0.1683731077649711  0.2486836252999183  0.5931013676342261   F   F   F
  0.1706836064058805  0.7502953680262934  0.5949579039922384   F   F   F
  0.2484780183644304  0.4359879896320962  0.5488934377884291   F   F   F
  0.1655025962491408  0.5029758172429482  0.5869359355441546   F   F   F
  0.3346604638478468  0.2545162044047089  0.5927006665971177   F   F   F
  0.5000052363585112  0.0001079218163866  0.5911620953496524   F   F   F
  0.8326761147839861  0.8742044657312462  0.4986355859919200   F   F   F
  0.7481115860312642  0.9380290264548492  0.6409830148629254   F   F   F
  0.8320929836451469  0.0021059815084925  0.5923033377589206   F   F   F
  0.7488382778512417  0.1837089262560241  0.5511472878408128   F   F   F
  0.4228928708614248  0.6878090608362868  0.5468838456865441   F   F   F
  0.4231693337247435  0.4437057743348376  0.5457656938433573   F   F   F
  0.7519642546271115  0.4353255344999738  0.5488816650044441   F   F   F
  0.5826503393576274  0.3111743453024118  0.5448874341991683   F   F   F
  0.2530422474542817  0.8126070776745777  0.5505658412346293   F   F   F
  0.5831166014609863  0.0621348062354770  0.5455279228092351   F   F   F
  0.5825986681490605  0.9372817715123247  0.4544348642370863   F   F   F
  0.5857770569504339  0.8142128511100211  0.5503869520806077   F   F   F
  0.7478688151390784  0.3116353966728553  0.5479672675064293   F   F   F
  0.5811217489311318  0.5600457444237961  0.5488392307299392   F   F   F
  0.2525825060438862  0.5591076521779144  0.5437145313323271   F   F   F
  0.4160266874696106  0.3194853826468744  0.5524647890510224   F   F   F
  0.5766696632193486  0.4358555002879996  0.5521050857843690   F   F   F
  0.4166184698642041  0.0653506626311398  0.5473348230203996   F   F   F
  0.0849853495560140  0.8127822716493469  0.5473242137092171   F   F   F
  0.0808976389121696  0.5644477178837874  0.5464195441066337   F   F   F
  0.0857202881834453  0.3133280368402112  0.5469811099270458   F   F   F
  0.5001382857133976  0.7570354404021344  0.5926290957968590   F   F   F
  0.0824271748850691  0.0631409296104124  0.5475600882402247   F   F   F
  0.9142942504372087  0.6887257896820103  0.5456908256420689   F   F   F
  0.5839392308685021  0.9376104324200725  0.5462846460363977   F   F   F
  0.9164296312791507  0.1888568700759521  0.5455474660281112   F   F   F
  0.9154794958017476  0.4373826917912496  0.5457298234598866   F   F   F
  0.5791534355122607  0.6860616172679244  0.5475914319258806   F   F   F
  0.2515157298651758  0.9372733015131658  0.5452410755039168   F   F   F
  0.4974384064610362  0.5043775192222597  0.6089432268317339   F   F   F
  0.9180295653570525  0.5637437717710583  0.5470469779118901   F   F   F
  0.4199342964454615  0.5649432241346162  0.5553423981264913   F   F   F
  0.9155411235091435  0.8127144865790044  0.5468207998457189   F   F   F
  0.0836892686748314  0.9387802072050775  0.5459226332358256   F   F   F
  0.2488897244114270  0.6833210138523995  0.5517786166897594   F   F   F
  0.7492899333872600  0.9338632356357124  0.5477632877962151   F   F   F
  0.7516934906935973  0.6804770576697194  0.5531876329412171   F   F   F
  0.9156456788804519  0.9385421049342639  0.5464414544637890   F   F   F
  0.4178780222914540  0.0651833546099567  0.6400766573759213   F   F   F
  0.9161039173368195  0.5622301004648378  0.4540569135823631   F   F   F
  0.4122946732086632  0.8128758541463412  0.6395862776446890   F   F   F
  0.9155333835020087  0.0629465948501533  0.6413467403931250   F   F   F
  0.9140393625536305  0.5627682734973476  0.6407525016706117   F   F   F
  0.9153124668237638  0.3118558831619183  0.6397034021840824   F   F   F
  0.9132117108318312  0.8134181371958888  0.6419492076480395   F   F   F
  0.5834318476704112  0.0667335657753796  0.6391407628628087   F   F   F
  0.5833638783374013  0.3209509325172917  0.6333568606827527   F   F   F
  0.5907190983537802  0.5661293812387171  0.6387348666473756   F   F   F
  0.2474618224703846  0.5736346418955947  0.6285162062463030   F   F   F
  0.7536379688782304  0.6919392029440772  0.6571112017058027   F   F   F
  0.2619742284918161  0.7997356550412249  0.6462794562312340   F   F   F
  0.2510452190888728  0.0593576025407714  0.6423041287076501   F   F   F
  0.9166666865332829  0.5625000000092442  0.3605200052333331   F   F   F
  0.4995418368242426  0.3742562163292291  0.4997164044916786   F   F   F
  0.5002194305990457  0.6211234234394638  0.5000038988995215   F   F   F
  0.8324792536179118  0.6231021783181916  0.5001916550900560   F   F   F
  0.2519298669820458  0.1881160087371043  0.5473588229294890   F   F   F
  0.8324481848636509  0.3730643923908517  0.4997450659012017   F   F   F
  0.8329176478872000  0.1245246941084943  0.5002352239399741   F   F   F
  0.1666384513881383  0.3761070458996016  0.4977657088701903   F   F   F
  0.1675607422222072  0.6242472071353475  0.5001909372640370   F   F   F
  0.5813995260744278  0.4391840347595846  0.6460992767081066   F   F   F
  0.5768670157771183  0.6865154360616188  0.6397470937343428   F   F   F
  0.9157908473501450  0.1861369890515263  0.6399317529693391   F   F   F
  0.2490965356824972  0.3162322891555434  0.6412303925321794   F   F   F
  0.9157646602377696  0.4369541897722158  0.4536277922494776   F   F   F
  0.1670702696628084  0.1244693649829429  0.4994874972151209   F   F   F
  0.7484347214104830  0.0602236844992277  0.5448240000847520   F   F   F
  0.1677065185767361  0.8733167917548457  0.4998629535513359   F   F   F
  0.4270809286621216  0.3047522149503479  0.6551835028676223   F   F   F
  0.5909506395906945  0.8106216697703559  0.6459593846089575   F   F   F
  0.4203264075670461  0.6761064527795995  0.6336764455427399   F   F   F
  0.4999888479906005  0.8734533826589939  0.5009198899643721   F   F   F
  0.7552960797383363  0.4342105425838767  0.6378637341945392   F   F   F
  0.7531845972357090  0.5684851943912363  0.6356075855430987   F   F   F
  0.3971813689263612  0.5505377887339264  0.6519329662035815   F   F   F
  0.4176748844774849  0.9349372361803958  0.6397678755439600   F   F   F
  0.7411099908212719  0.8098971110210726  0.6399858121410986   F   F   F
  0.7464683826744576  0.3128021549401225  0.6407358358262130   F   F   F
  0.7472066197746727  0.0682634134340745  0.6399134381345135   F   F   F
  0.0836636263016430  0.3113561265477927  0.6405007565943848   F   F   F
  0.6664504284996440  0.8743197029199550  0.4988021847332647   F   F   F
  0.0866169404539505  0.5627015159654931  0.6398657078348435   F   F   F
  0.0874041140366444  0.4365420938890168  0.6397027528197441   F   F   F
  0.0841267546052009  0.1854645141762674  0.6414376387843888   F   F   F
  0.4181268358910870  0.1874701884950838  0.6397776566569888   F   F   F
  0.4150546401015589  0.4187579582707528  0.6300517268459487   F   F   F
  0.0842282948888524  0.9357000700893110  0.6408519858605430   F   F   F
  0.0831375092984885  0.6870561006827884  0.6388928072007047   F   F   F
  0.0842567879945975  0.0604979271453558  0.6421368555461768   F   F   F
  0.8333622602855542  0.5031395060271606  0.5888177604640390   F   F   F
  0.9123843706647037  0.4361169789954786  0.6399621177384631   F   F   F
  0.8303914135832215  0.7508243108351564  0.5927171309433561   F   F   F
  0.8314755601203956  0.2493845823394736  0.5911437770733343   F   F   F
  0.7462150801643759  0.1946410316064515  0.6466952569293554   F   F   F
  0.9166666865332829  0.8124999999834799  0.3605200052333331   F   F   F
  0.5829677516695355  0.9364682678403327  0.6395725286059317   F   F   F
  0.0843675471546419  0.8126358207559861  0.6424168075434054   F   F   F
  0.5795839985235318  0.1923761330525409  0.6452429615487532   F   F   F
  0.2550090723356249  0.6773439486631858  0.6628313331636022   F   F   F
  0.2403552069247539  0.4420003955816298  0.6412611201610190   F   F   F
  0.9143887455289814  0.9375077970543586  0.6415019665327364   F   F   F
  0.9163227148219519  0.6876557071840992  0.6390082004788837   F   F   F
  0.2520457647889458  0.9302048134337895  0.6374016803375184   F   F   F
  0.2535401821550067  0.1864475493016968  0.6412716375825696   F   F   F
  0.0006465715996313  0.1229955044909730  0.6203555766224582   F   F   F
  0.1666666716383389  0.3750000000061604  0.4070133268666680   F   F   F
  0.6654298961778409  0.7518786626512934  0.5022462570561359   F   F   F
  0.5011010230919624  0.7528705378990281  0.5038679272548023   F   F   F
  0.6661405181271220  0.9999723869442079  0.5055160709065660   F   F   F
  0.1643728444464614  0.7515102135742779  0.5034579570950655   F   F   F
  0.8333332538436267  0.6249999999803961  0.4070133268666680   F   F   F
  0.6686487522899824  0.4999001720789877  0.5006140189247148   F   F   F
  0.3311806981458147  0.4992428322023628  0.5008824076243599   F   F   F
  0.3300555221421533  0.2480381353203569  0.5028328950125385   F   F   F
  0.3339548283219571  0.7511880459420581  0.5015651910420615   F   F   F
  0.6669378775659638  0.2482457794661741  0.5026371267009466   F   F   F
  0.5011828029770484  0.4998556430239702  0.5002376897756591   F   F   F
  0.9995900524282035  0.4999557629367573  0.5067174312155416   F   F   F
  0.8361177379945133  0.4999985436074397  0.5027743877463919   F   F   F
  0.8356064350920320  0.2486369114632794  0.5028912769596587   F   F   F
  0.6666666865533486  0.3750000000061604  0.4070133268666680   F   F   F
  0.1659688905644146  0.0010878140359338  0.5065439819654358   F   F   F
  0.0000000000000000  0.8749999404036828  0.4070133268666680   F   F   F
  0.5010341971333077  0.2479680060184890  0.5021115057059617   F   F   F
  0.9998800549795348  0.7511166372028981  0.5066963012789003   F   F   F
  0.0008092611911081  0.2497550618873987  0.5060915677560871   F   F   F
  0.0000122416423451  0.9999959052020699  0.5067503269149043   F   F   F
  0.6666666865533486  0.6249999999803961  0.4070133268666680   F   F   F
  0.8333332538436267  0.8749999404036828  0.4070133268666680   F   F   F
  0.3333333432766779  0.6249999999803961  0.4070133268666680   F   F   F
  0.3333333432766779  0.1249999999871179  0.4070133268666680   F   F   F
  0.3333333432766779  0.3750000000061604  0.4070133268666680   F   F   F
  0.8341354758766215  0.0001047248800106  0.5065441039228702   F   F   F
  0.3333333432766779  0.8749999404036828  0.4070133268666680   F   F   F
  0.6666666865533486  0.1249999999871179  0.4070133268666680   F   F   F
  0.0000000000000000  0.6249999999803961  0.4070133268666680   F   F   F
  0.1662699793575868  0.2481997799088802  0.5062154244799899   F   F   F
  0.3331600140725683  0.0010555139474633  0.5057862912353812   F   F   F
  0.5003330625164040  0.9993409652260254  0.5056094935240338   F   F   F
  0.5013691925551100  0.8772273290047110  0.6098769721259103   F   F   F
  0.3259065109343098  0.3735050609349528  0.5927157850414062   F   F   F
  0.0000000000000000  0.3750000000061604  0.4070133268666680   F   F   F
  0.3340676487324785  0.6246752629123336  0.5950238107095274   F   F   F
  0.5000000000021103  0.8749999404036828  0.4070133268666680   F   F   F
  0.8333332538436267  0.3750000000061604  0.4070133268666680   F   F   F
  0.1666666716383389  0.1249999999871179  0.4070133268666680   F   F   F
  0.6655697117518073  0.1252446201823929  0.6071959513982392   F   F   F
  0.5000000000021103  0.6249999999803961  0.4070133268666680   F   F   F
  0.8395417679162094  0.6270242575777303  0.6040133574662221   F   F   F
  0.3316840657164448  0.1197215158643985  0.6132739205938549   F   F   F
  0.9989236013536029  0.8749701615020911  0.6234932197910581   F   F   F
  0.1634602164852836  0.4998311300320495  0.5018629775334915   F   F   F
  0.5000000000021103  0.1249999999871179  0.4070133268666680   F   F   F
  0.8316355519557987  0.8771035927069875  0.6185871705787704   F   F   F
  0.8375970655269782  0.3724455986545365  0.6037241953960191   F   F   F
  0.8361155572853889  0.7517315222883312  0.5026452588143897   F   F   F
  0.1666666716383389  0.8749999404036828  0.4070133268666680   F   F   F
  0.8333332538436267  0.1249999999871179  0.4070133268666680   F   F   F
  0.0000000000000000  0.1249999999871179  0.4070133268666680   F   F   F
  0.5036470744611847  0.6248960742730603  0.5941539136539120   F   F   F
  0.6709129688063911  0.3726508157677841  0.5932696909569160   F   F   F
  0.5000000000021103  0.3750000000061604  0.4070133268666680   F   F   F
  0.6666666865533486  0.8749999404036828  0.4070133268666680   F   F   F
  0.3346884710491267  0.8787698078959991  0.6029139701565214   F   F   F
  0.1596004215470188  0.6275097834197680  0.6014635526653080   F   F   F
  0.1662437595409756  0.8736666103484296  0.6180409243764302   F   F   F
  0.5015083684938091  0.3714712932398996  0.5947077031632375   F   F   F
  0.1666666716383389  0.6249999999803961  0.4070133268666680   F   F   F
  0.1678760476783978  0.1225952212355921  0.6217125360459832   F   F   F
  0.5006213119563299  0.1224803997973680  0.6068139859250934   F   F   F
  0.9997955372456815  0.6234604610074044  0.6240694743479693   F   F   F
  0.0001462280291946  0.3754167882077084  0.6244131497307635   F   F   F
  0.8341237521833165  0.1241731907434769  0.6139121834255832   F   F   F
  0.6657048700926396  0.8813757019061370  0.6070518766393604   F   F   F
  0.1632136927748320  0.3710540918215841  0.6075126052513085   F   F   F
  0.6666214666506747  0.6260212845840556  0.5933469316352600   F   F   F
  0.0835795794170977  0.2475856972028794  0.6037450824993016   F   F   F
  0.7496518414525539  0.0023449553660129  0.6049371506520487   F   F   F
  0.5829626880667149  0.0014790296897402  0.6042570479265379   F   F   F
  0.9165331971518569  0.0001293114667291  0.6038952912049851   F   F   F
  0.5849622602552103  0.7500081419802029  0.5997525093934257   F   F   F
  0.5903057947623012  0.5015121952448283  0.5934698615153948   F   F   F
  0.2423073088629977  0.4978895991015335  0.5937839444235991   F   F   F
  0.5842635112981185  0.2478610274002264  0.5969807608047120   F   F   F
  0.2497562150041333  0.9976760504590558  0.6042032620712376   F   F   F
  0.7538963978358311  0.2486842621800918  0.5934144154738732   F   F   F
  0.2491319896334545  0.2456267492688511  0.6036761024803710   F   F   F
  0.4174509847730263  0.0000814530113189  0.6046649655106933   F   F   F
  0.2498081058501143  0.7530318657263422  0.5918665816486808   F   F   F
  0.0815958112171913  0.4995993338503837  0.6029839470801406   F   F   F