CO                                      
   1.00000000000000     
    12.5054068306472956    0.0000000000000000    0.0000000000000000
     0.0000000000000000   15.3159328805006201    0.0000000000000000
     0.0000000000000000    0.0000000000000000   28.1057698071600015
   C    O 
     1     1
Direct
  0.4997838202818770  0.4994798592868932  0.4980776356337246
  0.4997838202818770  0.4994798592868932  0.5387201535724087
 
  0.00000000E+00  0.00000000E+00  0.00000000E+00
  0.00000000E+00  0.00000000E+00  0.00000000E+00
