CO
 1.0000000000000000
    12.5054068306472956    0.0000000000000000    0.0000000000000000
     0.0000000000000000   15.3159328805006201    0.0000000000000000
     0.0000000000000000    0.0000000000000000   28.1057698071600015
 C  O 
 1  1
Cartesian
 6.2500 7.650 14.000
 6.2500 7.650 15.140
 
