Au C  H  O  Sr Ti                       
   1.00000000000000     
    23.6707801818999997    0.0000000000000000    0.0000000000000000
     0.0000000000000000   27.8962826732999716    0.0000000000000000
     0.0000000000000000    0.0000000000000000   30.0000000000000000
   Au   C    H    O    Sr   Ti
    50     6    13   330    90    90
Selective dynamics
Direct
  0.7176405013081677  0.6198455807151930  0.7531998303828189   F   F   F
  0.7052567621161145  0.8054841464714428  0.6887373945232369   F   F   F
  0.6563375154631856  0.5531573425751475  0.8122172222038060   F   F   F
  0.3680889337809958  0.6949534738295569  0.8200215118137564   F   F   F
  0.5700635473573641  0.6087222862889661  0.8570386286235632   F   F   F
  0.6694672791025198  0.3547465834706571  0.7544882361700900   T   T   T
  0.4715246319019357  0.5613134309739394  0.8797435730320302   F   F   F
  0.5180124417202450  0.5013967152579966  0.7334849655791018   F   F   F
  0.2827005052899594  0.4712587202492244  0.7027632029362678   F   F   F
  0.6692458938384220  0.7447493047515366  0.7495905064320141   F   F   F
  0.3977121811499771  0.5059350209492024  0.6908878201307616   F   F   F
  0.6165819544290727  0.4546960868779806  0.6969003802253013   F   F   F
  0.3757746817123575  0.5942065030970625  0.8335543930028919   F   F   F
  0.3262416364164906  0.5319143745743133  0.7698717704811742   F   F   F
  0.4854059891110509  0.4155442726633893  0.7759551752006999   F   F   F
  0.4256307271389801  0.7588048932624503  0.6994995896822118   F   F   F
  0.7008442548643146  0.4742853508511828  0.7576456355345869   F   F   F
  0.7743193258983965  0.5423138554665101  0.7948420036805430   F   F   F
  0.2563156143769518  0.6744570656778137  0.6950089421544803   F   F   F
  0.6471634841323066  0.5539506738924374  0.6958558872219882   F   F   F
  0.5655803249042961  0.7124469180386868  0.8611757954462647   F   F   F
  0.5451429213348575  0.7318481036428679  0.7014344077032320   F   F   F
  0.3729331119741133  0.7905072025138935  0.7779963468723210   F   F   F
  0.4630513950299004  0.6592213483878737  0.8638557026597766   F   F   F
  0.4535078742754379  0.6639488203047250  0.7035152245282958   F   F   F
  0.4434017723222112  0.5790210793765596  0.7564433397695112   F   F   F
  0.2895533664021315  0.6300074317604825  0.7781855919704626   F   F   F
  0.5545360256981553  0.3692328267417224  0.7113869633539025   F   F   F
  0.6237130264735455  0.6543222832486677  0.7040740161452135   F   F   F
  0.7219343036925423  0.4043975410688034  0.6921184888206895   F   F   F
  0.2907805297370274  0.7976151420495867  0.6982763118135793   F   F   F
  0.5136444970727325  0.6839382884894363  0.7772222455544977   F   F   F
  0.5772559938195698  0.7810680198155353  0.7932998697616682   F   F   F
  0.5495765961576780  0.5087456047723293  0.8295363138909195   F   F   F
  0.2413561982043078  0.5750981772610828  0.7097731649632379   F   F   F
  0.2825894038028665  0.7295655197029589  0.7658266100404347   F   F   F
  0.5142574226500543  0.5867997351803069  0.6783746117544212   F   F   F
  0.5624429352443485  0.5888743926380684  0.7627947849443260   F   F   F
  0.6004315853844915  0.4311927324477765  0.7857485295480586   F   F   F
  0.7629294826080297  0.5435453842071567  0.7048929117214087   F   F   F
  0.3903455171470398  0.8529070635553850  0.7063384840145801   F   F   F
  0.4385843346435863  0.3823318259314377  0.6982066237406812   F   F   F
  0.4628346741583442  0.7564113350735511  0.8303723785466914   F   F   F
  0.4302297134775088  0.4976069911157879  0.8161497694396047   F   F   F
  0.3492977091417018  0.6009794871198437  0.6979874244122612   F   F   F
  0.3707120797729715  0.4393006994269086  0.7563051959733684   F   F   F
  0.5942194084400896  0.8278711679006321  0.7127840164494614   F   F   F
  0.6357278863499403  0.6662434245561428  0.8002207628055302   F   F   F
  0.7330872135949349  0.6923744166932906  0.6943387002433781   F   F   F
  0.4839720517407500  0.8239499004325737  0.7576396601776949   F   F   F
  0.7177485002566613  0.2907721798879379  0.7558046130595244   T   T   T
  0.6464465802664776  0.2524032046841995  0.8099558387445853   T   T   T
  0.5753695634920319  0.2128176511841247  0.8628702345371835   T   T   T
  0.6090383619916508  0.2087152519595463  0.8193352488939354   T   T   T
  0.6790120762850478  0.2490380444958333  0.7657536497721651   T   T   T
  0.5373872144183238  0.1694775712866559  0.8719815448658963   T   T   T
  0.7484368776938624  0.2983780147512434  0.7821166455882533   T   T   T
  0.7067150350338807  0.2172020776798433  0.7667188771426154   T   T   T
  0.6764067563153731  0.2574907038272158  0.8375200531622653   T   T   T
  0.6195558956344129  0.2846624470088344  0.8094995987232636   T   T   T
  0.6499970500008487  0.2427789262756264  0.7378887234562370   T   T   T
  0.5796796618898696  0.2037262138660125  0.7914022350282437   T   T   T
  0.6355076995417548  0.1764057207761027  0.8204266277250625   T   T   T
  0.6048095199251904  0.2175441418063073  0.8908091751789087   T   T   T
  0.5493033086418677  0.2453540950466078  0.8617267210436879   T   T   T
  0.5065387824398044  0.1644683243797189  0.8452638799475736   T   T   T
  0.5141155264982515  0.1738390854012763  0.9031893402068718   T   T   T
  0.7378450085688186  0.2888145657412835  0.7231466410007670   T   T   T
  0.5620773179246471  0.1364643097858078  0.8739338697656530   T   T   T
  0.5012522713393679  0.8041238141731384  0.5929598042374025   F   F   F
  0.8329973011681915  0.6024865191382744  0.5899879057357680   F   F   F
  0.8315409930768851  0.3974174692778476  0.5912035822210484   F   F   F
  0.8301559876421933  0.8001158329377702  0.5930244111800320   F   F   F
  0.5813784805338003  0.9478555620800933  0.6380378782810183   F   F   F
  0.8325846708369014  0.2021781174126147  0.5922366870383087   F   F   F
  0.9163528088955957  0.3491606386978745  0.6404596404284177   F   F   F
  0.5807673417173476  0.7473984622305636  0.6387213863783359   F   F   F
  0.5804744704351918  0.5499927637609190  0.6459772969093081   F   F   F
  0.1677885857598227  0.6997020680719146  0.5001165395372027   F   F   F
  0.4178336351437721  0.2524867248998746  0.6390012757482566   F   F   F
  0.7404389915771077  0.8473952406735421  0.6403921656412450   F   F   F
  0.4126473276139819  0.8501299899845662  0.6396346826380324   F   F   F
  0.5838144234366354  0.0505787562347635  0.6419145730702098   F   F   F
  0.7464879264578386  0.4480110552524579  0.6420665436445390   F   F   F
  0.1665145172742797  0.5008108316891722  0.4978161145145563   F   F   F
  0.0867998573014148  0.5497454992454394  0.6397965613549701   F   F   F
  0.0841363241443958  0.2486676492175448  0.6419677677265483   F   F   F
  0.0860477348936612  0.6499210733081071  0.6418309209226223   F   F   F
  0.6663310414627048  0.8988561174837955  0.4990055583460702   F   F   F
  0.0843437333759596  0.4499327920311700  0.6403353092927802   F   F   F
  0.7477959692434695  0.2539723984152502  0.6389799508229075   F   F   F
  0.7520611885078594  0.6558296762941112  0.6352648599758481   F   F   F
  0.4270065614622709  0.4440215673363994  0.6567093867960878   F   F   F
  0.8324448631957466  0.3002843974288609  0.5000986386095860   F   F   F
  0.7473108353590519  0.9470685701568797  0.6393659211002998   F   F   F
  0.8324492382285840  0.8996811062742935  0.4996990436526474   F   F   F
  0.4985120910348044  0.4027889997197107  0.5912300117748686   F   F   F
  0.4974363106227742  0.6032606422249316  0.6092851733083862   F   F   F
  0.2517285817481394  0.9499060924738387  0.5450029346787346   F   F   F
  0.5794469757990868  0.7487530853180289  0.5469415331580336   F   F   F
  0.5762672225482959  0.5481232710878388  0.5520305044919098   F   F   F
  0.9152243276412335  0.5493840028677752  0.5463222520742050   F   F   F
  0.9170970835024335  0.3510165135022021  0.5456450201056100   F   F   F
  0.5837472339008229  0.9506855579693152  0.5455329621116505   F   F   F
  0.9134811693311775  0.7507452998272583  0.5459384528704732   F   F   F
  0.9163114608326239  0.9504026671390093  0.5463154112783073   F   F   F
  0.0827721123128953  0.2500470922394271  0.5473566049537339   F   F   F
  0.0859641190712992  0.4502769852831747  0.5466816712391207   F   F   F
  0.0825380665058617  0.6507927853597195  0.5459604347028915   F   F   F
  0.0854981234389811  0.8497914614763360  0.5474338929484048   F   F   F
  0.4164372306321553  0.2524713099064897  0.5472918624301357   F   F   F
  0.4199915247935451  0.6518657806300396  0.5559009319081909   F   F   F
  0.4156328285227815  0.4552705369539112  0.5525046556200337   F   F   F
  0.7483770435714732  0.4493154061873881  0.5490243469158713   F   F   F
  0.7486049590780794  0.2483354771111124  0.5450166276829478   F   F   F
  0.4149651023928911  0.8488228475909665  0.5484490677424247   F   F   F
  0.7469081483396565  0.6462865972467071  0.5449027913530173   F   F   F
  0.5000511737414186  0.2003196621220837  0.5916534500451647   F   F   F
  0.8327045890501878  0.4983433651650770  0.4994885237366020   F   F   F
  0.7535072662293629  0.7541141271454990  0.6576517199590626   F   F   F
  0.2537346368375566  0.3491328256530579  0.6407030159157259   F   F   F
  0.8322579041289515  0.6988391071532831  0.5001967135125369   F   F   F
  0.5002873152463252  0.6961796311546919  0.5001568781756376   F   F   F
  0.5000531928079042  0.8981405399869544  0.5008317986604567   F   F   F
  0.4994681241197583  0.4982244869244639  0.5000630541480149   F   F   F
  0.9166666865332829  0.6500000000127244  0.3605200052333331   F   F   F
  0.2509394975470798  0.2487289220576372  0.6412561371221273   F   F   F
  0.2486514362875667  0.4528521209669520  0.6419389654211614   F   F   F
  0.2617378778981632  0.8403338991204521  0.6467351657941762   F   F   F
  0.2476226460119122  0.6590409409242426  0.6291543318258945   F   F   F
  0.5917258640865768  0.6511296929315833  0.6395942888711588   F   F   F
  0.5845741266448741  0.4560567876101942  0.6340678280586687   F   F   F
  0.5829738099732609  0.2528218146207450  0.6388498437516219   F   F   F
  0.9143659453018813  0.8500042243311015  0.6415321714859203   F   F   F
  0.9145424335318282  0.4495964125496812  0.6390844563839551   F   F   F
  0.9137728527285489  0.6493343886887715  0.6422747816148799   F   F   F
  0.9160453115520468  0.2504200054286159  0.6415069903221564   F   F   F
  0.5894383992345453  0.8477416693904232  0.6460092693921951   F   F   F
  0.4214415735761179  0.7409286551096415  0.6339938647091188   F   F   F
  0.4172986525932387  0.9474053250539711  0.6391384531268258   F   F   F
  0.7543828987179566  0.5469459259380898  0.6384485607451182   F   F   F
  0.7461559220387954  0.3541830462126043  0.6465355957536048   F   F   F
  0.0839842801650121  0.3488867027716225  0.6416800765363107   F   F   F
  0.4181662421748413  0.3504723660294218  0.6401851175446396   F   F   F
  0.4166666269218169  0.1500000000001833  0.3605200052333331   F   F   F
  0.0845204569112212  0.9488305096809881  0.6405738179755858   F   F   F
  0.4173490416986780  0.0504587880265674  0.5476132307298869   F   F   F
  0.0837213271075115  0.0496843031197542  0.5466017647150565   F   F   F
  0.9161686221008623  0.1506849483477097  0.5463830261759171   F   F   F
  0.5829051366506235  0.1499478074145486  0.5475718285110602   F   F   F
  0.2501872501253573  0.1504049286155507  0.5463063462721465   F   F   F
  0.7500929674333392  0.1486949664139701  0.5479257740150985   F   F   F
  0.4165970797903782  0.1512784737955926  0.5461941456157646   F   F   F
  0.0835382481274181  0.1504962080996393  0.5462914024924572   F   F   F
  0.4999550501371814  0.1001730846521340  0.4988211885875131   F   F   F
  0.8332165871809281  0.1000197328815275  0.4988458434166247   F   F   F
  0.1667689443353026  0.0998445691791687  0.4987198968475681   F   F   F
  0.6663217867050548  0.0998098601272446  0.4991618050236681   F   F   F
  0.3336296331857085  0.0996115871060894  0.4989369532279895   F   F   F
  0.0000060999122056  0.1000396882841272  0.4991334867544168   F   F   F
  0.9166195413535547  0.1499753094211513  0.4537428662251344   F   F   F
  0.7502336003204420  0.0487470558115817  0.5461968949565446   F   F   F
  0.2500478018182264  0.0499554867353993  0.5469002636512457   F   F   F
  0.5824245206899192  0.0502673607367612  0.5474598560967721   F   F   F
  0.9162661963990288  0.0498565484416957  0.5466038219586267   F   F   F
  0.9156621581881481  0.0499461338922913  0.6403279786732483   F   F   F
  0.7502521173912768  0.1510921711674840  0.6416538683389135   F   F   F
  0.2509095383606024  0.1482275611873192  0.6410135260311236   F   F   F
  0.9157484426146354  0.1498641486593613  0.6403301398306454   F   F   F
  0.5832478152245670  0.1508379342370532  0.6427075537300411   F   F   F
  0.4166550410453311  0.1501059132104814  0.6415482896706592   F   F   F
  0.0830699565711299  0.1485053002209327  0.6404720658604504   F   F   F
  0.5834306272058356  0.1508115023605185  0.4545656692097069   F   F   F
  0.0830494513538653  0.0492198228155729  0.6406728176250525   F   F   F
  0.4175493129618388  0.0494994043706853  0.6428876745634682   F   F   F
  0.8325322486460394  0.9976381839296593  0.5920975385769864   F   F   F
  0.4997861986582919  0.0001064386188787  0.5916281148976381   F   F   F
  0.1672995788733118  0.9986105556049338  0.5921920437705452   F   F   F
  0.6660182505601639  0.9999981800623559  0.5918728197234984   F   F   F
  0.9997692037741075  0.9990878540258166  0.5923158105571105   F   F   F
  0.3340318138934464  0.0001006848896452  0.5919674604790757   F   F   F
  0.7500899413515754  0.0495963013965124  0.6406175247196231   F   F   F
  0.4153301519181340  0.5348126533426338  0.6303624177641041   F   F   F
  0.2501354554248323  0.1498254200935349  0.4536976196238953   F   F   F
  0.4166522780481898  0.1500385697322173  0.4538301099545237   F   F   F
  0.5833333134730552  0.1500000000001833  0.3605200052333331   F   F   F
  0.2499999999799343  0.1500000000001833  0.3605200052333331   F   F   F
  0.7499999404149307  0.1500000000001833  0.3605200052333331   F   F   F
  0.7479281035099135  0.8468897769588892  0.5462743339176015   F   F   F
  0.0833333358191695  0.1500000000001833  0.3605200052333331   F   F   F
  0.9166666865332829  0.8499999999890662  0.3605200052333331   F   F   F
  0.0843391431081244  0.8496556904240720  0.6418922637175015   F   F   F
  0.2520771796306249  0.9452919675225857  0.6373077147361812   F   F   F
  0.5802222591668666  0.3531256121312722  0.6455158131627670   F   F   F
  0.2544709442636872  0.7418251956637008  0.6635084380898988   F   F   F
  0.2407307386831548  0.5537668530630384  0.6420927338889939   F   F   F
  0.9157542817134399  0.9493772951990138  0.6414142782177521   F   F   F
  0.9153597478107756  0.7499465357223229  0.6404675828187223   F   F   F
  0.9125526555993844  0.5487117532431540  0.6395531202125611   F   F   F
  0.0840570193923256  0.7498079393266224  0.6407548419191045   F   F   F
  0.9166666865332829  0.1500000000001833  0.3605200052333331   F   F   F
  0.0833333358191695  0.0500000000120124  0.3605200052333331   F   F   F
  0.4166666269218169  0.0500000000120124  0.3605200052333331   F   F   F
  0.7499999404149307  0.0500000000120124  0.3605200052333331   F   F   F
  0.0833851607775244  0.1498980902108755  0.4537648942653760   F   F   F
  0.9166071282218624  0.0497089502750612  0.4538858056470616   F   F   F
  0.5831225033621692  0.0489262497004361  0.4546274682612648   F   F   F
  0.2501861264444472  0.0491057451084629  0.4541801363778930   F   F   F
  0.7499706717332373  0.0499350929363018  0.4536720578233400   F   F   F
  0.4168961307074497  0.0486073576928732  0.4547715509774406   F   F   F
  0.0833185044337554  0.0496719256850753  0.4538998765285882   F   F   F
  0.7497686167746949  0.1507677178774998  0.4545144274653481   F   F   F
  0.8333332538436267  0.0000000000000000  0.4070133268666680   F   F   F
  0.1666666716383389  0.0000000000000000  0.4070133268666680   F   F   F
  0.6666666865533486  0.0000000000000000  0.4070133268666680   F   F   F
  0.3333333432766779  0.0000000000000000  0.4070133268666680   F   F   F
  0.0000000000000000  0.0000000000000000  0.4070133268666680   F   F   F
  0.9166666865332829  0.0500000000120124  0.3605200052333331   F   F   F
  0.5833333134730552  0.0500000000120124  0.3605200052333331   F   F   F
  0.2499999999799343  0.0500000000120124  0.3605200052333331   F   F   F
  0.5000000000021103  0.0000000000000000  0.4070133268666680   F   F   F
  0.2513732374853390  0.2508328520810323  0.5475086623579202   F   F   F
  0.3978627645341817  0.6406999344821926  0.6525947196260518   F   F   F
  0.2524170181772334  0.6472003616521818  0.5442314498955625   F   F   F
  0.0833333358191695  0.4500000000005357  0.3605200052333331   F   F   F
  0.0833333358191695  0.2500000000242011  0.3605200052333331   F   F   F
  0.2499999999799343  0.5499999761504029  0.3605200052333331   F   F   F
  0.4166666269218169  0.5499999761504029  0.3605200052333331   F   F   F
  0.4166666269218169  0.7500000000008953  0.3605200052333331   F   F   F
  0.4166666269218169  0.9500000000130839  0.3605200052333331   F   F   F
  0.7499999404149307  0.3500000000123720  0.3605200052333331   F   F   F
  0.7499999404149307  0.5499999761504029  0.3605200052333331   F   F   F
  0.0833333358191695  0.6500000000127244  0.3605200052333331   F   F   F
  0.7499999404149307  0.7500000000008953  0.3605200052333331   F   F   F
  0.2499999999799343  0.3500000000123720  0.3605200052333331   F   F   F
  0.2499999999799343  0.7500000000008953  0.3605200052333331   F   F   F
  0.9166666865332829  0.9500000000130839  0.3605200052333331   F   F   F
  0.2499999999799343  0.9500000000130839  0.3605200052333331   F   F   F
  0.5833333134730552  0.3500000000123720  0.3605200052333331   F   F   F
  0.5833333134730552  0.5499999761504029  0.3605200052333331   F   F   F
  0.5833333134730552  0.7500000000008953  0.3605200052333331   F   F   F
  0.5833333134730552  0.9500000000130839  0.3605200052333331   F   F   F
  0.7499999404149307  0.9500000000130839  0.3605200052333331   F   F   F
  0.9166666865332829  0.3500000000123720  0.3605200052333331   F   F   F
  0.9166666865332829  0.4500000000005357  0.3605200052333331   F   F   F
  0.5833333134730552  0.8499999999890662  0.3605200052333331   F   F   F
  0.0833333358191695  0.9500000000130839  0.3605200052333331   F   F   F
  0.4166666269218169  0.3500000000123720  0.3605200052333331   F   F   F
  0.0833333358191695  0.8499999999890662  0.3605200052333331   F   F   F
  0.4166666269218169  0.2500000000242011  0.3605200052333331   F   F   F
  0.4166666269218169  0.4500000000005357  0.3605200052333331   F   F   F
  0.4166666269218169  0.6500000000127244  0.3605200052333331   F   F   F
  0.4166666269218169  0.8499999999890662  0.3605200052333331   F   F   F
  0.7499999404149307  0.2500000000242011  0.3605200052333331   F   F   F
  0.9166666865332829  0.2500000000242011  0.3605200052333331   F   F   F
  0.7499999404149307  0.4500000000005357  0.3605200052333331   F   F   F
  0.7499999404149307  0.8499999999890662  0.3605200052333331   F   F   F
  0.2499999999799343  0.2500000000242011  0.3605200052333331   F   F   F
  0.2499999999799343  0.4500000000005357  0.3605200052333331   F   F   F
  0.2499999999799343  0.6500000000127244  0.3605200052333331   F   F   F
  0.2499999999799343  0.8499999999890662  0.3605200052333331   F   F   F
  0.5833333134730552  0.2500000000242011  0.3605200052333331   F   F   F
  0.5833333134730552  0.4500000000005357  0.3605200052333331   F   F   F
  0.5833333134730552  0.6500000000127244  0.3605200052333331   F   F   F
  0.7499999404149307  0.6500000000127244  0.3605200052333331   F   F   F
  0.9166666865332829  0.5499999761504029  0.3605200052333331   F   F   F
  0.9166666865332829  0.7500000000008953  0.3605200052333331   F   F   F
  0.5832800394306190  0.2518990498015654  0.4539035004375478   F   F   F
  0.4168527963730071  0.3504928204673021  0.4542289071118404   F   F   F
  0.9162078091924712  0.4496794536754365  0.4539579524676114   F   F   F
  0.9160173158592997  0.2499029521237119  0.4543035534375335   F   F   F
  0.2510490013658355  0.5517869407994809  0.4553269678281069   F   F   F
  0.9161981862401092  0.6497813317416430  0.4540011836914957   F   F   F
  0.9161633227267316  0.8495510451068569  0.4542607890388268   F   F   F
  0.0837413508469069  0.3499563287438434  0.4537809739778567   F   F   F
  0.0833073564401161  0.5503711875028117  0.4538154424428527   F   F   F
  0.2516303717361694  0.7501116702861523  0.4561831245945882   F   F   F
  0.0837881171576100  0.9493598488660666  0.4536419007371748   F   F   F
  0.4172403911271658  0.5480062595504123  0.4540455203740237   F   F   F
  0.4172006872384202  0.7469542951445689  0.4544963501879096   F   F   F
  0.4173019741968744  0.9478329557650156  0.4541531791432334   F   F   F
  0.7501902914560503  0.3518752995461654  0.4555942613424406   F   F   F
  0.7496995434552503  0.5507799568655827  0.4561881300439836   F   F   F
  0.7488803791451204  0.7505935226852571  0.4570760521740667   F   F   F
  0.7494355519195395  0.9496310541484192  0.4547554314365883   F   F   F
  0.2500071629048648  0.3510910535241152  0.4544218568286169   F   F   F
  0.0845164491534121  0.7499610714703593  0.4536253738724341   F   F   F
  0.9164467827720912  0.9495568114474366  0.4537634118168015   F   F   F
  0.5828151092553782  0.3530111282418957  0.4561495633413344   F   F   F
  0.0000745176897112  0.2998825585368508  0.4986952364017654   F   F   F
  0.5844986664488161  0.6495860115051713  0.4550775389482169   F   F   F
  0.6653631443253829  0.7000222479771878  0.5030755342075750   F   F   F
  0.2507095522671179  0.9482194390494740  0.4536267504529903   F   F   F
  0.5826379522357428  0.5511736962287372  0.4562690726688530   F   F   F
  0.5828065279173700  0.7479667023644865  0.4542967810611174   F   F   F
  0.5826838059201620  0.9479255844878836  0.4535980519343283   F   F   F
  0.9158647873366021  0.3498471921897135  0.4536954430124354   F   F   F
  0.9159161019101205  0.5498099745296372  0.4539821437745744   F   F   F
  0.9151017300547721  0.7496536622114718  0.4535285445342510   F   F   F
  0.6657046342848361  0.5026050032595819  0.5035314091661149   F   F   F
  0.3340659533083965  0.5027935099432597  0.5030384290975149   F   F   F
  0.3355233956459642  0.7003922124978672  0.5040782043623366   F   F   F
  0.6659037421146863  0.3017598731080682  0.4999478223451064   F   F   F
  0.3336222582197053  0.8981446739449694  0.4996927379755576   F   F   F
  0.0001504518987261  0.8994417437071860  0.4993950468867041   F   F   F
  0.3336519607172690  0.3010327165605560  0.4988216135963839   F   F   F
  0.9998537707981470  0.7019746120877741  0.4976543996937792   F   F   F
  0.9999886020794975  0.4993141999709891  0.4984447570170829   F   F   F
  0.5828826461546157  0.8469530614776417  0.4560657657805862   F   F   F
  0.0833333358191695  0.7500000000008953  0.3605200052333331   F   F   F
  0.2492956574663623  0.4511880633601422  0.5462091903036708   F   F   F
  0.2501087536629640  0.0482003905290682  0.6420033258338123   F   F   F
  0.3338616224892945  0.2000649119757227  0.5921177926341201   F   F   F
  0.9164956588356006  0.6502230672818072  0.5462976231507355   F   F   F
  0.5810265092043636  0.6476127252184440  0.5493686644044189   F   F   F
  0.5858162894983892  0.8518220196898767  0.5508604931788099   F   F   F
  0.5831304340249801  0.4484228317767034  0.5453188183346214   F   F   F
  0.5831486845525333  0.2496974431813683  0.5459429771346080   F   F   F
  0.2527383323168380  0.8496475600694282  0.5509569731017550   F   F   F
  0.4232162953337379  0.5546387214513899  0.5461794842628791   F   F   F
  0.7528941026291136  0.5477305572687428  0.5495512970490211   F   F   F
  0.7512250193947594  0.7446876543261638  0.5527171691695116   F   F   F
  0.7481107394030317  0.9477482613390222  0.5471026557820409   F   F   F
  0.9152583986960465  0.8498129647290824  0.5468572269372629   F   F   F
  0.2525350052945612  0.3511070735024973  0.5473337597591055   F   F   F
  0.9167663675104478  0.2506799433257569  0.5471916491014071   F   F   F
  0.1672022446598334  0.3001440875475438  0.4998961218427311   F   F   F
  0.5000000000021103  0.8000000000129006  0.4070133268666680   F   F   F
  0.5000000000021103  0.4000000000243773  0.4070133268666680   F   F   F
  0.5000000000021103  0.2000000000121887  0.4070133268666680   F   F   F
  0.1666666716383389  0.8000000000129006  0.4070133268666680   F   F   F
  0.1666666716383389  0.6000000000007191  0.4070133268666680   F   F   F
  0.1666666716383389  0.4000000000243773  0.4070133268666680   F   F   F
  0.1666666716383389  0.2000000000121887  0.4070133268666680   F   F   F
  0.6666666865533486  0.8000000000129006  0.4070133268666680   F   F   F
  0.1678137950258929  0.8987606336697027  0.4994797473109571   F   F   F
  0.5801204596746601  0.3476286962036923  0.5508536496234910   F   F   F
  0.2493594222306399  0.7464657270257717  0.5523732151071812   F   F   F
  0.1654524458100681  0.6026534681679934  0.5882712634965799   F   F   F
  0.0839319649721730  0.9503961094404545  0.5459784451459129   F   F   F
  0.4157043073117492  0.3527754796595843  0.5475176987250450   F   F   F
  0.0866871959470785  0.7511953492256112  0.5459694924838772   F   F   F
  0.0831793058961097  0.5502272754807294  0.5459914438598972   F   F   F
  0.0836197569661934  0.3506272090819209  0.5463983095458218   F   F   F
  0.4994442186594341  0.3009126703506340  0.4996062392928025   F   F   F
  0.9995462627092806  0.5991070402867038  0.5941910779243216   F   F   F
  0.9997385234141802  0.8017026868970802  0.5928093661582565   F   F   F
  0.3346623023703970  0.4041186081917232  0.5932984463844306   F   F   F
  0.4226507354608486  0.7501751070919696  0.5466024328749697   F   F   F
  0.9999366670933796  0.2002043909177118  0.5926218496138773   F   F   F
  0.0010162403910670  0.3998858763210364  0.5923748205247108   F   F   F
  0.3332929842401313  0.5969046673868021  0.5913534806184586   F   F   F
  0.3355985173485010  0.7927265293011274  0.5912151224110147   F   F   F
  0.6635823747902236  0.3977526377852314  0.5906871797383175   F   F   F
  0.0833333358191695  0.5499999761504029  0.3605200052333331   F   F   F
  0.6662278229699083  0.2001347545518044  0.5921365406626862   F   F   F
  0.6656363658512134  0.7933321402510600  0.5904732595317199   F   F   F
  0.6666993054245012  0.5948773112242449  0.5910827356482926   F   F   F
  0.1671631894253025  0.1995041121680927  0.5922841293036214   F   F   F
  0.1684377835652668  0.3985660862273122  0.5930554218143129   F   F   F
  0.1709864205931311  0.7994959620630837  0.5957930351697769   F   F   F
  0.2478413055792430  0.5486736548765094  0.5494674475135497   F   F   F
  0.6666666865533486  0.6000000000007191  0.4070133268666680   F   F   F
  0.6666666865533486  0.4000000000243773  0.4070133268666680   F   F   F
  0.6666666865533486  0.2000000000121887  0.4070133268666680   F   F   F
  0.3333333432766779  0.8000000000129006  0.4070133268666680   F   F   F
  0.4156824590761872  0.6469742398948739  0.4582318454236187   F   F   F
  0.4170814630837754  0.8470673744821298  0.4555168388303557   F   F   F
  0.7490614855922644  0.2515596649248124  0.4535347161874768   F   F   F
  0.7475478473558113  0.4511665793423916  0.4551372345205920   F   F   F
  0.7483315666822321  0.6512543113794536  0.4538478357778999   F   F   F
  0.7499805421080126  0.8498648749699740  0.4537867664511310   F   F   F
  0.4150977865846528  0.4490205620674317  0.4572718266289115   F   F   F
  0.2501532345921547  0.2502942800002401  0.4543792112086322   F   F   F
  0.2519958910257145  0.4517456963435222  0.4539326744808605   F   F   F
  0.2519890577261563  0.6518767589568029  0.4538185216655961   F   F   F
  0.2506738811511227  0.8482913624131641  0.4555646000828730   F   F   F
  0.8333332538436267  0.4000000000243773  0.4070133268666680   F   F   F
  0.5844630447066308  0.4523296112941466  0.4537305100654194   F   F   F
  0.8333332538436267  0.2000000000121887  0.4070133268666680   F   F   F
  0.4160436021964671  0.9483850652004762  0.5467573523100953   F   F   F
  0.4162771723651701  0.2502202008955408  0.4550796421362264   F   F   F
  0.9151834833700576  0.4495617796788025  0.5464487120944739   F   F   F
  0.0838553732851324  0.6503924316074787  0.4537358521403192   F   F   F
  0.0837728576246874  0.8493856913737474  0.4543746206194612   F   F   F
  0.3333333432766779  0.6000000000007191  0.4070133268666680   F   F   F
  0.3333333432766779  0.4000000000243773  0.4070133268666680   F   F   F
  0.3333333432766779  0.2000000000121887  0.4070133268666680   F   F   F
  0.0000000000000000  0.8000000000129006  0.4070133268666680   F   F   F
  0.0000000000000000  0.6000000000007191  0.4070133268666680   F   F   F
  0.0000000000000000  0.4000000000243773  0.4070133268666680   F   F   F
  0.7475424545959797  0.3470861183731060  0.5508861041798880   F   F   F
  0.0000000000000000  0.2000000000121887  0.4070133268666680   F   F   F
  0.0833333358191695  0.3500000000123720  0.3605200052333331   F   F   F
  0.5000000000021103  0.6000000000007191  0.4070133268666680   F   F   F
  0.8333332538436267  0.6000000000007191  0.4070133268666680   F   F   F
  0.8333332538436267  0.8000000000129006  0.4070133268666680   F   F   F
  0.0839082523715717  0.2498129476030257  0.4542103256330634   F   F   F
  0.0833177643959573  0.4498520574653568  0.4538557075094403   F   F   F
  0.8325024978470168  0.1002536688348670  0.6176800559410580   F   F   F
  0.3340104826702728  0.0985236325905277  0.6199112434883602   F   F   F
  0.6670585672797031  0.1005972008043798  0.6191138440116148   F   F   F
  0.5002629084954719  0.1003446847265366  0.6202981692719547   F   F   F
  0.1669540658909980  0.0984351902461782  0.6197634107516166   F   F   F
  0.9993234970184872  0.0994398467286643  0.6187682602621862   F   F   F