Au C  H  O  Sr Ti
 1.0000000000000000
    23.6707801818999997    0.0000000000000000    0.0000000000000000
     0.0000000000000000   27.8962826732999716    0.0000000000000000
     0.0000000000000000    0.0000000000000000   30.0000000000000000
 Au  C   H   O   Sr  Ti 
  50   6  13 330  90  90
Selective dynamics
Cartesian
 16.9871105560941267 17.2913875334266969 22.5959949114845173   F   F   F
 16.6939777878491533 22.4700134388291879 20.6621218356970324   F   F   F
 15.5360210536634966 15.4310335912877132 24.3665166661140944   F   F   F
  8.7129522389198453 19.3866185507411792 24.6006453544127304   F   F   F
 13.4938489192102740 16.9810889678544470 25.7111588587069022   F   F   F
 15.8468128026104171  9.8961109698849530 22.6346470851026282   T   T   T
 11.1613559121020796 15.6585581387688553 26.3923071909609739   F   F   F
 12.2617586394492690 13.9871045003012000 22.0045489673731112   F   F   F
  6.6917415180306472 13.1463664723299249 21.0828960880880807   F   F   F
 15.8415724406885339 20.7757371260923911 22.4877151929603478   F   F   F
  9.4141576156651627 14.1137063587208953 20.7266346039228360   F   F   F
 14.5949759074168632 12.6843305699915287 20.9070114067591177   F   F   F
  8.8948798887367317 16.5761525767087790 25.0066317900868462   F   F   F
  7.7223940617980240 14.8384337511165647 23.0961531144351362   F   F   F
 11.4899384672253593 11.5921404934887136 23.2786552560209543   F   F   F
 10.0750113807689807 21.1678357963325361 20.9849876904664470   F   F   F
 16.5895302986406250 13.2307982151498855 22.7293690660375738   F   F   F
 18.3287425539379498 15.1285406097408810 23.8452601104163442   F   F   F
  6.0671905651054869 18.8148449551527968 20.8502682646344368   F   F   F
 15.3188645746482983 15.4531645859685174 20.8756766166596712   F   F   F
 13.3877275460171230 19.8746206153286558 25.8352738633879646   F   F   F
 12.9039582586361892 20.4158415731399216 21.0430322310969906   F   F   F
  8.8276177160910727 22.0522123766071125 23.3398904061696300   F   F   F
 10.9607877846748387 18.3898250789020636 25.9156710797932526   F   F   F
 10.7348852027345547 18.5217039718247420 21.1054567358489784   F   F   F
 10.4956658849039144 16.1525357040877644 22.6933001930853813   F   F   F
  6.8539540870340465 17.5748654026701594 23.3455677591139263   F   F   F
 13.1263003672454150 10.3002233070486362 21.3416089006170289   F   F   F
 14.7637739462428055 18.2531593729437915 21.1222204843564860   F   F   F
 17.0887482084791991 11.2811881180426763 20.7635546646206564   F   F   F
  6.8830020005815973 22.2504974671196578 20.9482893544073043   F   F   F
 12.1583659818512775 19.0793358267942743 23.3166673666349666   F   F   F
 13.6640997383873231 21.7888942678488924 23.7989960928499613   F   F   F
 13.0089068007652813 14.1921111995277709 24.8860894167275752   F   F   F
  5.7130895132332453 16.0431013177746919 21.2931949488970318   F   F   F
  6.6891116591517701 20.3521659663266483 22.9747983012130987   F   F   F
 12.1728744084598812 16.3695312852073869 20.3512383526326630   F   F   F
 13.3134630850316587 16.4274065160993885 22.8838435483296827   F   F   F
 14.2126840719059420 12.0286743510358001 23.5724558864417340   F   F   F
 18.0591360771053324 15.1628956836102962 21.1467873516422458   F   F   F
  9.2397829313777180 23.7929365389952920 21.1901545204374777   F   F   F
 10.3816333765732285 10.6656366911823781 20.9461987122203936   F   F   F
 10.9556578325634568 21.1010644205000482 24.9111713564006756   F   F   F
 10.1838729754478567 13.8813852843762575 24.4844930831882479   F   F   F
  8.2681492911345114 16.7650936535500605 20.9396227323677806   F   F   F
  8.7750441510809942 12.2548564897913472 22.6891558792010102   F   F   F
 14.0656369970040114 23.0945281168310927 21.3835204934838607   F   F   F
 15.0481750532932921 18.5857149006454740 24.0066228841659353   F   F   F
 17.3527462871672995 19.3146724438371642 20.8301610073013670   F   F   F
 11.4559960509383547 22.9851393311044134 22.7291898053308081   F   F   F
 16.9896669754637841  8.1114629236855471 22.6741383917856645   T   T   T
 15.3018949008287244  7.0411111455172488 24.2986751623374815   T   T   T
 13.6194464607756327  5.9368213553000810 25.8861070361155470   T   T   T
 14.4164131890488463  5.8223796668926102 24.5800574668180190   T   T   T
 16.0727455985989600  6.9472356856616919 22.9726094931649065   T   T   T
 12.7203746250596481  4.7277942353968605 26.1594463459768640   T   T   T
 17.7160848119190675  8.3236374429987841 23.4634993676475894   T   T   T
 16.7284962455306676  6.0591305561848889 23.0015663142784845   T   T   T
 16.0110756422932745  7.1830334597110674 25.1256015948679412   T   T   T
 14.6653714159623814  7.9410240882317513 24.2849879616979401   T   T   T
 15.3859372894535014  6.7726295545052038 22.1366617036870537   T   T   T
 13.7214698525131897  5.6832040499674576 23.7420670508472433   T   T   T
 15.0429630597578186  4.9210638519573893 24.6127988317518387   T   T   T
 14.3163131980696861  6.0686728737491658 26.7242752553672567   T   T   T
 13.0024378720519351  6.8444671904718968 25.8518016313105647   T   T   T
 11.9901681727398284  4.5880548677006567 25.3579163984272000   T   T   T
 12.1695156158419255  4.8494642660219887 27.0956802062061435   T   T   T
 17.4653670061446995  8.0568527660851288 21.6943992300230306   T   T   T
 13.3048086378261718  3.8068469606016393 26.2330160929696703   T   T   T
 11.8650323305522392 22.4320652245060295 17.7887941271220633   F   F   F
 19.7176960080682875 16.8071342447338594 17.6996371720730608   F   F   F
 19.6832240593617769 11.0864700622823786 17.7361074666313954   F   F   F
 19.6504399001665178 22.3202574470148569 17.7907323354009073   F   F   F
 13.7616822152026241 26.4416466932459215 19.1411363484305959   F   F   F
 19.7079287261998566  5.6400179136979647 17.7671006111492069   F   F   F
 21.6907859084343073  9.7402838755058845 19.2137892128526317   F   F   F
 13.7472160826177880 20.8496387719735097 19.1616415913500830   F   F   F
 13.7402835908761602 15.3427536061441163 19.3793189072791741   F   F   F
  3.9716867305525594 19.5190866780266248 15.0034961861161200   F   F   F
  9.8904481300923788  7.0434410490625501 19.1700382724476590   F   F   F
 17.5267686077294016 23.6391771698381525 19.2117649692373043   F   F   F
  9.7676841845990054 23.7154665096591799 19.1890404791409068   F   F   F
 13.8193428841912151  1.4109592811889879 19.2574371921063587   F   F   F
 17.6699516156259087 12.4978430380860601 19.2619963093361655   F   F   F
  3.9415285354947436 13.9707605266515706 14.9344834354367570   F   F   F
  2.0546203420020186 15.3358558453252414 19.1938968406491810   F   F   F
  1.9915724341350027  6.9369030342776385 19.2590330317964096   F   F   F
  2.0368170178182630 18.1303819763374676 19.2549276276786649   F   F   F
 15.7725756108402173 25.0747443359528290 14.9701667503820275   F   F   F
  1.9964819724630747 12.5514523504885549 19.2100592787834117   F   F   F
 17.7009140088730561  7.0848858174077023 19.1693985246873169   F   F   F
 17.8018750765079368 18.2952100354392933 19.0579457992754620   F   F   F
 10.1075784526024144 12.3865511554579140 19.7012816038827090   F   F   F
 19.7046193702583921  8.3768184330569841 15.0029591582875170   F   F   F
 17.6894305113361270 26.4196925440942572 19.1809776330090962   F   F   F
 19.7047229306989102 25.0977584564548337 14.9909713095793986   F   F   F
 11.8001701249041311 11.2363157938767149 17.7369003532460106   F   F   F
 11.7747055632470872 16.8287294011831925 18.2785551992516204   F   F   F
  5.9586119240616728 26.4988488687400618 16.3500880403620599   F   F   F
 13.7159619912069406 20.8874277205372287 16.4082459947410690   F   F   F
 13.6406947509748289 15.2906017100801481 16.5609151347573729   F   F   F
 21.6640738767228846 15.3257714401885554 16.3896675622261618   F   F   F
 21.7084034690477239  9.7920558836536244 16.3693506031682503   F   F   F
 13.8177524554585887 26.5205930585359013 16.3659888633494539   F   F   F
 21.6228119595432062 20.9430030996326302 16.3781535861142764   F   F   F
 21.6898071675247444 26.5127014559680312 16.3894623383492188   F   F   F
  1.9592804757501112  6.9753843667477007 16.4206981486119723   F   F   F
  2.0348377660674459 12.5610540627407641 16.4004501371736744   F   F   F
  1.9537404288992337 18.1546995021389215 16.3788130410867367   F   F   F
  2.0238072858889931 23.7060228227006142 16.4230167884520490   F   F   F
  9.8573941458529362  7.0430110280497811 16.4187558729040148   F   F   F
  9.9415270616489675 18.1846320815069120 16.6770279572456452   F   F   F
  9.8383533203441580 12.7003555916913999 16.5751396686010395   F   F   F
 17.7146684915605874 12.5342295804720152 16.4707304074761716   F   F   F
 17.7200634294174435  6.9276366673004599 16.3504988304883589   F   F   F
  9.8225477219017350 23.6790020959529386 16.4534720322727104   F   F   F
 17.6798985954179457 18.0289936047593642 16.3470837405904668   F   F   F
 11.8366014133342130  5.5881739195775912 17.7496035013549331   F   F   F
 19.7107672838663532 13.9019273830086245 14.9846557120980997   F   F   F
 17.8361048643795783 21.0369808587798062 19.7295515987719270   F   F   F
  6.0060968131159900  9.7395079949456367 19.2210904774716766   F   F   F
 19.7001939032852746 19.4950132763045048 15.0059014053760507   F   F   F
 11.8421910669886170 19.4208237820850904 15.0047063452690743   F   F   F
 11.8366492062131368 25.0547823838263213 15.0249539598137307   F   F   F
 11.8228001739047421 13.8986111220046649 15.0018916244404963   F   F   F
 21.6982156369999721 18.1325837379999442 10.8156001569999933   F   F   F
  5.9399336853932860  6.9386123187450348 19.2376841136638639   F   F   F
  5.8857734902767023 12.6328907756976054 19.2581689626348336   F   F   F
  6.1955397730044224 23.4421919898204010 19.4020549738253152   F   F   F
  5.8614212218084578 18.3847923813002545 18.8746299547769212   F   F   F
 14.0066128567382684 18.1640979709984904 19.1878286661346742   F   F   F
 13.8373256518369363 12.7222890622510594 19.0220348417599823   F   F   F
 13.7994449076817691  7.0527888066370155 19.1654953125486927   F   F   F
 21.6437552970560851 23.7119581154394155 19.2459651445775428   F   F   F
 21.6479329111518553 12.5420686133875492 19.1725336915187121   F   F   F
 21.6297163331250815 18.1140156563563970 19.2682434484464018   F   F   F
 21.6835072064085814  6.9857872584860221 19.2452097096646924   F   F   F
 13.9524667790519619 23.6488412432505157 19.3802780817658586   F   F   F
  9.9758508476342858 20.6691552036865360 19.0198159412736167   F   F   F
  9.8777846757375407 26.4290867538952590 19.1741535938047178   F   F   F
 17.8568317685373223 15.2577581569786602 19.1534568223534798   F   F   F
 17.6620928120032801  9.8803903752373738 19.3960678726080502   F   F   F
  1.9879734345210820  9.7326420814728536 19.2504022960893266   F   F   F
  9.8983211980117662  9.7768761919371006 19.2055535263392585   F   F   F
  9.8628241350000643  4.1844424010001093 10.8156001569999933   F   F   F
  2.0006651564192226 26.4688441071120479 19.2172145392676654   F   F   F
  9.8789774251760072  1.4076126141412426 16.4283969218965922   F   F   F
  1.9817491304987653  1.3860073642545410 16.3980529414517449   F   F   F
 21.6864260633037453  4.2035499137192254 16.3914907852774476   F   F   F
 13.7978193565573601  4.1829864218777066 16.4271548553317714   F   F   F
  5.9221274020314159  4.1957384041169732 16.3891903881644474   F   F   F
 17.7552857481037165  4.1480368151810056 16.4377732204528861   F   F   F
  9.8611779001395163  4.2201070673872811 16.3858243684729672   F   F   F
  1.9774155082052114  4.1982847624073649 16.3887420747738055   F   F   F
 11.8343260926280447  2.7944566857122672 14.9646356576253599   F   F   F
 19.7228866790727011  2.7901787413709744 14.9653753024987708   F   F   F
  3.9475510225284456  2.7852923252158686 14.9615969054270153   F   F   F
 15.7723565435062394  2.7843240716921587 14.9748541507101418   F   F   F
  7.8972737093067522  2.7787929914474847 14.9681085968396879   F   F   F
  0.0001443896809074  2.7907354229228081 14.9740046026324904   F   F   F
 21.6970996738140016  4.1837536256280847 13.6122859867539816   F   F   F
 17.7586146382605925  1.3598616484110413 16.3859068486963295   F   F   F
  5.9188265518065464  1.3935723790530781 16.4070079095373806   F   F   F
 13.7864428017995042  1.4022725043535256 16.4237956829032647   F   F   F
 21.6887357230670759  1.3908123684445690 16.3981146587588569   F   F   F
 21.6744376673558143  1.3933114694978825 19.2098393601974919   F   F   F
 17.7590529517738673  4.2149099166108046 19.2496160501674396   F   F   F
  5.9392245280759006  4.1349979468552291 19.2304057809337117   F   F   F
 21.6764800870483754  4.1806526535949811 19.2099041949192930   F   F   F
 13.8059308257541247  4.2078176513334595 19.2812266119012286   F   F   F
  9.8625498882644909  4.1873969858533240 19.2464486901197489   F   F   F
  1.9663306817151360  4.1427458334463712 19.2141619758135498   F   F   F
 13.8102581279774590  4.2070803002341286 13.6369700762911918   F   F   F
  1.9658453072247477  1.3730500903928855 19.2201845287516484   F   F   F
  9.8837180022230804  1.3808493764846228 19.2866302369041378   F   F   F
 19.7066878520433129 27.8303967845794809 17.7629261573096713   F   F   F
 11.8303292463878815  0.0029692417995596 17.7488434469291576   F   F   F
  3.9601115560345246 27.8575223396963239 17.7657613131163856   F   F   F
 15.7651716061431628 -0.0000507694949536 17.7561845917050221   F   F   F
 23.6653170551700924 27.8708371913647817 17.7694743167133709   F   F   F
  7.9067936404331736  0.0028087341424976 17.7590238143723376   F   F   F
 17.7552141183874532  1.3835524433072504 19.2185257415887385   F   F   F
  9.8311887289692095 14.9192849549037287 18.9108725329230438   F   F   F
  5.9209013810605997  4.1795722705751368 13.6109285887169502   F   F   F
  9.8624844859666219  4.1855183531476357 13.6149032986356069   F   F   F
 13.8079546360000549  4.1844424010001093 10.8156001569999933   F   F   F
  5.9176950450000287  4.1844424010001093 10.8156001569999933   F   F   F
 17.7530837259999217  4.1844424010001093 10.8156001569999933   F   F   F
 17.7040417300484911 23.6250766111730606 16.3882300175279951   F   F   F
  1.9725650740000149  4.1844424010001093 10.8156001569999933   F   F   F
 21.6982156369999721 23.7118402719999644 10.8156001569999933   F   F   F
  1.9963733172422309 23.7022353150476697 19.2567679115249604   F   F   F
  5.9668635079097951 26.3701319348099190 19.1192314420854856   F   F   F
 13.7343135533843910  9.8508918951960194 19.3654743948829093   F   F   F
  6.0235257843462549 20.6941653524106570 19.9052531426969352   F   F   F
  5.6982843983954181 15.4480366681503725 19.2627820166698989   F   F   F
 21.6766183030725799 26.4840973904847061 19.2424283465324848   F   F   F
 21.6672793777883470 20.9207205503719678 19.2140274845616510   F   F   F
 21.6008333151020722 15.3070181746330558 19.1865936063768281   F   F   F
  1.9896952287814471 20.9168542261399146 19.2226452575731805   F   F   F
 21.6982156369999721  4.1844424010001093 10.8156001569999933   F   F   F
  1.9725650740000149  1.3948141340000999 10.8156001569999933   F   F   F
  9.8628241350000643  1.3948141340000999 10.8156001569999933   F   F   F
 17.7530837259999217  1.3948141340000999 10.8156001569999933   F   F   F
  1.9737918111972077  4.1815994967104944 13.6129468279613857   F   F   F
 21.6968058453023644  1.3866949282661167 13.6165741694118996   F   F   F
 13.8029645962051184  1.3648604917878850 13.6388240478379235   F   F   F
  5.9221008036275009  1.3698677464287459 13.6254040913366854   F   F   F
 17.7523909134693447  1.3930034678686132 13.6101617347002311   F   F   F
  9.8682566686606492  1.3559645902025341 13.6431465293233050   F   F   F
  1.9722140035360134  1.3856620798380685 13.6169962958575557   F   F   F
 17.7476081149610536  4.2058588759191453 13.6354328239604765   F   F   F
 19.7256482699999580  0.0000000000000000 12.2103998060000407   F   F   F
  3.9451301480000271  0.0000000000000000 12.2103998060000407   F   F   F
 15.7805205919999434  0.0000000000000000 12.2103998060000407   F   F   F
  7.8902602960000570  0.0000000000000000 12.2103998060000407   F   F   F
  0.0000000000000000  0.0000000000000000 12.2103998060000407   F   F   F
 21.6982156369999721  1.3948141340000999 10.8156001569999933   F   F   F
 13.8079546360000549  1.3948141340000999 10.8156001569999933   F   F   F
  5.9176950450000287  1.3948141340000999 10.8156001569999933   F   F   F
 11.8353900909999528  0.0000000000000000 12.2103998060000407   F   F   F
  5.9502006481280327  6.9973041454024569 16.4252598707375732   F   F   F
  9.4177220418516239 17.8731464810800098 19.5778415887814496   F   F   F
  5.9749077514440279 18.0544842349111860 16.3269434968668072   F   F   F
  1.9725650740000149 12.5533272029999310 10.8156001569999933   F   F   F
  1.9725650740000149  6.9740706690001133 10.8156001569999933   F   F   F
  5.9176950450000287 15.3429548049998807 10.8156001569999933   F   F   F
  9.8628241350000643 15.3429548049998807 10.8156001569999933   F   F   F
  9.8628241350000643 20.9222120049999525 10.8156001569999933   F   F   F
  9.8628241350000643 26.5014685399999657 10.8156001569999933   F   F   F
 17.7530837259999217  9.7636989360001234 10.8156001569999933   F   F   F
 17.7530837259999217 15.3429548049998807 10.8156001569999933   F   F   F
  1.9725650740000149 18.1325837379999442 10.8156001569999933   F   F   F
 17.7530837259999217 20.9222120049999525 10.8156001569999933   F   F   F
  5.9176950450000287  9.7636989360001234 10.8156001569999933   F   F   F
  5.9176950450000287 20.9222120049999525 10.8156001569999933   F   F   F
 21.6982156369999721 26.5014685399999657 10.8156001569999933   F   F   F
  5.9176950450000287 26.5014685399999657 10.8156001569999933   F   F   F
 13.8079546360000549  9.7636989360001234 10.8156001569999933   F   F   F
 13.8079546360000549 15.3429548049998807 10.8156001569999933   F   F   F
 13.8079546360000549 20.9222120049999525 10.8156001569999933   F   F   F
 13.8079546360000549 26.5014685399999657 10.8156001569999933   F   F   F
 17.7530837259999217 26.5014685399999657 10.8156001569999933   F   F   F
 21.6982156369999721  9.7636989360001234 10.8156001569999933   F   F   F
 21.6982156369999721 12.5533272029999310 10.8156001569999933   F   F   F
 13.8079546360000549 23.7118402719999644 10.8156001569999933   F   F   F
  1.9725650740000149 26.5014685399999657 10.8156001569999933   F   F   F
  9.8628241350000643  9.7636989360001234 10.8156001569999933   F   F   F
  1.9725650740000149 23.7118402719999644 10.8156001569999933   F   F   F
  9.8628241350000643  6.9740706690001133 10.8156001569999933   F   F   F
  9.8628241350000643 12.5533272029999310 10.8156001569999933   F   F   F
  9.8628241350000643 18.1325837379999442 10.8156001569999933   F   F   F
  9.8628241350000643 23.7118402719999644 10.8156001569999933   F   F   F
 17.7530837259999217  6.9740706690001133 10.8156001569999933   F   F   F
 21.6982156369999721  6.9740706690001133 10.8156001569999933   F   F   F
 17.7530837259999217 12.5533272029999310 10.8156001569999933   F   F   F
 17.7530837259999217 23.7118402719999644 10.8156001569999933   F   F   F
  5.9176950450000287  6.9740706690001133 10.8156001569999933   F   F   F
  5.9176950450000287 12.5533272029999310 10.8156001569999933   F   F   F
  5.9176950450000287 18.1325837379999442 10.8156001569999933   F   F   F
  5.9176950450000287 23.7118402719999644 10.8156001569999933   F   F   F
 13.8079546360000549  6.9740706690001133 10.8156001569999933   F   F   F
 13.8079546360000549 12.5533272029999310 10.8156001569999933   F   F   F
 13.8079546360000549 18.1325837379999442 10.8156001569999933   F   F   F
 17.7530837259999217 18.1325837379999442 10.8156001569999933   F   F   F
 21.6982156369999721 15.3429548049998807 10.8156001569999933   F   F   F
 21.6982156369999721 20.9222120049999525 10.8156001569999933   F   F   F
 13.8066935978521883  7.0270470984000379 13.6171050131263538   F   F   F
  9.8672309111557954  9.7774467947179442 13.6268672133552329   F   F   F
 21.6873536523352470 12.5443851521050025 13.6187385740283418   F   F   F
 21.6828445265195526  6.9713633933352224 13.6291066031260826   F   F   F
  5.9425257262162328 15.3928044759776661 13.6598090348431569   F   F   F
 21.6871258695450209 18.1264837060981101 13.6200355107449553   F   F   F
 21.6863006229836159 23.6993160996983292 13.6278236711647356   F   F   F
  1.9822231080325603  9.7624806699484470 13.6134292193356767   F   F   F
  1.9719501218292030 15.3533102218182584 13.6144632732855939   F   F   F
  5.9562872164567198 20.9253271908437810 13.6854937378375450   F   F   F
  1.9833301030930228 26.4836107026491980 13.6092570221152922   F   F   F
  9.8764055813811513 15.2873375231561646 13.6213656112206483   F   F   F
  9.8754657593583257 20.8372481613884375 13.6348905056372196   F   F   F
  9.8778633006871708 26.4410160610902807 13.6245953742970869   F   F   F
 17.7575894836516071  9.8160128218919187 13.6678278402732865   F   F   F
 17.7459730955999930 15.3647133675103245 13.6856439013194979   F   F   F
 17.7265828372820877 20.9387690815758489 13.7122815652220957   F   F   F
 17.7397242099882604 26.4911763218680534 13.6426629430976636   F   F   F
  5.9178645970215094  9.7941352731753604 13.6326557048584078   F   F   F
  2.0005702896650752 20.9211260437080711 13.6087612161729350   F   F   F
 21.6930103434076891 26.4891052264950773 13.6129023545041399   F   F   F
 13.7956883378741146  9.8476982202564365 13.6844869002400955   F   F   F
  0.0017638918528097  8.3656086217363956 14.9608570920530006   F   F   F
 13.8355394501236333 18.1210349975698186 13.6523261684465105   F   F   F
 15.7496647304639499 19.5280185071704864 15.0922660262273229   F   F   F
  5.9344907012174808 26.4517975080420307 13.6088025135898132   F   F   F
 13.7914948930046677 15.3756972320843381 13.6880721800656673   F   F   F
 13.7954852109085042 20.8654905593758357 13.6289034318335833   F   F   F
 13.7925802854890804 26.4436000581270925 13.6079415580298519   F   F   F
 21.6792340573872941  9.7594361657844733 13.6108632903730040   F   F   F
 21.6804487133772525 15.3376544660786074 13.6194643132373301   F   F   F
 21.6611718962029833 20.9125504681256515 13.6058563360274931   F   F   F
 15.7577480642284300 14.0208112439441042 15.1059422749835210   F   F   F
  7.9076017470199131 14.0260698796778875 15.0911528729253455   F   F   F
  7.9421005442202253 19.5383391420184616 15.1223461308700564   F   F   F
 15.7624611019013887  8.4179787196817610 14.9984346703532090   F   F   F
  7.8970991381077784 25.0548977058876474 14.9907821392667522   F   F   F
  0.0035613138227778 25.0910811306215571 14.9818514066011907   F   F   F
  7.8978022193983577  8.3976937550847168 14.9646484078914686   F   F   F
 23.6673188226067133 19.5824822082806023 14.9296319908133395   F   F   F
 -0.0002697976707881 13.9290100651832685 14.9533427105124161   F   F   F
 13.7972869889701730 23.6268420139971127 13.6819729734175883   F   F   F
  1.9725650740000149 20.9222120049999525 10.8156001569999933   F   F   F
  5.9010227081884663 12.5864697543132795 16.3862757091101052   F   F   F
  5.9202693295249373  1.3446117191623344 19.2600997750142753   F   F   F
  7.9027650771165048  5.5810673374836099 17.7635337790236498   F   F   F
 21.6941672779631922 18.1388064855935198 16.3889286945221535   F   F   F
 13.7533507792332674 18.0659876455198969 16.4810599321325277   F   F   F
 13.8667286156926419 23.7626678486101355 16.5258147953643793   F   F   F
 13.8031523211812122 12.5093300724046532 16.3595645500387086   F   F   F
 13.8035843254072255  6.9656304577876114 16.3782893140382413   F   F   F
  5.9825135078118059 23.7020085083763732 16.5287091930526167   F   F   F
 10.0178598962429088 15.4723585551656981 16.3853845278864547   F   F   F
 17.8215908035826871 15.2796464543729016 16.4865389114707206   F   F   F
 17.7820823012369935 20.7740173083994328 16.5815150750853668   F   F   F
 17.7083648641277556 26.4386534014419432 16.4130796734612900   F   F   F
 21.6648803651718573 23.7066226835175691 16.4057168081177807   F   F   F
  5.9777005985624330  9.7945821710207657 16.4200127927730826   F   F   F
 21.7005751634987689  6.9930385595421400 16.4157494730421476   F   F   F
  3.9578075792631533  8.3729043089459889 14.9968836552819180   F   F   F
 11.8353900909999528 22.3170261389998572 12.2103998060000407   F   F   F
 11.8353900909999528 11.1585130700000246 12.2103998060000407   F   F   F
 11.8353900909999528  5.5792565350000141 12.2103998060000407   F   F   F
  3.9451301480000271 22.3170261389998572 12.2103998060000407   F   F   F
  3.9451301480000271 16.7377696040000430 12.2103998060000407   F   F   F
  3.9451301480000271 11.1585130700000246 12.2103998060000407   F   F   F
  3.9451301480000271  5.5792565350000141 12.2103998060000407   F   F   F
 15.7805205919999434 22.3170261389998572 12.2103998060000407   F   F   F
  3.9722834535483273 25.0720806924842954 14.9843924193288203   F   F   F
 13.7319038799816244  9.6975483746490152 16.5256094887047134   F   F   F
  5.9025320699070960 20.8236189270412240 16.5711964532154639   F   F   F
  3.9163884753277891 16.8117915020589379 17.6481379048973146   F   F   F
  1.9867350930912897 26.5125185205555205 16.3793533543772938   F   F   F
  9.8400452790453681  9.8411245007927182 16.4255309617513490   F   F   F
  2.0519535598485876 20.9555578048658724 16.3790847745162331   F   F   F
  1.9689190655498074 15.3492956113701169 16.3797433157970183   F   F   F
  1.9793448860106582  9.7811957374994467 16.3919492863745688   F   F   F
 11.8222343130082930  8.3943449120788927 14.9881871787841803   F   F   F
 23.6600398662310809 16.7128593474020732 17.8257323377296224   F   F   F
 23.6645908271143348 22.3645247736251278 17.7842809847477952   F   F   F
  7.9217177945782016 11.2734069276569464 17.7989533915329119   F   F   F
 10.0044726528120620 20.9270968419107462 16.3980729862490939   F   F   F
 23.6692810425891018  5.5849582814763883 17.7786554884163905   F   F   F
  0.0240552029089884 11.1553294429118619 17.7712446157413204   F   F   F
  7.8893049661175620 16.6514213304343528 17.7406044185537084   F   F   F
  7.9438787335279324 22.1141233440081848 17.7364536723304980   F   F   F
 15.7075125262425352 11.0958200177075437 17.7206153921495293   F   F   F
  1.9725650740000149 15.3429548049998807 10.8156001569999933   F   F   F
 15.7701323485865483  5.5830156857287134 17.7640962198805532   F   F   F
 15.7561320971428653 22.1310176382576671 17.7141977859515123   F   F   F
 15.7812927061287294 16.5948656298441186 17.7324820694487286   F   F   F
  3.9568831113915723  5.5654231075268106 17.7685238791086881   F   F   F
  3.9870537490998008 11.1185122053879990 17.7916626544294871   F   F   F
  4.0473819759498371 22.3029653538737094 17.8737910550932781   F   F   F
  5.8665970643613523 15.3059553718277854 16.4840234254064057   F   F   F
 15.7805205919999434 16.7377696040000430 12.2103998060000407   F   F   F
 15.7805205919999434 11.1585130700000246 12.2103998060000407   F   F   F
 15.7805205919999434  5.5792565350000141 12.2103998060000407   F   F   F
  7.8902602960000570 22.3170261389998572 12.2103998060000407   F   F   F
  9.8395281142640094 18.0481762784507822 13.7469553627084586   F   F   F
  9.8726436306012797 23.6300309218835771 13.6655051649105967   F   F   F
 17.7308697681819396  7.0175795219431318 13.6060414856242620   F   F   F
 17.6950407702118824 12.5858704300811457 13.6541170356176700   F   F   F
 17.7135920181119815 18.1675743624465120 13.6154350733370535   F   F   F
 17.7526245529409792 23.7080707862711719 13.6136029935340233   F   F   F
  9.8256884602386094 12.5260045255570081 13.7181547988672534   F   F   F
  5.9213222278221931  6.9822799863968337 13.6313763362588745   F   F   F
  5.9649393432116744 12.6020256416456391 13.6179802344257279   F   F   F
  5.9647775936800338 18.1849383360136727 13.6145556499678761   F   F   F
  5.9336463380719557 23.6641756351963188 13.6669380024862370   F   F   F
 19.7256482699999580 11.1585130700000246 12.2103998060000407   F   F   F
 13.8346962556946576 12.6183146981654186 13.6119153019625188   F   F   F
 19.7256482699999580  5.5792565350000141 12.2103998060000407   F   F   F
  9.8480766536784508 26.4564178619685180 16.4027205693029359   F   F   F
  9.8536054417989192  6.9802134547519685 13.6523892640868976   F   F   F
 21.6631070609582501 12.5411024850316668 16.3934613628342021   F   F   F
  1.9849221081034960 18.1435311206971264 13.6120755642095990   F   F   F
  1.9829688980436211 23.6947033452184641 13.6312386185839234   F   F   F
  7.8902602960000570 16.7377696040000430 12.2103998060000407   F   F   F
  7.8902602960000570 11.1585130700000246 12.2103998060000407   F   F   F
  7.8902602960000570  5.5792565350000141 12.2103998060000407   F   F   F
  0.0000000000000000 22.3170261389998572 12.2103998060000407   F   F   F
  0.0000000000000000 16.7377696040000430 12.2103998060000407   F   F   F
  0.0000000000000000 11.1585130700000246 12.2103998060000407   F   F   F
 17.6949131193794003  9.6824124701147003 16.5265831253966233   F   F   F
  0.0000000000000000  5.5792565350000141 12.2103998060000407   F   F   F
  1.9725650740000149  9.7636989360001234 10.8156001569999933   F   F   F
 11.8353900909999528 16.7377696040000430 12.2103998060000407   F   F   F
 19.7256482699999580 16.7377696040000430 12.2103998060000407   F   F   F
 19.7256482699999580 22.3170261389998572 12.2103998060000407   F   F   F
  1.9861737973349269  6.9688526017843744 13.6263097689917974   F   F   F
  1.9721964862639825 12.5492001562192712 13.6156712252831920   F   F   F
 19.7059836274194780  2.7967046848528203 18.5304016782317618   F   F   F
  7.9062887137383724  2.7484431047456490 18.5973373046507753   F   F   F
 15.7897967145310698  2.8062879497817819 18.5734153203485270   F   F   F
 11.8416133401542485  2.7992436898945727 18.6089450781585697   F   F   F
  3.9519329941802388  2.7459758921075452 18.5929023225485182   F   F   F
 23.6547668285322139  2.7740020733323867 18.5630478078656935   F   F   F
 19.7400499972608010  0.0163086530702193 15.1831960943925601   F   F   F