Au  O Sr Ti  H                          
   1.00000000000000     
    23.6707801818999997    0.0000000000000000    0.0000000000000000
     0.0000000000000000   22.3170261383000010    0.0000000000000000
     0.0000000000000000    0.0000000000000000   30.0000000000000000
   Au   O    Sr   Ti   H 
    50   264    72    72     1
Selective dynamics
Direct
  0.7190914196865935  0.5266145223714855  0.7541637449976363   T   T   T
  0.6256316183948920  0.5660195446325565  0.7035359085963443   T   T   T
  0.7193830166470211  0.2590219146400700  0.6918408869570599   T   T   T
  0.2907969129648765  0.7465754900053475  0.6989633726058624   T   T   T
  0.5125748212471146  0.6037749569835541  0.7769039510152382   T   T   T
  0.5764406555177803  0.7243915359163496  0.7923581786218430   T   T   T
  0.5521786207424789  0.3838492122128784  0.8297840306947725   T   T   T
  0.2411165269303567  0.4687850973252959  0.7093813785223141   T   T   T
  0.2815532717080482  0.6615611205958173  0.7661726825528367   T   T   T
  0.6019731466206523  0.2867471646949776  0.7871155567293497   T   T   T
  0.5154884093187930  0.4840319268280279  0.6778786922715780   T   T   T
  0.5621645233234552  0.4857492564530040  0.7624769305736410   T   T   T
  0.4630831108936890  0.6963328929173975  0.8296897363080519   T   T   T
  0.7648296591458957  0.4322642584975753  0.7057928198370319   T   T   T
  0.7338444638265359  0.6160156478342970  0.6938477207718547   T   T   T
  0.6351353267333018  0.5830104238141581  0.8000215794406171   T   T   T
  0.5947769285756707  0.7847138311086534  0.7125994551510139   T   T   T
  0.4840722215390833  0.7805904691265118  0.7570626958762254   T   T   T
  0.3484112675767826  0.5025130710948049  0.6967701061505479   T   T   T
  0.4332325003522308  0.3734975502433961  0.8145893146499783   T   T   T
  0.3743066616284187  0.2975056385081091  0.7563992031414466   T   T   T
  0.4408346130433680  0.2284571774648211  0.6971041189982115   T   T   T
  0.3895047581161757  0.8167233814828544  0.7063151937088701   T   T   T
  0.2901590465114685  0.5374245739860873  0.7775443953946515   T   T   T
  0.5564159691739647  0.2087551139103347  0.7117359452612015   T   T   T
  0.4542213995032230  0.5806625567824374  0.7020686291288030   T   T   T
  0.6147342401252107  0.3189863545979505  0.6971265936849758   T   T   T
  0.7053833817804278  0.7571176354492508  0.6883461966144847   T   T   T
  0.6570818722122871  0.4433864215466449  0.8124181103270696   T   T   T
  0.3672611746829127  0.6197624237509828  0.8204808721001627   T   T   T
  0.5700976828781190  0.5098998118102162  0.8562126035321781   T   T   T
  0.6656602258120492  0.1924707794620175  0.7515039817192487   T   T   T
  0.4723288739504533  0.4503992132217131  0.8804864062481349   T   T   T
  0.5179719540661338  0.3769046958057778  0.7337370314250380   T   T   T
  0.2775160281717804  0.3267965022448497  0.7058475735107334   T   T   T
  0.6696118425559344  0.6805041126648271  0.7493036972839513   T   T   T
  0.4011887154376098  0.3833893721031984  0.6912572224445159   T   T   T
  0.3775577371409694  0.4927960464804874  0.8318941463734569   T   T   T
  0.4617958170210135  0.5730306062250418  0.8628474706303119   T   T   T
  0.3264845045444021  0.4148338483963590  0.7692263104187549   T   T   T
  0.4873073337181966  0.2687174817237399  0.7749766656643885   T   T   T
  0.4272724951965561  0.6997625320312710  0.6986646092560499   T   T   T
  0.6994929536523660  0.3463025693619687  0.7565988003839178   T   T   T
  0.7744286794099851  0.4288168815915352  0.7961255864303158   T   T   T
  0.2563243671265285  0.5934066792176101  0.6947456119325828   T   T   T
  0.6482174266266499  0.4404864670258991  0.6966544702766844   T   T   T
  0.5636679785138755  0.6392826947488107  0.8611435672185961   T   T   T
  0.5466390297697167  0.6639868775392438  0.7016895783950635   T   T   T
  0.4424092809631837  0.4740918768537476  0.7540642047910013   T   T   T
  0.3727073942872263  0.7375759093519089  0.7771784608510613   T   T   T
  0.2499484295209796  0.1886777881097015  0.4543094287445554   T   T   T
  0.7494194160597931  0.9384913923754902  0.4553190868707208   T   T   T
  0.7490119434436925  0.6886387643846388  0.4572803118684411   T   T   T
  0.7494412936484147  0.4383542655948625  0.4558535184014882   T   T   T
  0.7500413926158985  0.1897329167279943  0.4556227310144191   T   T   T
  0.4174462742839205  0.9357090778055857  0.4539677152374401   T   T   T
  0.4170109182543824  0.6845783821824412  0.4546659378043426   T   T   T
  0.4168171587100717  0.4354887723453969  0.4540286510610312   T   T   T
  0.0843993466685741  0.6869479723625789  0.4531022761200717   T   T   T
  0.0838854163589677  0.9366849213338388  0.4534676101516988   T   T   T
  0.0830614709424956  0.4369773797484337  0.4531094722953425   T   T   T
  0.0838686732170994  0.1865813716144434  0.4530204709497345   T   T   T
  0.9165477364397955  0.8120190953414290  0.4540803850753722   T   T   T
  0.9161051734313032  0.5624267779038863  0.4538117300954493   T   T   T
  0.2512323377229688  0.4394747337625163  0.4550452108350165   T   T   T
  0.9161542481278844  0.0621424409552008  0.4541042316431912   T   T   T
  0.9163004537905287  0.3122625330287129  0.4538426248970869   T   T   T
  0.4173081375893311  0.1871102881919349  0.4535585810434083   T   T   T
  0.2524650279220369  0.6872973986993123  0.4560782410870254   T   T   T
  0.9167822993958737  0.9368243437260664  0.4532743871572626   T   T   T
  0.5826225168059092  0.1890868241776678  0.4550703106875417   T   T   T
  0.0001432339106762  0.1251920160153049  0.4984342441629926   T   T   T
  0.5837004245260372  0.8099465903092840  0.4554439355163538   T   T   T
  0.0000311131872876  0.3734691327355225  0.4986033448291040   T   T   T
  0.9998112017204733  0.6269598682171877  0.4976827936599612   T   T   T
  0.3335337609570425  0.1254979682234402  0.4984181235971070   T   T   T
  0.0000435000438757  0.8749976215831674  0.4995637409471471   T   T   T
  0.3335038578063605  0.8738016539649288  0.4988422686835077   T   T   T
  0.6659329097060692  0.1257836937719778  0.4991877353227294   T   T   T
  0.3358020688151421  0.6251256871139322  0.5043674442963820   T   T   T
  0.3343612134464088  0.3784774254207451  0.5030223735149019   T   T   T
  0.6655560242093861  0.3785695297916087  0.5033288771644701   T   T   T
  0.9153600605835253  0.6867203483979250  0.4530032228064701   T   T   T
  0.9161337166792367  0.4370139893596456  0.4536685500090789   T   T   T
  0.9158163283424633  0.1869506351912028  0.4531967935839122   T   T   T
  0.5826655429914520  0.9361769352651936  0.4537564065403019   T   T   T
  0.5827932691769583  0.6860070764483364  0.4545666226431243   T   T   T
  0.5827242535065140  0.4390099435449030  0.4560502228619407   T   T   T
  0.2499893030863845  0.9359266924859921  0.4540937615442952   T   T   T
  0.6654120230930934  0.6258841600213604  0.5029379875228901   T   T   T
  0.5846478852789345  0.5624915139285909  0.4550460163952167   T   T   T
  0.5828685252272908  0.0624087072331519  0.4547745017808515   T   T   T
  0.9166666865332829  0.6874999999963620  0.3605200052333331   F   F   F
  0.9166666865332829  0.4374999701794380  0.3605200052333331   F   F   F
  0.9166666865332829  0.1875000000030838  0.3605200052333331   F   F   F
  0.5833333134730552  0.9375000000154046  0.3605200052333331   F   F   F
  0.5833333134730552  0.6874999999963620  0.3605200052333331   F   F   F
  0.5833333134730552  0.4374999701794380  0.3605200052333331   F   F   F
  0.5833333134730552  0.1875000000030838  0.3605200052333331   F   F   F
  0.2499999999799343  0.9375000000154046  0.3605200052333331   F   F   F
  0.9166666865332829  0.9375000000154046  0.3605200052333331   F   F   F
  0.2499999999799343  0.6874999999963620  0.3605200052333331   F   F   F
  0.2499999999799343  0.1875000000030838  0.3605200052333331   F   F   F
  0.7499999404149307  0.9375000000154046  0.3605200052333331   F   F   F
  0.7499999404149307  0.6874999999963620  0.3605200052333331   F   F   F
  0.7499999404149307  0.4374999701794380  0.3605200052333331   F   F   F
  0.7499999404149307  0.1875000000030838  0.3605200052333331   F   F   F
  0.4166666269218169  0.9375000000154046  0.3605200052333331   F   F   F
  0.4166666269218169  0.6874999999963620  0.3605200052333331   F   F   F
  0.4166666269218169  0.4374999701794380  0.3605200052333331   F   F   F
  0.2499999999799343  0.4374999701794380  0.3605200052333331   F   F   F
  0.0833333358191695  0.0625000000159659  0.3605200052333331   F   F   F
  0.0833333358191695  0.3124999999901945  0.3605200052333331   F   F   F
  0.0833333358191695  0.5625000000092442  0.3605200052333331   F   F   F
  0.9166666865332829  0.3124999999901945  0.3605200052333331   F   F   F
  0.9166666865332829  0.0625000000159659  0.3605200052333331   F   F   F
  0.5833333134730552  0.8124999999834799  0.3605200052333331   F   F   F
  0.5833333134730552  0.5625000000092442  0.3605200052333331   F   F   F
  0.5833333134730552  0.3124999999901945  0.3605200052333331   F   F   F
  0.5833333134730552  0.0625000000159659  0.3605200052333331   F   F   F
  0.2499999999799343  0.8124999999834799  0.3605200052333331   F   F   F
  0.2499999999799343  0.5625000000092442  0.3605200052333331   F   F   F
  0.2499999999799343  0.3124999999901945  0.3605200052333331   F   F   F
  0.2499999999799343  0.0625000000159659  0.3605200052333331   F   F   F
  0.7499999404149307  0.8124999999834799  0.3605200052333331   F   F   F
  0.7499999404149307  0.5625000000092442  0.3605200052333331   F   F   F
  0.7499999404149307  0.3124999999901945  0.3605200052333331   F   F   F
  0.7499999404149307  0.0625000000159659  0.3605200052333331   F   F   F
  0.4166666269218169  0.8124999999834799  0.3605200052333331   F   F   F
  0.4166666269218169  0.5625000000092442  0.3605200052333331   F   F   F
  0.4166666269218169  0.3124999999901945  0.3605200052333331   F   F   F
  0.4166666269218169  0.0625000000159659  0.3605200052333331   F   F   F
  0.0833333358191695  0.8124999999834799  0.3605200052333331   F   F   F
  0.4166666269218169  0.1875000000030838  0.3605200052333331   F   F   F
  0.0833333358191695  0.9375000000154046  0.3605200052333331   F   F   F
  0.0833333358191695  0.6874999999963620  0.3605200052333331   F   F   F
  0.0833333358191695  0.4374999701794380  0.3605200052333331   F   F   F
  0.8333332538436267  0.4999999999932783  0.4070133268666680   F   F   F
  0.8333332538436267  0.7500000000123208  0.4070133268666680   F   F   F
  0.0837387942817771  0.0618972347657820  0.4541951685077680   T   T   T
  0.0834504897621957  0.3120103666373616  0.4540157398408936   T   T   T
  0.0839396154805146  0.5625112398118194  0.4538690176606310   T   T   T
  0.0835362517861263  0.8121584451583724  0.4541992295583389   T   T   T
  0.4168952959724648  0.0615402829040614  0.4553367261266629   T   T   T
  0.4154650492454541  0.3113153661502029  0.4573780733902123   T   T   T
  0.4161131631054558  0.5594834720675530  0.4578308622992122   T   T   T
  0.4166479606574103  0.8097650435880269  0.4551513202988519   T   T   T
  0.7496145092659700  0.0641194630167624  0.4533116341110650   T   T   T
  0.7474216675397941  0.3141024428289807  0.4546967109665156   T   T   T
  0.7481618050753289  0.5642455511297105  0.4537343167395230   T   T   T
  0.7494138859506975  0.8131815101202068  0.4530538938696383   T   T   T
  0.2503255568664444  0.0619726335699377  0.4541847605331969   T   T   T
  0.9152952592914093  0.3125083541752007  0.5467148509746268   T   T   T
  0.2522419856427887  0.3144519519084780  0.4540175697616542   T   T   T
  0.2519301701606902  0.5645782689466132  0.4538267824391863   T   T   T
  0.2501862965175617  0.8104341310390821  0.4555204880521600   T   T   T
  0.8333332538436267  0.2500000000190425  0.4070133268666680   F   F   F
  0.5844178630402556  0.3145299367923323  0.4542014181455497   T   T   T
  0.8333332538436267  0.0000000000000000  0.4070133268666680   F   F   F
  0.5000000000021103  0.4999999999932783  0.4070133268666680   F   F   F
  0.0833333358191695  0.1875000000030838  0.3605200052333331   F   F   F
  0.0000000000000000  0.0000000000000000  0.4070133268666680   F   F   F
  0.0000000000000000  0.2500000000190425  0.4070133268666680   F   F   F
  0.0000000000000000  0.4999999999932783  0.4070133268666680   F   F   F
  0.0000000000000000  0.7500000000123208  0.4070133268666680   F   F   F
  0.3333333432766779  0.0000000000000000  0.4070133268666680   F   F   F
  0.3333333432766779  0.2500000000190425  0.4070133268666680   F   F   F
  0.3333333432766779  0.4999999999932783  0.4070133268666680   F   F   F
  0.3333333432766779  0.7500000000123208  0.4070133268666680   F   F   F
  0.6666666865533486  0.0000000000000000  0.4070133268666680   F   F   F
  0.6666666865533486  0.2500000000190425  0.4070133268666680   F   F   F
  0.6666666865533486  0.4999999999932783  0.4070133268666680   F   F   F
  0.6666666865533486  0.7500000000123208  0.4070133268666680   F   F   F
  0.1666666716383389  0.0000000000000000  0.4070133268666680   F   F   F
  0.1666666716383389  0.2500000000190425  0.4070133268666680   F   F   F
  0.1666666716383389  0.4999999999932783  0.4070133268666680   F   F   F
  0.1666666716383389  0.7500000000123208  0.4070133268666680   F   F   F
  0.5000000000021103  0.0000000000000000  0.4070133268666680   F   F   F
  0.5000000000021103  0.2500000000190425  0.4070133268666680   F   F   F
  0.5000000000021103  0.7500000000123208  0.4070133268666680   F   F   F
  0.1671140937861605  0.1242784081017552  0.4993326197427299   T   T   T
  0.9176829749471650  0.0633401393142753  0.5474053623428757   T   T   T
  0.1677819587688861  0.8732134194071387  0.4999421412853513   T   T   T
  0.2518293146557224  0.1880181640559061  0.5474051827300043   T   T   T
  0.7492738459227022  0.9340178069483329  0.5476210864151261   T   T   T
  0.7517603121973990  0.6804044284632542  0.5530084672630853   T   T   T
  0.7528292745433274  0.4345696401858382  0.5496525662882550   T   T   T
  0.4232516388696968  0.4435717773905450  0.5459123696706201   T   T   T
  0.4232888157014634  0.6880121191250146  0.5465653974123841   T   T   T
  0.7484674472196329  0.1836158680091663  0.5507515710298061   T   T   T
  0.4160103609026072  0.9367617023948414  0.5459952410768909   T   T   T
  0.0836149591834883  0.9389582310328648  0.5457021967934744   T   T   T
  0.4157371027168016  0.1912872553144155  0.5464312819170805   T   T   T
  0.0864383200024722  0.6895477565459187  0.5452386943985184   T   T   T
  0.0828107234052906  0.4385391024749022  0.5452906605352603   T   T   T
  0.0840027332856578  0.1889785932730874  0.5457484516935683   T   T   T
  0.4994005829645848  0.1255056877941057  0.4996522280516669   T   T   T
  0.9997973482890092  0.4986540355848348  0.5947179294054065   T   T   T
  0.9993584344411803  0.7539429778775210  0.5921113790043520   T   T   T
  0.3346447670211294  0.2540109582146240  0.5923080016238037   T   T   T
  0.3339828056151873  0.9998333257438916  0.5920243359103476   T   T   T
  0.9996450587142490  0.9982711050623391  0.5927325203644424   T   T   T
  0.0011285928136527  0.2500870559860840  0.5919472275772338   T   T   T
  0.3335060656058916  0.4970736971545047  0.5907859019798384   T   T   T
  0.3357357544575008  0.7397673089404458  0.5912189885253011   T   T   T
  0.6633463388208943  0.2473203302289208  0.5909028691583196   T   T   T
  0.6657988765749114  0.0003810254662741  0.5918783238005612   T   T   T
  0.6661901290048906  0.7419831899161357  0.5899112176811222   T   T   T
  0.6669402448316107  0.4937922789794147  0.5913557072194791   T   T   T
  0.1673551785037578  0.9984062641890817  0.5922577422115974   T   T   T
  0.1687507260543100  0.2493978117122872  0.5934970851896254   T   T   T
  0.1705577096992541  0.7500205547217736  0.5947773569304415   T   T   T
  0.2483411472267704  0.4358048630346892  0.5495968396752572   T   T   T
  0.1656735929133121  0.5028432756816779  0.5881229586566533   T   T   T
  0.2491203739860376  0.6832722537811965  0.5519679708885474   T   T   T
  0.5807159033934246  0.1861685642453925  0.5491619085626900   T   T   T
  0.9149707016843993  0.8130609222464507  0.5469023255310668   T   T   T
  0.9168090737653463  0.5634603587710163  0.5466025366893257   T   T   T
  0.5814784144541640  0.5602700726999864  0.5494555061909363   T   T   T
  0.5862696435670711  0.8148344086661351  0.5505437212475874   T   T   T
  0.5830915949305888  0.3119554151805025  0.5458130228899399   T   T   T
  0.5826076205456781  0.0632949165523048  0.5469437211848092   T   T   T
  0.2539212168372347  0.8126386884263844  0.5512202040419466   T   T   T
  0.2520020690477377  0.5589635721216378  0.5440856970011720   T   T   T
  0.2494739294423372  0.3136677188747948  0.5459282111132939   T   T   T
  0.2511552254801537  0.0624029265338430  0.5471877514831235   T   T   T
  0.7488313487447047  0.8083491825753721  0.5455941843254658   T   T   T
  0.7464723366315942  0.5576691359925492  0.5445855614233982   T   T   T
  0.4139900129240352  0.8114944353565713  0.5479863436985145   T   T   T
  0.7482956786202374  0.0596196462821147  0.5445133546614952   T   T   T
  0.7479468612998154  0.3112413285012766  0.5479590704471227   T   T   T
  0.4159920054766502  0.3195217940932587  0.5526039192632267   T   T   T
  0.4207160891199017  0.5649037654430942  0.5552614951786605   T   T   T
  0.4164921796940123  0.0652298775143673  0.5472931262663970   T   T   T
  0.0848730727080915  0.8129241139762647  0.5473178459381931   T   T   T
  0.0828529252588286  0.5637793349959590  0.5462937707817284   T   T   T
  0.0867067212583013  0.3134608647528309  0.5471435728272284   T   T   T
  0.0823045695385591  0.0632929302478317  0.5475230583321548   T   T   T
  0.9156836602988707  0.9387367279355466  0.5460511521462939   T   T   T
  0.9132160161502066  0.6894244092138745  0.5449967912372179   T   T   T
  0.5834850646316507  0.9383186883677361  0.5455238694179303   T   T   T
  0.9170150591851773  0.1888930913221923  0.5455088725104511   T   T   T
  0.9157235487359794  0.4374193250914042  0.5458744095677566   T   T   T
  0.5765530195202302  0.4361420661155639  0.5516846367846451   T   T   T
  0.5795779192040109  0.6864958077380827  0.5471745594786644   T   T   T
  0.2516677738524403  0.9372710663910774  0.5453100590725408   T   T   T
  0.4979272100909232  0.5037522710017056  0.6087870680768702   T   T   T
  0.4983284591317276  0.2532097309295235  0.5903794707631429   T   T   T
  0.4995844890544006 -0.0000353228712877  0.5909835842396309   T   T   T
  0.7543148161910229  0.6931409342332575  0.6577026851339897   T   T   T
  0.7484473894756762  0.9366787365454362  0.6399211565147366   T   T   T
  0.2535335328046179  0.1865230359181637  0.6412589570516055   T   T   T
  0.7457974088137788  0.1944084546434305  0.6468006159369254   T   T   T
  0.7561468356728703  0.4363409802402892  0.6393058513582055   T   T   T
  0.4172477101757218  0.9348723285581080  0.6397275025346608   T   T   T
  0.4219188795398247  0.6758796673279632  0.6334995688261031   T   T   T
  0.5911786464868888  0.8098818058621278  0.6460090793984340   T   T   T
  0.9162349743593169  0.0624229010362251  0.6414116847750255   T   T   T
  0.9131733780767947  0.5615475100725581  0.6426691103314974   T   T   T
  0.9152540378021178  0.3120759826635127  0.6395521722655253   T   T   T
  0.9139412829589475  0.8126348750960437  0.6415982179836814   T   T   T
  0.5821620258744031  0.0654933721987504  0.6398265247384204   T   T   T
  0.5824546523737373  0.3194629736591870  0.6342946647145841   T   T   T
  0.5913107129292825  0.5642281535874311  0.6398479359838297   T   T   T
  0.2476673148990147  0.5739629792259286  0.6289706123655796   T   T   T
  0.2617065460434624  0.7987632478576272  0.6467383739265500   T   T   T
  0.2517398058271866  0.3166672920057368  0.6416866831892846   T   T   T
  0.2508683302034499  0.0594960970831677  0.6420837031915079   T   T   T
  0.9166666865332829  0.5625000000092442  0.3605200052333331   F   F   F
  0.4995999370545435  0.3740087947362833  0.4998515411520293   T   T   T
  0.5000084384650197  0.8725971945666008  0.5008344661786577   T   T   T
  0.5005312989382318  0.6209613104783523  0.5000389427659062   T   T   T
  0.8323079877494056  0.6230923352532362  0.4999980606299163   T   T   T
  0.8327583856384720  0.8749362367027295  0.4982199591126638   T   T   T
  0.8325955329846297  0.3731914335523062  0.4994922022980294   T   T   T
  0.8328896231101686  0.1246025858999670  0.4996641962458201   T   T   T
  0.1667863975889742  0.3762303253094315  0.4978264328757520   T   T   T
  0.1677491840581250  0.6243479260889410  0.4999311823287417   T   T   T
  0.5820455941581009  0.4381337438060316  0.6458746641533809   T   T   T
  0.5807101646683157  0.6850045684455208  0.6387439072942858   T   T   T
  0.9170784975303787  0.1868559320423998  0.6406516111676308   T   T   T
  0.5817802477793675  0.9352787571628405  0.6390499682105986   T   T   T
  0.8303181142163566  0.7501555305915516  0.5932671459569299   T   T   T
  0.8316017147924846  0.2479664913619020  0.5915134128270342   T   T   T
  0.8334167426355696  0.5038205115695260  0.5893319460177965   T   T   T
  0.8322005461086472  0.0019523715378267  0.5922272478771429   T   T   T
  0.5014798668490592  0.7564794784110984  0.5929939768339679   T   T   T
  0.4176662086409269  0.0651205795237738  0.6399670051891972   T   T   T
  0.4249157328281150  0.3052121247695129  0.6561096365480759   T   T   T
  0.4124977556149103  0.8127381506202414  0.6394575874141045   T   T   T
  0.3986224670895847  0.5509473166261212  0.6517456010643257   T   T   T
  0.7520713996653466  0.5711786120390099  0.6342604167907974   T   T   T
  0.7410113077201458  0.8099297602732063  0.6399682593020540   T   T   T
  0.7467358112159909  0.3127291814364666  0.6401920617189585   T   T   T
  0.7476903105198192  0.0669071987527754  0.6390980009539986   T   T   T
  0.0840535847118501  0.3120201485051526  0.6406929115618607   T   T   T
  0.6665894828161735  0.8744883593101396  0.4989137988704899   T   T   T
  0.0868891499555201  0.5617276044022634  0.6420654737200772   T   T   T
  0.0835303979961367  0.0605401153334333  0.6414419312275339   T   T   T
  0.0873457984637086  0.4363679425113496  0.6396143429958263   T   T   T
  0.0837015890198998  0.1857231824422618  0.6410822435861941   T   T   T
  0.4186769697791056  0.1880611633944126  0.6399190443752665   T   T   T
  0.4135503353360725  0.4188744054350974  0.6297091288213181   T   T   T
  0.0842571187739213  0.9353073440249273  0.6408427502269944   T   T   T
  0.0829050168491689  0.6872406193204129  0.6398992539011773   T   T   T
  0.9125053962944280  0.4361498231008431  0.6397470964193596   T   T   T
  0.9167115752145467  0.6874274443410422  0.6398571328936584   T   T   T
  0.9141038909095235  0.9366808429541311  0.6408864556682498   T   T   T
  0.2411624096048264  0.4422985477393543  0.6423162943432726   T   T   T
  0.2530522904393419  0.6776244372720793  0.6637851879602625   T   T   T
  0.5782895328743666  0.1905279397547454  0.6441152264185744   T   T   T
  0.2519672488624022  0.9302144476547248  0.6374995734801400   T   T   T
  0.0839382316186939  0.8118535501849911  0.6418784997824211   T   T   T
  0.9166666865332829  0.8124999999834799  0.3605200052333331   F   F   F
  0.0005643386586591  0.1230062093906320  0.6189810177658872   T   T   T
  0.8333332538436267  0.6249999999803961  0.4070133268666680   F   F   F
  0.9996827306896693  0.5004834207516582  0.5072620061514768   T   T   T
  0.3311205416628101  0.4992745062013200  0.5010021675867252   T   T   T
  0.3300004189560168  0.2479253146831320  0.5027844216984938   T   T   T
  0.3331742878524908  0.0010189720101116  0.5057811816550000   T   T   T
  0.3336682855620480  0.7509177866505964  0.5016708070877222   T   T   T
  0.6658811086562293  0.0001954791840041  0.5055607901018105   T   T   T
  0.6686607689924026  0.4996700095428908  0.5006769148790651   T   T   T
  0.6671040143571583  0.2477193752872443  0.5030590655025383   T   T   T
  0.6655312328395174  0.7519143958396519  0.5020416130796100   T   T   T
  0.1659682852739253  0.0011146798160491  0.5065138904043931   T   T   T
  0.1664363427619128  0.2482830283575169  0.5063685555686290   T   T   T
  0.1634706145217404  0.4998477764918323  0.5023149731723722   T   T   T
  0.5001740034432471  0.9993117036849928  0.5054677940398538   T   T   T
  0.1642872721773279  0.7513510777521648  0.5034055938132936   T   T   T
  0.5008788262592497  0.7527472181692644  0.5039723708409171   T   T   T
  0.8342038753924070  0.0004622228512049  0.5064489918799550   T   T   T
  0.5011864264586394  0.4997038929218597  0.5002840673567589   T   T   T
  0.5010867207229904  0.2477867344632107  0.5019865140774811   T   T   T
  0.8353961334895962  0.2483888986676434  0.5033136911406306   T   T   T
  0.9996941427118281  0.7506454875539060  0.5065425862822222   T   T   T
  0.0009296377077101  0.2498272939583638  0.5059535188643263   T   T   T
  0.0000210600692203  0.0000147045976011  0.5064411630605732   T   T   T
  0.8333332538436267  0.8749999404036828  0.4070133268666680   F   F   F
  0.0000000000000000  0.6249999999803961  0.4070133268666680   F   F   F
  0.0000000000000000  0.8749999404036828  0.4070133268666680   F   F   F
  0.3333333432766779  0.1249999999871179  0.4070133268666680   F   F   F
  0.3333333432766779  0.3750000000061604  0.4070133268666680   F   F   F
  0.3333333432766779  0.6249999999803961  0.4070133268666680   F   F   F
  0.3333333432766779  0.8749999404036828  0.4070133268666680   F   F   F
  0.6666666865533486  0.1249999999871179  0.4070133268666680   F   F   F
  0.6666666865533486  0.3750000000061604  0.4070133268666680   F   F   F
  0.6666666865533486  0.6249999999803961  0.4070133268666680   F   F   F
  0.8361293068904577  0.4998737618236277  0.5030025778805427   T   T   T
  0.6666666865533486  0.8749999404036828  0.4070133268666680   F   F   F
  0.1666666716383389  0.3750000000061604  0.4070133268666680   F   F   F
  0.1666666716383389  0.6249999999803961  0.4070133268666680   F   F   F
  0.1666666716383389  0.8749999404036828  0.4070133268666680   F   F   F
  0.5000000000021103  0.1249999999871179  0.4070133268666680   F   F   F
  0.5000000000021103  0.3750000000061604  0.4070133268666680   F   F   F
  0.5000000000021103  0.6249999999803961  0.4070133268666680   F   F   F
  0.5000000000021103  0.8749999404036828  0.4070133268666680   F   F   F
  0.8333332538436267  0.1249999999871179  0.4070133268666680   F   F   F
  0.8333332538436267  0.3750000000061604  0.4070133268666680   F   F   F
  0.1666666716383389  0.1249999999871179  0.4070133268666680   F   F   F
  0.0000000000000000  0.3750000000061604  0.4070133268666680   F   F   F
  0.8358303892964452  0.7515758487971543  0.5025408591794400   T   T   T
  0.8369529484319255  0.3725912800103049  0.6044259478603244   T   T   T
  0.8319608690576827  0.8756249526836610  0.6182103304654685   T   T   T
  0.8406125079229742  0.6267290990106683  0.6030117992549618   T   T   T
  0.9988933466930161  0.8747959603061580  0.6218521779324325   T   T   T
  0.3316274254898954  0.1197465454256838  0.6132943229862554   T   T   T
  0.3343618256484452  0.6239852292964054  0.5952684336725612   T   T   T
  0.3260331774069616  0.3734583673931768  0.5933019765616324   T   T   T
  0.6709543114523467  0.3718282737318862  0.5940383072725589   T   T   T
  0.6653677597636988  0.1246027597761936  0.6118927247711032   T   T   T
  0.3343559445731736  0.8787179473375166  0.6029965761448840   T   T   T
  0.1586438554924787  0.6270548228745376  0.6017768417197007   T   T   T
  0.1662212600703308  0.8727295527663326  0.6186997522381015   T   T   T
  0.5013991574497808  0.3714803125506881  0.5950002500728480   T   T   T
  0.5001760592772974  0.1217518984156800  0.6060828980841918   T   T   T
  0.1674786290361656  0.1226519167957913  0.6214791498152420   T   T   T
  0.1640828742014342  0.3713025457296698  0.6080847061663756   T   T   T
  0.6652124114673629  0.8808777859816141  0.6069147655459003   T   T   T
  0.6663092951305601  0.6263520526597439  0.5932852356889239   T   T   T
  0.0002621764666244  0.3749845997105791  0.6225717972160936   T   T   T
  0.9998194489870997  0.6222174041766031  0.6441063972564334   T   T   T
  0.8336626733040188  0.1249958829977995  0.6196984614939207   T   T   T
  0.5003421136100832  0.8764633868429602  0.6095009260714398   T   T   T
  0.0000000000000000  0.1249999999871179  0.4070133268666680   F   F   F
  0.5041287479073480  0.6249272846138036  0.5938190180082422   T   T   T
  0.9161622204086446  0.9998134079270208  0.6036991993385297   T   T   T
  0.5842110205178811  0.7497534943201024  0.5992346572690257   T   T   T
  0.5906528078278613  0.5005890404095080  0.5935092857861345   T   T   T
  0.2424761527194090  0.4980353049252430  0.5941533479890047   T   T   T
  0.2491179859446348  0.7524961159409852  0.5923088220556227   T   T   T
  0.5839143554051516  0.2472444271530899  0.5969646770086253   T   T   T
  0.5825678620470782  0.0009272960959027  0.6043195055045330   T   T   T
  0.2494193314568398  0.9975672200627956  0.6041800457247238   T   T   T
  0.2492846030618590  0.2455162646251062  0.6035186910812260   T   T   T
  0.4170102235815683  0.0000874675260261  0.6046965384949458   T   T   T
  0.4147701465846571  0.2484907304385758  0.5909533113138780   T   T   T
  0.4157745596720093  0.7500230373127326  0.5945845823556960   T   T   T
  0.7566215524676329  0.5025541434201776  0.5954596318411081   T   T   T
  0.7515184490760859  0.7527359717331717  0.5904503868393931   T   T   T
  0.7538548935948939  0.2481150387930481  0.5943071367206602   T   T   T
  0.7495609796275150  0.0016744028975715  0.6041748668706275   T   T   T
  0.0838088054737681  0.2483766674603964  0.6038817481195944   T   T   T
  0.0814171131491004  0.5001534162520324  0.6036130856374667   T   T   T
  0.0800200791762828  0.7507950320957382  0.6031371564450183   T   T   T
  0.0832620759310123  0.9981947061625122  0.6034922644414273   T   T   T