Au C  H  O  Sr Ti                       
   1.00000000000000     
    23.6707801818999997    0.0000000000000000    0.0000000000000000
     0.0000000000000000   27.8962826732999716    0.0000000000000000
     0.0000000000000000    0.0000000000000000   30.0000000000000000
   Au   C    H    O    Sr   Ti
    50     4     9   330    90    90
Selective dynamics
Direct
  0.7122676253145031  0.6255044523018896  0.7547804286291822   F   F   F
  0.6627884862163640  0.3431304666886774  0.7398601293102232   T   T   T
  0.4718306725910608  0.5597561164460387  0.8773879451763946   F   F   F
  0.2821521355927743  0.4716124305411569  0.7023879444746299   F   F   F
  0.6696070448185480  0.7462365209960709  0.7485223525920262   F   F   F
  0.3978360977381286  0.5058477400896066  0.6907723130703971   F   F   F
  0.4513567126539115  0.6642024346926192  0.7036529881518234   F   F   F
  0.3751158880473611  0.5940137909039080  0.8332561112030490   F   F   F
  0.2892373019727117  0.6301811100962098  0.7778286656383955   F   F   F
  0.3678341207283111  0.6952219765248344  0.8202283098383276   F   F   F
  0.5965216778307294  0.8274456502724306  0.7133961600606611   F   F   F
  0.7749826376317515  0.5529992215697987  0.7943176507003358   F   F   F
  0.6940780095242332  0.4864361348258299  0.7640355452478360   T   T   T
  0.6457237956125681  0.5568006491209303  0.6955850197787967   F   F   F
  0.5604586823093456  0.7145658101875156  0.8647014905148822   F   F   F
  0.5395299022867164  0.7349017840885281  0.7023926167203811   F   F   F
  0.4435418508075060  0.5786607266740731  0.7565795026742848   F   F   F
  0.3736427969538738  0.7930044544016397  0.7790543803080681   F   F   F
  0.4602421740875045  0.6589258775304003  0.8653858713621148   F   F   F
  0.6557842465692758  0.5625770060313897  0.8171450833649203   F   F   F
  0.7070481150365779  0.8059430280868369  0.6877926564824364   F   F   F
  0.4158263128466118  0.7571649579530160  0.6998127659094422   F   F   F
  0.3252704633627488  0.5317547895741583  0.7693786414231099   F   F   F
  0.2571753730516448  0.6745241176722061  0.6946506369625851   F   F   F
  0.3920189082826013  0.8544204052245163  0.7065336379911074   F   F   F
  0.5198826581704026  0.5031528142849311  0.7330541053335224   F   F   F
  0.5522157448614422  0.5081244358160646  0.8269009775615572   F   F   F
  0.2941237837508410  0.7976772407635053  0.6966654803022934   F   F   F
  0.5082636998126375  0.6854710638312014  0.7783785991623802   F   F   F
  0.5775130942899693  0.7790688985544278  0.7943501204841397   F   F   F
  0.2403607089420703  0.5752480598007139  0.7092530384336442   F   F   F
  0.2854433105635295  0.7298716907673253  0.7644202340217845   F   F   F
  0.6016864764303662  0.4265956890006066  0.7841140078963491   F   F   F
  0.5137275189419270  0.5881143212346132  0.6783030221599304   F   F   F
  0.5671038465018015  0.6116257801159222  0.8586135915321194   F   F   F
  0.4856023362056234  0.4167001076260135  0.7741581565421853   F   F   F
  0.6190873898984179  0.4564675989650766  0.6975308234706077   F   F   F
  0.4609250337761210  0.7584787853250532  0.8327808017414213   F   F   F
  0.5619246961376376  0.5918418158598371  0.7633440122708421   F   F   F
  0.4363743621823133  0.3813173508175183  0.6981986287695463   F   F   F
  0.5538377142881004  0.3713284359574871  0.7091676840898700   F   F   F
  0.7365340679004362  0.3964517090845945  0.6939032779749752   T   T   T
  0.7609486483578323  0.5513931259666478  0.7043733773202803   F   F   F
  0.4857806011619488  0.8209580435674013  0.7552594900376590   F   F   F
  0.6203395286239228  0.6579465996332701  0.7037661681766778   F   F   F
  0.6296095994905215  0.6723736047724600  0.8011592111619379   F   F   F
  0.4301991971959680  0.4967460155861616  0.8152556106161626   F   F   F
  0.3490017492886395  0.6000416354032723  0.6979234756139903   F   F   F
  0.3698479614698869  0.4391930109265800  0.7558547580518677   F   F   F
  0.7324056217847783  0.6934387217478672  0.6932345083796392   F   F   F
  0.6447427945334283  0.2403481330757700  0.7916065942289450   T   T   T
  0.7549177024228442  0.4330135301677203  0.7503465788440096   T   T   T
  0.6926153364718814  0.2415119804160568  0.7571815443287662   T   T   T
  0.7232218352351012  0.2889349343249563  0.7525370423245334   T   T   T
  0.7257997585771960  0.2159406349956612  0.7672256767321670   T   T   T
  0.7436504022885728  0.3012470130887408  0.7831350150946150   T   T   T
  0.6577655560896645  0.2566139788502042  0.8231691054257695   T   T   T
  0.6315866615531647  0.2035806758085030  0.7982946795323898   T   T   T
  0.6075718504401024  0.2596996089402595  0.7793928493115843   T   T   T
  0.6777352162560248  0.2290596856577309  0.7246685475707864   T   T   T
  0.7521724340885285  0.2895346747942824  0.7243240743819470   T   T   T
  0.7539934031802957  0.4109413386599243  0.7804249899630520   T   T   T
  0.7947762963120013  0.4523716588389136  0.7463811247748305   T   T   T
  0.1666666716383389  0.8000000000129006  0.4070133268666680   F   F   F
  0.5819424470456696  0.3478580283070158  0.5509124554248572   F   F   F
  0.0000768181180533  0.8020225692472707  0.5926726133837548   F   F   F
  0.3338482895858874  0.2000275831367517  0.5921169837444893   F   F   F
  0.9998211792067764  0.2000044146059068  0.5923568946509334   F   F   F
  0.0006732667007228  0.3984396871414830  0.5923912707581351   F   F   F
  0.0841532405784804  0.9502622893007100  0.5462335296032634   F   F   F
  0.4197478465073488  0.6517759246078683  0.5557277442331952   F   F   F
  0.0838578688558442  0.3481042895458870  0.6421332361401682   F   F   F
  0.9177362290313127  0.6509943218608853  0.5470117012369897   F   F   F
  0.2529488488101563  0.8499439484233875  0.5508158632521969   F   F   F
  0.5856312577219072  0.8518658321323187  0.5507791790015730   F   F   F
  0.7495833520929125  0.4519448752081132  0.5505730114335279   F   F   F
  0.5808861640557765  0.6475405353349828  0.5488860858294444   F   F   F
  0.4163208091856276  0.4551026701167658  0.5525609117948846   F   F   F
  0.5766579376023699  0.5482285006831731  0.5524657136407214   F   F   F
  0.4165446986470087  0.2524941425971363  0.5473010422281988   F   F   F
  0.0000000000000000  0.8000000000129006  0.4070133268666680   F   F   F
  0.4997979041315332  0.3014537350873638  0.5002860432838929   F   F   F
  0.4161181736791946  0.9484111948499958  0.5467161902790565   F   F   F
  0.0853594790946985  0.8495912001600630  0.5468353787126787   F   F   F
  0.5833333134730552  0.5499999761504029  0.3605200052333331   F   F   F
  0.5833333134730552  0.7500000000008953  0.3605200052333331   F   F   F
  0.0857954511723165  0.4507721092614148  0.5470767339798712   F   F   F
  0.9166666865332829  0.3500000000123720  0.3605200052333331   F   F   F
  0.9166666865332829  0.5499999761504029  0.3605200052333331   F   F   F
  0.2521842050723606  0.9454223989528572  0.6373210316724069   F   F   F
  0.2504395025967128  0.0485091005033809  0.6416609499525237   F   F   F
  0.2396067920617639  0.5534208607803137  0.6417092611040189   F   F   F
  0.9156757127824804  0.8497012503000789  0.5464015484188067   F   F   F
  0.2492259480475880  0.7463079074391175  0.5522155645034417   F   F   F
  0.7482043228372603  0.9478323451490809  0.5470811995365352   F   F   F
  0.7511086933996225  0.7448860481726243  0.5526241771771794   F   F   F
  0.9161982354539830  0.9504592009814345  0.5462663072047320   F   F   F
  0.4181570376992951  0.2520961335905341  0.6391959198889055   F   F   F
  0.5836967339410251  0.9507361713820757  0.5456214229333227   F   F   F
  0.0828658652097403  0.2500542227821114  0.5473546490307228   F   F   F
  0.4172829755107088  0.9479964829829512  0.4541555949287570   F   F   F
  0.5833836922761577  0.2496738158571858  0.5457947648757440   F   F   F
  0.0812830250114089  0.6516033623678723  0.5466463813714313   F   F   F
  0.2491663063288811  0.4509729180392981  0.5460506243236551   F   F   F
  0.5007746309820220  0.8049119383725625  0.5926686071617624   F   F   F
  0.4182793206021529  0.3495431030393803  0.6398070890080234   F   F   F
  0.4156942573037767  0.5344580619548296  0.6301599834793166   F   F   F
  0.0844617537143506  0.9493882763646866  0.6410517057859479   F   F   F
  0.0840883161441823  0.7496235620403979  0.6396396701528602   F   F   F
  0.0838989654502953  0.2484397821457307  0.6421913673851236   F   F   F
  0.8331704248669070  0.6021725528935278  0.5895644862441713   F   F   F
  0.1708646040964865  0.7996750655676479  0.5946526367362566   F   F   F
  0.0868223034622559  0.5489186154778167  0.6395760972751532   F   F   F
  0.5826432241501251  0.9485571747717216  0.4538358513366063   F   F   F
  0.3351904135177861  0.4041341107498866  0.5933423684777210   F   F   F
  0.6651727499960032  0.7932208965675400  0.5909549453263878   F   F   F
  0.6665115692978603  0.5956266296884820  0.5915284085736374   F   F   F
  0.1671960243580912  0.1998534604169393  0.5923691213394946   F   F   F
  0.4127460621728432  0.8501232918138726  0.6394728021137581   F   F   F
  0.1683030767040279  0.3979167534980306  0.5933288256854823   F   F   F
  0.2483591679237662  0.5486371172445743  0.5491195619892650   F   F   F
  0.5828688618289846  0.4485404167612330  0.5455338437141179   F   F   F
  0.0866894547253736  0.6500203575792582  0.6402410167088348   F   F   F
  0.6662521540359023  0.8991887510047434  0.4988224276332147   F   F   F
  0.0836269884103373  0.4487605312637228  0.6406272662188357   F   F   F
  0.9143361396394809  0.7506738852782462  0.5459671810005133   F   F   F
  0.9172575832131926  0.3508606620869799  0.5453485023157540   F   F   F
  0.9156788034215353  0.5499929002593120  0.5459055119849339   F   F   F
  0.5792853660908008  0.7483411024698654  0.5476934292386346   F   F   F
  0.2517507467136610  0.9499636975544306  0.5450286521830705   F   F   F
  0.4972053380002137  0.6035105900852358  0.6091162772820482   F   F   F
  0.3331057216054774  0.5967647265383746  0.5914291727528678   F   F   F
  0.3353711489659830  0.7927231738268432  0.5906168405242553   F   F   F
  0.6651230372066692  0.3997601166309863  0.5898313019197019   F   F   F
  0.6661434437819267  0.1998509598733165  0.5921197547245995   F   F   F
  0.0857482978520920  0.7508384098547864  0.5459348505982504   F   F   F
  0.9143534267750795  0.8505249820279346  0.6414257438036088   F   F   F
  0.7490548038673950  0.7505832821913074  0.4570411952904010   F   F   F
  0.5831325549234165  0.2524208720840520  0.6386076449599258   F   F   F
  0.4172722694436288  0.9474055760282170  0.6392000727760063   F   F   F
  0.7532714345954474  0.4458138707490491  0.6451759354488047   F   F   F
  0.7486460352001814  0.2519974743073732  0.6396055081326750   F   F   F
  0.5833333134730552  0.3500000000123720  0.3605200052333331   F   F   F
  0.2499999999799343  0.9500000000130839  0.3605200052333331   F   F   F
  0.9166666865332829  0.9500000000130839  0.3605200052333331   F   F   F
  0.2499999999799343  0.7500000000008953  0.3605200052333331   F   F   F
  0.2500201021526891  0.3511091771238313  0.4544510339240659   F   F   F
  0.4166666269218169  0.7500000000008953  0.3605200052333331   F   F   F
  0.9146453096768354  0.3479920587391589  0.6400004199224654   F   F   F
  0.5000315571421723  0.8981949148803210  0.5007573884916070   F   F   F
  0.1676879046187310  0.6995941121569729  0.5001938494263030   F   F   F
  0.9138369563084012  0.6498509896776881  0.6409377625475372   F   F   F
  0.4159543127419312  0.3528350392961457  0.5474612029426140   F   F   F
  0.9166666865332829  0.8499999999890662  0.3605200052333331   F   F   F
  0.7538304656503172  0.5466949047515044  0.6379674087903027   F   F   F
  0.9122383588624317  0.5482546461515625  0.6398866950140345   F   F   F
  0.5899220440377775  0.8478160966209813  0.6464994552658894   F   F   F
  0.4273650770945494  0.4436900563750328  0.6572063009643827   F   F   F
  0.7486522224050489  0.2505296776078154  0.5464453838474057   F   F   F
  0.1673213581104065  0.3004002657594853  0.4999824657267098   F   F   F
  0.9160150313996809  0.5497519154114840  0.4537289798995872   F   F   F
  0.1677808624789705  0.8990728085413977  0.4995298109664645   F   F   F
  0.4201991999031875  0.7408961892705008  0.6338824361589204   F   F   F
  0.8302789800646622  0.8006204510979060  0.5923745474158650   F   F   F
  0.8320797174774412  0.3971327736975567  0.5905866161654743   F   F   F
  0.7425631103275094  0.3513761995547426  0.6408178341469934   F   F   F
  0.5833333134730552  0.2500000000242011  0.3605200052333331   F   F   F
  0.5829340794927660  0.7485688563821142  0.4547748196368602   F   F   F
  0.5830506926081256  0.2521150332400737  0.4537959915250340   F   F   F
  0.9161313881121913  0.3497354744981820  0.4535120398996924   F   F   F
  0.7495121730348018  0.2506859383112570  0.4541798519100908   F   F   F
  0.4171650664964801  0.8471009205916857  0.4554284240267137   F   F   F
  0.7527826345353361  0.6549331499804580  0.6358489672019374   F   F   F
  0.0852808992185174  0.8500019128733811  0.6418888579886612   F   F   F
  0.7414720117447899  0.8484600951638441  0.6396766981774107   F   F   F
  0.9156780929484611  0.7500576411575253  0.6393901959735118   F   F   F
  0.9158735598595058  0.9497218747322407  0.6411337862013937   F   F   F
  0.3972960935532157  0.6404598501595444  0.6523912492462216   F   F   F
  0.2553712127814549  0.7420544701218716  0.6629952630432712   F   F   F
  0.2541311092101850  0.3490036943193999  0.6408565576495633   F   F   F
  0.5808669745409745  0.3531321071923017  0.6447668573479959   F   F   F
  0.5816607413220183  0.9477431606313758  0.6379522845804928   F   F   F
  0.0835796093162031  0.3506815560965677  0.5463374433426580   F   F   F
  0.2488220307944147  0.4527651684897123  0.6413848691351376   F   F   F
  0.1654465683564936  0.6023730298386027  0.5873170069940699   F   F   F
  0.5772776973785199  0.7485437746651868  0.6398641990518428   F   F   F
  0.5796373089168583  0.5505479924538577  0.6460015816650895   F   F   F
  0.7495056133733371  0.9497277878690795  0.4547328604572556   F   F   F
  0.9163607944463408  0.2506010952619917  0.5470212010908000   F   F   F
  0.3355067786195960  0.7004257760127999  0.5040024929180547   F   F   F
  0.3343479444626070  0.5023399692389034  0.5030823178680635   F   F   F
  0.6656891851923206  0.5023014775773902  0.5037014806538664   F   F   F
  0.9145748284643247  0.7498532442059087  0.4536851552318097   F   F   F
  0.0833333358191695  0.2500000000242011  0.3605200052333331   F   F   F
  0.5827998529258451  0.5514965447499307  0.4566797094801061   F   F   F
  0.2499999999799343  0.5499999761504029  0.3605200052333331   F   F   F
  0.7499999404149307  0.3500000000123720  0.3605200052333331   F   F   F
  0.7482753575627186  0.4501701020454476  0.4560345502196625   F   F   F
  0.4171096392987792  0.7470057787001565  0.4544709742405644   F   F   F
  0.7499999404149307  0.5499999761504029  0.3605200052333331   F   F   F
  0.7499999404149307  0.7500000000008953  0.3605200052333331   F   F   F
  0.7499999404149307  0.9500000000130839  0.3605200052333331   F   F   F
  0.2499999999799343  0.3500000000123720  0.3605200052333331   F   F   F
  0.4166666269218169  0.5499999761504029  0.3605200052333331   F   F   F
  0.6653493605120531  0.7001625836192815  0.5030097962082891   F   F   F
  0.2506681337038188  0.9482824170671051  0.4536023635036130   F   F   F
  0.4166666269218169  0.9500000000130839  0.3605200052333331   F   F   F
  0.1665060724069036  0.5008768704298987  0.4978454292504608   F   F   F
  0.9151129919020846  0.4484719295720296  0.6396524606655802   F   F   F
  0.8328011944642384  0.4992655435352518  0.4995312986381464   F   F   F
  0.2529602887346840  0.3509401500231704  0.5474930021269699   F   F   F
  0.8323685290849738  0.6985636704197020  0.5005189677918906   F   F   F
  0.5002862366529115  0.6963652797676474  0.5000772819450177   F   F   F
  0.4997428012882210  0.4985781060939871  0.5002349214176931   F   F   F
  0.9166666865332829  0.6500000000127244  0.3605200052333331   F   F   F
  0.2513681804028849  0.2486462818939827  0.6416360440716389   F   F   F
  0.2617450084268711  0.8402814762520379  0.6461430238753252   F   F   F
  0.2475104963310741  0.6587065568024784  0.6291146817449373   F   F   F
  0.7500717196399691  0.3506358219974501  0.4541613356387515   F   F   F
  0.5877506732256279  0.4562955705512266  0.6343424983331190   F   F   F
  0.9151900524319245  0.2499872166371730  0.6408391789425352   F   F   F
  0.0828508836604058  0.5509522090925429  0.5452144374551793   F   F   F
  0.7543052956952678  0.7545455929874407  0.6555085220118926   F   F   F
  0.9160739786946692  0.4496617023134277  0.4540840891072335   F   F   F
  0.8328514715560829  0.3000790404335802  0.4998904111189546   F   F   F
  0.5000316555760165  0.1999292133953929  0.5916417431392205   F   F   F
  0.9166666865332829  0.7500000000008953  0.3605200052333331   F   F   F
  0.8324222387835363  0.8996135166805033  0.4996553879647436   F   F   F
  0.0000000000000000  0.4000000000243773  0.4070133268666680   F   F   F
  0.0000000000000000  0.6000000000007191  0.4070133268666680   F   F   F
  0.7484075572572380  0.6509994922504490  0.4541236723594366   F   F   F
  0.3333333432766779  0.2000000000121887  0.4070133268666680   F   F   F
  0.3333333432766779  0.6000000000007191  0.4070133268666680   F   F   F
  0.2510873822554203  0.5517909352001453  0.4552767388668855   F   F   F
  0.3336095887573478  0.8982591220533749  0.4994907759922853   F   F   F
  0.6666666865533486  0.2000000000121887  0.4070133268666680   F   F   F
  0.0001246920827569  0.8999581944225810  0.4991230672186120   F   F   F
  0.5903658635737585  0.6524938891909287  0.6387820932836732   F   F   F
  0.0838467492738317  0.9495730592747265  0.4537014995894566   F   F   F
  0.0829671444365445  0.5498222580671595  0.4531759216292457   F   F   F
  0.0837464503312546  0.3498330639076670  0.4537098587311235   F   F   F
  0.9162094727756838  0.8496908424644189  0.4540846285513638   F   F   F
  0.7466441765241285  0.6468822287113625  0.5451348234016820   F   F   F
  0.0002365313101649  0.2996933974394551  0.4986494210331287   F   F   F
  0.9161875242238935  0.2498266193336889  0.4541781285936324   F   F   F
  0.2499999999799343  0.6500000000127244  0.3605200052333331   F   F   F
  0.4993800348850641  0.4027793814237626  0.5914466245513381   F   F   F
  0.2524680673120585  0.6471178735691510  0.5440736484408930   F   F   F
  0.5829281608385202  0.8475524208428595  0.4557084322962766   F   F   F
  0.7498469865485049  0.1499385945269296  0.5468589540134232   F   F   F
  0.2501395835042857  0.1502968932683402  0.5464738300078977   F   F   F
  0.5828746525128636  0.1497972804236412  0.5476083151455384   F   F   F
  0.9163351408631328  0.1506697188796196  0.5463524887643558   F   F   F
  0.0838283465374587  0.0497550321618334  0.5465585002837372   F   F   F
  0.4166666269218169  0.2500000000242011  0.3605200052333331   F   F   F
  0.0000000000000000  0.0000000000000000  0.4070133268666680   F   F   F
  0.5833333134730552  0.4500000000005357  0.3605200052333331   F   F   F
  0.6661733104032876  0.3016342045764588  0.4997653920878022   F   F   F
  0.0833333358191695  0.6500000000127244  0.3605200052333331   F   F   F
  0.9166666865332829  0.2500000000242011  0.3605200052333331   F   F   F
  0.7499547449277557  0.8499604583026610  0.4536732491909703   F   F   F
  0.7489878633175735  0.5502419430827175  0.4556222384236648   F   F   F
  0.2500891681768636  0.2503801974144153  0.4543533039200440   F   F   F
  0.5828368689305421  0.3530773449917604  0.4561557918459584   F   F   F
  0.2519585021923874  0.6518880158922684  0.4537870608104058   F   F   F
  0.9999074777095487  0.4992291047453179  0.4983957266373480   F   F   F
  0.8333332538436267  0.2000000000121887  0.4070133268666680   F   F   F
  0.4165706054266565  0.1511279784302104  0.5462921240484064   F   F   F
  0.4169695571335197  0.3505199669443329  0.4542903066936574   F   F   F
  0.9151320001535410  0.4498769392794415  0.5467100297205150   F   F   F
  0.7499999404149307  0.8499999999890662  0.3605200052333331   F   F   F
  0.0835142620194915  0.4496306980597495  0.4540965075791661   F   F   F
  0.0837961996977725  0.8495932378782030  0.4541686391800752   F   F   F
  0.0839836113596917  0.6499083591185695  0.4542358708562162   F   F   F
  0.6666666865533486  0.6000000000007191  0.4070133268666680   F   F   F
  0.5000000000021103  0.2000000000121887  0.4070133268666680   F   F   F
  0.4172764486142526  0.2505712899586285  0.4549697834406530   F   F   F
  0.8333332538436267  0.4000000000243773  0.4070133268666680   F   F   F
  0.0833333358191695  0.4500000000005357  0.3605200052333331   F   F   F
  0.3333333432766779  0.4000000000243773  0.4070133268666680   F   F   F
  0.5843581306156480  0.4525029822040239  0.4538395524294927   F   F   F
  0.1666666716383389  0.4000000000243773  0.4070133268666680   F   F   F
  0.6666666865533486  0.8000000000129006  0.4070133268666680   F   F   F
  0.7473056150947741  0.8468132480810908  0.5457678819499279   F   F   F
  0.5833205986903991  0.0504358917718335  0.6418569691923821   F   F   F
  0.0000000000000000  0.2000000000121887  0.4070133268666680   F   F   F
  0.5000000000021103  0.8000000000129006  0.4070133268666680   F   F   F
  0.4166666269218169  0.6500000000127244  0.3605200052333331   F   F   F
  0.4166666269218169  0.4500000000005357  0.3605200052333331   F   F   F
  0.4166666269218169  0.8499999999890662  0.3605200052333331   F   F   F
  0.7499999404149307  0.4500000000005357  0.3605200052333331   F   F   F
  0.9163301813946774  0.9496396221197259  0.4537907992001635   F   F   F
  0.5833333134730552  0.9500000000130839  0.3605200052333331   F   F   F
  0.9161157269235289  0.6497701770259070  0.4542405548095161   F   F   F
  0.9998058019781908  0.7019977288123869  0.4972145836748396   F   F   F
  0.3337685354513340  0.3009739784760299  0.4987788794643819   F   F   F
  0.3333333432766779  0.8000000000129006  0.4070133268666680   F   F   F
  0.2515981327500825  0.7500745294842019  0.4561070452327201   F   F   F
  0.6666666865533486  0.4000000000243773  0.4070133268666680   F   F   F
  0.5844193320778857  0.6499105712517093  0.4548919820864512   F   F   F
  0.5000000000021103  0.6000000000007191  0.4070133268666680   F   F   F
  0.9166666865332829  0.4500000000005357  0.3605200052333331   F   F   F
  0.0833333358191695  0.3500000000123720  0.3605200052333331   F   F   F
  0.5000000000021103  0.4000000000243773  0.4070133268666680   F   F   F
  0.5833333134730552  0.6500000000127244  0.3605200052333331   F   F   F
  0.7499999404149307  0.6500000000127244  0.3605200052333331   F   F   F
  0.1666666716383389  0.2000000000121887  0.4070133268666680   F   F   F
  0.2499999999799343  0.2500000000242011  0.3605200052333331   F   F   F
  0.7499999404149307  0.2500000000242011  0.3605200052333331   F   F   F
  0.0836718046293470  0.1505545954232872  0.5463110303712497   F   F   F
  0.9995425996946068  0.5990595378560357  0.5941722343746818   F   F   F
  0.4998946260872046  0.1001119451516530  0.4987944830711015   F   F   F
  0.8333332538436267  0.0000000000000000  0.4070133268666680   F   F   F
  0.0833156761536173  0.0497312230929126  0.4539040046290026   F   F   F
  0.4166347651085118  0.0489760996954303  0.4545083141355448   F   F   F
  0.7499267808902275  0.0499795064273769  0.4536789518232496   F   F   F
  0.2501881104108179  0.0491285461390234  0.4541935864819067   F   F   F
  0.5835594746492632  0.0495418980561411  0.4542983534410325   F   F   F
  0.9166666865332829  0.1500000000001833  0.3605200052333331   F   F   F
  0.2499999999799343  0.1500000000001833  0.3605200052333331   F   F   F
  0.2519459905636410  0.4517401206224321  0.4538539360004208   F   F   F
  0.7499999404149307  0.1500000000001833  0.3605200052333331   F   F   F
  0.5833333134730552  0.8499999999890662  0.3605200052333331   F   F   F
  0.2505243777364115  0.8483043664419441  0.4555128227188661   F   F   F
  0.4158689115066352  0.6470119466253763  0.4581986331180943   F   F   F
  0.0833333358191695  0.9500000000130839  0.3605200052333331   F   F   F
  0.0840572969024009  0.2498294936251000  0.4543079080858448   F   F   F
  0.2499999999799343  0.4500000000005357  0.3605200052333331   F   F   F
  0.8333332538436267  0.8000000000129006  0.4070133268666680   F   F   F
  0.1666666716383389  0.0000000000000000  0.4070133268666680   F   F   F
  0.0833333358191695  0.5499999761504029  0.3605200052333331   F   F   F
  0.6666666865533486  0.0000000000000000  0.4070133268666680   F   F   F
  0.0846426309760844  0.7499932692674847  0.4535972053084123   F   F   F
  0.4172519201340279  0.0504170431644795  0.5475343612133514   F   F   F
  0.4172312939032778  0.5480137455377516  0.4541100187303400   F   F   F
  0.1666666716383389  0.6000000000007191  0.4070133268666680   F   F   F
  0.2499999999799343  0.8499999999890662  0.3605200052333331   F   F   F
  0.7520769891584891  0.5493240866808335  0.5486793315502965   F   F   F
  0.4230985077381391  0.5546358264381723  0.5461422786184471   F   F   F
  0.4229420700719899  0.7501064205310399  0.5466540457279905   F   F   F
  0.7492110658857740  0.3502918739934913  0.5469541120667216   F   F   F
  0.8325690227052860  0.2007067560731457  0.5919077833873700   F   F   F
  0.7477496019181089  0.9479805143110056  0.6394060356912235   F   F   F
  0.5833333134730552  0.1500000000001833  0.3605200052333331   F   F   F
  0.0833333358191695  0.0500000000120124  0.3605200052333331   F   F   F
  0.4166666269218169  0.0500000000120124  0.3605200052333331   F   F   F
  0.7499999404149307  0.0500000000120124  0.3605200052333331   F   F   F
  0.2499999999799343  0.0500000000120124  0.3605200052333331   F   F   F
  0.5833333134730552  0.0500000000120124  0.3605200052333331   F   F   F
  0.9166666865332829  0.0500000000120124  0.3605200052333331   F   F   F
  0.3333333432766779  0.0000000000000000  0.4070133268666680   F   F   F
  0.4155448127629811  0.4490126447617868  0.4573134348280163   F   F   F
  0.5000000000021103  0.0000000000000000  0.4070133268666680   F   F   F
  0.4166666269218169  0.3500000000123720  0.3605200052333331   F   F   F
  0.4165959091942284  0.1499491226060599  0.6415082834155967   F   F   F
  0.5828865232032712  0.1503201099959526  0.6428097162864290   F   F   F
  0.9159773227393444  0.1497101189678105  0.6407516439072509   F   F   F
  0.2506495636318107  0.1484931911066525  0.6412173208417826   F   F   F
  0.7498334377345870  0.1501540997716404  0.6417951519275036   F   F   F
  0.5825671165145252  0.0502617194673007  0.5473315736183437   F   F   F
  0.2499929364572537  0.0499900377459497  0.5468827907163742   F   F   F
  0.7500202977172421  0.0492583028626541  0.5462143507070536   F   F   F
  0.8332256580200905  0.1001369263412712  0.4988357451826531   F   F   F
  0.2500806076230617  0.1498831979945550  0.4536993789783068   F   F   F
  0.5830556166941321  0.1513071362656149  0.4547894396027559   F   F   F
  0.9166050625575721  0.1499628364691503  0.4537370998477286   F   F   F
  0.0000090771404473  0.1000517410621811  0.4991114920435180   F   F   F
  0.3335133264535628  0.0999073232772005  0.4989602545864997   F   F   F
  0.8333332538436267  0.6000000000007191  0.4070133268666680   F   F   F
  0.1667645218978322  0.0998784487853257  0.4987493744837437   F   F   F
  0.6663301249090949  0.1001066572716880  0.4990090238944944   F   F   F
  0.0833531349680925  0.1486442040921006  0.6404310367680637   F   F   F
  0.0836043685062080  0.0497231353956380  0.6404510011111739   F   F   F
  0.9159418060703004  0.0499966530484173  0.6402957641088420   F   F   F
  0.4172794516643350  0.0494125410628996  0.6428788734270654   F   F   F
  0.0833333358191695  0.8499999999890662  0.3605200052333331   F   F   F
  0.2514581801998830  0.2508553294739144  0.5475011165976724   F   F   F
  0.7497672507634690  0.0501023355963000  0.6408531230053995   F   F   F
  0.0833333358191695  0.7500000000008953  0.3605200052333331   F   F   F
  0.0833333358191695  0.1500000000001833  0.3605200052333331   F   F   F
  0.4166666269218169  0.1500000000001833  0.3605200052333331   F   F   F
  0.9166320573722047  0.0497649716642599  0.4538803737938011   F   F   F
  0.0833553394267881  0.1499979063059342  0.4537625403918852   F   F   F
  0.4166062654216702  0.1502996303312258  0.4538803013311821   F   F   F
  0.4144592287778224  0.8487256809801238  0.5479435821410803   F   F   F
  0.9162899826844253  0.0498956144672675  0.5465135127331209   F   F   F
  0.7498410652766552  0.1505473109582667  0.4541728337701159   F   F   F
  0.4996970517145272  0.0001863351037130  0.5916194357047857   F   F   F
  0.1673971991137009  0.9983841428468452  0.5921961726308425   F   F   F
  0.8325884019458556  0.9983736526594740  0.5920332753343800   F   F   F
  0.0000032087393578  0.9992191650941393  0.5921942848763848   F   F   F
  0.3340767114863539  0.0000432472523926  0.5918123270505902   F   F   F
  0.6660015277996081  0.0001830009959818  0.5918916644289709   F   F   F
  0.1629761409164132  0.4966499907933084  0.6076352207343945   F   F   F
  0.1666666716383389  0.6999999999888900  0.4070133268666680   F   F   F
  0.6646841174066154  0.9035533373977387  0.6059837925987708   F   F   F
  0.0003459580131491  0.2983773338323772  0.6209291673919779   F   F   F
  0.8335375460747088  0.1994577917188920  0.5057951109852894   F   F   F
  0.8333332538436267  0.6999999999888900  0.4070133268666680   F   F   F
  0.3333333432766779  0.8999999523244711  0.4070133268666680   F   F   F
  0.3339060776052563  0.8007630342440919  0.5016398647853748   F   F   F
  0.3312013427387797  0.5991978011092769  0.5011946957693780   F   F   F
  0.3333333432766779  0.5000000000125482  0.4070133268666680   F   F   F
  0.9995944169609174  0.6000585741596254  0.5067700386845431   F   F   F
  0.3328437284336161  0.1992960628304346  0.5058915489227473   F   F   F