Au C  H  O  Sr Ti
 1.0000000000000000
    23.6707801818999997    0.0000000000000000    0.0000000000000000
     0.0000000000000000   27.8962826732999716    0.0000000000000000
     0.0000000000000000    0.0000000000000000   30.0000000000000000
 Au  C   H   O   Sr  Ti 
  50   4   9 330  90  90
Selective dynamics
Cartesian
 16.8599303895035071 17.4492490148212624 22.6434128588753651   F   F   F
 15.6887205643218000  9.5720644925687157 22.1958038793067836   T   T   T
 11.1686001339809700 15.6151148524872099 26.3216383552917321   F   F   F
  6.6787611794701887 13.1562336746182087 21.0716383342389371   F   F   F
 15.8501211661514514 20.8172249308463542 22.4556705777608876   F   F   F
  9.4170908179840467 14.1112715471896948 20.7231693921118953   F   F   F
 10.6839655288556603 18.5287788704793002 21.1095896445546067   F   F   F
  8.8792857287073534 16.5707766228938418 24.9976833360913666   F   F   F
  6.8464725954019254 17.5797103826179288 23.3348599691519283   F   F   F
  8.7069206151623160 19.3941087778270749 24.6068492951498641   F   F   F
 14.1201335096693139 23.0826577567922762 21.4018848018198433   F   F   F
 18.3444436601703025 15.4266226030259048 23.8295295210100448   F   F   F
 16.4293679925388929 13.5697599196088134 22.9210663574350235   T   T   T
 15.2847860241672446 15.5326683005544162 20.8675505933639442   F   F   F
 13.2664942699817985 19.9337298296665431 25.9410447154463881   F   F   F
 12.7710937185907785 20.5010279060461045 21.0717785016115187   F   F   F
 10.4989816519375996 16.1424832032371199 22.6973850802284502   F   F   F
  8.8444165132455161 22.1218764211741856 23.3716314092419815   F   F   F
 10.8942913332650022 18.3815825403402862 25.9615761408634711   F   F   F
 15.5229247472942600 15.6938071857504582 24.5143525009476981   F   F   F
 16.7363805090576001 22.4828145300858182 20.6337796944731870   F   F   F
  9.8429332452421736 21.1220876973746243 20.9943829772833261   F   F   F
  7.6994056379243219 14.8339819228418381 23.0813592426932885   F   F   F
  6.0875417237035441 18.8167154565420596 20.8395191088774574   F   F   F
  9.2793934051059122 23.8351531459785946 21.1960091397332313   F   F   F
 12.3060281219335277 14.0360931351587848 21.9916231600056697   F   F   F
 13.0713775095994560 14.1747828947359498 24.8070293268467061   F   F   F
  6.9621394314348244 22.2522297903966013 20.8999644090687653   F   F   F
 12.0309983127040780 19.1220945610029176 23.3513579748713056   F   F   F
 13.6701855071068170 21.7331262160508132 23.8305036145241402   F   F   F
  5.6895255057333260 16.0472824834680523 21.2775911530092685   F   F   F
  6.7566658587431654 20.3607070008846307 22.9326070206535064   F   F   F
 14.2423883220050982 11.9004339275720739 23.5234202368905230   F   F   F
 12.1603311742672471 16.4062033493767494 20.3490906647980019   F   F   F
 13.4237904908541115 17.0620856523913353 25.7584077459635168   F   F   F
 11.4945861561404179 11.6243839923297418 23.2247446962655886   F   F   F
 14.6542815196716791 12.7337491719322475 20.9259247041181737   F   F   F
 10.9104551548494246 21.1587385971288597 24.9834240522426256   F   F   F
 13.3011959610550292 16.5101865931052103 22.9003203681252572   F   F   F
 10.3293216042343836 10.6373366066393178 20.9459588630864566   F   F   F
 13.1097707913595709 10.3586830141045017 21.2750305226960883   F   F   F
 17.4343360177518036 11.0595289429367405 20.8170983392492381   T   T   T
 18.0122481849922309 15.3818185060800126 21.1312013196083335   F   F   F
 11.4988058267356621 22.9016776462755729 22.6577847011298026   F   F   F
 14.6839206202003663 18.3542643273061366 21.1129850453002526   F   F   F
 14.9033504299542514 18.7567241407981271 24.0347763348580834   F   F   F
 10.1831506312556854 13.8573672676270014 24.4576683184848385   F   F   F
  8.2611436905099698 16.7389310769588953 20.9377042684196972   F   F   F
  8.7545897966775748 12.2518523809455875 22.6756427415559507   F   F   F
 17.3366124772552901 19.3443625984903242 20.7970352513892038   F   F   F
 15.2615649632647639  6.7048194602815476 23.7481978268682639   T   T   T
 17.8694909894761373 12.0794678389221488 22.5103973653203262   T   T   T
 16.3947453802385787  6.7372864746748853 22.7154463298630631   T   T   T
 17.1192250846003162  8.0602106021203621 22.5761112697359252   T   T   T
 17.1802465413569578  6.0239409944908546 23.0167703019650745   T   T   T
 17.6027852047543263  8.4036718316107883 23.4940504528384047   T   T   T
 15.5698238894237129  7.1585760919255836 24.6950731627731273   T   T   T
 14.9501490314450152  5.6791440791755106 23.9488403859716037   T   T   T
 14.3816997164779607  7.2446537011428918 23.3817854793475561   T   T   T
 16.0425213255288988  6.3899137401653769 21.7400564271236512   T   T   T
 17.8045083461942255  8.0769411317832400 21.7297222314583678   T   T   T
 17.8476121052834387 11.4637357454015358 23.4127496988915205   T   T   T
 18.8129750037860752 12.6194876683599322 22.4064337432448397   T   T   T
  3.9451301480000271 22.3170261389998572 12.2103998060000407   F   F   F
 13.7750317425350932  9.7039458878293718 16.5273736627457382   F   F   F
  0.0018183447864979 22.3734483020880965 17.7801784015127282   F   F   F
  7.9024494768909133  5.5800260016399230 17.7635095123347142   F   F   F
 23.6665473542116942  5.5793796857542750 17.7707068395280601   F   F   F
  0.0159367480766545 11.1149861407599886 17.7717381227440931   F   F   F
  1.9919728593277402 26.5087854361097826 16.3870058880979421   F   F   F
  9.9357590065013230 18.1821254325126311 16.6718323269958972   F   F   F
  1.9849811802092387  9.7108156609602592 19.2639970842049664   F   F   F
 21.7235325423660335 18.1603216213444050 16.4103510371097272   F   F   F
  5.9874965974498631 23.7102766416795561 16.5244758975659138   F   F   F
 13.8623487691848677 23.7638900528889856 16.5233753700471091   F   F   F
 17.7432227554030142 12.6075819915548379 16.5171903430057618   F   F   F
 13.7500287000714607 18.0639738161246868 16.4665825748832511   F   F   F
  9.8546383593837863 12.6956727309508057 16.5768273538465678   F   F   F
 13.6499432811334529 15.2935372246173102 16.5739714092215777   F   F   F
  9.8599379976090447  7.0436479752422274 16.4190312668458880   F   F   F
  0.0000000000000000 22.3170261389998572 12.2103998060000407   F   F   F
 11.8306063240718018  8.4094386069191636 15.0085812985167735   F   F   F
  9.8498418188539620 26.4571467820575812 16.4014857083716805   F   F   F
  2.0205254660920327 23.7004362764133489 16.4050613613803016   F   F   F
 13.8079546360000549 15.3429548049998807 10.8156001569999933   F   F   F
 13.8079546360000549 20.9222120049999525 10.8156001569999933   F   F   F
  2.0308452653068763 12.5748661811961480 16.4123020193960834   F   F   F
 21.6982156369999721  9.7636989360001234 10.8156001569999933   F   F   F
 21.6982156369999721 15.3429548049998807 10.8156001569999933   F   F   F
  5.9693968836149676 26.3737704868582128 19.1196309501721835   F   F   F
  5.9280984148311058  1.3532235798698484 19.2498284985756811   F   F   F
  5.6716797049842160 15.4383847696285557 19.2512778331205858   F   F   F
 21.6747585151787163 23.7035062662274392 16.3920464525641165   F   F   F
  5.8993726318600945 20.8192163472405909 16.5664669351031861   F   F   F
 17.7105800570281353 26.4409990271756250 16.4124359860959537   F   F   F
 17.7793287741765198 20.7795517592208867 16.5787253153153920   F   F   F
 21.6871270344759388 26.5142785400169991 16.3879892161420457   F   F   F
  9.8981033208944620  7.0325450034876065 19.1758775966670925   F   F   F
 13.8165570820109913 26.5220049846054451 16.3686426879996709   F   F   F
  1.9614996799627649  6.9755832823820505 16.4206394709217598   F   F   F
  9.8774135869630655 26.4455778625866778 13.6246678478627068   F   F   F
 13.8091471415742042  6.9649713432735947 16.3738429462723687   F   F   F
  1.9240326175648710 18.1773115874869013 16.3993914411429103   F   F   F
  5.8979608658469269 12.5804679996271407 16.3815187297096827   F   F   F
 11.8537262106474639 22.4540509599547100 17.7800582148528470   F   F   F
  9.9009978526079987  9.7509532088890509 19.1942126702407165   F   F   F
  9.8398073875159451 14.9093931733159764 18.9047995043794046   F   F   F
  1.9992756059501451 26.4844037241863397 19.2315511735785165   F   F   F
  1.9904360473150522 20.9117107852450523 19.1891901045857232   F   F   F
  1.9859539686627747  6.9305463900304618 19.2657410215536338   F   F   F
 19.7217939810847298 16.7983757536206149 17.6869345873250445   F   F   F
  4.0444984844353327 22.3079616758647745 17.8395791020876189   F   F   F
  2.0551516601412416 15.3127888620056716 19.1872829182545246   F   F   F
 13.7916196833310618 26.4612190792186937 13.6150755400982195   F   F   F
  7.9342185974597363 11.2738393914015695 17.8002710543317306   F   F   F
 15.7451579481452590 22.1279143530165250 17.7286483597915456   F   F   F
 15.7768488455428741 16.6157688295347690 17.7458522572090587   F   F   F
  3.9576603398679064  5.5751686250280308 17.7710736401849410   F   F   F
  9.7700213086382046 23.7152796555960776 19.1841840634127259   F   F   F
  3.9838651325984307 11.1003982360228051 17.7998647705644508   F   F   F
  5.8788552700830943 15.3049361077191222 16.4735868596779653   F   F   F
 13.7969607032281285 12.5126102563710919 16.3660153114234461   F   F   F
  2.0520070268930528 18.1331516384305296 19.2072305012650304   F   F   F
 15.7707082839012287 25.0840235746798541 14.9646728289963740   F   F   F
  1.9795160599354711 12.5187506327530631 19.2188179865651101   F   F   F
 21.6430497737731962 20.9410108991862955 16.3790154300153716   F   F   F
 21.7122026224203388  9.7877082085195095 16.3604550694726463   F   F   F
 21.6748316730163779 15.3427574139417651 16.3771653595480160   F   F   F
 13.7121365633268333 20.8759349305483504 16.4308028771589782   F   F   F
  5.9591365860883121 26.5004558363516196 16.3508595654920690   F   F   F
 11.7692382610703792 16.8357020173477849 18.2734883184615349   F   F   F
  7.8848723134563929 16.6475175009689949 17.7428751825860580   F   F   F
  7.9384967465249945 22.1140297387492097 17.7185052157276246   F   F   F
 15.7439812076367467 11.1518212150493152 17.6949390575911387   F   F   F
 15.7681350273758678  5.5750988691564203 17.7635926417379544   F   F   F
  2.0297291094288843 20.9456005232802376 16.3780455179475624   F   F   F
 21.6434589737599481 23.7264853193546443 19.2427723141083717   F   F   F
 17.7307116065413375 20.9384834098620161 13.7112358587119800   F   F   F
 13.8032025245019572  7.0416040002975979 19.1582293487977182   F   F   F
  9.8771601660026516 26.4290937551437857 19.1760021832801328   F   F   F
 17.8305225456133449 12.4365497580934381 19.3552780634641124   F   F   F
 17.7210357332744834  7.0297927762360661 19.1881652439801620   F   F   F
 13.8079546360000549  9.7636989360001234 10.8156001569999933   F   F   F
  5.9176950450000287 26.5014685399999657 10.8156001569999933   F   F   F
 21.6982156369999721 26.5014685399999657 10.8156001569999933   F   F   F
  5.9176950450000287 20.9222120049999525 10.8156001569999933   F   F   F
  5.9181708791124654  9.7946408542361265 13.6335310177219160   F   F   F
  9.8628241350000643 20.9222120049999525 10.8156001569999933   F   F   F
 21.6503680697661878  9.7076848386512360 19.2000125976740605   F   F   F
 11.8361370731255562 25.0562992412220353 15.0227216547482367   F   F   F
  3.9693035293934047 19.5160751093072626 15.0058154827891492   F   F   F
 21.6312337148726854 18.1284269035724499 19.2281328764260984   F   F   F
  9.8459631026275538  9.8427859932502066 16.4238360882783496   F   F   F
 21.6982156369999721 23.7118402719999644 10.8156001569999933   F   F   F
 17.8437552468279463 15.2507555990007830 19.1390222637090233   F   F   F
 21.5933936661297778 15.2942665859940927 19.1966008504209675   F   F   F
 13.9639150288753200 23.6509174863126148 19.3949836579766028   F   F   F
 10.1160647973258779 12.3773032319703091 19.7161890289314563   F   F   F
 17.7211821892407784  6.9888467045982452 16.3933615154222743   F   F   F
  3.9606270875684788  8.3800507287610948 14.9994739718013452   F   F   F
 21.6827904515780752 15.3360348325069342 13.6118693969876947   F   F   F
  3.9715039144693325 25.0807892109484776 14.9858943289939681   F   F   F
  9.9464428935185918 20.6682495274605671 19.0164730847676253   F   F   F
 19.6533512267628048 22.3343344178521193 17.7712364224759263   F   F   F
 19.6959760862260396 11.0785281138987148 17.7175984849642560   F   F   F
 17.5770481557504930  9.8020897874490114 19.2245350244097786   F   F   F
 13.8079546360000549  6.9740706690001133 10.8156001569999933   F   F   F
 13.7985044562115480 20.8822884180643129 13.6432445891058372   F   F   F
 13.8012647796315200  7.0330722334534359 13.6138797457509533   F   F   F
 21.6855447057426467  9.7563196574820452 13.6053611969908470   F   F   F
 17.7415378915649100  6.9932057973522586 13.6253955573026388   F   F   F
  9.8746225886058365 23.6309667336382212 13.6628527208014408   F   F   F
 17.8189522668374174 18.2702002839696043 19.0754690160581433   F   F   F
  2.0186654191163260 23.7118936343615125 19.2566657396598089   F   F   F
 17.5512210010421015 23.6688826517056441 19.1903009453222282   F   F   F
 21.6748148555643354 20.9238199789989920 19.1817058792053317   F   F   F
 21.6794417098485965 26.4937098785470617 19.2340135860417192   F   F   F
  9.4043084976257632 17.8664490209500357 19.5717374773866446   F   F   F
  6.0448358425349573 20.7005612575055764 19.8898578912980568   F   F   F
  6.0154816234966617  9.7359057107599831 19.2256967294868168   F   F   F
 13.7495744692847044  9.8510730832544642 19.3430057204399191   F   F   F
 13.7683635482745554 26.4385111106595971 19.1385685374147556   F   F   F
  1.9783945598129391  9.7827118171824736 16.3901233002798001   F   F   F
  5.8898115953485597 12.6304651248132629 19.2415460740540780   F   F   F
  3.9162493514162260 16.8039683151498203 17.6195102098221170   F   F   F
 13.6646134785602911 20.8815887313989492 19.1959259715552975   F   F   F
 13.7204673245989408 15.3582424227105392 19.3800474499526025   F   F   F
 17.7413826192604454 26.4938748330837619 13.6419858137177581   F   F   F
 21.6909749326505654  6.9908389916670144 16.4106360327239287   F   F   F
  7.9417072062418193 19.5392754393185868 15.1200747875416894   F   F   F
  7.9142766976444801 14.0134177799851756 15.0924695360418841   F   F   F
 15.7573823721555542 14.0123440057150557 15.1110444196159790   F   F   F
 21.6486997244779502 20.9181180638590867 13.6105546569542337   F   F   F
  1.9725650740000149  6.9740706690001133 10.8156001569999933   F   F   F
 13.7953272086512815 15.3847035056923591 13.7003912844030822   F   F   F
  5.9176950450000287 15.3429548049998807 10.8156001569999933   F   F   F
 17.7530837259999217  9.7636989360001234 10.8156001569999933   F   F   F
 17.7122615043998159 12.5580724177281908 13.6810365065898090   F   F   F
  9.8733105835930797 20.8386843612080739 13.6341292272170040   F   F   F
 17.7530837259999217 15.3429548049998807 10.8156001569999933   F   F   F
 17.7530837259999217 20.9222120049999525 10.8156001569999933   F   F   F
 17.7530837259999217 26.5014685399999657 10.8156001569999933   F   F   F
  5.9176950450000287  9.7636989360001234 10.8156001569999933   F   F   F
  9.8628241350000643 15.3429548049998807 10.8156001569999933   F   F   F
 15.7493384568486157 19.5319333499114585 15.0902938862485811   F   F   F
  5.9335102915101805 26.4535543606241781 13.6080709051083257   F   F   F
  9.8628241350000643 26.5014685399999657 10.8156001569999933   F   F   F
  3.9413286388952899 13.9726027620303874 14.9353628775138372   F   F   F
 21.6614384729151048 12.5106997183815203 19.1895738199674781   F   F   F
 19.7130540093867381 13.9276527314980800 14.9859389591443257   F   F   F
  5.9877673893886598  9.7899256264567356 16.4247900638091409   F   F   F
 19.7028124823018587 19.4873296153259723 15.0155690337566803   F   F   F
 11.8421655358409943 19.4260026882698078 15.0023184583505973   F   F   F
 11.8293019967804653 13.9084757823164527 15.0070476425308534   F   F   F
 21.6982156369999721 18.1325837379999442 10.8156001569999933   F   F   F
  5.9500809430409047  6.9363069653794804 19.2490813221491237   F   F   F
  6.1957085581819866 23.4407295866647054 19.3842907162598053   F   F   F
  5.8587665513658926 18.3754643073180617 18.8734404523482020   F   F   F
 17.7547827962574658  9.7814360058257996 13.6248400691626017   F   F   F
 13.9125169876876331 12.7289502186716312 19.0302749499935189   F   F   F
 21.6632625557776279  6.9737140600220950 19.2251753682760196   F   F   F
  1.9611450550016079 15.3695185643247036 16.3564331236552860   F   F   F
 17.8549948444457804 21.0490171518703804 19.6652556603567774   F   F   F
 21.6841857800399787 12.5438899550925473 13.6225226732169755   F   F   F
 19.7142441073759827  8.3710897362678569 14.9967123335685972   F   F   F
 11.8361394031314706  5.5772818515284897 17.7492522941766779   F   F   F
 21.6982156369999721 20.9222120049999525 10.8156001569999933   F   F   F
 19.7040838327701096 25.0958729580407542 14.9896616389422803   F   F   F
  0.0000000000000000 11.1585130700000246 12.2103998060000407   F   F   F
  0.0000000000000000 16.7377696040000430 12.2103998060000407   F   F   F
 17.7153907743088759 18.1604658559932588 13.6237101707831609   F   F   F
  7.8902602960000570  5.5792565350000141 12.2103998060000407   F   F   F
  7.8902602960000570 16.7377696040000430 12.2103998060000407   F   F   F
  5.9434342318166822 15.3929159049077864 13.6583021660064574   F   F   F
  7.8967992420492061 25.0580903826712458 14.9847232797684633   F   F   F
 15.7805205919999434  5.5792565350000141 12.2103998060000407   F   F   F
  0.0029515588813595 25.1054881857650543 14.9736920165582728   F   F   F
 13.9744205835519608 18.2021539754709991 19.1634627985101673   F   F   F
  1.9847179710277796 26.4895584804779318 13.6110449876837656   F   F   F
  1.9638970382773924 15.3379971311135783 13.5952776488774116   F   F   F
  1.9823438168055174  9.7590420392348154 13.6112957619336541   F   F   F
 21.6873930306476517 23.7032159263019011 13.6225388565408192   F   F   F
 17.6736501765984286 18.0456095084663914 16.3540447020505155   F   F   F
  0.0055988806490336  8.3603317302927476 14.9594826309938309   F   F   F
 21.6868734913029684  6.9692339922475046 13.6253438578090300   F   F   F
  5.9176950450000287 18.1325837379999442 10.8156001569999933   F   F   F
 11.8207150329939328 11.2360474791742089 17.7433987365401542   F   F   F
  5.9761161242929095 18.0521831240298241 16.3222094532267050   F   F   F
 13.7983643570478698 23.6435619122721441 13.6712529688882292   F   F   F
 17.7494631886498446  4.1827294165605391 16.4057686204026254   F   F   F
  5.9209990959219168  4.1927246195324814 16.3942149002369426   F   F   F
 13.7970977732333626  4.1787872783895068 16.4282494543661173   F   F   F
 21.6903676923216473  4.2031250681725574 16.3905746629307600   F   F   F
  1.9842823639003206  1.3879804416055914 16.3967550085121090   F   F   F
  9.8628241350000643  6.9740706690001133 10.8156001569999933   F   F   F
  0.0000000000000000  0.0000000000000000 12.2103998060000407   F   F   F
 13.8079546360000549 12.5533272029999310 10.8156001569999933   F   F   F
 15.7688419936049335  8.4144730348009205 14.9929617626340956   F   F   F
  1.9725650740000149 18.1325837379999442 10.8156001569999933   F   F   F
 21.6982156369999721  6.9740706690001133 10.8156001569999933   F   F   F
 17.7520139135577431 23.7107372059385213 13.6101974757290130   F   F   F
 17.7291270715011855 15.3497047829412328 13.6686671527098493   F   F   F
  5.9198057257887280  6.9846767628690793 13.6305991176012284   F   F   F
 13.7962034063617072  9.8495454214284468 13.6846737553788209   F   F   F
  5.9640543203568139 18.1852523626673914 13.6136118243121444   F   F   F
 23.6685901071008580 13.9266362247139277 14.9518717991203829   F   F   F
 19.7256482699999580  5.5792565350000141 12.2103998060000407   F   F   F
  9.8605512312954016  4.2159088061335579 16.3887637214521149   F   F   F
  9.8699947294517223  9.7782040805149482 13.6287092008097339   F   F   F
 21.6618884130569427 12.5498942663382973 16.4013008916154703   F   F   F
 17.7530837259999217 23.7118402719999644 10.8156001569999933   F   F   F
  1.9768477383170424 12.5430250516679465 13.6228952273750270   F   F   F
  1.9835214231245537 23.7004931211746275 13.6250591754022690   F   F   F
  1.9879576033772990 18.1300272977121217 13.6270761256864859   F   F   F
 15.7805205919999434 16.7377696040000430 12.2103998060000407   F   F   F
 11.8353900909999528  5.5792565350000141 12.2103998060000407   F   F   F
  9.8772590902318438  6.9900075344992967 13.6490935032196781   F   F   F
 19.7256482699999580 11.1585130700000246 12.2103998060000407   F   F   F
  1.9725650740000149 12.5533272029999310 10.8156001569999933   F   F   F
  7.8902602960000570 11.1585130700000246 12.2103998060000407   F   F   F
 13.8322128573089334 12.6231511020746492 13.6151865728847206   F   F   F
  3.9451301480000271 11.1585130700000246 12.2103998060000407   F   F   F
 15.7805205919999434 22.3170261389998572 12.2103998060000407   F   F   F
 17.6893069436079990 23.6229417399654942 16.3730364584978112   F   F   F
 13.8076536671747920  1.4069738937469338 19.2557090757715272   F   F   F
  0.0000000000000000  5.5792565350000141 12.2103998060000407   F   F   F
 11.8353900909999528 22.3170261389998572 12.2103998060000407   F   F   F
  9.8628241350000643 18.1325837379999442 10.8156001569999933   F   F   F
  9.8628241350000643 12.5533272029999310 10.8156001569999933   F   F   F
  9.8628241350000643 23.7118402719999644 10.8156001569999933   F   F   F
 17.7530837259999217 12.5533272029999310 10.8156001569999933   F   F   F
 21.6902502978339484 26.4914153364176101 13.6137239760049802   F   F   F
 13.8079546360000549 26.5014685399999657 10.8156001569999933   F   F   F
 21.6851739931884353 18.1261725309948645 13.6272166442855109   F   F   F
 23.6661833632140244 19.5831270789650027 14.9164375102452862   F   F   F
  7.9005616343032594  8.3960551808751287 14.9633663839315147   F   F   F
  7.8902602960000570 22.3170261389998572 12.2103998060000407   F   F   F
  5.9555240945037431 20.9242911005337504 13.6832113569816478   F   F   F
 15.7805205919999434 11.1585130700000246 12.2103998060000407   F   F   F
 13.8336615436684554 18.1300890080035835 13.6467594625934492   F   F   F
 11.8353900909999528 16.7377696040000430 12.2103998060000407   F   F   F
 21.6982156369999721 12.5533272029999310 10.8156001569999933   F   F   F
  1.9725650740000149  9.7636989360001234 10.8156001569999933   F   F   F
 11.8353900909999528 11.1585130700000246 12.2103998060000407   F   F   F
 13.8079546360000549 18.1325837379999442 10.8156001569999933   F   F   F
 17.7530837259999217 18.1325837379999442 10.8156001569999933   F   F   F
  3.9451301480000271  5.5792565350000141 12.2103998060000407   F   F   F
  5.9176950450000287  6.9740706690001133 10.8156001569999933   F   F   F
 17.7530837259999217  6.9740706690001133 10.8156001569999933   F   F   F
  1.9805768948040867  4.1999135516922532 16.3893309111375025   F   F   F
 23.6599531598158848 16.7115342061684800 17.8251670312403760   F   F   F
 11.8328958082233182  2.7927511209244820 14.9638344921329782   F   F   F
 19.7256482699999580  0.0000000000000000 12.2103998060000407   F   F   F
  1.9721470559386711  1.3873162570889197 13.6171201388700442   F   F   F
  9.8620699410210531  1.3662511213394610 13.6352494240663571   F   F   F
 17.7513519829724835  1.3942424391701496 13.6103685546974038   F   F   F
  5.9221477656593882  1.3705038104224567 13.6258075944572816   F   F   F
 13.8133080474878138  1.3820347923459282 13.6289506032309884   F   F   F
 21.6982156369999721  4.1844424010001093 10.8156001569999933   F   F   F
  5.9176950450000287  4.1844424010001093 10.8156001569999933   F   F   F
  5.9637581603429579 12.6018700997540840 13.6156180800126627   F   F   F
 17.7530837259999217  4.1844424010001093 10.8156001569999933   F   F   F
 13.8079546360000549 23.7118402719999644 10.8156001569999933   F   F   F
  5.9301074756059187 23.6645383992590688 13.6653846815659055   F   F   F
  9.8439415887595789 18.0492281560635597 13.7459589935428976   F   F   F
  1.9725650740000149 26.5014685399999657 10.8156001569999933   F   F   F
  1.9897017976614426  6.9693141742931468 13.6292372425753037   F   F   F
  5.9176950450000287 12.5533272029999310 10.8156001569999933   F   F   F
 19.7256482699999580 22.3170261389998572 12.2103998060000407   F   F   F
  3.9451301480000271  0.0000000000000000 12.2103998060000407   F   F   F
  1.9725650740000149 15.3429548049998807 10.8156001569999933   F   F   F
 15.7805205919999434  0.0000000000000000 12.2103998060000407   F   F   F
  2.0035571118525759 20.9220242425582192 13.6079161592524205   F   F   F
  9.8766784819682751  1.4064480876683394 16.4260308364004644   F   F   F
  9.8761902429942605 15.2875463543749159 13.6233005619102308   F   F   F
  3.9451301480000271 16.7377696040000430 12.2103998060000407   F   F   F
  5.9176950450000287 23.7118402719999644 10.8156001569999933   F   F   F
 17.8022490902357724 15.3241000013007849 16.4603799465088763   F   F   F
 10.0150717719593843 15.4722777950585879 16.3842683585534630   F   F   F
 10.0113687703517620 20.9251807421911167 16.3996213718396255   F   F   F
 17.7344104504291167  9.7718411350824059 16.4086233620015811   F   F   F
 19.7075583227161069  5.5989724018576057 17.7572335016211724   F   F   F
 17.6998164581067350 26.4451323960000728 19.1821810707366325   F   F   F
 13.8079546360000549  4.1844424010001093 10.8156001569999933   F   F   F
  1.9725650740000149  1.3948141340000999 10.8156001569999933   F   F   F
  9.8628241350000643  1.3948141340000999 10.8156001569999933   F   F   F
 17.7530837259999217  1.3948141340000999 10.8156001569999933   F   F   F
  5.9176950450000287  1.3948141340000999 10.8156001569999933   F   F   F
 13.8079546360000549  1.3948141340000999 10.8156001569999933   F   F   F
 21.6982156369999721  1.3948141340000999 10.8156001569999933   F   F   F
  7.8902602960000570  0.0000000000000000 12.2103998060000407   F   F   F
  9.8362699186412907 12.5257836621607446 13.7194030448405915   F   F   F
 11.8353900909999528  0.0000000000000000 12.2103998060000407   F   F   F
  9.8628241350000643  9.7636989360001234 10.8156001569999933   F   F   F
  9.8611501912153390  4.1830231108320062 19.2452485024679447   F   F   F
 13.7973787617366490  4.1933722799287132 19.2842914885928209   F   F   F
 21.6818978581682735  4.1763557977793342 19.2225493172175419   F   F   F
  5.9330707234178046  4.1424080341715452 19.2365196252533863   F   F   F
 17.7491424776537841  4.1887412117844702 19.2538545578250577   F   F   F
 13.7898181562185886  1.4021151339059941 16.4199472085503757   F   F   F
  5.9175278459074105  1.3945362238100152 16.4064837214911279   F   F   F
 17.7535655992279970  1.3741235406636452 16.3864305212115369   F   F   F
 19.7231013929125147  2.7934480032515614 14.9650723554795686   F   F   F
  5.9196030908014361  4.1811840592342149 13.6109813693492967   F   F   F
 13.8013813365889373  4.2209066437532057 13.6436831880825782   F   F   F
 21.6967569494169865  4.1834056766332770 13.6121129954317777   F   F   F
  0.0002148629962817  2.7910716506264652 14.9733447613056008   F   F   F
  7.8945206382165720  2.7870429312736227 14.9688076375949137   F   F   F
 19.7256482699999580 16.7377696040000430 12.2103998060000407   F   F   F
  3.9474463399832231  2.7862374402860932 14.9624812345123797   F   F   F
 15.7725539153012111  2.7926036087301855 14.9702707168347366   F   F   F
  1.9730337353020377  4.1466207351009947 19.2129311030420169   F   F   F
  1.9789806291569656  1.3870906403994934 19.2135300333351537   F   F   F
 21.6810571509025145  1.3947207661576373 19.2088729232653144   F   F   F
  9.8773301747702966  1.3784262130966114 19.2863662028120366   F   F   F
  1.9725650740000149 23.7118402719999644 10.8156001569999933   F   F   F
  5.9522113084520036  6.9979311811080356 16.4250334979301620   F   F   F
 17.7475757804094876  1.3976689163869298 19.2255936901618973   F   F   F
  1.9725650740000149 20.9222120049999525 10.8156001569999933   F   F   F
  1.9725650740000149  4.1844424010001093 10.8156001569999933   F   F   F
  9.8628241350000643  4.1844424010001093 10.8156001569999933   F   F   F
 21.6973959377401897  1.3882577167749324 13.6164112138139490   F   F   F
  1.9730859165592132  4.1843839947134933 13.6128762117565199   F   F   F
  9.8613953311986222  4.1928009734124352 13.6164090399354230   F   F   F
  9.8105732987595822 23.6762915087106016 16.4383074642323912   F   F   F
 21.6892987630000533  1.3919021653369454 16.3954053819935233   F   F   F
 17.7493230275253850  4.1997103421970321 13.6251850131034331   F   F   F
 11.8282190686780790  0.0051980567250584 17.7485830711436670   F   F   F
  3.9624223032861758 27.8512062653959873 17.7658851789252452   F   F   F
 19.7080170444597407 27.8509136281636671 17.7609982600313216   F   F   F
  0.0000759533639569 27.8745002820448207 17.7658285462916012   F   F   F
  7.9078564014855264  0.0012064375775317 17.7543698115176021   F   F   F
 15.7647757653540612  0.0051050475133396 17.7567499328692335   F   F   F
  3.8577724065268058 13.8546885328619815 18.2290566220317558   F   F   F
  3.9451301480000271 19.5273978710000513 12.2103998060000407   F   F   F
 15.7335916335322512 25.2057793104509607 18.1795137779630700   F   F   F
  0.0081890960813529  8.3236184478935069 18.6278750217592339   F   F   F
 19.7304840264947963  5.5641309391823564 15.1738533295585789   F   F   F
 19.7256482699999580 19.5273978710000513 12.2103998060000407   F   F   F
  7.8902602960000570 25.1066530759999438 12.2103998060000407   F   F   F
  7.9038173643944356 22.3383119576025386 15.0491959435611715   F   F   F
  7.8397941799197826 16.7153912369641127 15.0358408730814403   F   F   F
  7.8902602960000570 13.9481413370000329 12.2103998060000407   F   F   F
 23.6611797149363063 16.7394036052943100 15.2031011605363453   F   F   F
  7.8786707306761885  5.5596193043935163 15.1767464676825039   F   F   F
  0.0000000000000000 25.1066530759999438 12.2103998060000407   F   F   F