Au                                      
   1.00000000000000     
    14.1335345897620392    0.0000000000000000    0.0000000000000000
     0.0000000000000000   17.3099740034466834    0.0000000000000000
     0.0000000000000000    0.0000000000000000   29.1610916380090863
   Au
   144
Selective dynamics
Direct
  0.3354450756886853  0.0833333333333357  0.6666515098136790   T   T   T
  0.3354450756886853  0.2500000000000000  0.6666515098136790   T   T   T
  0.3354450756886853  0.4166666666666643  0.6666515098136790   T   T   T
  0.3354450756886853  0.5833333333333357  0.6666515098136790   T   T   T
  0.3354450756886853  0.7500000000000000  0.6666515098136790   T   T   T
  0.3354450756886853  0.9166666666666643  0.6666515098136790   T   T   T
  0.8354450756886853  0.0833333333333357  0.6666515098136790   T   T   T
  0.8354450756886853  0.2500000000000000  0.6666515098136790   T   T   T
  0.8354450756886853  0.4166666666666643  0.6666515098136790   T   T   T
  0.8354450756886853  0.5833333333333357  0.6666515098136790   T   T   T
  0.8354450756886853  0.7500000000000000  0.6666515098136790   T   T   T
  0.8354450756886853  0.9166666666666643  0.6666515098136790   T   T   T
  0.1668237207608065  0.0000000000000000  0.6448291932788599   T   T   T
  0.1668237207608065  0.1666666666666643  0.6448291932788599   T   T   T
  0.1668237207608065  0.3333333333333357  0.6448291932788599   T   T   T
  0.1668237207608065  0.5000000000000000  0.6448291932788599   T   T   T
  0.1668237207608065  0.6666666666666643  0.6448291932788599   T   T   T
  0.1668237207608065  0.8333333333333357  0.6448291932788599   T   T   T
  0.6668237207608064 -0.0000000000000000  0.6448291932788599   T   T   T
  0.6668237207608064  0.1666666666666643  0.6448291932788599   T   T   T
  0.6668237207608064  0.3333333333333357  0.6448291932788599   T   T   T
  0.6668237207608064  0.5000000000000000  0.6448291932788599   T   T   T
  0.6668237207608064  0.6666666666666643  0.6448291932788599   T   T   T
  0.6668237207608064  0.8333333333333357  0.6448291932788599   T   T   T
  0.0059286106691157  0.0833333333333357  0.6138280490483493   T   T   T
  0.0059286106691157  0.2500000000000000  0.6138280490483493   T   T   T
  0.0059286106691157  0.4166666666666643  0.6138280490483493   T   T   T
  0.0059286106691157  0.5833333333333357  0.6138280490483493   T   T   T
  0.0059286106691157  0.7500000000000000  0.6138280490483493   T   T   T
  0.0059286106691157  0.9166666666666643  0.6138280490483493   T   T   T
  0.5059286106691155  0.0833333333333357  0.6138280490483493   T   T   T
  0.5059286106691155  0.2500000000000000  0.6138280490483493   T   T   T
  0.5059286106691155  0.4166666666666643  0.6138280490483493   T   T   T
  0.5059286106691155  0.5833333333333357  0.6138280490483493   T   T   T
  0.5059286106691155  0.7500000000000000  0.6138280490483493   T   T   T
  0.5059286106691155  0.9166666666666643  0.6138280490483493   T   T   T
  0.3408302313702142 -0.0000000000000000  0.5773769160504987   T   T   T
  0.3408302313702142  0.1666666666666643  0.5773769160504987   T   T   T
  0.3408302313702142  0.3333333333333357  0.5773769160504987   T   T   T
  0.3408302313702142  0.5000000000000000  0.5773769160504987   T   T   T
  0.3408302313702142  0.6666666666666643  0.5773769160504987   T   T   T
  0.3408302313702142  0.8333333333333357  0.5773769160504987   T   T   T
  0.8408302313702143 -0.0000000000000000  0.5773769160504987   T   T   T
  0.8408302313702143  0.1666666666666643  0.5773769160504987   T   T   T
  0.8408302313702143  0.3333333333333357  0.5773769160504987   T   T   T
  0.8408302313702143  0.5000000000000000  0.5773769160504987   T   T   T
  0.8408302313702143  0.6666666666666643  0.5773769160504987   T   T   T
  0.8408302313702143  0.8333333333333357  0.5773769160504987   T   T   T
  0.1703834966963541  0.0833333333333357  0.5497939747292825   T   T   T
  0.1703834966963541  0.2500000000000000  0.5497939747292825   T   T   T
  0.1703834966963541  0.4166666666666643  0.5497939747292825   T   T   T
  0.1703834966963541  0.5833333333333357  0.5497939747292825   T   T   T
  0.1703834966963541  0.7500000000000000  0.5497939747292825   T   T   T
  0.1703834966963541  0.9166666666666643  0.5497939747292825   T   T   T
  0.6703834966963541  0.0833333333333357  0.5497939747292825   T   T   T
  0.6703834966963541  0.2500000000000000  0.5497939747292825   T   T   T
  0.6703834966963541  0.4166666666666643  0.5497939747292825   T   T   T
  0.6703834966963541  0.5833333333333357  0.5497939747292825   T   T   T
  0.6703834966963541  0.7500000000000000  0.5497939747292825   T   T   T
  0.6703834966963541  0.9166666666666643  0.5497939747292825   T   T   T
  0.0039439243472049  0.0000000000000000  0.5188476285070064   T   T   T
  0.0039439243472049  0.1666666666666643  0.5188476285070065   T   T   T
  0.0039439243472049  0.3333333333333357  0.5188476285070065   T   T   T
  0.0039439243472049  0.5000000000000000  0.5188476285070065   T   T   T
  0.0039439243472049  0.6666666666666643  0.5188476285070065   T   T   T
  0.0039439243472049  0.8333333333333357  0.5188476285070065   T   T   T
  0.5039439243472048 -0.0000000000000000  0.5188476285070065   T   T   T
  0.5039439243472048  0.1666666666666643  0.5188476285070065   T   T   T
  0.5039439243472048  0.3333333333333357  0.5188476285070065   T   T   T
  0.5039439243472048  0.5000000000000000  0.5188476285070065   T   T   T
  0.5039439243472048  0.6666666666666643  0.5188476285070065   T   T   T
  0.5039439243472048  0.8333333333333357  0.5188476285070065   T   T   T
  0.3333333333333357  0.0833333333333357  0.4857202445833551   F   F   F
  0.3333333333333357  0.2500000000000000  0.4857202445833551   F   F   F
  0.3333333333333357  0.4166666666666643  0.4857202445833551   F   F   F
  0.3333333333333357  0.5833333333333357  0.4857202445833551   F   F   F
  0.3333333333333357  0.7500000000000000  0.4857202445833551   F   F   F
  0.3333333333333357  0.9166666666666643  0.4857202445833551   F   F   F
  0.8333333333333357  0.0833333333333357  0.4857202445833551   F   F   F
  0.8333333333333357  0.2500000000000000  0.4857202445833551   F   F   F
  0.8333333333333357  0.4166666666666643  0.4857202445833551   F   F   F
  0.8333333333333357  0.5833333333333357  0.4857202445833551   F   F   F
  0.8333333333333357  0.7500000000000000  0.4857202445833551   F   F   F
  0.8333333333333357  0.9166666666666643  0.4857202445833551   F   F   F
  0.1666666666666643  0.0000000000000000  0.4571607337500652   F   F   F
  0.1666666666666643  0.1666666666666643  0.4571607337500652   F   F   F
  0.1666666666666643  0.3333333333333357  0.4571607337500652   F   F   F
  0.1666666666666643  0.5000000000000000  0.4571607337500652   F   F   F
  0.1666666666666643  0.6666666666666643  0.4571607337500652   F   F   F
  0.1666666666666643  0.8333333333333357  0.4571607337500652   F   F   F
  0.6666666666666643  0.0000000000000000  0.4571607337500652   F   F   F
  0.6666666666666643  0.1666666666666643  0.4571607337500652   F   F   F
  0.6666666666666643  0.3333333333333357  0.4571607337500652   F   F   F
  0.6666666666666643  0.5000000000000000  0.4571607337500652   F   F   F
  0.6666666666666643  0.6666666666666643  0.4571607337500652   F   F   F
  0.6666666666666643  0.8333333333333357  0.4571607337500652   F   F   F
  0.0000000000000000  0.0833333333333357  0.4286012229167753   F   F   F
  0.0000000000000000  0.2500000000000000  0.4286012229167753   F   F   F
  0.0000000000000000  0.4166666666666643  0.4286012229167753   F   F   F
  0.0000000000000000  0.5833333333333357  0.4286012229167753   F   F   F
  0.0000000000000000  0.7500000000000000  0.4286012229167753   F   F   F
  0.0000000000000000  0.9166666666666643  0.4286012229167753   F   F   F
  0.5000000000000000  0.0833333333333357  0.4286012229167753   F   F   F
  0.5000000000000000  0.2500000000000000  0.4286012229167753   F   F   F
  0.5000000000000000  0.4166666666666643  0.4286012229167753   F   F   F
  0.5000000000000000  0.5833333333333357  0.4286012229167753   F   F   F
  0.5000000000000000  0.7500000000000000  0.4286012229167753   F   F   F
  0.5000000000000000  0.9166666666666643  0.4286012229167753   F   F   F
  0.3333333333333357  0.0000000000000000  0.4000417120834854   F   F   F
  0.3333333333333357  0.1666666666666643  0.4000417120834854   F   F   F
  0.3333333333333357  0.3333333333333357  0.4000417120834854   F   F   F
  0.3333333333333357  0.5000000000000000  0.4000417120834854   F   F   F
  0.3333333333333357  0.6666666666666643  0.4000417120834854   F   F   F
  0.3333333333333357  0.8333333333333357  0.4000417120834854   F   F   F
  0.8333333333333357  0.0000000000000000  0.4000417120834854   F   F   F
  0.8333333333333357  0.1666666666666643  0.4000417120834854   F   F   F
  0.8333333333333357  0.3333333333333357  0.4000417120834854   F   F   F
  0.8333333333333357  0.5000000000000000  0.4000417120834854   F   F   F
  0.8333333333333357  0.6666666666666643  0.4000417120834854   F   F   F
  0.8333333333333357  0.8333333333333357  0.4000417120834854   F   F   F
  0.1666666666666643  0.0833333333333357  0.3714822012501955   F   F   F
  0.1666666666666643  0.2500000000000000  0.3714822012501955   F   F   F
  0.1666666666666643  0.4166666666666643  0.3714822012501955   F   F   F
  0.1666666666666643  0.5833333333333357  0.3714822012501955   F   F   F
  0.1666666666666643  0.7500000000000000  0.3714822012501955   F   F   F
  0.1666666666666643  0.9166666666666643  0.3714822012501955   F   F   F
  0.6666666666666643  0.0833333333333357  0.3714822012501955   F   F   F
  0.6666666666666643  0.2500000000000000  0.3714822012501955   F   F   F
  0.6666666666666643  0.4166666666666643  0.3714822012501955   F   F   F
  0.6666666666666643  0.5833333333333357  0.3714822012501955   F   F   F
  0.6666666666666643  0.7500000000000000  0.3714822012501955   F   F   F
  0.6666666666666643  0.9166666666666643  0.3714822012501955   F   F   F
  0.0000000000000000  0.0000000000000000  0.3429226904169056   F   F   F
  0.0000000000000000  0.1666666666666643  0.3429226904169056   F   F   F
  0.0000000000000000  0.3333333333333357  0.3429226904169056   F   F   F
  0.0000000000000000  0.5000000000000000  0.3429226904169056   F   F   F
  0.0000000000000000  0.6666666666666643  0.3429226904169056   F   F   F
  0.0000000000000000  0.8333333333333357  0.3429226904169056   F   F   F
  0.5000000000000000  0.0000000000000000  0.3429226904169056   F   F   F
  0.5000000000000000  0.1666666666666643  0.3429226904169056   F   F   F
  0.5000000000000000  0.3333333333333357  0.3429226904169056   F   F   F
  0.5000000000000000  0.5000000000000000  0.3429226904169056   F   F   F
  0.5000000000000000  0.6666666666666643  0.3429226904169056   F   F   F
  0.5000000000000000  0.8333333333333357  0.3429226904169056   F   F   F
 
  0.00000000E+00  0.00000000E+00  0.00000000E+00
  0.00000000E+00  0.00000000E+00  0.00000000E+00
  0.00000000E+00  0.00000000E+00  0.00000000E+00
  0.00000000E+00  0.00000000E+00  0.00000000E+00
  0.00000000E+00  0.00000000E+00  0.00000000E+00
  0.00000000E+00  0.00000000E+00  0.00000000E+00
  0.00000000E+00  0.00000000E+00  0.00000000E+00
  0.00000000E+00  0.00000000E+00  0.00000000E+00
  0.00000000E+00  0.00000000E+00  0.00000000E+00
  0.00000000E+00  0.00000000E+00  0.00000000E+00
  0.00000000E+00  0.00000000E+00  0.00000000E+00
  0.00000000E+00  0.00000000E+00  0.00000000E+00
  0.00000000E+00  0.00000000E+00  0.00000000E+00
  0.00000000E+00  0.00000000E+00  0.00000000E+00
  0.00000000E+00  0.00000000E+00  0.00000000E+00
  0.00000000E+00  0.00000000E+00  0.00000000E+00
  0.00000000E+00  0.00000000E+00  0.00000000E+00
  0.00000000E+00  0.00000000E+00  0.00000000E+00
  0.00000000E+00  0.00000000E+00  0.00000000E+00
  0.00000000E+00  0.00000000E+00  0.00000000E+00
  0.00000000E+00  0.00000000E+00  0.00000000E+00
  0.00000000E+00  0.00000000E+00  0.00000000E+00
  0.00000000E+00  0.00000000E+00  0.00000000E+00
  0.00000000E+00  0.00000000E+00  0.00000000E+00
  0.00000000E+00  0.00000000E+00  0.00000000E+00
  0.00000000E+00  0.00000000E+00  0.00000000E+00
  0.00000000E+00  0.00000000E+00  0.00000000E+00
  0.00000000E+00  0.00000000E+00  0.00000000E+00
  0.00000000E+00  0.00000000E+00  0.00000000E+00
  0.00000000E+00  0.00000000E+00  0.00000000E+00
  0.00000000E+00  0.00000000E+00  0.00000000E+00
  0.00000000E+00  0.00000000E+00  0.00000000E+00
  0.00000000E+00  0.00000000E+00  0.00000000E+00
  0.00000000E+00  0.00000000E+00  0.00000000E+00
  0.00000000E+00  0.00000000E+00  0.00000000E+00
  0.00000000E+00  0.00000000E+00  0.00000000E+00
  0.00000000E+00  0.00000000E+00  0.00000000E+00
  0.00000000E+00  0.00000000E+00  0.00000000E+00
  0.00000000E+00  0.00000000E+00  0.00000000E+00
  0.00000000E+00  0.00000000E+00  0.00000000E+00
  0.00000000E+00  0.00000000E+00  0.00000000E+00
  0.00000000E+00  0.00000000E+00  0.00000000E+00
  0.00000000E+00  0.00000000E+00  0.00000000E+00
  0.00000000E+00  0.00000000E+00  0.00000000E+00
  0.00000000E+00  0.00000000E+00  0.00000000E+00
  0.00000000E+00  0.00000000E+00  0.00000000E+00
  0.00000000E+00  0.00000000E+00  0.00000000E+00
  0.00000000E+00  0.00000000E+00  0.00000000E+00
  0.00000000E+00  0.00000000E+00  0.00000000E+00
  0.00000000E+00  0.00000000E+00  0.00000000E+00
  0.00000000E+00  0.00000000E+00  0.00000000E+00
  0.00000000E+00  0.00000000E+00  0.00000000E+00
  0.00000000E+00  0.00000000E+00  0.00000000E+00
  0.00000000E+00  0.00000000E+00  0.00000000E+00
  0.00000000E+00  0.00000000E+00  0.00000000E+00
  0.00000000E+00  0.00000000E+00  0.00000000E+00
  0.00000000E+00  0.00000000E+00  0.00000000E+00
  0.00000000E+00  0.00000000E+00  0.00000000E+00
  0.00000000E+00  0.00000000E+00  0.00000000E+00
  0.00000000E+00  0.00000000E+00  0.00000000E+00
  0.00000000E+00  0.00000000E+00  0.00000000E+00
  0.00000000E+00  0.00000000E+00  0.00000000E+00
  0.00000000E+00  0.00000000E+00  0.00000000E+00
  0.00000000E+00  0.00000000E+00  0.00000000E+00
  0.00000000E+00  0.00000000E+00  0.00000000E+00
  0.00000000E+00  0.00000000E+00  0.00000000E+00
  0.00000000E+00  0.00000000E+00  0.00000000E+00
  0.00000000E+00  0.00000000E+00  0.00000000E+00
  0.00000000E+00  0.00000000E+00  0.00000000E+00
  0.00000000E+00  0.00000000E+00  0.00000000E+00
  0.00000000E+00  0.00000000E+00  0.00000000E+00
  0.00000000E+00  0.00000000E+00  0.00000000E+00
  0.00000000E+00  0.00000000E+00  0.00000000E+00
  0.00000000E+00  0.00000000E+00  0.00000000E+00
  0.00000000E+00  0.00000000E+00  0.00000000E+00
  0.00000000E+00  0.00000000E+00  0.00000000E+00
  0.00000000E+00  0.00000000E+00  0.00000000E+00
  0.00000000E+00  0.00000000E+00  0.00000000E+00
  0.00000000E+00  0.00000000E+00  0.00000000E+00
  0.00000000E+00  0.00000000E+00  0.00000000E+00
  0.00000000E+00  0.00000000E+00  0.00000000E+00
  0.00000000E+00  0.00000000E+00  0.00000000E+00
  0.00000000E+00  0.00000000E+00  0.00000000E+00
  0.00000000E+00  0.00000000E+00  0.00000000E+00
  0.00000000E+00  0.00000000E+00  0.00000000E+00
  0.00000000E+00  0.00000000E+00  0.00000000E+00
  0.00000000E+00  0.00000000E+00  0.00000000E+00
  0.00000000E+00  0.00000000E+00  0.00000000E+00
  0.00000000E+00  0.00000000E+00  0.00000000E+00
  0.00000000E+00  0.00000000E+00  0.00000000E+00
  0.00000000E+00  0.00000000E+00  0.00000000E+00
  0.00000000E+00  0.00000000E+00  0.00000000E+00
  0.00000000E+00  0.00000000E+00  0.00000000E+00
  0.00000000E+00  0.00000000E+00  0.00000000E+00
  0.00000000E+00  0.00000000E+00  0.00000000E+00
  0.00000000E+00  0.00000000E+00  0.00000000E+00
  0.00000000E+00  0.00000000E+00  0.00000000E+00
  0.00000000E+00  0.00000000E+00  0.00000000E+00
  0.00000000E+00  0.00000000E+00  0.00000000E+00
  0.00000000E+00  0.00000000E+00  0.00000000E+00
  0.00000000E+00  0.00000000E+00  0.00000000E+00
  0.00000000E+00  0.00000000E+00  0.00000000E+00
  0.00000000E+00  0.00000000E+00  0.00000000E+00
  0.00000000E+00  0.00000000E+00  0.00000000E+00
  0.00000000E+00  0.00000000E+00  0.00000000E+00
  0.00000000E+00  0.00000000E+00  0.00000000E+00
  0.00000000E+00  0.00000000E+00  0.00000000E+00
  0.00000000E+00  0.00000000E+00  0.00000000E+00
  0.00000000E+00  0.00000000E+00  0.00000000E+00
  0.00000000E+00  0.00000000E+00  0.00000000E+00
  0.00000000E+00  0.00000000E+00  0.00000000E+00
  0.00000000E+00  0.00000000E+00  0.00000000E+00
  0.00000000E+00  0.00000000E+00  0.00000000E+00
  0.00000000E+00  0.00000000E+00  0.00000000E+00
  0.00000000E+00  0.00000000E+00  0.00000000E+00
  0.00000000E+00  0.00000000E+00  0.00000000E+00
  0.00000000E+00  0.00000000E+00  0.00000000E+00
  0.00000000E+00  0.00000000E+00  0.00000000E+00
  0.00000000E+00  0.00000000E+00  0.00000000E+00
  0.00000000E+00  0.00000000E+00  0.00000000E+00
  0.00000000E+00  0.00000000E+00  0.00000000E+00
  0.00000000E+00  0.00000000E+00  0.00000000E+00
  0.00000000E+00  0.00000000E+00  0.00000000E+00
  0.00000000E+00  0.00000000E+00  0.00000000E+00
  0.00000000E+00  0.00000000E+00  0.00000000E+00
  0.00000000E+00  0.00000000E+00  0.00000000E+00
  0.00000000E+00  0.00000000E+00  0.00000000E+00
  0.00000000E+00  0.00000000E+00  0.00000000E+00
  0.00000000E+00  0.00000000E+00  0.00000000E+00
  0.00000000E+00  0.00000000E+00  0.00000000E+00
  0.00000000E+00  0.00000000E+00  0.00000000E+00
  0.00000000E+00  0.00000000E+00  0.00000000E+00
  0.00000000E+00  0.00000000E+00  0.00000000E+00
  0.00000000E+00  0.00000000E+00  0.00000000E+00
  0.00000000E+00  0.00000000E+00  0.00000000E+00
  0.00000000E+00  0.00000000E+00  0.00000000E+00
  0.00000000E+00  0.00000000E+00  0.00000000E+00
  0.00000000E+00  0.00000000E+00  0.00000000E+00
  0.00000000E+00  0.00000000E+00  0.00000000E+00
  0.00000000E+00  0.00000000E+00  0.00000000E+00
  0.00000000E+00  0.00000000E+00  0.00000000E+00
  0.00000000E+00  0.00000000E+00  0.00000000E+00
  0.00000000E+00  0.00000000E+00  0.00000000E+00
  0.00000000E+00  0.00000000E+00  0.00000000E+00
