Au 
 1.0000000000000000
    14.1335345897620392    0.0000000000000000    0.0000000000000000
     0.0000000000000000   17.3099740034466834    0.0000000000000000
     0.0000000000000000    0.0000000000000000   29.1610916380090863
 Au 
 144
Selective dynamics
Cartesian
  4.7111781965873467  1.4424978336205572 19.1610916380090863   T   T   T
  4.7111781965873467  4.3274935008616708 19.1610916380090863   T   T   T
  4.7111781965873467  7.2124891681027847 19.1610916380090863   T   T   T
  4.7111781965873467 10.0974848353438986 19.1610916380090863   T   T   T
  4.7111781965873467 12.9824805025850125 19.1610916380090863   T   T   T
  4.7111781965873467 15.8674761698261264 19.1610916380090863   T   T   T
 11.7779454914683654  1.4424978336205572 19.1610916380090863   T   T   T
 11.7779454914683654  4.3274935008616708 19.1610916380090863   T   T   T
 11.7779454914683654  7.2124891681027847 19.1610916380090863   T   T   T
 11.7779454914683654 10.0974848353438986 19.1610916380090863   T   T   T
 11.7779454914683654 12.9824805025850125 19.1610916380090863   T   T   T
 11.7779454914683654 15.8674761698261264 19.1610916380090863   T   T   T
  2.3555890982936734  0.0000000000000002 18.3282651254628064   T   T   T
  2.3555890982936734  2.8849956672411143 18.3282651254628064   T   T   T
  2.3555890982936734  5.7699913344822278 18.3282651254628064   T   T   T
  2.3555890982936734  8.6549870017233417 18.3282651254628064   T   T   T
  2.3555890982936734 11.5399826689644556 18.3282651254628064   T   T   T
  2.3555890982936734 14.4249783362055695 18.3282651254628064   T   T   T
  9.4223563931746934  0.0000000000000002 18.3282651254628064   T   T   T
  9.4223563931746934  2.8849956672411143 18.3282651254628064   T   T   T
  9.4223563931746934  5.7699913344822278 18.3282651254628064   T   T   T
  9.4223563931746934  8.6549870017233417 18.3282651254628064   T   T   T
  9.4223563931746934 11.5399826689644556 18.3282651254628064   T   T   T
  9.4223563931746934 14.4249783362055695 18.3282651254628064   T   T   T
 -0.0000000000000001  1.4424978336205569 17.4954386129165229   T   T   T
 -0.0000000000000001  4.3274935008616708 17.4954386129165229   T   T   T
 -0.0000000000000001  7.2124891681027847 17.4954386129165229   T   T   T
 -0.0000000000000001 10.0974848353438986 17.4954386129165229   T   T   T
 -0.0000000000000001 12.9824805025850125 17.4954386129165229   T   T   T
 -0.0000000000000001 15.8674761698261264 17.4954386129165229   T   T   T
  7.0667672948810196  1.4424978336205569 17.4954386129165229   T   T   T
  7.0667672948810196  4.3274935008616708 17.4954386129165229   T   T   T
  7.0667672948810196  7.2124891681027847 17.4954386129165229   T   T   T
  7.0667672948810196 10.0974848353438986 17.4954386129165229   T   T   T
  7.0667672948810196 12.9824805025850125 17.4954386129165229   T   T   T
  7.0667672948810196 15.8674761698261264 17.4954386129165229   T   T   T
  4.7111781965873467  0.0000000000000001 16.6626121003702430   T   T   T
  4.7111781965873467  2.8849956672411139 16.6626121003702430   T   T   T
  4.7111781965873467  5.7699913344822278 16.6626121003702430   T   T   T
  4.7111781965873467  8.6549870017233417 16.6626121003702430   T   T   T
  4.7111781965873467 11.5399826689644556 16.6626121003702430   T   T   T
  4.7111781965873467 14.4249783362055695 16.6626121003702430   T   T   T
 11.7779454914683654  0.0000000000000001 16.6626121003702430   T   T   T
 11.7779454914683654  2.8849956672411139 16.6626121003702430   T   T   T
 11.7779454914683654  5.7699913344822278 16.6626121003702430   T   T   T
 11.7779454914683654  8.6549870017233417 16.6626121003702430   T   T   T
 11.7779454914683654 11.5399826689644556 16.6626121003702430   T   T   T
 11.7779454914683654 14.4249783362055695 16.6626121003702430   T   T   T
  2.3555890982936734  1.4424978336205569 15.8297855878239631   T   T   T
  2.3555890982936734  4.3274935008616708 15.8297855878239631   T   T   T
  2.3555890982936734  7.2124891681027847 15.8297855878239631   T   T   T
  2.3555890982936734 10.0974848353438986 15.8297855878239631   T   T   T
  2.3555890982936734 12.9824805025850125 15.8297855878239631   T   T   T
  2.3555890982936734 15.8674761698261264 15.8297855878239631   T   T   T
  9.4223563931746934  1.4424978336205569 15.8297855878239631   T   T   T
  9.4223563931746934  4.3274935008616708 15.8297855878239631   T   T   T
  9.4223563931746934  7.2124891681027847 15.8297855878239631   T   T   T
  9.4223563931746934 10.0974848353438986 15.8297855878239631   T   T   T
  9.4223563931746934 12.9824805025850125 15.8297855878239631   T   T   T
  9.4223563931746934 15.8674761698261264 15.8297855878239631   T   T   T
  0.0000000000000000  0.0000000000000000 14.9969590752776831   T   T   T
  0.0000000000000000  2.8849956672411139 14.9969590752776831   T   T   T
  0.0000000000000000  5.7699913344822278 14.9969590752776831   T   T   T
  0.0000000000000000  8.6549870017233417 14.9969590752776831   T   T   T
  0.0000000000000000 11.5399826689644556 14.9969590752776831   T   T   T
  0.0000000000000000 14.4249783362055695 14.9969590752776831   T   T   T
  7.0667672948810196  0.0000000000000000 14.9969590752776831   T   T   T
  7.0667672948810196  2.8849956672411139 14.9969590752776831   T   T   T
  7.0667672948810196  5.7699913344822278 14.9969590752776831   T   T   T
  7.0667672948810196  8.6549870017233417 14.9969590752776831   T   T   T
  7.0667672948810196 11.5399826689644556 14.9969590752776831   T   T   T
  7.0667672948810196 14.4249783362055695 14.9969590752776831   T   T   T
  4.7111781965873467  1.4424978336205572 14.1641325627314032   F   F   F
  4.7111781965873467  4.3274935008616708 14.1641325627314032   F   F   F
  4.7111781965873467  7.2124891681027847 14.1641325627314032   F   F   F
  4.7111781965873467 10.0974848353438986 14.1641325627314032   F   F   F
  4.7111781965873467 12.9824805025850125 14.1641325627314032   F   F   F
  4.7111781965873467 15.8674761698261264 14.1641325627314032   F   F   F
 11.7779454914683654  1.4424978336205572 14.1641325627314032   F   F   F
 11.7779454914683654  4.3274935008616708 14.1641325627314032   F   F   F
 11.7779454914683654  7.2124891681027847 14.1641325627314032   F   F   F
 11.7779454914683654 10.0974848353438986 14.1641325627314032   F   F   F
 11.7779454914683654 12.9824805025850125 14.1641325627314032   F   F   F
 11.7779454914683654 15.8674761698261264 14.1641325627314032   F   F   F
  2.3555890982936734  0.0000000000000002 13.3313060501851215   F   F   F
  2.3555890982936734  2.8849956672411143 13.3313060501851215   F   F   F
  2.3555890982936734  5.7699913344822278 13.3313060501851215   F   F   F
  2.3555890982936734  8.6549870017233417 13.3313060501851215   F   F   F
  2.3555890982936734 11.5399826689644556 13.3313060501851215   F   F   F
  2.3555890982936734 14.4249783362055695 13.3313060501851215   F   F   F
  9.4223563931746934  0.0000000000000002 13.3313060501851215   F   F   F
  9.4223563931746934  2.8849956672411143 13.3313060501851215   F   F   F
  9.4223563931746934  5.7699913344822278 13.3313060501851215   F   F   F
  9.4223563931746934  8.6549870017233417 13.3313060501851215   F   F   F
  9.4223563931746934 11.5399826689644556 13.3313060501851215   F   F   F
  9.4223563931746934 14.4249783362055695 13.3313060501851215   F   F   F
 -0.0000000000000001  1.4424978336205569 12.4984795376388416   F   F   F
 -0.0000000000000001  4.3274935008616708 12.4984795376388416   F   F   F
 -0.0000000000000001  7.2124891681027847 12.4984795376388416   F   F   F
 -0.0000000000000001 10.0974848353438986 12.4984795376388416   F   F   F
 -0.0000000000000001 12.9824805025850125 12.4984795376388416   F   F   F
 -0.0000000000000001 15.8674761698261264 12.4984795376388416   F   F   F
  7.0667672948810196  1.4424978336205569 12.4984795376388416   F   F   F
  7.0667672948810196  4.3274935008616708 12.4984795376388416   F   F   F
  7.0667672948810196  7.2124891681027847 12.4984795376388416   F   F   F
  7.0667672948810196 10.0974848353438986 12.4984795376388416   F   F   F
  7.0667672948810196 12.9824805025850125 12.4984795376388416   F   F   F
  7.0667672948810196 15.8674761698261264 12.4984795376388416   F   F   F
  4.7111781965873467  0.0000000000000001 11.6656530250925616   F   F   F
  4.7111781965873467  2.8849956672411139 11.6656530250925616   F   F   F
  4.7111781965873467  5.7699913344822278 11.6656530250925616   F   F   F
  4.7111781965873467  8.6549870017233417 11.6656530250925616   F   F   F
  4.7111781965873467 11.5399826689644556 11.6656530250925616   F   F   F
  4.7111781965873467 14.4249783362055695 11.6656530250925616   F   F   F
 11.7779454914683654  0.0000000000000001 11.6656530250925616   F   F   F
 11.7779454914683654  2.8849956672411139 11.6656530250925616   F   F   F
 11.7779454914683654  5.7699913344822278 11.6656530250925616   F   F   F
 11.7779454914683654  8.6549870017233417 11.6656530250925616   F   F   F
 11.7779454914683654 11.5399826689644556 11.6656530250925616   F   F   F
 11.7779454914683654 14.4249783362055695 11.6656530250925616   F   F   F
  2.3555890982936734  1.4424978336205569 10.8328265125462799   F   F   F
  2.3555890982936734  4.3274935008616708 10.8328265125462799   F   F   F
  2.3555890982936734  7.2124891681027847 10.8328265125462799   F   F   F
  2.3555890982936734 10.0974848353438986 10.8328265125462799   F   F   F
  2.3555890982936734 12.9824805025850125 10.8328265125462799   F   F   F
  2.3555890982936734 15.8674761698261264 10.8328265125462799   F   F   F
  9.4223563931746934  1.4424978336205569 10.8328265125462799   F   F   F
  9.4223563931746934  4.3274935008616708 10.8328265125462799   F   F   F
  9.4223563931746934  7.2124891681027847 10.8328265125462799   F   F   F
  9.4223563931746934 10.0974848353438986 10.8328265125462799   F   F   F
  9.4223563931746934 12.9824805025850125 10.8328265125462799   F   F   F
  9.4223563931746934 15.8674761698261264 10.8328265125462799   F   F   F
  0.0000000000000000  0.0000000000000000 10.0000000000000000   F   F   F
  0.0000000000000000  2.8849956672411139 10.0000000000000000   F   F   F
  0.0000000000000000  5.7699913344822278 10.0000000000000000   F   F   F
  0.0000000000000000  8.6549870017233417 10.0000000000000000   F   F   F
  0.0000000000000000 11.5399826689644556 10.0000000000000000   F   F   F
  0.0000000000000000 14.4249783362055695 10.0000000000000000   F   F   F
  7.0667672948810196  0.0000000000000000 10.0000000000000000   F   F   F
  7.0667672948810196  2.8849956672411139 10.0000000000000000   F   F   F
  7.0667672948810196  5.7699913344822278 10.0000000000000000   F   F   F
  7.0667672948810196  8.6549870017233417 10.0000000000000000   F   F   F
  7.0667672948810196 11.5399826689644556 10.0000000000000000   F   F   F
  7.0667672948810196 14.4249783362055695 10.0000000000000000   F   F   F
