Au  C  O Sr Ti                          
   1.00000000000000     
    23.6707801818999997    0.0000000000000000    0.0000000000000000
     0.0000000000000000   22.3170261383000010    0.0000000000000000
     0.0000000000000000    0.0000000000000000   30.0000000000000000
   Au   C    O    Sr   Ti
    50     1   265    72    72
Selective dynamics
Direct
  0.7173848816957289  0.5261971385537620  0.7530917229039886   F   F   F
  0.7059472741355890  0.7574688689534455  0.6883134457737299   F   F   F
  0.6570285491572108  0.4429924056783747  0.8125829829054467   F   F   F
  0.3683606480911195  0.6178380669506041  0.8199628348020482   F   F   F
  0.5702073553915810  0.5096053994873699  0.8564885450711586   F   F   F
  0.6622204590090988  0.1888507081552717  0.7509885473903282   T   T   T
  0.4724211233855300  0.4488748930392390  0.8780211122784820   F   F   F
  0.5167477166352512  0.3773313719178120  0.7322743888987659   F   F   F
  0.2829839029624424  0.3379882806180419  0.7024074941359117   F   F   F
  0.6697073414632797  0.6813110112566889  0.7488156896921083   F   F   F
  0.3977477009255423  0.3815993789066141  0.6899928759490095   F   F   F
  0.6166181761987701  0.3222948038794797  0.6961226383069530   F   F   F
  0.3755927181273435  0.4916024828930432  0.8325558741902270   F   F   F
  0.3257847466126265  0.4138965111402086  0.7688573280981643   F   F   F
  0.4217031032267897  0.6979014113887416  0.6991551521113237   F   F   F
  0.6999976436861743  0.3463433876073836  0.7573046701519530   F   F   F
  0.7748708788259222  0.4297463730198672  0.7949218266632840   F   F   F
  0.2564697384117167  0.5923979531751868  0.6944591268690701   F   F   F
  0.6492775564784381  0.4456814183956652  0.6945291694654543   F   F   F
  0.5644696241411538  0.6394394371123084  0.8608388768160893   F   F   F
  0.5428412885580300  0.6664061092211568  0.7012326269783813   F   F   F
  0.4439997261439004  0.4747169012177750  0.7561499870072552   F   F   F
  0.3732956558721909  0.7384565670309371  0.7780575746245475   F   F   F
  0.4630623003863619  0.5721000635366948  0.8627707204551953   F   F   F
  0.4523914023261213  0.5802847800368482  0.7027252051945894   F   F   F
  0.4866797670760050  0.2692454896648186  0.7753264899915351   F   F   F
  0.2888551017688670  0.5369576650827881  0.7777186946442072   F   F   F
  0.5575824643421967  0.2112633227405496  0.7108651865082578   F   F   F
  0.6230068841211391  0.5702423023186611  0.7040393020618936   F   F   F
  0.7207204188495098  0.2610072568091084  0.6911793585007899   F   F   F
  0.2924553326060462  0.7461085346387151  0.6980886635466419   F   F   F
  0.5125459390498506  0.6035537239321371  0.7763879413579033   F   F   F
  0.5781960994324677  0.7255507492806146  0.7934402421946913   F   F   F
  0.2404131379069199  0.4688945299582983  0.7088505532968767   F   F   F
  0.2840382262145766  0.6612279548079414  0.7650262215072203   F   F   F
  0.6020828912972931  0.2842782996581477  0.7842813006483667   F   F   F
  0.5142958282156300  0.4849333551036494  0.6781543740390106   F   F   F
  0.5634508734068291  0.4856979510800628  0.7621568507932750   F   F   F
  0.5514482439567630  0.3830077881187819  0.8267236655530112   F   F   F
  0.7647432307396400  0.4321303113960084  0.7047862043839999   F   F   F
  0.3908861691369978  0.8173808955155906  0.7064387520805653   F   F   F
  0.4634269213006874  0.6949144447773747  0.8298481402327909   F   F   F
  0.4405433382821187  0.2275256184181984  0.6975206804312464   F   F   F
  0.3715559801019168  0.2980792821122407  0.7548642572904214   F   F   F
  0.3493319073712726  0.4998228464423349  0.6979263287551021   F   F   F
  0.4304560294450184  0.3715437770997099  0.8141198419596449   F   F   F
  0.5958644050747282  0.7847358842457055  0.7130463837601155   F   F   F
  0.6352076624304459  0.5839744923297303  0.8000379974993308   F   F   F
  0.7338252234348133  0.6157966759117031  0.6936898147915755   F   F   F
  0.4850076527834162  0.7781326999735398  0.7567080603942813   F   F   F
  0.7273708936657499  0.1313530871076765  0.7506509150513807   T   T   T
  0.4148091607282254  0.8118987971890448  0.5480845789985409   F   F   F
  0.2510819936626163  0.0626251810918816  0.5472587901826955   F   F   F
  0.7464478006982915  0.5576355269021818  0.5446168911520317   F   F   F
  0.7485419670697482  0.8083403938721077  0.5456710473320570   F   F   F
  0.2495075888129250  0.3137661565882297  0.5459710637260926   F   F   F
  0.5829230415603490  0.3111202369183985  0.5451889193994930   F   F   F
  0.2530884364983095  0.8127765998219161  0.5512105028495000   F   F   F
  0.5830928341540442  0.0621746711188536  0.5455669666970167   F   F   F
  0.5862703024528173  0.8147609253809733  0.5504724366220159   F   F   F
  0.7479112591093582  0.3112809857280752  0.5482456485907079   F   F   F
  0.5814219927617899  0.5600759028676805  0.5493099831316570   F   F   F
  0.2522257824987477  0.5590344214273486  0.5440080118048485   F   F   F
  0.4160000685168015  0.3196977946746529  0.5526472707904659   F   F   F
  0.5766579120174313  0.4357520153369663  0.5523178729514555   F   F   F
  0.4165093838758906  0.0654194717612242  0.5473741494865507   F   F   F
  0.0848961244660131  0.8129613774431732  0.5473464010030753   F   F   F
  0.0824872421949507  0.5643093945701239  0.5462640130543761   F   F   F
  0.0862736724572102  0.3134142755245577  0.5468672382243724   F   F   F
  0.0822923896915029  0.0632743471327686  0.5475678866339209   F   F   F
  0.9158016182079791  0.9387180048974741  0.5463850046541623   F   F   F
  0.9134051570675581  0.6893499223042241  0.5450944192748892   F   F   F
  0.5836200668394369  0.9378827341185314  0.5461562511140983   F   F   F
  0.9166113751850773  0.1888886200818902  0.5454363107740932   F   F   F
  0.9160216180900917  0.4376029351434170  0.5458380282184478   F   F   F
  0.5796420343513589  0.6862936171952398  0.5472506377017794   F   F   F
  0.2515022093551238  0.9373523466970113  0.5453257011205679   F   F   F
  0.4976648545607887  0.5045440104088641  0.6090265516593547   F   F   F
  0.9171012772636757  0.5637648077509638  0.5467380757513354   F   F   F
  0.4203822213441626  0.5651668153161111  0.5556445999552508   F   F   F
  0.9154167857304287  0.8130902475262616  0.5469404119440711   F   F   F
  0.0836312274214706  0.9389360534350004  0.5458084811987334   F   F   F
  0.2493849764585718  0.6833355260661804  0.5521668962553932   F   F   F
  0.7494195662672212  0.9342080780293998  0.5477437543107371   F   F   F
  0.7519820003106616  0.6802758352908924  0.5532023670235446   F   F   F
  0.7521934048161114  0.4347649083552128  0.5493958994762949   F   F   F
  0.4231571878014506  0.4440381724357039  0.5456210253178142   F   F   F
  0.4234523892673678  0.6881105139487076  0.5466526531845517   F   F   F
  0.7483924117291920  0.1833573135326603  0.5509351029420699   F   F   F
  0.4159719430295397  0.9371190506547933  0.5460893637952324   F   F   F
  0.4987800094920729  0.2526829414123597  0.5902922833493705   F   F   F
  0.4156878237987129  0.1914782621413877  0.5465180432330214   F   F   F
  0.0866250758114404  0.6897576080060688  0.5451363342242956   F   F   F
  0.0824897698304810  0.4386210779437150  0.5450566202447860   F   F   F
  0.0835715882079029  0.1889210127462775  0.5455759161488132   F   F   F
  0.4994581654685533  0.1255696504151942  0.4995930105966906   F   F   F
  0.9996217474500142  0.5008281093479852  0.5944828785909095   F   F   F
  0.5807056689992720  0.1851961119076648  0.5499369213134244   F   F   F
  0.9996013226918805  0.7532732307352745  0.5922528306766850   F   F   F
  0.3339993447010414  0.9998610451384025  0.5920060036025347   F   F   F
  0.9998751300344182  0.9992363571505223  0.5932069131235096   F   F   F
  0.0005879041982979  0.2500883963702236  0.5919557730891682   F   F   F
  0.3333237965344296  0.4965404198873316  0.5908927912140740   F   F   F
  0.3360699874990942  0.7412586115464777  0.5905810669109428   F   F   F
  0.6633581488291753  0.2474481933537263  0.5905768732018686   F   F   F
  0.6659658950553009  0.0004885221500999  0.5918738438614923   F   F   F
  0.6661242099538782  0.7419139523162812  0.5899592963803784   F   F   F
  0.6668225147963014  0.4940311459642146  0.5916782128708107   F   F   F
  0.1674239643143949  0.9984574655551270  0.5923107102127290   F   F   F
  0.1683602101158783  0.2491609444618987  0.5930698754517820   F   F   F
  0.1707561009952983  0.7500234065483653  0.5950870980981620   F   F   F
  0.2484981578336871  0.4359631421190144  0.5490069564908353   F   F   F
  0.1654929900165243  0.5026024820781743  0.5874165312543411   F   F   F
  0.3348345336755187  0.2544918446986060  0.5928859457317017   F   F   F
  0.4996670448843261  0.0001065803508382  0.5910532138375757   F   F   F
  0.8327759388352476  0.8745998397370727  0.4985595559554383   F   F   F
  0.7485694593311933  0.9373446043247000  0.6402289697613313   F   F   F
  0.8321599639287456  0.0022048310987159  0.5922593084847065   F   F   F
  0.5017565489330593  0.7565138114240781  0.5930278219231440   F   F   F
  0.4176551946753975  0.0651548021906692  0.6401138352987132   F   F   F
  0.4291110282111035  0.3050328901690804  0.6551318171046177   F   F   F
  0.4135869469533588  0.8124313109816512  0.6399166807831449   F   F   F
  0.3971378388837081  0.5507677611837636  0.6522939006353710   F   F   F
  0.7531447857696278  0.5695117971596204  0.6349221359028974   F   F   F
  0.7411138007758709  0.8100646437919039  0.6399676474477118   F   F   F
  0.7466999538715839  0.3130278381207816  0.6398884249239529   F   F   F
  0.7475851568880643  0.0682124698398567  0.6390742727376022   F   F   F
  0.0837119545318359  0.3118262153891322  0.6404193087781778   F   F   F
  0.6665847464876222  0.8748778819577083  0.4991640082884601   F   F   F
  0.0874504791668969  0.5619459730889886  0.6413135906281227   F   F   F
  0.0841911840823713  0.0607942495665696  0.6420557940560485   F   F   F
  0.0866541722494389  0.4364266671007258  0.6393758066962008   F   F   F
  0.0834680918324580  0.1858362899295969  0.6409644392497924   F   F   F
  0.4185752965843363  0.1875556605418041  0.6397780125624308   F   F   F
  0.4149641320498958  0.4190400314506135  0.6298606166447200   F   F   F
  0.0843364935971636  0.9355998050142915  0.6406801277231722   F   F   F
  0.0830949547637658  0.6871098168334839  0.6395719860099049   F   F   F
  0.9126113860597940  0.4361367946453925  0.6396936094912817   F   F   F
  0.9163311637946308  0.6875530642888208  0.6394510003248399   F   F   F
  0.9143849128228894  0.9371438117322626  0.6410226248824813   F   F   F
  0.2406339737895706  0.4420020401690081  0.6415142284096120   F   F   F
  0.2544518313454347  0.6771115899936007  0.6634297722400149   F   F   F
  0.5784923286741090  0.1912674031939687  0.6447679850793904   F   F   F
  0.2519356647471795  0.9301662778429503  0.6373684405221240   F   F   F
  0.0840960218300992  0.8121262316485272  0.6420065106910045   F   F   F
  0.9166666865332829  0.8124999999834799  0.3605200052333331   F   F   F
  0.8333381978158982  0.5030223336758013  0.5888215086948847   F   F   F
  0.8313363479167819  0.2482047467512913  0.5910973190726381   F   F   F
  0.8305583157590064  0.7508561104399334  0.5928614094482114   F   F   F
  0.5820474837621106  0.9359381790649834  0.6395084526267709   F   F   F
  0.2533247327707855  0.1865596233498721  0.6410529078069871   F   F   F
  0.7454108608631529  0.1949715870889008  0.6472179312791724   F   F   F
  0.7552796977817380  0.4340266123908663  0.6382134442509155   F   F   F
  0.4173190377752150  0.9349132286497621  0.6397116517735171   F   F   F
  0.4213635840057890  0.6759007353331725  0.6334605545551852   F   F   F
  0.5912739211720961  0.8102320959353619  0.6461659814430689   F   F   F
  0.9158813159131469  0.0626744080773278  0.6414655601265480   F   F   F
  0.9124673553365952  0.5618321932904848  0.6420852616785595   F   F   F
  0.9144398953431150  0.3117283705862519  0.6397516736984272   F   F   F
  0.9141503918706704  0.8132676076427288  0.6415154406985906   F   F   F
  0.5828158663221146  0.0665912586774340  0.6388262331698371   F   F   F
  0.5829274569870435  0.3204801864054261  0.6338095106800523   F   F   F
  0.5912290656848285  0.5651995083080052  0.6394279420376918   F   F   F
  0.2474623564141183  0.5738257042852126  0.6286025863441367   F   F   F
  0.7540529326077490  0.6933870750085802  0.6570030352140961   F   F   F
  0.2620537365333320  0.7986770764086302  0.6468950019012851   F   F   F
  0.2509679437628023  0.0594668202203152  0.6423355604052574   F   F   F
  0.9166666865332829  0.5625000000092442  0.3605200052333331   F   F   F
  0.4995706191099316  0.3742376937888636  0.4998522331537458   F   F   F
  0.5000530490781685  0.8733458074144380  0.5008182694965058   F   F   F
  0.5004729378941875  0.6209665166227865  0.5000784441393051   F   F   F
  0.8323417589305890  0.6230341981539311  0.4999907069951490   F   F   F
  0.2518855739576438  0.1883806419491307  0.5471327798635315   F   F   F
  0.8324083213887477  0.3731813156565380  0.4997948302992228   F   F   F
  0.8328060167982372  0.1244437026210150  0.5000904896548093   F   F   F
  0.1667239394159878  0.3762258592038918  0.4978557525763208   F   F   F
  0.1678053916517612  0.6243398925150672  0.5000149824493505   F   F   F
  0.5810612151052865  0.4389778283538561  0.6466568596136213   F   F   F
  0.5805362582994107  0.6854100811280972  0.6391436243391482   F   F   F
  0.9162470964127607  0.1861610943587380  0.6399238832880982   F   F   F
  0.2491101821002033  0.3164009015587226  0.6412896711532241   F   F   F
  0.1677393462717092  0.8732898258679427  0.4999002738791773   F   F   F
  0.7480527390587355  0.0599348841982064  0.5445225143591088   F   F   F
  0.1670572529891103  0.1243182133679070  0.4993236658325060   F   F   F
  0.9157887416042598  0.4369446850446010  0.4536698389033162   F   F   F
  0.9157994019993936  0.1868959904470415  0.4532360103710644   F   F   F
  0.5827562537745479  0.9371246812754848  0.4543139991320757   F   F   F
  0.5827939287519683  0.6860358642989084  0.4545904942357382   F   F   F
  0.5827600064420366  0.4393396035530728  0.4563835065334416   F   F   F
  0.2500692205703388  0.9360311607909964  0.4541419478629223   F   F   F
  0.6654607417621605  0.6257979559982090  0.5029726591836265   F   F   F
  0.5846376911832891  0.5625513277022591  0.4550124780554086   F   F   F
  0.5832261320975434  0.0636190388763822  0.4538943654581900   F   F   F
  0.9166666865332829  0.6874999999963620  0.3605200052333331   F   F   F
  0.9166666865332829  0.4374999701794380  0.3605200052333331   F   F   F
  0.9166666865332829  0.1875000000030838  0.3605200052333331   F   F   F
  0.5833333134730552  0.9375000000154046  0.3605200052333331   F   F   F
  0.5833333134730552  0.6874999999963620  0.3605200052333331   F   F   F
  0.5833333134730552  0.4374999701794380  0.3605200052333331   F   F   F
  0.5833333134730552  0.1875000000030838  0.3605200052333331   F   F   F
  0.2499999999799343  0.9375000000154046  0.3605200052333331   F   F   F
  0.9166666865332829  0.9375000000154046  0.3605200052333331   F   F   F
  0.2499999999799343  0.6874999999963620  0.3605200052333331   F   F   F
  0.2499999999799343  0.1875000000030838  0.3605200052333331   F   F   F
  0.7499999404149307  0.9375000000154046  0.3605200052333331   F   F   F
  0.7499999404149307  0.6874999999963620  0.3605200052333331   F   F   F
  0.7499999404149307  0.4374999701794380  0.3605200052333331   F   F   F
  0.7499999404149307  0.1875000000030838  0.3605200052333331   F   F   F
  0.4166666269218169  0.9375000000154046  0.3605200052333331   F   F   F
  0.4166666269218169  0.6874999999963620  0.3605200052333331   F   F   F
  0.4166666269218169  0.4374999701794380  0.3605200052333331   F   F   F
  0.2499999999799343  0.4374999701794380  0.3605200052333331   F   F   F
  0.0833333358191695  0.0625000000159659  0.3605200052333331   F   F   F
  0.9153819875598188  0.6867761318849475  0.4530860244341071   F   F   F
  0.6654421430951984  0.3785455689561061  0.5032909498655656   F   F   F
  0.3343663220948443  0.3784711453823206  0.5029963930734809   F   F   F
  0.3358389098948678  0.6252551023323747  0.5043873595993205   F   F   F
  0.9176058722812854  0.0634272264467555  0.5474985880219663   F   F   F
  0.2498690802114112  0.1884946975856110  0.4541012004290224   F   F   F
  0.7494641764629293  0.9384580092918782  0.4553295116789968   F   F   F
  0.7490782094541615  0.6886637277634122  0.4574349917115086   F   F   F
  0.7494526988334016  0.4384328640067707  0.4560296808822173   F   F   F
  0.7506369255638106  0.1899291558032061  0.4558177887856587   F   F   F
  0.4171303261481256  0.9358583474446007  0.4540488960162534   F   F   F
  0.4169399049621205  0.6846795316420469  0.4547941815363004   F   F   F
  0.4164756118043087  0.4354328769268889  0.4538308445323835   F   F   F
  0.0845872516381121  0.6868947739131883  0.4530184513088642   F   F   F
  0.0838861638343857  0.9366735392363026  0.4534760672539520   F   F   F
  0.0828127947589437  0.4367967195178721  0.4528912459188561   F   F   F
  0.0838622475433368  0.1865699463375492  0.4529826635932395   F   F   F
  0.9166130098338883  0.8121541388603930  0.4541099447759294   F   F   F
  0.0833333358191695  0.3124999999901945  0.3605200052333331   F   F   F
  0.9161935477036423  0.5623273007137826  0.4539113490994424   F   F   F
  0.9161157622475358  0.0622606237174992  0.4541105747136314   F   F   F
  0.9161873307061654  0.3122032511518071  0.4538644012022317   F   F   F
  0.4172137497652884  0.1871433903087976  0.4535488188113845   F   F   F
  0.2523623580468595  0.6873941636618071  0.4561909301449987   F   F   F
  0.9164615591142251  0.9371496888136051  0.4536377403582890   F   F   F
  0.5826214611367035  0.1900598734267831  0.4554982567946482   F   F   F
  0.0000574092342234  0.1251141452183120  0.4984381168933751   F   F   F
  0.5835192458443643  0.8103287058417123  0.4554299001212527   F   F   F
  0.9999804603740827  0.3734767509550068  0.4983598382786241   F   F   F
  0.9999294970084307  0.6271637254778852  0.4976928741292781   F   F   F
  0.3336207742443023  0.1256972126839599  0.4985054830570448   F   F   F
  0.0000550994363167  0.8751657799816996  0.4995531071449903   F   F   F
  0.3334231829998728  0.8738184009628469  0.4994534436876705   F   F   F
  0.6660154169181354  0.1265877640977493  0.4992064831245457   F   F   F
  0.2511680352215677  0.4392611227571095  0.4549334000928980   F   F   F
  0.0833333358191695  0.5625000000092442  0.3605200052333331   F   F   F
  0.7696242259572728  0.1066193150582677  0.7493570825285638   T   T   T
  0.9166666865332829  0.0625000000159659  0.3605200052333331   F   F   F
  0.7491813150014082  0.8132931964136247  0.4531116826122314   F   F   F
  0.2505295170730548  0.0620300821005486  0.4542588606360738   F   F   F
  0.9153114297762670  0.3127697793323563  0.5467174794643341   F   F   F
  0.2522634810603819  0.3141292404036378  0.4541758212680520   F   F   F
  0.2519539617789093  0.5646074950900442  0.4538818982825532   F   F   F
  0.2505135510121193  0.8107025997267030  0.4554492976519668   F   F   F
  0.8333332538436267  0.2500000000190425  0.4070133268666680   F   F   F
  0.5842560026657537  0.3151897699844568  0.4538373211343441   F   F   F
  0.8333332538436267  0.0000000000000000  0.4070133268666680   F   F   F
  0.5000000000021103  0.4999999999932783  0.4070133268666680   F   F   F
  0.0833333358191695  0.1875000000030838  0.3605200052333331   F   F   F
  0.0000000000000000  0.0000000000000000  0.4070133268666680   F   F   F
  0.0000000000000000  0.2500000000190425  0.4070133268666680   F   F   F
  0.0000000000000000  0.4999999999932783  0.4070133268666680   F   F   F
  0.7481933520019624  0.5642788996099029  0.4537646156150288   F   F   F
  0.3333333432766779  0.0000000000000000  0.4070133268666680   F   F   F
  0.3333333432766779  0.4999999999932783  0.4070133268666680   F   F   F
  0.3333333432766779  0.7500000000123208  0.4070133268666680   F   F   F
  0.6666666865533486  0.0000000000000000  0.4070133268666680   F   F   F
  0.6666666865533486  0.2500000000190425  0.4070133268666680   F   F   F
  0.6666666865533486  0.4999999999932783  0.4070133268666680   F   F   F
  0.6666666865533486  0.7500000000123208  0.4070133268666680   F   F   F
  0.1666666716383389  0.0000000000000000  0.4070133268666680   F   F   F
  0.1666666716383389  0.2500000000190425  0.4070133268666680   F   F   F
  0.1666666716383389  0.4999999999932783  0.4070133268666680   F   F   F
  0.1666666716383389  0.7500000000123208  0.4070133268666680   F   F   F
  0.5000000000021103  0.0000000000000000  0.4070133268666680   F   F   F
  0.5000000000021103  0.2500000000190425  0.4070133268666680   F   F   F
  0.5000000000021103  0.7500000000123208  0.4070133268666680   F   F   F
  0.9166666865332829  0.3124999999901945  0.3605200052333331   F   F   F
  0.3333333432766779  0.2500000000190425  0.4070133268666680   F   F   F
  0.7473102716157172  0.3141632626936968  0.4548787452058107   F   F   F
  0.0000000000000000  0.7500000000123208  0.4070133268666680   F   F   F
  0.4166003018348974  0.8098771012799020  0.4552014809343632   F   F   F
  0.5833333134730552  0.5625000000092442  0.3605200052333331   F   F   F
  0.7494936253884248  0.0641923359700982  0.4533751584871837   F   F   F
  0.5833333134730552  0.8124999999834799  0.3605200052333331   F   F   F
  0.5833333134730552  0.3124999999901945  0.3605200052333331   F   F   F
  0.5833333134730552  0.0625000000159659  0.3605200052333331   F   F   F
  0.2499999999799343  0.8124999999834799  0.3605200052333331   F   F   F
  0.2499999999799343  0.5625000000092442  0.3605200052333331   F   F   F
  0.2499999999799343  0.3124999999901945  0.3605200052333331   F   F   F
  0.2499999999799343  0.0625000000159659  0.3605200052333331   F   F   F
  0.7499999404149307  0.5625000000092442  0.3605200052333331   F   F   F
  0.7499999404149307  0.3124999999901945  0.3605200052333331   F   F   F
  0.7499999404149307  0.0625000000159659  0.3605200052333331   F   F   F
  0.4166666269218169  0.8124999999834799  0.3605200052333331   F   F   F
  0.4166666269218169  0.5625000000092442  0.3605200052333331   F   F   F
  0.4166666269218169  0.3124999999901945  0.3605200052333331   F   F   F
  0.7499999404149307  0.8124999999834799  0.3605200052333331   F   F   F
  0.0835103813522267  0.3120565522590226  0.4539710760168418   F   F   F
  0.4166666269218169  0.0625000000159659  0.3605200052333331   F   F   F
  0.4168814785715256  0.0615818057901052  0.4553504484096678   F   F   F
  0.0834608437742403  0.8121291149091476  0.4541956804645508   F   F   F
  0.0839486268759373  0.5624906878533338  0.4538761072453141   F   F   F
  0.4160842508141016  0.5595145162136177  0.4578808300442603   F   F   F
  0.0836828190665244  0.0618734250044213  0.4542164299846263   F   F   F
  0.4155289902341224  0.3113662664592738  0.4573984490088776   F   F   F
  0.8333332538436267  0.7500000000123208  0.4070133268666680   F   F   F
  0.0833333358191695  0.4374999701794380  0.3605200052333331   F   F   F
  0.0833333358191695  0.6874999999963620  0.3605200052333331   F   F   F
  0.0833333358191695  0.9375000000154046  0.3605200052333331   F   F   F
  0.4166666269218169  0.1875000000030838  0.3605200052333331   F   F   F
  0.0833333358191695  0.8124999999834799  0.3605200052333331   F   F   F
  0.8333332538436267  0.4999999999932783  0.4070133268666680   F   F   F
  0.8378143801092648  0.3729481118092366  0.6030301498632866   F   F   F
  0.8320580700667151  0.8764108154780814  0.6179901593942887   F   F   F
  0.5000000000021103  0.1249999999871179  0.4070133268666680   F   F   F
  0.9991312346110917  0.8751248708229582  0.6219975240145885   F   F   F
  0.3315735845004539  0.1199382935074169  0.6134090905438612   F   F   F
  0.8401680996180616  0.6270774835443547  0.6031811851925539   F   F   F
  0.8360614188310223  0.7518960483243902  0.5026343164149836   F   F   F
  0.5000000000021103  0.6249999999803961  0.4070133268666680   F   F   F
  0.1666666716383389  0.1249999999871179  0.4070133268666680   F   F   F
  0.8333332538436267  0.3750000000061604  0.4070133268666680   F   F   F
  0.8333332538436267  0.1249999999871179  0.4070133268666680   F   F   F
  0.5000000000021103  0.8749999404036828  0.4070133268666680   F   F   F
  0.3342116830370614  0.6243353498439461  0.5953109942810997   F   F   F
  0.0000000000000000  0.3750000000061604  0.4070133268666680   F   F   F
  0.3258682548103948  0.3736971090799770  0.5926826580681350   F   F   F
  0.5008276532562590  0.8769262091286265  0.6094561195040811   F   F   F
  0.6651112399360670  0.1241903004650311  0.6080298645934619   F   F   F
  0.1666666716383389  0.8749999404036828  0.4070133268666680   F   F   F
  0.5041461922551491  0.6252072227212437  0.5939025383991705   F   F   F
  0.0000000000000000  0.1249999999871179  0.4070133268666680   F   F   F
  0.8342457260327478  0.1240302407938714  0.6152214039283663   F   F   F
  0.9997093890742264  0.6218984631451576  0.6354854534752050   F   F   F
  0.9997715880838385  0.3745899441469049  0.6232351428324563   F   F   F
  0.6664738750014436  0.6265273845857422  0.5934201568128401   F   F   F
  0.6654046991030782  0.8813602341182616  0.6070937755775532   F   F   F
  0.1631420621879940  0.3714553662314586  0.6075524249524094   F   F   F
  0.1676315103736599  0.1229558204833552  0.6216983574947790   F   F   F
  0.5002433219252396  0.1220716538391855  0.6061158168008163   F   F   F
  0.5014661698689835  0.3714255977385434  0.5949853545550923   F   F   F
  0.1660178523577827  0.8733510114894258  0.6177931801321392   F   F   F
  0.1590450420723784  0.6272058006957550  0.6014910906005753   F   F   F
  0.3345580447746386  0.8785915049849109  0.6030619454386326   F   F   F
  0.6702348596884917  0.3724373361387094  0.5929087887443245   F   F   F
  0.1666666716383389  0.6249999999803961  0.4070133268666680   F   F   F
  0.5000000000021103  0.3750000000061604  0.4070133268666680   F   F   F
  0.6666666865533486  0.8749999404036828  0.4070133268666680   F   F   F
  0.5001545177317226  0.9993286889417448  0.5055281160361034   F   F   F
  0.1633965484679223  0.4999212282644976  0.5020282708927724   F   F   F
  0.1662672567967221  0.2482535272290960  0.5061388488034737   F   F   F
  0.1659931209611472  0.0012281403426186  0.5065497162580925   F   F   F
  0.6654704275227843  0.7520559791627122  0.5022243713896657   F   F   F
  0.6667364764036634  0.2479556743613713  0.5024672550564588   F   F   F
  0.6683941511883589  0.4999951410030690  0.5006608173975735   F   F   F
  0.3337673097096641  0.7511487711727867  0.5015567035194977   F   F   F
  0.3330940896232519  0.0011062584854571  0.5058278345491871   F   F   F
  0.3300833201065743  0.2480696108875122  0.5028067524388717   F   F   F
  0.3311129565710971  0.4992896098327009  0.5009468113262017   F   F   F
  0.9997507058167727  0.5007851684793749  0.5071063014008672   F   F   F
  0.8333332538436267  0.6249999999803961  0.4070133268666680   F   F   F
  0.0006101388138831  0.1228162342458035  0.6195765738058583   F   F   F
  0.1666666716383389  0.3750000000061604  0.4070133268666680   F   F   F
  0.1643623352373567  0.7516250161527793  0.5033405577802483   F   F   F
  0.5011490352122365  0.7529608275498560  0.5039495325561845   F   F   F
  0.6658661855390235  0.9998372780870710  0.5054686054158282   F   F   F
  0.5012227530618958  0.4998540029213387  0.5003071812343762   F   F   F
  0.8363454795296903  0.5001318771604701  0.5027689903631583   F   F   F
  0.6666666865533486  0.6249999999803961  0.4070133268666680   F   F   F
  0.6666666865533486  0.3750000000061604  0.4070133268666680   F   F   F
  0.6666666865533486  0.1249999999871179  0.4070133268666680   F   F   F
  0.3333333432766779  0.8749999404036828  0.4070133268666680   F   F   F
  0.8343287535202606  0.0002470924402189  0.5064880836088932   F   F   F
  0.3333333432766779  0.3750000000061604  0.4070133268666680   F   F   F
  0.3333333432766779  0.1249999999871179  0.4070133268666680   F   F   F
  0.3333333432766779  0.6249999999803961  0.4070133268666680   F   F   F
  0.0000000000000000  0.6249999999803961  0.4070133268666680   F   F   F
  0.8333332538436267  0.8749999404036828  0.4070133268666680   F   F   F
  0.0000619976036234  0.0000870611437378  0.5066427414645815   F   F   F
  0.0007461884253033  0.2498714397952924  0.5059447912306823   F   F   F
  0.9998114526896345  0.7509066759731340  0.5066003581022471   F   F   F
  0.8358382248336014  0.2486287913900966  0.5027532873757821   F   F   F
  0.5008729671623655  0.2478988183759157  0.5020628043595394   F   F   F
  0.0000000000000000  0.8749999404036828  0.4070133268666680   F   F   F
  0.0833333358191695  0.7500000000123208  0.4070133268666680   F   F   F
  0.0833333358191695  0.4999999999932783  0.4070133268666680   F   F   F
  0.0833333358191695  0.2500000000190425  0.4070133268666680   F   F   F
  0.0833333358191695  0.0000000000000000  0.4070133268666680   F   F   F
  0.9166666865332829  0.4999999999932783  0.4070133268666680   F   F   F
  0.9166666865332829  0.7500000000123208  0.4070133268666680   F   F   F
  0.5831202379973988  0.1232611571028599  0.5042426766252319   F   F   F
  0.7524695231330156  0.6247871241067102  0.5023753624378315   F   F   F
  0.5838149512408748  0.8759563585630090  0.5057438051405967   F   F   F
  0.9177383511117370  0.1249699964973701  0.5063506365129911   F   F   F
  0.9188471498391735  0.3746143831690603  0.5058986281342257   F   F   F
  0.5834737925483395  0.3734800913217313  0.5018112079166031   F   F   F
  0.5838437628934159  0.6274404727215099  0.5006678470885859   F   F   F
  0.0829981369910300  0.1247694497998353  0.5067168653662080   F   F   F
  0.4166666269218169  0.0000000000000000  0.4070133268666680   F   F   F
  0.2499999999799343  0.2500000000190425  0.4070133268666680   F   F   F
  0.4166666269218169  0.4999999999932783  0.4070133268666680   F   F   F
  0.7499999404149307  0.4999999999932783  0.4070133268666680   F   F   F