Au                                      
   1.00000000000000     
    17.3099740034466869    0.0000000000000000    0.0000000000000000
     8.6549870017233435   14.9908772258330494    0.0000000000000000
     0.0000000000000000    0.0000000000000000   33.0667672948810178
   Au
   144
Selective dynamics
Direct
  0.0000000000000000  0.0000000000000000  0.3931439648777655   F   F   F
  0.1666666666666643  0.0000000000000000  0.3931439648777655   F   F   F
  0.3333333333333357  0.0000000000000000  0.3931439648777655   F   F   F
  0.5000000000000000  0.0000000000000000  0.3931439648777655   F   F   F
  0.6666666666666643  0.0000000000000000  0.3931439648777655   F   F   F
  0.8333333333333357  0.0000000000000000  0.3931439648777655   F   F   F
  0.0000000000000000  0.1666666666666643  0.3931439648777655   F   F   F
  0.1666666666666643  0.1666666666666643  0.3931439648777655   F   F   F
  0.3333333333333357  0.1666666666666643  0.3931439648777655   F   F   F
  0.5000000000000000  0.1666666666666643  0.3931439648777655   F   F   F
  0.6666666666666643  0.1666666666666643  0.3931439648777655   F   F   F
  0.8333333333333357  0.1666666666666643  0.3931439648777655   F   F   F
  0.0000000000000000  0.3333333333333357  0.3931439648777655   F   F   F
  0.1666666666666643  0.3333333333333357  0.3931439648777655   F   F   F
  0.3333333333333357  0.3333333333333357  0.3931439648777655   F   F   F
  0.5000000000000000  0.3333333333333357  0.3931439648777655   F   F   F
  0.6666666666666643  0.3333333333333357  0.3931439648777655   F   F   F
  0.8333333333333357  0.3333333333333357  0.3931439648777655   F   F   F
  0.0000000000000000  0.5000000000000000  0.3931439648777655   F   F   F
  0.1666666666666643  0.5000000000000000  0.3931439648777655   F   F   F
  0.3333333333333357  0.5000000000000000  0.3931439648777655   F   F   F
  0.5000000000000000  0.5000000000000000  0.3931439648777655   F   F   F
  0.6666666666666643  0.5000000000000000  0.3931439648777655   F   F   F
  0.8333333333333357  0.5000000000000000  0.3931439648777655   F   F   F
  0.0000000000000000  0.6666666666666643  0.3931439648777655   F   F   F
  0.1666666666666643  0.6666666666666643  0.3931439648777655   F   F   F
  0.3333333333333357  0.6666666666666643  0.3931439648777655   F   F   F
  0.5000000000000000  0.6666666666666643  0.3931439648777655   F   F   F
  0.6666666666666643  0.6666666666666643  0.3931439648777655   F   F   F
  0.8333333333333357  0.6666666666666643  0.3931439648777655   F   F   F
  0.0000000000000000  0.8333333333333357  0.3931439648777655   F   F   F
  0.1666666666666643  0.8333333333333357  0.3931439648777655   F   F   F
  0.3333333333333357  0.8333333333333357  0.3931439648777655   F   F   F
  0.5000000000000000  0.8333333333333357  0.3931439648777655   F   F   F
  0.6666666666666643  0.8333333333333357  0.3931439648777655   F   F   F
  0.8333333333333357  0.8333333333333357  0.3931439648777655   F   F   F
  0.0555555555555571  0.0555555555555571  0.4643813216259218   F   F   F
  0.2222222222222214  0.0555555555555571  0.4643813216259218   F   F   F
  0.3888888888888857  0.0555555555555571  0.4643813216259218   F   F   F
  0.5555555555555571  0.0555555555555571  0.4643813216259218   F   F   F
  0.7222222222222214  0.0555555555555571  0.4643813216259218   F   F   F
  0.8888888888888857  0.0555555555555571  0.4643813216259218   F   F   F
  0.0555555555555571  0.2222222222222214  0.4643813216259218   F   F   F
  0.2222222222222214  0.2222222222222214  0.4643813216259218   F   F   F
  0.3888888888888857  0.2222222222222214  0.4643813216259218   F   F   F
  0.5555555555555571  0.2222222222222214  0.4643813216259218   F   F   F
  0.7222222222222214  0.2222222222222214  0.4643813216259218   F   F   F
  0.8888888888888857  0.2222222222222214  0.4643813216259218   F   F   F
  0.0555555555555571  0.3888888888888857  0.4643813216259218   F   F   F
  0.2222222222222214  0.3888888888888857  0.4643813216259218   F   F   F
  0.3888888888888857  0.3888888888888857  0.4643813216259218   F   F   F
  0.5555555555555571  0.3888888888888857  0.4643813216259218   F   F   F
  0.7222222222222214  0.3888888888888857  0.4643813216259218   F   F   F
  0.8888888888888857  0.3888888888888857  0.4643813216259218   F   F   F
  0.0555555555555571  0.5555555555555571  0.4643813216259218   F   F   F
  0.2222222222222214  0.5555555555555571  0.4643813216259218   F   F   F
  0.3888888888888857  0.5555555555555571  0.4643813216259218   F   F   F
  0.5555555555555571  0.5555555555555571  0.4643813216259218   F   F   F
  0.7222222222222214  0.5555555555555571  0.4643813216259218   F   F   F
  0.8888888888888857  0.5555555555555571  0.4643813216259218   F   F   F
  0.0555555555555571  0.7222222222222214  0.4643813216259218   F   F   F
  0.2222222222222214  0.7222222222222214  0.4643813216259218   F   F   F
  0.3888888888888857  0.7222222222222214  0.4643813216259218   F   F   F
  0.5555555555555571  0.7222222222222214  0.4643813216259218   F   F   F
  0.7222222222222214  0.7222222222222214  0.4643813216259218   F   F   F
  0.8888888888888857  0.7222222222222214  0.4643813216259218   F   F   F
  0.0555555555555571  0.8888888888888857  0.4643813216259218   F   F   F
  0.2222222222222214  0.8888888888888857  0.4643813216259218   F   F   F
  0.3888888888888857  0.8888888888888857  0.4643813216259218   F   F   F
  0.5555555555555571  0.8888888888888857  0.4643813216259218   F   F   F
  0.7222222222222214  0.8888888888888857  0.4643813216259218   F   F   F
  0.8888888888888857  0.8888888888888857  0.4643813216259218   F   F   F
  0.9444444444444429  0.1111111111111143  0.5403333307735924   T   T   T
  0.1111111111111143  0.1111111111111143  0.5403333307735925   T   T   T
  0.2777777777777786  0.1111111111111143  0.5403333307735924   T   T   T
  0.4444444444444429  0.1111111111111143  0.5403333307735924   T   T   T
  0.6111111111111143  0.1111111111111143  0.5403333307735924   T   T   T
  0.7777777777777786  0.1111111111111143  0.5403333307735924   T   T   T
  0.9444444444444429  0.2777777777777786  0.5403333307735924   T   T   T
  0.1111111111111143  0.2777777777777786  0.5403333307735924   T   T   T
  0.2777777777777786  0.2777777777777786  0.5403333307735924   T   T   T
  0.4444444444444429  0.2777777777777786  0.5403333307735924   T   T   T
  0.6111111111111143  0.2777777777777786  0.5403333307735924   T   T   T
  0.7777777777777786  0.2777777777777786  0.5403333307735924   T   T   T
  0.9444444444444429  0.4444444444444429  0.5403333307735924   T   T   T
  0.1111111111111143  0.4444444444444429  0.5403333307735924   T   T   T
  0.2777777777777786  0.4444444444444429  0.5403333307735924   T   T   T
  0.4444444444444429  0.4444444444444429  0.5403333307735925   T   T   T
  0.6111111111111143  0.4444444444444429  0.5403333307735924   T   T   T
  0.7777777777777786  0.4444444444444429  0.5403333307735924   T   T   T
  0.9444444444444429  0.6111111111111143  0.5403333307735924   T   T   T
  0.1111111111111143  0.6111111111111143  0.5403333307735924   T   T   T
  0.2777777777777786  0.6111111111111143  0.5403333307735924   T   T   T
  0.4444444444444429  0.6111111111111143  0.5403333307735925   T   T   T
  0.6111111111111143  0.6111111111111143  0.5403333307735924   T   T   T
  0.7777777777777786  0.6111111111111143  0.5403333307735924   T   T   T
  0.9444444444444429  0.7777777777777786  0.5403333307735924   T   T   T
  0.1111111111111143  0.7777777777777786  0.5403333307735925   T   T   T
  0.2777777777777786  0.7777777777777786  0.5403333307735924   T   T   T
  0.4444444444444429  0.7777777777777786  0.5403333307735924   T   T   T
  0.6111111111111143  0.7777777777777786  0.5403333307735924   T   T   T
  0.7777777777777786  0.7777777777777786  0.5403333307735924   T   T   T
  0.9444444444444429  0.9444444444444429  0.5403333307735924   T   T   T
  0.1111111111111143  0.9444444444444429  0.5403333307735925   T   T   T
  0.2777777777777786  0.9444444444444429  0.5403333307735924   T   T   T
  0.4444444444444429  0.9444444444444429  0.5403333307735925   T   T   T
  0.6111111111111143  0.9444444444444429  0.5403333307735924   T   T   T
  0.7777777777777786  0.9444444444444429  0.5403333307735924   T   T   T
 -0.0000000000000000  0.0000000000000000  0.6182088787171698   T   T   T
  0.1666666666666643  0.0000000000000000  0.6182088787171698   T   T   T
  0.3333333333333357 -0.0000000000000000  0.6182088787171698   T   T   T
  0.5000000000000000 -0.0000000000000000  0.6182088787171698   T   T   T
  0.6666666666666643  0.0000000000000000  0.6182088787171698   T   T   T
  0.8333333333333357  0.0000000000000000  0.6182088787171698   T   T   T
 -0.0000000000000000  0.1666666666666643  0.6182088787171698   T   T   T
  0.1666666666666643  0.1666666666666643  0.6182088787171698   T   T   T
  0.3333333333333357  0.1666666666666643  0.6182088787171698   T   T   T
  0.5000000000000000  0.1666666666666643  0.6182088787171698   T   T   T
  0.6666666666666643  0.1666666666666643  0.6182088787171698   T   T   T
  0.8333333333333357  0.1666666666666643  0.6182088787171698   T   T   T
 -0.0000000000000000  0.3333333333333357  0.6182088787171698   T   T   T
  0.1666666666666643  0.3333333333333357  0.6182088787171698   T   T   T
  0.3333333333333357  0.3333333333333357  0.6182088787171698   T   T   T
  0.5000000000000000  0.3333333333333357  0.6182088787171698   T   T   T
  0.6666666666666643  0.3333333333333357  0.6182088787171698   T   T   T
  0.8333333333333357  0.3333333333333357  0.6182088787171698   T   T   T
 -0.0000000000000000  0.5000000000000000  0.6182088787171698   T   T   T
  0.1666666666666643  0.5000000000000000  0.6182088787171698   T   T   T
  0.3333333333333357  0.5000000000000000  0.6182088787171698   T   T   T
  0.5000000000000000  0.5000000000000000  0.6182088787171698   T   T   T
  0.6666666666666643  0.5000000000000000  0.6182088787171698   T   T   T
  0.8333333333333357  0.5000000000000000  0.6182088787171698   T   T   T
 -0.0000000000000000  0.6666666666666643  0.6182088787171698   T   T   T
  0.1666666666666643  0.6666666666666643  0.6182088787171698   T   T   T
  0.3333333333333357  0.6666666666666643  0.6182088787171698   T   T   T
  0.5000000000000000  0.6666666666666643  0.6182088787171698   T   T   T
  0.6666666666666643  0.6666666666666643  0.6182088787171698   T   T   T
  0.8333333333333357  0.6666666666666643  0.6182088787171698   T   T   T
 -0.0000000000000000  0.8333333333333357  0.6182088787171698   T   T   T
  0.1666666666666643  0.8333333333333357  0.6182088787171698   T   T   T
  0.3333333333333357  0.8333333333333357  0.6182088787171698   T   T   T
  0.5000000000000000  0.8333333333333357  0.6182088787171698   T   T   T
  0.6666666666666643  0.8333333333333357  0.6182088787171698   T   T   T
  0.8333333333333357  0.8333333333333357  0.6182088787171698   T   T   T
 
  0.00000000E+00  0.00000000E+00  0.00000000E+00
  0.00000000E+00  0.00000000E+00  0.00000000E+00
  0.00000000E+00  0.00000000E+00  0.00000000E+00
  0.00000000E+00  0.00000000E+00  0.00000000E+00
  0.00000000E+00  0.00000000E+00  0.00000000E+00
  0.00000000E+00  0.00000000E+00  0.00000000E+00
  0.00000000E+00  0.00000000E+00  0.00000000E+00
  0.00000000E+00  0.00000000E+00  0.00000000E+00
  0.00000000E+00  0.00000000E+00  0.00000000E+00
  0.00000000E+00  0.00000000E+00  0.00000000E+00
  0.00000000E+00  0.00000000E+00  0.00000000E+00
  0.00000000E+00  0.00000000E+00  0.00000000E+00
  0.00000000E+00  0.00000000E+00  0.00000000E+00
  0.00000000E+00  0.00000000E+00  0.00000000E+00
  0.00000000E+00  0.00000000E+00  0.00000000E+00
  0.00000000E+00  0.00000000E+00  0.00000000E+00
  0.00000000E+00  0.00000000E+00  0.00000000E+00
  0.00000000E+00  0.00000000E+00  0.00000000E+00
  0.00000000E+00  0.00000000E+00  0.00000000E+00
  0.00000000E+00  0.00000000E+00  0.00000000E+00
  0.00000000E+00  0.00000000E+00  0.00000000E+00
  0.00000000E+00  0.00000000E+00  0.00000000E+00
  0.00000000E+00  0.00000000E+00  0.00000000E+00
  0.00000000E+00  0.00000000E+00  0.00000000E+00
  0.00000000E+00  0.00000000E+00  0.00000000E+00
  0.00000000E+00  0.00000000E+00  0.00000000E+00
  0.00000000E+00  0.00000000E+00  0.00000000E+00
  0.00000000E+00  0.00000000E+00  0.00000000E+00
  0.00000000E+00  0.00000000E+00  0.00000000E+00
  0.00000000E+00  0.00000000E+00  0.00000000E+00
  0.00000000E+00  0.00000000E+00  0.00000000E+00
  0.00000000E+00  0.00000000E+00  0.00000000E+00
  0.00000000E+00  0.00000000E+00  0.00000000E+00
  0.00000000E+00  0.00000000E+00  0.00000000E+00
  0.00000000E+00  0.00000000E+00  0.00000000E+00
  0.00000000E+00  0.00000000E+00  0.00000000E+00
  0.00000000E+00  0.00000000E+00  0.00000000E+00
  0.00000000E+00  0.00000000E+00  0.00000000E+00
  0.00000000E+00  0.00000000E+00  0.00000000E+00
  0.00000000E+00  0.00000000E+00  0.00000000E+00
  0.00000000E+00  0.00000000E+00  0.00000000E+00
  0.00000000E+00  0.00000000E+00  0.00000000E+00
  0.00000000E+00  0.00000000E+00  0.00000000E+00
  0.00000000E+00  0.00000000E+00  0.00000000E+00
  0.00000000E+00  0.00000000E+00  0.00000000E+00
  0.00000000E+00  0.00000000E+00  0.00000000E+00
  0.00000000E+00  0.00000000E+00  0.00000000E+00
  0.00000000E+00  0.00000000E+00  0.00000000E+00
  0.00000000E+00  0.00000000E+00  0.00000000E+00
  0.00000000E+00  0.00000000E+00  0.00000000E+00
  0.00000000E+00  0.00000000E+00  0.00000000E+00
  0.00000000E+00  0.00000000E+00  0.00000000E+00
  0.00000000E+00  0.00000000E+00  0.00000000E+00
  0.00000000E+00  0.00000000E+00  0.00000000E+00
  0.00000000E+00  0.00000000E+00  0.00000000E+00
  0.00000000E+00  0.00000000E+00  0.00000000E+00
  0.00000000E+00  0.00000000E+00  0.00000000E+00
  0.00000000E+00  0.00000000E+00  0.00000000E+00
  0.00000000E+00  0.00000000E+00  0.00000000E+00
  0.00000000E+00  0.00000000E+00  0.00000000E+00
  0.00000000E+00  0.00000000E+00  0.00000000E+00
  0.00000000E+00  0.00000000E+00  0.00000000E+00
  0.00000000E+00  0.00000000E+00  0.00000000E+00
  0.00000000E+00  0.00000000E+00  0.00000000E+00
  0.00000000E+00  0.00000000E+00  0.00000000E+00
  0.00000000E+00  0.00000000E+00  0.00000000E+00
  0.00000000E+00  0.00000000E+00  0.00000000E+00
  0.00000000E+00  0.00000000E+00  0.00000000E+00
  0.00000000E+00  0.00000000E+00  0.00000000E+00
  0.00000000E+00  0.00000000E+00  0.00000000E+00
  0.00000000E+00  0.00000000E+00  0.00000000E+00
  0.00000000E+00  0.00000000E+00  0.00000000E+00
  0.00000000E+00  0.00000000E+00  0.00000000E+00
  0.00000000E+00  0.00000000E+00  0.00000000E+00
  0.00000000E+00  0.00000000E+00  0.00000000E+00
  0.00000000E+00  0.00000000E+00  0.00000000E+00
  0.00000000E+00  0.00000000E+00  0.00000000E+00
  0.00000000E+00  0.00000000E+00  0.00000000E+00
  0.00000000E+00  0.00000000E+00  0.00000000E+00
  0.00000000E+00  0.00000000E+00  0.00000000E+00
  0.00000000E+00  0.00000000E+00  0.00000000E+00
  0.00000000E+00  0.00000000E+00  0.00000000E+00
  0.00000000E+00  0.00000000E+00  0.00000000E+00
  0.00000000E+00  0.00000000E+00  0.00000000E+00
  0.00000000E+00  0.00000000E+00  0.00000000E+00
  0.00000000E+00  0.00000000E+00  0.00000000E+00
  0.00000000E+00  0.00000000E+00  0.00000000E+00
  0.00000000E+00  0.00000000E+00  0.00000000E+00
  0.00000000E+00  0.00000000E+00  0.00000000E+00
  0.00000000E+00  0.00000000E+00  0.00000000E+00
  0.00000000E+00  0.00000000E+00  0.00000000E+00
  0.00000000E+00  0.00000000E+00  0.00000000E+00
  0.00000000E+00  0.00000000E+00  0.00000000E+00
  0.00000000E+00  0.00000000E+00  0.00000000E+00
  0.00000000E+00  0.00000000E+00  0.00000000E+00
  0.00000000E+00  0.00000000E+00  0.00000000E+00
  0.00000000E+00  0.00000000E+00  0.00000000E+00
  0.00000000E+00  0.00000000E+00  0.00000000E+00
  0.00000000E+00  0.00000000E+00  0.00000000E+00
  0.00000000E+00  0.00000000E+00  0.00000000E+00
  0.00000000E+00  0.00000000E+00  0.00000000E+00
  0.00000000E+00  0.00000000E+00  0.00000000E+00
  0.00000000E+00  0.00000000E+00  0.00000000E+00
  0.00000000E+00  0.00000000E+00  0.00000000E+00
  0.00000000E+00  0.00000000E+00  0.00000000E+00
  0.00000000E+00  0.00000000E+00  0.00000000E+00
  0.00000000E+00  0.00000000E+00  0.00000000E+00
  0.00000000E+00  0.00000000E+00  0.00000000E+00
  0.00000000E+00  0.00000000E+00  0.00000000E+00
  0.00000000E+00  0.00000000E+00  0.00000000E+00
  0.00000000E+00  0.00000000E+00  0.00000000E+00
  0.00000000E+00  0.00000000E+00  0.00000000E+00
  0.00000000E+00  0.00000000E+00  0.00000000E+00
  0.00000000E+00  0.00000000E+00  0.00000000E+00
  0.00000000E+00  0.00000000E+00  0.00000000E+00
  0.00000000E+00  0.00000000E+00  0.00000000E+00
  0.00000000E+00  0.00000000E+00  0.00000000E+00
  0.00000000E+00  0.00000000E+00  0.00000000E+00
  0.00000000E+00  0.00000000E+00  0.00000000E+00
  0.00000000E+00  0.00000000E+00  0.00000000E+00
  0.00000000E+00  0.00000000E+00  0.00000000E+00
  0.00000000E+00  0.00000000E+00  0.00000000E+00
  0.00000000E+00  0.00000000E+00  0.00000000E+00
  0.00000000E+00  0.00000000E+00  0.00000000E+00
  0.00000000E+00  0.00000000E+00  0.00000000E+00
  0.00000000E+00  0.00000000E+00  0.00000000E+00
  0.00000000E+00  0.00000000E+00  0.00000000E+00
  0.00000000E+00  0.00000000E+00  0.00000000E+00
  0.00000000E+00  0.00000000E+00  0.00000000E+00
  0.00000000E+00  0.00000000E+00  0.00000000E+00
  0.00000000E+00  0.00000000E+00  0.00000000E+00
  0.00000000E+00  0.00000000E+00  0.00000000E+00
  0.00000000E+00  0.00000000E+00  0.00000000E+00
  0.00000000E+00  0.00000000E+00  0.00000000E+00
  0.00000000E+00  0.00000000E+00  0.00000000E+00
  0.00000000E+00  0.00000000E+00  0.00000000E+00
  0.00000000E+00  0.00000000E+00  0.00000000E+00
  0.00000000E+00  0.00000000E+00  0.00000000E+00
  0.00000000E+00  0.00000000E+00  0.00000000E+00
  0.00000000E+00  0.00000000E+00  0.00000000E+00
  0.00000000E+00  0.00000000E+00  0.00000000E+00
  0.00000000E+00  0.00000000E+00  0.00000000E+00
  0.00000000E+00  0.00000000E+00  0.00000000E+00
  0.00000000E+00  0.00000000E+00  0.00000000E+00
