Au 
 1.0000000000000000
    17.3099740034466869    0.0000000000000000    0.0000000000000000
     8.6549870017233435   14.9908772258330494    0.0000000000000000
     0.0000000000000000    0.0000000000000000   33.0667672948810178
 Au 
 144
Selective dynamics
Cartesian
  0.0000000000000000  0.0000000000000000 13.0000000000000000   F   F   F
  2.8849956672411143  0.0000000000000000 13.0000000000000000   F   F   F
  5.7699913344822287  0.0000000000000000 13.0000000000000000   F   F   F
  8.6549870017233435  0.0000000000000000 13.0000000000000000   F   F   F
 11.5399826689644573  0.0000000000000000 13.0000000000000000   F   F   F
 14.4249783362055712  0.0000000000000000 13.0000000000000000   F   F   F
  1.4424978336205572  2.4984795376388416 13.0000000000000000   F   F   F
  4.3274935008616717  2.4984795376388416 13.0000000000000000   F   F   F
  7.2124891681027856  2.4984795376388416 13.0000000000000000   F   F   F
 10.0974848353439004  2.4984795376388416 13.0000000000000000   F   F   F
 12.9824805025850143  2.4984795376388416 13.0000000000000000   F   F   F
 15.8674761698261282  2.4984795376388416 13.0000000000000000   F   F   F
  2.8849956672411143  4.9969590752776831 13.0000000000000000   F   F   F
  5.7699913344822287  4.9969590752776831 13.0000000000000000   F   F   F
  8.6549870017233435  4.9969590752776831 13.0000000000000000   F   F   F
 11.5399826689644573  4.9969590752776831 13.0000000000000000   F   F   F
 14.4249783362055712  4.9969590752776831 13.0000000000000000   F   F   F
 17.3099740034466869  4.9969590752776831 13.0000000000000000   F   F   F
  4.3274935008616717  7.4954386129165247 13.0000000000000000   F   F   F
  7.2124891681027856  7.4954386129165247 13.0000000000000000   F   F   F
 10.0974848353439004  7.4954386129165247 13.0000000000000000   F   F   F
 12.9824805025850143  7.4954386129165247 13.0000000000000000   F   F   F
 15.8674761698261282  7.4954386129165247 13.0000000000000000   F   F   F
 18.7524718370672439  7.4954386129165247 13.0000000000000000   F   F   F
  5.7699913344822287  9.9939181505553663 13.0000000000000000   F   F   F
  8.6549870017233435  9.9939181505553663 13.0000000000000000   F   F   F
 11.5399826689644573  9.9939181505553663 13.0000000000000000   F   F   F
 14.4249783362055730  9.9939181505553663 13.0000000000000000   F   F   F
 17.3099740034466869  9.9939181505553663 13.0000000000000000   F   F   F
 20.1949696706878008  9.9939181505553663 13.0000000000000000   F   F   F
  7.2124891681027856 12.4923976881942078 13.0000000000000000   F   F   F
 10.0974848353439004 12.4923976881942078 13.0000000000000000   F   F   F
 12.9824805025850143 12.4923976881942078 13.0000000000000000   F   F   F
 15.8674761698261300 12.4923976881942078 13.0000000000000000   F   F   F
 18.7524718370672439 12.4923976881942078 13.0000000000000000   F   F   F
 21.6374675043083577 12.4923976881942078 13.0000000000000000   F   F   F
  1.4424978336205572  0.8328265125462805 15.3555890982936738   F   F   F
  4.3274935008616717  0.8328265125462805 15.3555890982936738   F   F   F
  7.2124891681027865  0.8328265125462805 15.3555890982936738   F   F   F
 10.0974848353439004  0.8328265125462805 15.3555890982936738   F   F   F
 12.9824805025850125  0.8328265125462805 15.3555890982936738   F   F   F
 15.8674761698261282  0.8328265125462805 15.3555890982936738   F   F   F
  2.8849956672411143  3.3313060501851219 15.3555890982936738   F   F   F
  5.7699913344822287  3.3313060501851219 15.3555890982936738   F   F   F
  8.6549870017233435  3.3313060501851219 15.3555890982936738   F   F   F
 11.5399826689644573  3.3313060501851219 15.3555890982936738   F   F   F
 14.4249783362055695  3.3313060501851219 15.3555890982936738   F   F   F
 17.3099740034466869  3.3313060501851219 15.3555890982936738   F   F   F
  4.3274935008616717  5.8297855878239639 15.3555890982936738   F   F   F
  7.2124891681027856  5.8297855878239639 15.3555890982936738   F   F   F
 10.0974848353439004  5.8297855878239639 15.3555890982936738   F   F   F
 12.9824805025850161  5.8297855878239639 15.3555890982936738   F   F   F
 15.8674761698261282  5.8297855878239639 15.3555890982936738   F   F   F
 18.7524718370672439  5.8297855878239639 15.3555890982936738   F   F   F
  5.7699913344822287  8.3282651254628064 15.3555890982936738   F   F   F
  8.6549870017233435  8.3282651254628064 15.3555890982936738   F   F   F
 11.5399826689644573  8.3282651254628064 15.3555890982936738   F   F   F
 14.4249783362055730  8.3282651254628064 15.3555890982936738   F   F   F
 17.3099740034466834  8.3282651254628064 15.3555890982936738   F   F   F
 20.1949696706878008  8.3282651254628064 15.3555890982936738   F   F   F
  7.2124891681027856 10.8267446631016462 15.3555890982936738   F   F   F
 10.0974848353439004 10.8267446631016462 15.3555890982936738   F   F   F
 12.9824805025850143 10.8267446631016462 15.3555890982936738   F   F   F
 15.8674761698261300 10.8267446631016462 15.3555890982936738   F   F   F
 18.7524718370672403 10.8267446631016462 15.3555890982936738   F   F   F
 21.6374675043083577 10.8267446631016462 15.3555890982936738   F   F   F
  8.6549870017233435 13.3252242007404877 15.3555890982936738   F   F   F
 11.5399826689644573 13.3252242007404877 15.3555890982936738   F   F   F
 14.4249783362055712 13.3252242007404877 15.3555890982936738   F   F   F
 17.3099740034466869 13.3252242007404877 15.3555890982936738   F   F   F
 20.1949696706877972 13.3252242007404877 15.3555890982936738   F   F   F
 23.0799653379289147 13.3252242007404877 15.3555890982936738   F   F   F
 -0.0000000000000001  1.6656530250925610 17.7111781965873476   T   T   T
  2.8849956672411143  1.6656530250925610 17.7111781965873476   T   T   T
  5.7699913344822287  1.6656530250925610 17.7111781965873476   T   T   T   
  8.6549870017233435  1.6656530250925610 17.7111781965873476   T   T   T  
 11.5399826689644573  1.6656530250925610 17.7111781965873476   T   T   T  
 14.4249783362055730  1.6656530250925610 17.7111781965873476   T   T   T  
  1.4424978336205569  4.1641325627314023 17.7111781965873476   T   T   T  
  4.3274935008616717  4.1641325627314023 17.7111781965873476   T   T   T  
  7.2124891681027865  4.1641325627314023 17.7111781965873476   T   T   T  
 10.0974848353439004  4.1641325627314023 17.7111781965873476   T   T   T  
 12.9824805025850143  4.1641325627314023 17.7111781965873476   T   T   T  
 15.8674761698261300  4.1641325627314023 17.7111781965873476   T   T   T  
  2.8849956672411143  6.6626121003702439 17.7111781965873476   T   T   T  
  5.7699913344822287  6.6626121003702439 17.7111781965873476   T   T   T  
  8.6549870017233435  6.6626121003702439 17.7111781965873476   T   T   T  
 11.5399826689644573  6.6626121003702439 17.7111781965873476   T   T   T  
 14.4249783362055712  6.6626121003702439 17.7111781965873476   T   T   T  
 17.3099740034466869  6.6626121003702439 17.7111781965873476   T   T   T  
  4.3274935008616717  9.1610916380090845 17.7111781965873476   T   T   T  
  7.2124891681027856  9.1610916380090845 17.7111781965873476   T   T   T  
 10.0974848353439004  9.1610916380090845 17.7111781965873476   T   T   T  
 12.9824805025850143  9.1610916380090845 17.7111781965873476   T   T   T  
 15.8674761698261282  9.1610916380090845 17.7111781965873476   T   T   T  
 18.7524718370672439  9.1610916380090845 17.7111781965873476   T   T   T  
  5.7699913344822287 11.6595711756479279 17.7111781965873476   T   T   T  
  8.6549870017233435 11.6595711756479279 17.7111781965873476   T   T   T  
 11.5399826689644573 11.6595711756479279 17.7111781965873476   T   T   T  
 14.4249783362055712 11.6595711756479279 17.7111781965873476   T   T   T  
 17.3099740034466869 11.6595711756479279 17.7111781965873476   T   T   T  
 20.1949696706878008 11.6595711756479279 17.7111781965873476   T   T   T  
  7.2124891681027865 14.1580507132867695 17.7111781965873476   T   T   T  
 10.0974848353439004 14.1580507132867695 17.7111781965873476   T   T   T  
 12.9824805025850161 14.1580507132867695 17.7111781965873476   T   T   T  
 15.8674761698261300 14.1580507132867695 17.7111781965873476   T   T   T  
 18.7524718370672439 14.1580507132867695 17.7111781965873476   T   T   T  
 21.6374675043083577 14.1580507132867695 17.7111781965873476   T   T   T  
  0.0000000000000000  0.0000000000000000 20.0667672948810178   T   T   T  
  2.8849956672411143  0.0000000000000000 20.0667672948810178   T   T   T  
  5.7699913344822287  0.0000000000000000 20.0667672948810178   T   T   T  
  8.6549870017233435  0.0000000000000000 20.0667672948810178   T   T   T  
 11.5399826689644573  0.0000000000000000 20.0667672948810178   T   T   T  
 14.4249783362055712  0.0000000000000000 20.0667672948810178   T   T   T  
  1.4424978336205572  2.4984795376388416 20.0667672948810178   T   T   T  
  4.3274935008616717  2.4984795376388416 20.0667672948810178   T   T   T  
  7.2124891681027856  2.4984795376388416 20.0667672948810178   T   T   T  
 10.0974848353439004  2.4984795376388416 20.0667672948810178   T   T   T  
 12.9824805025850143  2.4984795376388416 20.0667672948810178   T   T   T  
 15.8674761698261282  2.4984795376388416 20.0667672948810178   T   T   T  
  2.8849956672411143  4.9969590752776831 20.0667672948810178   T   T   T  
  5.7699913344822287  4.9969590752776831 20.0667672948810178   T   T   T  
  8.6549870017233435  4.9969590752776831 20.0667672948810178   T   T   T  
 11.5399826689644573  4.9969590752776831 20.0667672948810178   T   T   T  
 14.4249783362055712  4.9969590752776831 20.0667672948810178   T   T   T  
 17.3099740034466869  4.9969590752776831 20.0667672948810178   T   T   T  
  4.3274935008616717  7.4954386129165247 20.0667672948810178   T   T   T  
  7.2124891681027856  7.4954386129165247 20.0667672948810178   T   T   T  
 10.0974848353439004  7.4954386129165247 20.0667672948810178   T   T   T  
 12.9824805025850143  7.4954386129165247 20.0667672948810178   T   T   T  
 15.8674761698261282  7.4954386129165247 20.0667672948810178   T   T   T  
 18.7524718370672439  7.4954386129165247 20.0667672948810178   T   T   T  
  5.7699913344822287  9.9939181505553663 20.0667672948810178   T   T   T  
  8.6549870017233435  9.9939181505553663 20.0667672948810178   T   T   T  
 11.5399826689644573  9.9939181505553663 20.0667672948810178   T   T   T  
 14.4249783362055730  9.9939181505553663 20.0667672948810178   T   T   T  
 17.3099740034466869  9.9939181505553663 20.0667672948810178   T   T   T  
 20.1949696706878008  9.9939181505553663 20.0667672948810178   T   T   T  
  7.2124891681027856 12.4923976881942078 20.0667672948810178   T   T   T  
 10.0974848353439004 12.4923976881942078 20.0667672948810178   T   T   T  
 12.9824805025850143 12.4923976881942078 20.0667672948810178   T   T   T  
 15.8674761698261300 12.4923976881942078 20.0667672948810178   T   T   T  
 18.7524718370672439 12.4923976881942078 20.0667672948810178   T   T   T  
 21.6374675043083577 12.4923976881942078 20.0667672948810178   T   T   T  
