Au  C  H  O Sr Ti                       
   1.00000000000000     
    23.6707801818999997    0.0000000000000000    0.0000000000000000
     0.0000000000000000   22.3170261383000010    0.0000000000000000
     0.0000000000000000    0.0000000000000000   30.0000000000000000
   Au   C    H    O    Sr   Ti
    50     1     2   264    72    72
Selective dynamics
Direct
  0.7146086085890246  0.5247702341483205  0.7530267378652127   F   F   F
  0.6207619498931223  0.5706218311012421  0.7039514884637299   F   F   F
  0.7289684187191696  0.2600818236599167  0.6917360121657552   F   F   F
  0.2932549857959330  0.7467746895323302  0.6972044177447572   F   F   F
  0.5118661808073739  0.6034730345526143  0.7770101750923075   F   F   F
  0.5782566468667341  0.7258195870872513  0.7937860666106431   F   F   F
  0.2400929644634502  0.4696555593133453  0.7090609395819385   F   F   F
  0.2848275053174021  0.6627600537076361  0.7646499760798449   F   F   F
  0.5935054299812634  0.2929763408419390  0.7870697673686138   F   F   F
  0.5140184947905908  0.4842692891182026  0.6781959164807247   F   F   F
  0.5628623590438977  0.4860828323004398  0.7623127271696148   F   F   F
  0.5540216408250060  0.2144223763824442  0.7129653389781581   F   F   F
  0.5458933335193521  0.3893089654828401  0.8305287672675234   F   F   F
  0.3912578031183571  0.8177049532037231  0.7064443023788414   F   F   F
  0.4638917462115799  0.6958232032621225  0.8298771432140839   F   F   F
  0.4354314249791500  0.2273699175923767  0.6981964559129423   F   F   F
  0.3682553587497637  0.3001327446029904  0.7564084346010489   F   F   F
  0.3487539450440238  0.5009631758835269  0.6978689470198418   F   F   F
  0.4271619387767913  0.3737903862628116  0.8169858497000746   F   F   F
  0.5964192720673580  0.7845466734742388  0.7129577399353337   F   F   F
  0.6341584091844226  0.5844565199282954  0.8002081244491279   F   F   F
  0.7324834374388445  0.6145727019308609  0.6940604842164788   F   F   F
  0.4857004706409853  0.7770855816623978  0.7549527073659021   F   F   F
  0.7630289194124984  0.4307179972888093  0.7046714171901129   F   F   F
  0.4804072148067746  0.2700009338785208  0.7758865308825236   F   F   F
  0.2884151098198942  0.5385806496763053  0.7776919681175585   F   F   F
  0.6186091744458153  0.3187684223383158  0.6967927694740084   F   F   F
  0.3681452344747314  0.6193791775201660  0.8201738505690770   F   F   F
  0.5686935158565802  0.5114105315679680  0.8571925680485748   F   F   F
  0.6753796598944248  0.2141807801476148  0.7613673431850714   T   T   T
  0.4685320481742039  0.4534366353178640  0.8816308031625013   F   F   F
  0.5178398139417837  0.3767369224017614  0.7334569352731322   F   F   F
  0.2812422049312460  0.3404619727367901  0.7025633445675012   F   F   F
  0.6693463708036802  0.6811936837496546  0.7488138412155436   F   F   F
  0.3969091295866534  0.3827454051230816  0.6908021244044278   F   F   F
  0.4521944732040808  0.5799967818498288  0.7029297397853682   F   F   F
  0.3746247059262160  0.4938319537784324  0.8327986883268323   F   F   F
  0.3238289737038968  0.4155862830023622  0.7696236436924480   F   F   F
  0.4176827658428977  0.6967786833319352  0.6994310298666448   F   F   F
  0.7004222520453851  0.3420994432675712  0.7590194897461586   F   F   F
  0.7727578524654817  0.4285451673579104  0.7946706374839039   F   F   F
  0.2566096172317316  0.5934804878270015  0.6945284683823232   F   F   F
  0.6482426705891058  0.4446984162432273  0.6944548386653580   F   F   F
  0.5646257445207965  0.6406008852913345  0.8616711867338722   F   F   F
  0.5405443563193089  0.6677129051741915  0.7019776160980058   F   F   F
  0.4433898590799572  0.4735924685439556  0.7561088860926120   F   F   F
  0.3741089101470365  0.7399322985121657  0.7786960279718116   F   F   F
  0.4621896861482213  0.5750172556548563  0.8644396473249927   F   F   F
  0.6547495514560637  0.4407027093908482  0.8129473783674825   F   F   F
  0.7065326875674245  0.7568332271773386  0.6883526103238111   F   F   F
  0.7125544984846144  0.1370220795565089  0.7623735170671466   T   T   T
  0.7378035226919835  0.1243426357130701  0.7912061165516988   T   T   T
  0.7125345938285079  0.1060262029890779  0.7338106267390736   T   T   T
  0.2492275019037251  0.3138107364143323  0.5459464097497317   F   F   F
  0.7503893365622574  0.1896621883133065  0.4557469034193531   F   F   F
  0.4174918930027118  0.9357677474841708  0.4539351349670255   F   F   F
  0.4171869697394257  0.6847308462895469  0.4547494248728370   F   F   F
  0.4170324368691851  0.4355701089629704  0.4540496467227513   F   F   F
  0.0844359934386389  0.6869466342402788  0.4531439823145078   F   F   F
  0.0840854899489614  0.9368343022744554  0.4536888715155811   F   F   F
  0.0827959853201818  0.4368044115298133  0.4528384077977279   F   F   F
  0.0838602533689539  0.1865886815030962  0.4529894009113704   F   F   F
  0.9166378171348839  0.8121339721037515  0.4540741401218611   F   F   F
  0.7465547902498813  0.5574747673006399  0.5446342921194045   F   F   F
  0.9160946455521639  0.5622139988876569  0.4540553884022032   F   F   F
  0.9161297305591418  0.0622680994764053  0.4541124195314410   F   F   F
  0.9161662329307632  0.3122079011090833  0.4538277417431900   F   F   F
  0.4169309839686903  0.1872516607465826  0.4536111840049273   F   F   F
  0.2520391387007876  0.6876437705881102  0.4561648164998147   F   F   F
  0.9164582722230534  0.9371184865014044  0.4536596926264593   F   F   F
  0.5830044040221054  0.1903445271065891  0.4557132324948725   F   F   F
  0.0001963267873037  0.1250323587635478  0.4983088108634774   F   F   F
  0.5832759404297434  0.8104221923503516  0.4553408750268488   F   F   F
  0.0000249171729578  0.3737461165735425  0.4982101932142768   F   F   F
  0.9997115125622003  0.6271307128718178  0.4976711750831697   F   F   F
  0.3336255544020688  0.1256253557655569  0.4985632188641773   F   F   F
  0.0001234201258100  0.8752009931179288  0.4996177337226158   F   F   F
  0.3335460653121558  0.8743049472132398  0.4992400193729551   F   F   F
  0.6657905161266342  0.1262940147927054  0.4997541023613721   F   F   F
  0.2512084076467218  0.4392989711200741  0.4549216202535149   F   F   F
  0.0833333358191695  0.5625000000092442  0.3605200052333331   F   F   F
  0.9166666865332829  0.0625000000159659  0.3605200052333331   F   F   F
  0.7493410362708346  0.8131705889551171  0.4529966211818959   F   F   F
  0.7496337270725206  0.4383049505040120  0.4559361044466215   F   F   F
  0.2504861948436954  0.0619950481574563  0.4542578631107190   F   F   F
  0.7490651153198016  0.6886221803773580  0.4575393177632776   F   F   F
  0.2498705474759859  0.1884843610725682  0.4540934450130862   F   F   F
  0.2500130895876538  0.9361241597668837  0.4540881428044088   F   F   F
  0.6653624753416523  0.6258699689362643  0.5030152188583017   F   F   F
  0.5845004147425996  0.5628098834973088  0.4548887840397526   F   F   F
  0.5832651206126442  0.0636749450630703  0.4538559481642608   F   F   F
  0.9166666865332829  0.6874999999963620  0.3605200052333331   F   F   F
  0.9166666865332829  0.4374999701794380  0.3605200052333331   F   F   F
  0.9166666865332829  0.1875000000030838  0.3605200052333331   F   F   F
  0.5833333134730552  0.9375000000154046  0.3605200052333331   F   F   F
  0.5833333134730552  0.6874999999963620  0.3605200052333331   F   F   F
  0.5833333134730552  0.4374999701794380  0.3605200052333331   F   F   F
  0.5833333134730552  0.1875000000030838  0.3605200052333331   F   F   F
  0.2499999999799343  0.9375000000154046  0.3605200052333331   F   F   F
  0.9166666865332829  0.9375000000154046  0.3605200052333331   F   F   F
  0.2499999999799343  0.6874999999963620  0.3605200052333331   F   F   F
  0.2499999999799343  0.1875000000030838  0.3605200052333331   F   F   F
  0.7499999404149307  0.9375000000154046  0.3605200052333331   F   F   F
  0.7499999404149307  0.6874999999963620  0.3605200052333331   F   F   F
  0.7499999404149307  0.4374999701794380  0.3605200052333331   F   F   F
  0.7499999404149307  0.1875000000030838  0.3605200052333331   F   F   F
  0.4166666269218169  0.9375000000154046  0.3605200052333331   F   F   F
  0.4166666269218169  0.6874999999963620  0.3605200052333331   F   F   F
  0.4166666269218169  0.4374999701794380  0.3605200052333331   F   F   F
  0.2499999999799343  0.4374999701794380  0.3605200052333331   F   F   F
  0.0833333358191695  0.0625000000159659  0.3605200052333331   F   F   F
  0.9152796253680577  0.6868349668721905  0.4533294772111702   F   F   F
  0.6653708441045296  0.3786358670111412  0.5031437574436453   F   F   F
  0.3343678947477002  0.3784622103956607  0.5029618829757467   F   F   F
  0.3356155617534213  0.6258000618720061  0.5037725119134038   F   F   F
  0.9176712431732810  0.0634002485841307  0.5475374474356798   F   F   F
  0.7494750399578365  0.9384100526111538  0.4553495025641894   F   F   F
  0.5826228821588870  0.4394497749023287  0.4564774708826249   F   F   F
  0.9156650873066141  0.3126444051349253  0.5465504204518936   F   F   F
  0.2518265532351691  0.5645939976838221  0.4538489927129277   F   F   F
  0.5833333134730552  0.0625000000159659  0.3605200052333331   F   F   F
  0.2499999999799343  0.8124999999834799  0.3605200052333331   F   F   F
  0.2499999999799343  0.5625000000092442  0.3605200052333331   F   F   F
  0.2499999999799343  0.3124999999901945  0.3605200052333331   F   F   F
  0.2499999999799343  0.0625000000159659  0.3605200052333331   F   F   F
  0.7499999404149307  0.5625000000092442  0.3605200052333331   F   F   F
  0.7499999404149307  0.3124999999901945  0.3605200052333331   F   F   F
  0.7499999404149307  0.0625000000159659  0.3605200052333331   F   F   F
  0.4166666269218169  0.8124999999834799  0.3605200052333331   F   F   F
  0.4166666269218169  0.5625000000092442  0.3605200052333331   F   F   F
  0.4166666269218169  0.3124999999901945  0.3605200052333331   F   F   F
  0.7499999404149307  0.8124999999834799  0.3605200052333331   F   F   F
  0.0834829330943379  0.3120107322745369  0.4540390967320533   F   F   F
  0.4166666269218169  0.0625000000159659  0.3605200052333331   F   F   F
  0.4168264679120810  0.0615127267803999  0.4553526458717698   F   F   F
  0.0834481913950782  0.8121382388554181  0.4541630665230088   F   F   F
  0.0839640305191622  0.5624998925480398  0.4539988151435281   F   F   F
  0.4160371755338446  0.5595297212930106  0.4578879761753996   F   F   F
  0.0837616818395688  0.0619233208872529  0.4541576572516988   F   F   F
  0.4156329892967818  0.3114264167859844  0.4573802689275013   F   F   F
  0.8333332538436267  0.7500000000123208  0.4070133268666680   F   F   F
  0.0833333358191695  0.4374999701794380  0.3605200052333331   F   F   F
  0.0833333358191695  0.6874999999963620  0.3605200052333331   F   F   F
  0.0833333358191695  0.9375000000154046  0.3605200052333331   F   F   F
  0.4166666269218169  0.1875000000030838  0.3605200052333331   F   F   F
  0.0833333358191695  0.8124999999834799  0.3605200052333331   F   F   F
  0.8333332538436267  0.4999999999932783  0.4070133268666680   F   F   F
  0.2510988888280039  0.0625639317007156  0.5472646117180915   F   F   F
  0.4140597664305830  0.8117230964132318  0.5477462832624482   F   F   F
  0.5833333134730552  0.3124999999901945  0.3605200052333331   F   F   F
  0.2522341216742845  0.3141517608909012  0.4541452324866810   F   F   F
  0.5833333134730552  0.8124999999834799  0.3605200052333331   F   F   F
  0.5833333134730552  0.5625000000092442  0.3605200052333331   F   F   F
  0.2507348734734407  0.8108765750626787  0.4553174006181848   F   F   F
  0.8333332538436267  0.2500000000190425  0.4070133268666680   F   F   F
  0.5842971131864232  0.3152105823685645  0.4540522158488614   F   F   F
  0.7477919688643553  0.8076395990351131  0.5454226303817649   F   F   F
  0.5000000000021103  0.4999999999932783  0.4070133268666680   F   F   F
  0.0833333358191695  0.1875000000030838  0.3605200052333331   F   F   F
  0.0000000000000000  0.0000000000000000  0.4070133268666680   F   F   F
  0.0000000000000000  0.2500000000190425  0.4070133268666680   F   F   F
  0.0000000000000000  0.4999999999932783  0.4070133268666680   F   F   F
  0.7482748186475447  0.5642220646364677  0.4538233802080569   F   F   F
  0.3333333432766779  0.0000000000000000  0.4070133268666680   F   F   F
  0.3333333432766779  0.4999999999932783  0.4070133268666680   F   F   F
  0.3333333432766779  0.7500000000123208  0.4070133268666680   F   F   F
  0.6666666865533486  0.0000000000000000  0.4070133268666680   F   F   F
  0.6666666865533486  0.2500000000190425  0.4070133268666680   F   F   F
  0.6666666865533486  0.4999999999932783  0.4070133268666680   F   F   F
  0.6666666865533486  0.7500000000123208  0.4070133268666680   F   F   F
  0.1666666716383389  0.0000000000000000  0.4070133268666680   F   F   F
  0.1666666716383389  0.2500000000190425  0.4070133268666680   F   F   F
  0.1666666716383389  0.4999999999932783  0.4070133268666680   F   F   F
  0.1666666716383389  0.7500000000123208  0.4070133268666680   F   F   F
  0.5000000000021103  0.0000000000000000  0.4070133268666680   F   F   F
  0.5000000000021103  0.2500000000190425  0.4070133268666680   F   F   F
  0.5000000000021103  0.7500000000123208  0.4070133268666680   F   F   F
  0.9166666865332829  0.3124999999901945  0.3605200052333331   F   F   F
  0.3333333432766779  0.2500000000190425  0.4070133268666680   F   F   F
  0.7473442120054159  0.3141297296161412  0.4546047469467567   F   F   F
  0.0000000000000000  0.7500000000123208  0.4070133268666680   F   F   F
  0.4165920082472070  0.8099584614017630  0.4550685025883539   F   F   F
  0.7492889968768068  0.0642451865477014  0.4533630830208111   F   F   F
  0.5827706668196768  0.6860762977365908  0.4546439572957368   F   F   F
  0.8333332538436267  0.0000000000000000  0.4070133268666680   F   F   F
  0.9157307527579945  0.1867821603964970  0.4531616005207866   F   F   F
  0.4160263137902973  0.9370942705141729  0.5460577672344442   F   F   F
  0.4982395189875461  0.2538075256573364  0.5910805727054935   F   F   F
  0.4158918908373366  0.1914467610743813  0.5466064451241479   F   F   F
  0.0857452830241954  0.6893546979969329  0.5454167060142652   F   F   F
  0.0828901903685804  0.4389865441656511  0.5448287324281154   F   F   F
  0.0836013236259205  0.1888340032063667  0.5456416027554027   F   F   F
  0.4994314729659308  0.1256847226667972  0.4990718993744210   F   F   F
  0.9995703521305472  0.4987307057388293  0.5941259716664220   F   F   F
  0.5796049846086149  0.1848154345677528  0.5507217615992843   F   F   F
  0.9996912341844393  0.7535317061219047  0.5926570557636381   F   F   F
  0.3340442718318073  0.9998655099547591  0.5919952354863511   F   F   F
  0.9999218366418887  0.9988028436389271  0.5930732659917126   F   F   F
  0.0012270090913660  0.2502190511891982  0.5919937271397089   F   F   F
  0.3331732765896973  0.4962917664912609  0.5911029207114922   F   F   F
  0.3353434672683591  0.7411335271543962  0.5904839209630381   F   F   F
  0.6631752159344941  0.2461171943452882  0.5916621364801529   F   F   F
  0.6659711839600462  0.0007708716932626  0.5918978780546666   F   F   F
  0.6656084442855459  0.7412110315668414  0.5908888179179073   F   F   F
  0.6665657429189906  0.4945167128556065  0.5912552644817168   F   F   F
  0.1675072857252218  0.9983418511340929  0.5923404785786417   F   F   F
  0.1684974892247340  0.2482726105333839  0.5931244957328090   F   F   F
  0.1707790705155929  0.7503147200240790  0.5950137523271621   F   F   F
  0.2483432168511115  0.4359471711969505  0.5491130211708253   F   F   F
  0.1654750169849137  0.5033575675704114  0.5872736241170529   F   F   F
  0.3345373111267946  0.2546869518507222  0.5926133452554652   F   F   F
  0.4996736486415188  0.0001484737313575  0.5911459116500097   F   F   F
  0.8326727735181549  0.8741874721448823  0.4986354467321590   F   F   F
  0.7483948022381099  0.9375344720777008  0.6402649240489708   F   F   F
  0.8321520665582796  0.0021101661526401  0.5922634240060205   F   F   F
  0.7483382474868492  0.1829754156972569  0.5508823004999570   F   F   F
  0.4229658495246653  0.6878870683366642  0.5467660848261033   F   F   F
  0.4230708814396209  0.4436454127564815  0.5458996429677399   F   F   F
  0.7522549856606346  0.4341910312657404  0.5493612301655730   F   F   F
  0.5834678465183956  0.3113300095891560  0.5458960062428844   F   F   F
  0.2533071931934003  0.8125919568714082  0.5506898800388456   F   F   F
  0.5825248719041340  0.9371518191054165  0.4545012738602665   F   F   F
  0.5825720033635875  0.0616851212470237  0.5454638147777402   F   F   F
  0.5859887471431051  0.8142254533942435  0.5503910989703584   F   F   F
  0.7468962062196667  0.3102875097481359  0.5476124502370325   F   F   F
  0.5810937640174174  0.5600340799848880  0.5490245967109288   F   F   F
  0.2526067270691925  0.5591322030355244  0.5439346799919917   F   F   F
  0.4159116991383343  0.3196519545681511  0.5527105160521728   F   F   F
  0.5764977901856483  0.4358599972941306  0.5523347792713693   F   F   F
  0.4165684195780486  0.0654345552902456  0.5473304906597534   F   F   F
  0.0850814148132102  0.8126291933148337  0.5473353518593029   F   F   F
  0.0809539300557987  0.5645308934896178  0.5464804036527724   F   F   F
  0.0866934881473043  0.3136003341952218  0.5471214895987657   F   F   F
  0.5005310469771160  0.7568400845577017  0.5925406453493167   F   F   F
  0.0824162795023682  0.0631125454609318  0.5475852072233067   F   F   F
  0.9143100054957713  0.6887337192123937  0.5456652410280327   F   F   F
  0.5836938723887215  0.9375264054926973  0.5463212438854299   F   F   F
  0.9173452849529440  0.1889575125654304  0.5451404018543897   F   F   F
  0.9154495750641303  0.4374118032654479  0.5456974891033255   F   F   F
  0.5795121904313802  0.6861603964963763  0.5475139454689497   F   F   F
  0.2515074916690665  0.9372788728982755  0.5452891851006569   F   F   F
  0.4974254800264006  0.5044137069277568  0.6091370368964917   F   F   F
  0.9176490586528701  0.5636447638197737  0.5469958823752634   F   F   F
  0.4199763546186048  0.5648232930156709  0.5554219691747022   F   F   F
  0.9155017823750811  0.8127153556867412  0.5468091975156355   F   F   F
  0.0840993686758580  0.9383677755442434  0.5461222218432553   F   F   F
  0.2490727192534763  0.6832871730774599  0.5520055174716845   F   F   F
  0.7493194106199326  0.9338492456072416  0.5476982057728321   F   F   F
  0.7517379248594764  0.6799837934031885  0.5534643164015591   F   F   F
  0.9156408836597691  0.9385056449819729  0.5464184088376882   F   F   F
  0.4176324098797508  0.0651211793648656  0.6401223643477252   F   F   F
  0.0833333358191695  0.3124999999901945  0.3605200052333331   F   F   F
  0.4124734079733443  0.8128400920981349  0.6395363799618679   F   F   F
  0.9160739668067848  0.0624548806071559  0.6414168978444081   F   F   F
  0.9135899979596402  0.5628562414383111  0.6406041946355714   F   F   F
  0.9148501015544284  0.3117541272882107  0.6396210785415519   F   F   F
  0.9133573097325609  0.8133508171331059  0.6419512963008103   F   F   F
  0.5828294768047968  0.0669591752380114  0.6388608770858681   F   F   F
  0.5843246226928116  0.3208928836129559  0.6345220538447762   F   F   F
  0.5905352192118372  0.5661249521227631  0.6388304347862785   F   F   F
  0.2476414764308359  0.5740168294670056  0.6287435551371487   F   F   F
  0.7539220737677823  0.6918415884188462  0.6572466262513430   F   F   F
  0.2621201404618034  0.7997512571492535  0.6464543987673252   F   F   F
  0.2510049632680804  0.0594189381530796  0.6423370453543455   F   F   F
  0.9166666865332829  0.5625000000092442  0.3605200052333331   F   F   F
  0.4996530296012480  0.3739821895368465  0.5003346994632309   F   F   F
  0.5003083891279658  0.6210988230164176  0.5000991010465938   F   F   F
  0.8323681980197790  0.6230665072119095  0.5001371220804529   F   F   F
  0.2519979645184947  0.1882729978530406  0.5471460627355356   F   F   F
  0.8323217215979781  0.3729032312336287  0.4998309733348449   F   F   F
  0.8328104025619751  0.1243826321259007  0.5001978511764378   F   F   F
  0.1667686597191747  0.3762895404232012  0.4977016238527483   F   F   F
  0.1675669544545570  0.6242797846116375  0.5002308047288224   F   F   F
  0.5812116251158983  0.4389437645994008  0.6463537950665881   F   F   F
  0.5768727730444567  0.6861330395214367  0.6394423668989120   F   F   F
  0.9167499977386555  0.1861231251858158  0.6395867797344792   F   F   F
  0.2491048063457129  0.3164689441135167  0.6412500827833441   F   F   F
  0.1677943732355374  0.8732280619248698  0.4998492497910902   F   F   F
  0.9157221810451546  0.4369494184871527  0.4536377371914497   F   F   F
  0.1670800342378556  0.1243067064119003  0.4993247487556260   F   F   F
  0.7482390373571306  0.0596828129899336  0.5445330827642607   F   F   F
  0.4255456865894018  0.3045745553822670  0.6568844468973438   F   F   F
  0.5909791244747424  0.8103152471595934  0.6460452246398560   F   F   F
  0.4204806192004114  0.6761635451088637  0.6335857026262559   F   F   F
  0.5000111238460505  0.8729671695607379  0.5009418054677681   F   F   F
  0.7538193272198015  0.4331897570431309  0.6380613402219453   F   F   F
  0.7533368499011530  0.5680961225839667  0.6357933467253147   F   F   F
  0.3973625249678889  0.5506677385603922  0.6520525351057174   F   F   F
  0.4174899244899279  0.9348884435409559  0.6397844059699906   F   F   F
  0.7411266228736437  0.8098798269919243  0.6399692915538679   F   F   F
  0.7477981021754871  0.3120984362889203  0.6394202113226441   F   F   F
  0.7478061765621149  0.0684266884583806  0.6392179834671268   F   F   F
  0.0843653323972831  0.3112350055223061  0.6409478500639025   F   F   F
  0.6664021535358984  0.8744077583339873  0.4988308696684101   F   F   F
  0.0864788256025193  0.5628423088563252  0.6400992534336396   F   F   F
  0.0873515920522152  0.4365718573526038  0.6397077643020523   F   F   F
  0.0835852150983882  0.1853916909437601  0.6411897913122502   F   F   F
  0.4176279315292390  0.1874729054463060  0.6397212691039655   F   F   F
  0.4152375856134753  0.4187021055878972  0.6301479753917434   F   F   F
  0.0844765314934079  0.9355772599340071  0.6410206028747183   F   F   F
  0.0831412336237420  0.6870605193464812  0.6389013558672474   F   F   F
  0.0841489741867747  0.0602756703853586  0.6421593095311167   F   F   F
  0.8331351137998055  0.5023045106388295  0.5890948732974479   F   F   F
  0.9125130902315348  0.4361170320252086  0.6400088759486948   F   F   F
  0.8303499927985527  0.7508300935512366  0.5927346171741519   F   F   F
  0.8319931851068247  0.2483528463109579  0.5900892592174714   F   F   F
  0.7474769103729670  0.1950135222529497  0.6467554864987761   F   F   F
  0.9166666865332829  0.8124999999834799  0.3605200052333331   F   F   F
  0.5820884214287929  0.9363407884001518  0.6395669753061952   F   F   F
  0.0843635006142804  0.8126202394376492  0.6424168444911658   F   F   F
  0.5767769812284911  0.1931809230591526  0.6466840604446560   F   F   F
  0.2544877144328268  0.6779103795269421  0.6628900869233476   F   F   F
  0.2401150069627036  0.4423280145705633  0.6415820718611371   F   F   F
  0.9142891850968482  0.9369685756895834  0.6412473893443718   F   F   F
  0.9163324510171691  0.6876677356460377  0.6390379236075177   F   F   F
  0.2520927720292505  0.9302405960633848  0.6373945439585071   F   F   F
  0.2535732030233859  0.1864996871306346  0.6412073480145324   F   F   F
  0.0008426393708945  0.1224797342946786  0.6193962347429860   F   F   F
  0.1666666716383389  0.3750000000061604  0.4070133268666680   F   F   F
  0.6653661869591190  0.7518787683933326  0.5021770122229583   F   F   F
  0.5010484279572225  0.7528565605357400  0.5038279394887297   F   F   F
  0.6658694570525725  0.9998846529702519  0.5055832996629022   F   F   F
  0.1644627478438778  0.7514422314289106  0.5034607222883309   F   F   F
  0.8333332538436267  0.6249999999803961  0.4070133268666680   F   F   F
  0.6684660545685759  0.4998470051329633  0.5006058272580702   F   F   F
  0.3312376049414709  0.4992299777653244  0.5009974707101534   F   F   F
  0.3301748541968053  0.2480547063067888  0.5028502437070870   F   F   F
  0.3331219389505620  0.0011184433012517  0.5058032924978306   F   F   F
  0.6667419509137531  0.2477490561489546  0.5027154513845744   F   F   F
  0.5010642209086242  0.4996841717826328  0.5002799608550461   F   F   F
  0.9996339227104656  0.5000487828637077  0.5067648993980072   F   F   F
  0.8361842379515281  0.5000883580734907  0.5028665735962576   F   F   F
  0.8362287669572979  0.2484786179263097  0.5022291722967793   F   F   F
  0.6666666865533486  0.3750000000061604  0.4070133268666680   F   F   F
  0.1660425460559196  0.0011389843040064  0.5065715202639396   F   F   F
  0.0000000000000000  0.8749999404036828  0.4070133268666680   F   F   F
  0.5012125377188781  0.2478628479182419  0.5024503583282822   F   F   F
  0.9999186879543771  0.7510978575754876  0.5066503208937974   F   F   F
  0.0011692955801976  0.2499062779167858  0.5059834925545275   F   F   F
  0.0001932888633576  0.9998909418821782  0.5066981070448335   F   F   F
  0.6666666865533486  0.6249999999803961  0.4070133268666680   F   F   F
  0.8333332538436267  0.8749999404036828  0.4070133268666680   F   F   F
  0.3333333432766779  0.6249999999803961  0.4070133268666680   F   F   F
  0.3333333432766779  0.1249999999871179  0.4070133268666680   F   F   F
  0.3333333432766779  0.3750000000061604  0.4070133268666680   F   F   F
  0.8343322272147802  0.0000930358436193  0.5065384008888358   F   F   F
  0.3333333432766779  0.8749999404036828  0.4070133268666680   F   F   F
  0.6666666865533486  0.1249999999871179  0.4070133268666680   F   F   F
  0.0000000000000000  0.6249999999803961  0.4070133268666680   F   F   F
  0.1664072112722863  0.2482015958120911  0.5062432132224117   F   F   F
  0.3338688109106371  0.7511640128420041  0.5015245160800390   F   F   F
  0.5001758871134498  0.9993496279923733  0.5055562034720467   F   F   F
  0.5009238459906626  0.8770961158835036  0.6096889569709063   F   F   F
  0.3260181797599557  0.3734741102546622  0.5928589637606834   F   F   F
  0.0000000000000000  0.3750000000061604  0.4070133268666680   F   F   F
  0.3341446907220345  0.6245611549882355  0.5950393343309131   F   F   F
  0.5000000000021103  0.8749999404036828  0.4070133268666680   F   F   F
  0.8333332538436267  0.1249999999871179  0.4070133268666680   F   F   F
  0.1666666716383389  0.1249999999871179  0.4070133268666680   F   F   F
  0.6655581792125602  0.1248644012659881  0.6098978840722964   F   F   F
  0.5000000000021103  0.6249999999803961  0.4070133268666680   F   F   F
  0.8394244829425830  0.6272268930952123  0.6040050191278326   F   F   F
  0.3315494150964469  0.1197872717678621  0.6130710183113450   F   F   F
  0.9990986022222472  0.8749513845489076  0.6233302958437363   F   F   F
  0.5000000000021103  0.1249999999871179  0.4070133268666680   F   F   F
  0.1635376519796097  0.4999129285472819  0.5019834273934833   F   F   F
  0.8317405428354405  0.8766296466767969  0.6182414196296051   F   F   F
  0.8380010831507860  0.3730657180039643  0.6029964113365480   F   F   F
  0.8361300327281143  0.7517535359752259  0.5026332102620827   F   F   F
  0.1666666716383389  0.8749999404036828  0.4070133268666680   F   F   F
  0.8333332538436267  0.3750000000061604  0.4070133268666680   F   F   F
  0.0000000000000000  0.1249999999871179  0.4070133268666680   F   F   F
  0.5035298968196287  0.6249515286316765  0.5940076552417324   F   F   F
  0.1666666716383389  0.6249999999803961  0.4070133268666680   F   F   F
  0.5000000000021103  0.3750000000061604  0.4070133268666680   F   F   F
  0.6666666865533486  0.8749999404036828  0.4070133268666680   F   F   F
  0.6705327612245782  0.3722019240794054  0.5931833187704854   F   F   F
  0.3345825059042369  0.8787840917325696  0.6027894482936134   F   F   F
  0.1663756531430991  0.8735536286615400  0.6180356548905905   F   F   F
  0.5017665426865392  0.3712849075866842  0.5952902188698346   F   F   F
  0.1595863545788561  0.6274669289490049  0.6015230612005027   F   F   F
  0.1677905031485096  0.1227777016852158  0.6220312044123659   F   F   F
  0.1632845481189662  0.3712315875712804  0.6075078099224385   F   F   F
  0.6654283162408703  0.8815424561228440  0.6074001219785501   F   F   F
  0.6665484154211256  0.6259976407609500  0.5932646209055150   F   F   F
  0.0002966845454324  0.3748840643073592  0.6251464134533009   F   F   F
  0.9996849002877255  0.6234552703593010  0.6241396349865695   F   F   F
  0.8347412395193317  0.1239647547590437  0.6154325571207693   F   F   F
  0.5002389082885301  0.1225428682892300  0.6071821122949999   F   F   F
  0.5847647029409302  0.7501514896657895  0.5996278402921220   F   F   F
  0.0839023070940925  0.2478671540081194  0.6038442376077882   F   F   F
  0.7495855863071768  0.0022262421803632  0.6044940099106952   F   F   F
  0.5825625554809548  0.0013439861717828  0.6041838504965540   F   F   F
  0.9165976618860014  0.9998277011398784  0.6038204078220488   F   F   F
  0.5901945923529155  0.5012633051360922  0.5934820767637916   F   F   F
  0.4147996958248186  0.2483834410100130  0.5913333702045875   F   F   F
  0.2497162571367966  0.7528599861912539  0.5920456841267452   F   F   F
  0.5843876698024602  0.2477164604541855  0.5977335142131679   F   F   F
  0.2497554450070325  0.9977083454515139  0.6042468647844927   F   F   F
  0.7546860991764959  0.2477437086575520  0.5917989097622964   F   F   F
  0.2493245729228732  0.2458780936259686  0.6037328556111490   F   F   F
  0.4170922523122869  0.0001039082631706  0.6047546182524712   F   F   F
  0.2422949359497650  0.4980091038798093  0.5939317999515907   F   F   F
  0.0814637049487104  0.4998044365747702  0.6031426217474447   F   F   F
  0.0811861455664982  0.6258931528519724  0.5054850113520502   F   F   F