Au  C  H  O Sr Ti                       
   1.00000000000000     
    23.6707801818999997    0.0000000000000000    0.0000000000000000
     0.0000000000000000   22.3170261383000010    0.0000000000000000
     0.0000000000000000    0.0000000000000000   30.0000000000000000
   Au   C    H    O    Sr   Ti
    50     2     2   265    72    72
Selective dynamics
Direct
  0.7109337240660956  0.5264350722091634  0.7542486285300538   T   T   T
  0.2916694491628191  0.7475438699523208  0.6971859441787536   T   T   T
  0.5073370963781090  0.6084185537268382  0.7783395002752509   T   T   T
  0.5773476195562597  0.7267349217977860  0.7941439368069997   T   T   T
  0.2390593443205583  0.4704359503883814  0.7089962259520505   T   T   T
  0.2819709789571695  0.6644902354867315  0.7646433812874219   T   T   T
  0.5906982453020679  0.2957136228319817  0.7889176989993216   T   T   T
  0.5120122909017020  0.4845300652446997  0.6787019038048830   T   T   T
  0.5587965883068651  0.4909375346979227  0.7645357671324541   T   T   T
  0.4786715847054445  0.2695428411680401  0.7752324522847894   T   T   T
  0.5449661899621142  0.3937938343743169  0.8335939656186816   T   T   T
  0.5491304452591509  0.2124339733229843  0.7114978056389217   T   T   T
  0.3900901854035545  0.8181267634353331  0.7062908475284860   T   T   T
  0.4327473976102065  0.2278107576305912  0.6979482154970630   T   T   T
  0.3667905381441617  0.3015037009481358  0.7567794958763813   T   T   T
  0.4270777266946852  0.3750021328192560  0.8173705808217826   T   T   T
  0.5958638969044965  0.7849027356804351  0.7129755692367876   T   T   T
  0.6302155498031509  0.5876545445871828  0.8015375701254983   T   T   T
  0.7302831686544695  0.6148355408006709  0.6939888805149602   T   T   T
  0.4846008312521351  0.7767671957639636  0.7548427469746208   T   T   T
  0.7574194756891995  0.4309572985584370  0.7051270469793083   T   T   T
  0.7706016114679136  0.2377679229251344  0.6927321978406833   T   T   T
  0.6191036895900728  0.5708171110023087  0.7043990431622578   T   T   T
  0.4603979525460346  0.7002077493172602  0.8320794396125247   T   T   T
  0.6126660946233140  0.3177337726751402  0.6985380512037634   T   T   T
  0.3474628059154316  0.5009491997385243  0.6969333128140567   T   T   T
  0.6872408417976008  0.3556391238299790  0.7635498426708086   T   T   T
  0.2880804901283951  0.5400622477066652  0.7769073614053972   T   T   T
  0.5642008178802851  0.5168993893238630  0.8605568715081651   T   T   T
  0.6666458778271976  0.2184680986097557  0.7473007022355447   T   T   T
  0.4646565664064414  0.4567137924968367  0.8830507245579421   T   T   T
  0.2807501835842733  0.3413319666621785  0.7021415106623567   T   T   T
  0.6678427748456311  0.6815739596538627  0.7488658365432537   T   T   T
  0.3968460800738053  0.3825847999287846  0.6911158475471875   T   T   T
  0.4508608051162571  0.5808063575336547  0.7033696343455825   T   T   T
  0.3728094190446942  0.4966266718146477  0.8333659934704349   T   T   T
  0.3231203520834668  0.4171817429210140  0.7698614501800526   T   T   T
  0.3661162641943852  0.6222299925580198  0.8199391377346779   T   T   T
  0.5166523807895105  0.3797740637267237  0.7372347446654224   T   T   T
  0.7695624633552528  0.4323960566724345  0.7955268775437603   T   T   T
  0.2557536291952504  0.5949003831281776  0.6942700573228299   T   T   T
  0.6416447476220090  0.4428419817321369  0.6973931292352373   T   T   T
  0.5612909582184926  0.6450571581050546  0.8634395116345576   T   T   T
  0.5395423949659919  0.6682165176474827  0.7021383171647634   T   T   T
  0.4401539828942225  0.4750528644647570  0.7564835748360459   T   T   T
  0.7060248055681877  0.7565827259678520  0.6883415127069233   T   T   T
  0.3717970404472841  0.7417284008236783  0.7783072592124749   T   T   T
  0.4587076186290502  0.5790557875091752  0.8667416528569284   T   T   T
  0.6515131895938885  0.4522588380434985  0.8194243475973948   T   T   T
  0.4159009388312456  0.6971507572442601  0.6994418034419682   T   T   T
  0.8120989974549876  0.2750689190510773  0.7405635933120512   T   T   T
  0.7409042730645464  0.1707686233210159  0.7369544841091834   T   T   T
  0.7360980225021938  0.1298315765033718  0.7174383221846525   T   T   T
  0.7661945678888452  0.1648669188514123  0.7668745726397566   T   T   T
  0.0843099410452686  0.6869601720988512  0.4531497755101431   T   T   T
  0.2520223213818326  0.6874341148517116  0.4560224558954620   T   T   T
  0.0840210874146441  0.9369217331902991  0.4536748677759624   T   T   T
  0.0827611228691991  0.4368024196353513  0.4528229519412746   T   T   T
  0.0838129418033345  0.1865464532664832  0.4529624585793954   T   T   T
  0.9164889667625744  0.8120876145164830  0.4540485369322334   T   T   T
  0.7463292924428077  0.5577101405772625  0.5449303778437400   T   T   T
  0.9160899617435433  0.5621895066986163  0.4540932234391363   T   T   T
  0.9160870364050114  0.0622965373048568  0.4538097432430453   T   T   T
  0.9162493340082960  0.3122159210624325  0.4537885553518065   T   T   T
  0.4165917946345288  0.4353751091173818  0.4541013723608244   T   T   T
  0.5828345618087432  0.4398005771781346  0.4562830175713880   T   T   T
  0.5829804790921918  0.1904033098438943  0.4557087694489586   T   T   T
  0.9163889331560992  0.9370575549927359  0.4535488456626038   T   T   T
  0.5828247425425711  0.8106675833188591  0.4552472776888768   T   T   T
  0.9998256507638819  0.3738177674043163  0.4981066313557857   T   T   T
  0.9995798954276400  0.6270230669277713  0.4976847494147139   T   T   T
  0.3338628706606859  0.1257683429414210  0.4987525008299816   T   T   T
  0.0001605494539867  0.8746316694171368  0.4993222323805445   T   T   T
  0.3333364678371745  0.8736248959038636  0.4992449426724913   T   T   T
  0.6663226190094734  0.1256832997845634  0.4991193097492814   T   T   T
  0.2512332603013074  0.4391495362453541  0.4550226933529932   T   T   T
  0.0833333358191695  0.5625000000092442  0.3605200052333331   F   F   F
  0.9166666865332829  0.0625000000159659  0.3605200052333331   F   F   F
  0.7494416077727748  0.8130854450332116  0.4530391427447737   T   T   T
  0.7496765967574662  0.4383336984093190  0.4555266522123030   T   T   T
  0.9158402077987557  0.3122593291557035  0.5465978606716621   T   T   T
  0.4170451997308124  0.6850100845111472  0.4549255048295254   T   T   T
  0.9999990337322364  0.1239643306629554  0.4984972133287853   T   T   T
  0.4158098133591485  0.9370847384583556  0.5460061603889529   T   T   T
  0.5833333134730552  0.6874999999963620  0.3605200052333331   F   F   F
  0.2505337909734102  0.0620468582141593  0.4542793140452888   T   T   T
  0.5829950831138873  0.0640248087751736  0.4540121352237656   T   T   T
  0.9166666865332829  0.6874999999963620  0.3605200052333331   F   F   F
  0.9166666865332829  0.4374999701794380  0.3605200052333331   F   F   F
  0.9166666865332829  0.1875000000030838  0.3605200052333331   F   F   F
  0.5833333134730552  0.9375000000154046  0.3605200052333331   F   F   F
  0.0807397648693456  0.5643083289531277  0.5463804635049362   T   T   T
  0.5833333134730552  0.4374999701794380  0.3605200052333331   F   F   F
  0.5833333134730552  0.1875000000030838  0.3605200052333331   F   F   F
  0.2499999999799343  0.9375000000154046  0.3605200052333331   F   F   F
  0.9166666865332829  0.9375000000154046  0.3605200052333331   F   F   F
  0.2499999999799343  0.6874999999963620  0.3605200052333331   F   F   F
  0.2499999999799343  0.1875000000030838  0.3605200052333331   F   F   F
  0.7499999404149307  0.9375000000154046  0.3605200052333331   F   F   F
  0.7499999404149307  0.6874999999963620  0.3605200052333331   F   F   F
  0.4169146958559715  0.9361449308086529  0.4539958004202468   T   T   T
  0.7499999404149307  0.4374999701794380  0.3605200052333331   F   F   F
  0.4166666269218169  0.9375000000154046  0.3605200052333331   F   F   F
  0.4166666269218169  0.6874999999963620  0.3605200052333331   F   F   F
  0.4166666269218169  0.4374999701794380  0.3605200052333331   F   F   F
  0.2499999999799343  0.4374999701794380  0.3605200052333331   F   F   F
  0.0833333358191695  0.0625000000159659  0.3605200052333331   F   F   F
  0.9152896385021956  0.6868487666063636  0.4533590504488242   T   T   T
  0.6657081991963852  0.3787551892058975  0.5030179636829609   T   T   T
  0.3345584952376339  0.3779656557931504  0.5035144082636411   T   T   T
  0.3354755805237834  0.6256343201200327  0.5037368246609395   T   T   T
  0.9156590611761742  0.0618403859931597  0.5465690218075715   T   T   T
  0.7496420460182690  0.9378450755721223  0.4551938600494986   T   T   T
  0.2500086889970646  0.9360351556392115  0.4540221371830125   T   T   T
  0.2500235875093599  0.1884170083436958  0.4541654608742143   T   T   T
  0.7490823658268045  0.6886367003014980  0.4575436561451492   T   T   T
  0.7499999404149307  0.1875000000030838  0.3605200052333331   F   F   F
  0.5833333134730552  0.0625000000159659  0.3605200052333331   F   F   F
  0.4168854645399304  0.8104226840071544  0.4548863837005853   T   T   T
  0.7477531767281055  0.8070407518765969  0.5452866518516218   T   T   T
  0.2499999999799343  0.8124999999834799  0.3605200052333331   F   F   F
  0.2499999999799343  0.3124999999901945  0.3605200052333331   F   F   F
  0.2499999999799343  0.0625000000159659  0.3605200052333331   F   F   F
  0.7499999404149307  0.5625000000092442  0.3605200052333331   F   F   F
  0.7499999404149307  0.3124999999901945  0.3605200052333331   F   F   F
  0.7499999404149307  0.0625000000159659  0.3605200052333331   F   F   F
  0.4166666269218169  0.8124999999834799  0.3605200052333331   F   F   F
  0.4166666269218169  0.3124999999901945  0.3605200052333331   F   F   F
  0.7499999404149307  0.8124999999834799  0.3605200052333331   F   F   F
  0.0834721147588810  0.3119736906134313  0.4540301389125838   T   T   T
  0.4166666269218169  0.0625000000159659  0.3605200052333331   F   F   F
  0.4175220314560040  0.0618545310697442  0.4554481282304698   T   T   T
  0.0835625197838778  0.8120584561222125  0.4541747372733624   T   T   T
  0.4166666269218169  0.5625000000092442  0.3605200052333331   F   F   F
  0.4143964068931594  0.8116814638399752  0.5476292240465790   T   T   T
  0.5833333134730552  0.3124999999901945  0.3605200052333331   F   F   F
  0.0839626188544832  0.5624994814806906  0.4539717475944122   T   T   T
  0.2510902173831246  0.0626065067397387  0.5472542752202443   T   T   T
  0.8333332538436267  0.4999999999932783  0.4070133268666680   F   F   F
  0.4166666269218169  0.1875000000030838  0.3605200052333331   F   F   F
  0.0833333358191695  0.9375000000154046  0.3605200052333331   F   F   F
  0.0833333358191695  0.8124999999834799  0.3605200052333331   F   F   F
  0.0833333358191695  0.4374999701794380  0.3605200052333331   F   F   F
  0.8333332538436267  0.7500000000123208  0.4070133268666680   F   F   F
  0.4155080865511241  0.3112346733456449  0.4575598381001331   T   T   T
  0.0839072862519941  0.0621105370341006  0.4540396586239743   T   T   T
  0.4159165579900862  0.5595190911327230  0.4577735061771963   T   T   T
  0.0833333358191695  0.6874999999963620  0.3605200052333331   F   F   F
  0.2522910457756373  0.3141183084252718  0.4541540751753792   T   T   T
  0.5833333134730552  0.5625000000092442  0.3605200052333331   F   F   F
  0.2499999999799343  0.5625000000092442  0.3605200052333331   F   F   F
  0.5833333134730552  0.8124999999834799  0.3605200052333331   F   F   F
  0.6666666865533486  0.7500000000123208  0.4070133268666680   F   F   F
  0.5000000000021103  0.4999999999932783  0.4070133268666680   F   F   F
  0.0833333358191695  0.1875000000030838  0.3605200052333331   F   F   F
  0.0000000000000000  0.0000000000000000  0.4070133268666680   F   F   F
  0.0000000000000000  0.2500000000190425  0.4070133268666680   F   F   F
  0.0000000000000000  0.4999999999932783  0.4070133268666680   F   F   F
  0.7482431272151424  0.5642098326829345  0.4539081199867927   T   T   T
  0.3333333432766779  0.0000000000000000  0.4070133268666680   F   F   F
  0.3333333432766779  0.4999999999932783  0.4070133268666680   F   F   F
  0.3333333432766779  0.7500000000123208  0.4070133268666680   F   F   F
  0.6666666865533486  0.0000000000000000  0.4070133268666680   F   F   F
  0.6666666865533486  0.2500000000190425  0.4070133268666680   F   F   F
  0.6666666865533486  0.4999999999932783  0.4070133268666680   F   F   F
  0.8333332538436267  0.2500000000190425  0.4070133268666680   F   F   F
  0.1666666716383389  0.0000000000000000  0.4070133268666680   F   F   F
  0.5843731996244775  0.3154457554792634  0.4535606655885430   T   T   T
  0.1666666716383389  0.4999999999932783  0.4070133268666680   F   F   F
  0.5000000000021103  0.0000000000000000  0.4070133268666680   F   F   F
  0.5000000000021103  0.2500000000190425  0.4070133268666680   F   F   F
  0.5000000000021103  0.7500000000123208  0.4070133268666680   F   F   F
  0.9166666865332829  0.3124999999901945  0.3605200052333331   F   F   F
  0.3333333432766779  0.2500000000190425  0.4070133268666680   F   F   F
  0.7474044420554140  0.3137687423010863  0.4547743320153728   T   T   T
  0.0000000000000000  0.7500000000123208  0.4070133268666680   F   F   F
  0.5845667532252182  0.5629421261905410  0.4547898428172468   T   T   T
  0.7498235950578780  0.0631495946321992  0.4535150297339263   T   T   T
  0.8333332538436267  0.0000000000000000  0.4070133268666680   F   F   F
  0.5827568914473698  0.6861479291399472  0.4546599300053842   T   T   T
  0.2517709076752082  0.5645489858078254  0.4538338633472302   T   T   T
  0.1666666716383389  0.2500000000190425  0.4070133268666680   F   F   F
  0.2502495020224643  0.8106534727707884  0.4553550368796908   T   T   T
  0.1666666716383389  0.7500000000123208  0.4070133268666680   F   F   F
  0.6653151103807301  0.6260195196203516  0.5030137923231046   T   T   T
  0.4174799858961162  0.1870358553611769  0.4535983390600598   T   T   T
  0.5887268115873451  0.3207644621718289  0.6333078589541014   T   T   T
  0.0854285347154855  0.6891078336617433  0.5453755256763566   T   T   T
  0.0828617587772168  0.4386520922305632  0.5448438341583540   T   T   T
  0.0828949087723377  0.1887522042395358  0.5454003367893058   T   T   T
  0.4999418385628573  0.1266920460896164  0.5008014821602209   T   T   T
  0.9992800815704187  0.4981184098472569  0.5940304637051705   T   T   T
  0.5834007095773346  0.1853580387582765  0.5508812874152307   T   T   T
  0.9998033111052181  0.7536780530349297  0.5928192156667536   T   T   T
  0.3339835025920733  0.9999481057347614  0.5919027746606610   T   T   T
  0.9996330474816125  0.9981810880190456  0.5925597847391449   T   T   T
  0.9992217603421352  0.2466421751653392  0.5926058500819064   T   T   T
  0.3330789212749692  0.4957729437532393  0.5910831186407595   T   T   T
  0.3353007788733139  0.7412100230078648  0.5903029299500289   T   T   T
  0.6672490155094707  0.2495062467797227  0.5913410669656354   T   T   T
  0.6658800480526276 -0.0000041895001389  0.5918762377122082   T   T   T
  0.6654057235917474  0.7412178707151963  0.5904411456003307   T   T   T
  0.6661772769949005  0.4934715989850491  0.5913129187359415   T   T   T
  0.1673580397588806  0.9985172174708855  0.5923762985628954   T   T   T
  0.1676094131015064  0.2482919200990346  0.5929077662114974   T   T   T
  0.1704964227593090  0.7499934477147524  0.5947500393665330   T   T   T
  0.2481099676762158  0.4358353415492651  0.5490133814818835   T   T   T
  0.1653093513993863  0.5031405538648163  0.5873534584506452   T   T   T
  0.3350541986876799  0.2547971969064348  0.5925384815415337   T   T   T
  0.4995940914059276 -0.0000105082957307  0.5909713213973889   T   T   T
  0.8326052786665347  0.8740503884314097  0.4987856342524081   T   T   T
  0.7472944225434416  0.9341214950533575  0.6404600502306985   T   T   T
  0.8320578165464150  0.9968204197211760  0.5918958826730871   T   T   T
  0.7489552555479417  0.1853738141549652  0.5477229340412126   T   T   T
  0.4228798739619290  0.6877599357722907  0.5467338612885677   T   T   T
  0.4232335340808229  0.4434303820065071  0.5460321037207074   T   T   T
  0.7521171292240576  0.4355035448392293  0.5489561411269765   T   T   T
  0.5839513861477013  0.3107637978045100  0.5449243582251723   T   T   T
  0.2528570116388635  0.8124942995039166  0.5507396776215481   T   T   T
  0.5826673049848068  0.9373041721217527  0.4543358874106060   T   T   T
  0.9161534713409412  0.1866697715937516  0.4529919610908163   T   T   T
  0.7502642197387915  0.1884434986703289  0.4541255883605796   T   T   T
  0.5829640132897900  0.0618573576470461  0.5455186347600152   T   T   T
  0.5857047348096485  0.8142739343215579  0.5503255614065561   T   T   T
  0.7485954045515334  0.3127525317588652  0.5479752327205216   T   T   T
  0.5809264365516956  0.5597410306268585  0.5488455876086263   T   T   T
  0.2525390970506188  0.5590545867731301  0.5439617439407700   T   T   T
  0.4176909392393677  0.3193511232898097  0.5529858476142699   T   T   T
  0.5764188892888705  0.4354561969259081  0.5521563919164737   T   T   T
  0.4165356620937046  0.0654460495122243  0.5474013550243950   T   T   T
  0.0852809613609183  0.8125234568484859  0.5473737402545735   T   T   T
  0.0845925778086124  0.3132272403506700  0.5470709408836999   T   T   T
  0.5005964496717514  0.7564930753527385  0.5925866612816888   T   T   T
  0.0828474181794440  0.0628176428137108  0.5472984807878896   T   T   T
  0.0833333358191695  0.3124999999901945  0.3605200052333331   F   F   F
  0.9145357181028704  0.6884589364259333  0.5458875217802384   T   T   T
  0.9173453383088719  0.1870912352553107  0.5453960968325416   T   T   T
  0.9154076279673442  0.4373371869928854  0.5457849139314115   T   T   T
  0.5790955788612773  0.6858986688160551  0.5475335298743038   T   T   T
  0.2514489427791646  0.9372414347535400  0.5452040304104691   T   T   T
  0.4968945604390969  0.5046683548674258  0.6093408882037230   T   T   T
  0.9176003179623000  0.5635691955567022  0.5471498028207241   T   T   T
  0.4197625672888406  0.5647389417049590  0.5553948445461950   T   T   T
  0.9154953313520461  0.8122215421009261  0.5467644221793987   T   T   T
  0.0840460022896255  0.9381997602719008  0.5460495958456414   T   T   T
  0.2489689483325624  0.6832992202117699  0.5517927166047260   T   T   T
  0.7482974987493669  0.9333982271405211  0.5473774338324784   T   T   T
  0.7516718697545207  0.6794788423918334  0.5537880610109663   T   T   T
  0.9160642070412220  0.9379406129945874  0.5460491884824942   T   T   T
  0.4176081836049281  0.0651548291984407  0.6400872341277404   T   T   T
  0.5838777169882398  0.9376158680494653  0.5461651766607263   T   T   T
  0.4123728791250614  0.8128794843039098  0.6393304716108561   T   T   T
  0.8401413681735129  0.2898066193398597  0.7697926258789656   T   T   T
  0.9138956751982662  0.5622560006656476  0.6407703608095671   T   T   T
  0.9138273177786306  0.8122942029189061  0.6426066517169341   T   T   T
  0.5824967709889688  0.0659130517572391  0.6386646828147687   T   T   T
  0.2492202468502716  0.3134938479447879  0.5458783051504495   T   T   T
  0.5910253462415216  0.5652696039699706  0.6386110288217622   T   T   T
  0.2475729511121453  0.5739591973023696  0.6287293405426280   T   T   T
  0.7535900426457789  0.6916987617435075  0.6572654259890599   T   T   T
  0.2621008489905508  0.8003895185341720  0.6460403964765769   T   T   T
  0.2509723184545357  0.0594947336274926  0.6423395795523419   T   T   T
  0.9166666865332829  0.5625000000092442  0.3605200052333331   F   F   F
  0.4998544850370105  0.3741317450856238  0.4996740092226571   T   T   T
  0.5001505625082973  0.6209542808100081  0.4999502786446746   T   T   T
  0.8323407949532989  0.6230913234002251  0.5001880491549049   T   T   T
  0.2520289334038271  0.1884022958437724  0.5471319275332686   T   T   T
  0.8326603639176942  0.3733122868330009  0.4994964390379233   T   T   T
  0.9125767078448641  0.3093658615597950  0.6396578809418911   T   T   T
  0.1664704251780251  0.3757388304604704  0.4978344998870973   T   T   T
  0.5778354055644970  0.4382344726545850  0.6459426947189399   T   T   T
  0.5771799199188717  0.6857972972156453  0.6396574987198286   T   T   T
  0.9128939788469341  0.1837193077575827  0.6402423633726732   T   T   T
  0.2489148195603725  0.3166498842282225  0.6407196563733546   T   T   T
  0.1676923046777718  0.8732795797105553  0.4998418935872344   T   T   T
  0.9158231802293872  0.4370625956004967  0.4535524279431504   T   T   T
  0.1670615245707175  0.1247114083286651  0.4995419184383960   T   T   T
  0.7495655051216860  0.0604497358326544  0.5449899329365935   T   T   T
  0.4252122058826138  0.3044472430589013  0.6559989744889542   T   T   T
  0.5909100767518666  0.8099097706940922  0.6459666279297750   T   T   T
  0.4203589788663104  0.6762193859474213  0.6335806717028711   T   T   T
  0.7528310461752310  0.4326866624103132  0.6383488752572521   T   T   T
  0.5012712752975369  0.2533792271998320  0.5917563050779535   T   T   T
  0.9144184066359289  0.0615220999565259  0.6397355913507849   T   T   T
  0.1674824710521133  0.6242671084598714  0.5003178463456885   T   T   T
  0.4999226673496147  0.8735501016316649  0.5008366405401732   T   T   T
  0.8331032888451939  0.1247796404250762  0.4995453566256813   T   T   T
  0.4163079708322894  0.1919498455608968  0.5468381093653559   T   T   T
  0.7411021384751946  0.8092558776288112  0.6399716024955708   T   T   T
  0.7520295446141467  0.5677927420861897  0.6363126003077936   T   T   T
  0.4172556435800798  0.9349970599964378  0.6397687527555612   T   T   T
  0.7621088297874398  0.3054396864002509  0.6417259731598688   T   T   T
  0.7494477901456740  0.0634300849415901  0.6391767534466424   T   T   T
  0.0824568985736741  0.3110771126578701  0.6401304998194356   T   T   T
  0.6663486446122826  0.8739957412192891  0.4986274492902387   T   T   T
  0.0859294882777122  0.5622849184277158  0.6398841904498206   T   T   T
  0.0865344840567694  0.4358089018952169  0.6395926258040614   T   T   T
  0.4182442361084227  0.1872493333312527  0.6393075011757074   T   T   T
  0.4153569219043383  0.4187233778337796  0.6306276768513773   T   T   T
  0.0845644494090418  0.9356438791897339  0.6409061603280783   T   T   T
  0.0830581398169764  0.6867000702688834  0.6387895099236345   T   T   T
  0.0830408163552950  0.0603827593046418  0.6417490336492240   T   T   T
  0.8326328007346473  0.5024895049317045  0.5898897698878234   T   T   T
  0.0835433336583902  0.1850805986319164  0.6412535321488658   T   T   T
  0.2398847263958987  0.4421322779201953  0.6415548001582604   T   T   T
  0.9121912049044187  0.4352273299949433  0.6400926547844992   T   T   T
  0.2520613468676428  0.9303328305315087  0.6373092090564381   T   T   T
  0.9165212423133556  0.6870256604663086  0.6387838502837291   T   T   T
  0.9153004658114899  0.9363459031900931  0.6417109640324556   T   T   T
  0.3970498106256782  0.5509752241692527  0.6518970820748654   T   T   T
  0.2538485608666654  0.6788545660959802  0.6618671960777575   T   T   T
  0.2531524800376230  0.1866606132680782  0.6408463137939550   T   T   T
  0.5801421901063337  0.1922000853944656  0.6460761547024932   T   T   T
  0.5816541961698478  0.9352072992745407  0.6393905639809253   T   T   T
  0.9166666865332829  0.8124999999834799  0.3605200052333331   F   F   F
  0.7458021033308442  0.1875599310027178  0.6420752188767533   T   T   T
  0.8323918425654253  0.2432025073906303  0.5879807381548482   T   T   T
  0.8304245991524809  0.7506624452914367  0.5928112185566852   T   T   T
  0.0851343375394382  0.8121239918012408  0.6427973087035644   T   T   T
  0.1666666716383389  0.3750000000061604  0.4070133268666680   F   F   F
  0.3259161602601552  0.3736513389798716  0.5928918241014741   T   T   T
  0.6668773320971263  0.2479653488392830  0.5029835024537995   T   T   T
  0.8348541080092281  0.2483310560242612  0.5026432769142997   T   T   T
  0.6666666865533486  0.3750000000061604  0.4070133268666680   F   F   F
  0.9994148950578696  0.1228428932012852  0.6202787288965663   T   T   T
  0.6650887206045016  0.7515419457727830  0.5021920880132158   T   T   T
  0.3298879573720675  0.2480955731227201  0.5025775605230132   T   T   T
  0.6662577852628586  0.0001457616524500  0.5055737018030801   T   T   T
  0.1643086017580697  0.7512074113747340  0.5033497217719027   T   T   T
  0.8333332538436267  0.6249999999803961  0.4070133268666680   F   F   F
  0.6684042398235365  0.4997069057153877  0.5008056204012928   T   T   T
  0.3310818602481736  0.4991043930495414  0.5010175036434898   T   T   T
  0.5007948288432816  0.7528123518213917  0.5039149385043133   T   T   T
  0.0000000000000000  0.8749999404036828  0.4070133268666680   F   F   F
  0.9999793884289498  0.7507952828391931  0.5067568649544678   T   T   T
  0.3337918139069047  0.7511120138586369  0.5015265941073034   T   T   T
  0.5010940586223893  0.4995865605703443  0.5003007439175564   T   T   T
  0.3333333432766779  0.1249999999871179  0.4070133268666680   F   F   F
  0.5011149727095632  0.2481987206997332  0.5024566048233469   T   T   T
  0.0001259874417138  0.2494851413571502  0.5060769056433423   T   T   T
  0.0001609615098580  0.9993891727785433  0.5064110732308336   T   T   T
  0.6666666865533486  0.6249999999803961  0.4070133268666680   F   F   F
  0.8333332538436267  0.8749999404036828  0.4070133268666680   F   F   F
  0.3333333432766779  0.6249999999803961  0.4070133268666680   F   F   F
  0.3333333432766779  0.8749999404036828  0.4070133268666680   F   F   F
  0.3333333432766779  0.3750000000061604  0.4070133268666680   F   F   F
  0.8337454804223514  0.9991636160407211  0.5058585056844507   T   T   T
  0.6666666865533486  0.1249999999871179  0.4070133268666680   F   F   F
  0.0000000000000000  0.6249999999803961  0.4070133268666680   F   F   F
  0.1657761592630130  0.2481918673756071  0.5061679286333465   T   T   T
  0.5001520490315063  0.9993085700487034  0.5054974035749851   T   T   T
  0.1660170692115534  0.0010028628305312  0.5065052884196346   T   T   T
  0.9993084924241015  0.4997608662675700  0.5067187871734539   T   T   T
  0.3330679640697886  0.0011031246146372  0.5057073211148903   T   T   T
  0.5002784477344381  0.8764741240666812  0.6096218706084325   T   T   T
  0.0000000000000000  0.1249999999871179  0.4070133268666680   F   F   F
  0.9996086183542938  0.8739808516738664  0.6247611724748287   T   T   T
  0.8333332538436267  0.3750000000061604  0.4070133268666680   F   F   F
  0.8333332538436267  0.1249999999871179  0.4070133268666680   F   F   F
  0.6658313362763577  0.1223948018039455  0.6108152508073209   T   T   T
  0.5000000000021103  0.6249999999803961  0.4070133268666680   F   F   F
  0.8390611886259111  0.6265187311957074  0.6046471387805716   T   T   T
  0.5000000000021103  0.8749999404036828  0.4070133268666680   F   F   F
  0.1633674967001814  0.4996708468070916  0.5020117381702163   T   T   T
  0.8322001427111352  0.8754341866941252  0.6197813020284375   T   T   T
  0.8368032230188642  0.3725330980299863  0.6030586566461462   T   T   T
  0.8360572336852365  0.7511967211302769  0.5027393821986665   T   T   T
  0.5000000000021103  0.1249999999871179  0.4070133268666680   F   F   F
  0.1666666716383389  0.8749999404036828  0.4070133268666680   F   F   F
  0.8357404959962536  0.4998613696907592  0.5032195894478331   T   T   T
  0.9996357714604663  0.6229083929995372  0.6233304534731201   T   T   T
  0.1666666716383389  0.6249999999803961  0.4070133268666680   F   F   F
  0.3313344291694295  0.1198164729078815  0.6128999484874802   T   T   T
  0.5001959223535767  0.1216972559588583  0.6065788555779043   T   T   T
  0.1666666716383389  0.1249999999871179  0.4070133268666680   F   F   F
  0.0000000000000000  0.3750000000061604  0.4070133268666680   F   F   F
  0.5032482841325546  0.6247132319533747  0.5941651673154366   T   T   T
  0.5000000000021103  0.3750000000061604  0.4070133268666680   F   F   F
  0.6666666865533486  0.8749999404036828  0.4070133268666680   F   F   F
  0.3340590490342153  0.6244776070256235  0.5950272955507214   T   T   T
  0.3344210710868337  0.8787442971648216  0.6025412523549738   T   T   T
  0.1663299131845429  0.8736971712364625  0.6174604081807478   T   T   T
  0.6716003671660525  0.3729835788114166  0.5941835740663025   T   T   T
  0.1592180942428706  0.6268655358628011  0.6012379060013322   T   T   T
  0.1673422177110474  0.1223593874691740  0.6219783330388241   T   T   T
  0.1625278734990296  0.3708035178398509  0.6075921621889832   T   T   T
  0.6644495369854467  0.8796831563044576  0.6070311134338051   T   T   T
  0.6659982301652779  0.6259316880036558  0.5933011861224300   T   T   T
  0.9985546549641493  0.3736884122974505  0.6230622698198458   T   T   T
  0.8324684806282087  0.1216921509368736  0.6092808154970237   T   T   T
  0.5025298432195977  0.3711116050746797  0.5961741604653364   T   T   T
  0.0829068943506481  0.1244831835264357  0.5066428908659761   T   T   T
  0.0808306146700471  0.6256516296862371  0.5053985617054401   T   T   T
  0.5841970123868414  0.7493943982624947  0.5996985760337111   T   T   T
  0.0822131764173329  0.2471146790262757  0.6035881302378504   T   T   T
  0.7494262883358881  0.9982779016428494  0.6042504954594687   T   T   T
  0.5823340783447075  0.0001842845908902  0.6041563723248322   T   T   T
  0.2477074051813496  0.2459474683565525  0.6033279641081415   T   T   T
  0.5898596674883214  0.5012692703174019  0.5938626780178793   T   T   T
  0.4134813539921442  0.2489696748913627  0.5912958240416089   T   T   T
  0.2493253528999348  0.7526119860067246  0.5919918102958817   T   T   T
  0.5822629009299150  0.2469633698356361  0.5981172718328560   T   T   T
  0.2495906950429007  0.9978467732412026  0.6041988267721387   T   T   T
  0.7502564447288480  0.2497228975111829  0.5943647729098552   T   T   T
  0.9163816630003541  0.9977047511823666  0.6030085929765395   T   T   T