Au  C  H  O Sr Ti                       
   1.00000000000000     
    23.6707801818999997    0.0000000000000000    0.0000000000000000
     0.0000000000000000   22.3170261383000010    0.0000000000000000
     0.0000000000000000    0.0000000000000000   30.0000000000000000
   Au   C    H    O    Sr   Ti
    50     2     4   265    72    72
Selective dynamics
Direct
  0.7160288711494116  0.5256955487627676  0.7532870728682716   T   T   T
  0.2935646307740224  0.7465768662529770  0.6971112632463140   T   T   T
  0.5783005880296940  0.7257464346133632  0.7937939951428766   T   T   T
  0.2403777150105360  0.4689566210381553  0.7086290753935577   T   T   T
  0.2848438122893343  0.6623080684923935  0.7646026192529759   T   T   T
  0.6005556799345456  0.2922000109317844  0.7863337980902327   T   T   T
  0.5138656405945949  0.4848077808689871  0.6779655206090183   T   T   T
  0.2891077472276170  0.5380127986347293  0.7771648008396385   T   T   T
  0.5478637364632327  0.3863262932920054  0.8286027644962889   T   T   T
  0.5118769042321211  0.6035530621016143  0.7767889465488069   T   T   T
  0.7329819002596331  0.6151444840250304  0.6938974148638394   T   T   T
  0.7170872504734060  0.2604843484704212  0.6903758829534182   T   T   T
  0.5628963687407217  0.4863618630937496  0.7619314251001458   T   T   T
  0.4282904338035134  0.3725837737630567  0.8156226435268246   T   T   T
  0.3492104455217824  0.4999053829189638  0.6977588089973764   T   T   T
  0.5964597753455663  0.7845998544802194  0.7130409145602417   T   T   T
  0.3707971643762500  0.2989228352093395  0.7555187908435903   T   T   T
  0.4395452002333462  0.2281254442764121  0.6974857439433881   T   T   T
  0.4639286974833151  0.6956294909682269  0.8298754618512325   T   T   T
  0.3913284816958758  0.8178757981157002  0.7064486750800606   T   T   T
  0.7652550809540488  0.4326121816237516  0.7050066696249617   T   T   T
  0.6214149051458401  0.5711862074618690  0.7038836181672549   T   T   T
  0.5546248252701590  0.2117479605592223  0.7110291557939148   T   T   T
  0.6346905775766740  0.5840168071807962  0.8001991825987351   T   T   T
  0.4856305129686069  0.2700966508751187  0.7751903701490389   T   T   T
  0.4855656091075490  0.7767578374196213  0.7550980780601066   T   T   T
  0.7064946008615915  0.7569844928936768  0.6883998980174344   T   T   T
  0.5694572419581061  0.5102363739820969  0.8567404862593599   T   T   T
  0.6588005563833262  0.1954054070815709  0.7497922040839625   T   T   T
  0.4700575377592485  0.4512320824325351  0.8793967803113951   T   T   T
  0.5155280642853551  0.3781894516157779  0.7328963214179229   T   T   T
  0.2825822467897410  0.3385142504733586  0.7024047507894040   T   T   T
  0.6694604373334041  0.6812170868650639  0.7488861168594793   T   T   T
  0.3970811953349010  0.3821864814074056  0.6900536020478120   T   T   T
  0.4624136535382776  0.5737904227269787  0.8637672823590972   T   T   T
  0.6999388906080486  0.3475118570332700  0.7558778470376400   T   T   T
  0.4520394745219692  0.5802591216596147  0.7027213923341918   T   T   T
  0.4176718027401979  0.6968975911760806  0.6993861507640807   T   T   T
  0.7736154730669322  0.4303251987084528  0.7955422378179332   T   T   T
  0.2568104090441281  0.5930423123831210  0.6945281691893336   T   T   T
  0.6492755198257109  0.4463269266877556  0.6948899730459142   T   T   T
  0.5645075852780189  0.6398013905183184  0.8613127289153907   T   T   T
  0.5405858811626573  0.6678518430600945  0.7017432774681287   T   T   T
  0.4433160047309716  0.4752556808169487  0.7567745851444115   T   T   T
  0.3739631966139197  0.7396807446569656  0.7786880624136647   T   T   T
  0.3743892604859285  0.4931792254078255  0.8329039580961453   T   T   T
  0.6143147402745761  0.3231840879060547  0.6964516430203321   T   T   T
  0.3249932342934964  0.4145085778063132  0.7691731270374009   T   T   T
  0.3682490366110124  0.6190863008858919  0.8201903782177749   T   T   T
  0.6554049572296559  0.4415064609495545  0.8127123552163210   T   T   T
  0.7707286173523425  0.0781856585509865  0.8216505290886373   T   T   T
  0.7721461752850576  0.1450228652689963  0.8173425463855175   T   T   T
  0.7925092999238480  0.1702005902306439  0.8450509918017813   T   T   T
  0.8108550277547057  0.0626796988861172  0.8348645831711655   T   T   T
  0.7383231703521039  0.0672863795898368  0.8465551235597787   T   T   T
  0.7604654982745211  0.0565605341992341  0.7903112521692028   T   T   T
  0.7502354970274969  0.1896147689596477  0.4555982179108987   T   T   T
  0.4171621957195294  0.9359342120285878  0.4540083379632472   T   T   T
  0.4170963893923129  0.6848190404567681  0.4547352601199371   T   T   T
  0.4163795741255208  0.4354548965873188  0.4538120280878503   T   T   T
  0.0843219896415222  0.6869877317244673  0.4531611892057636   T   T   T
  0.0839276761684062  0.9366583373995278  0.4534946962512407   T   T   T
  0.0827545904888859  0.4368397779242189  0.4528705358641749   T   T   T
  0.0838199069381778  0.1865714207321072  0.4529847489401309   T   T   T
  0.9165352405970744  0.8121363044105265  0.4540466869956540   T   T   T
  0.7490350018997602  0.8132795321352280  0.4531003145219376   T   T   T
  0.9162308797932932  0.3122339666162448  0.4538559630801416   T   T   T
  0.2520826778538613  0.6876084043721559  0.4560940297665483   T   T   T
  0.7466787295059475  0.5580999094553599  0.5446544183016259   T   T   T
  0.9164595973260335  0.9370952168843909  0.4536678644670180   T   T   T
  0.0000356755798466  0.1250410793689701  0.4984522740817114   T   T   T
  0.5833620255127862  0.8104440801327940  0.4553885035157663   T   T   T
  0.0000027612978435  0.3735141495829169  0.4985370314318717   T   T   T
  0.9997309799664701  0.6271965921967814  0.4976720510046446   T   T   T
  0.3335813517133301  0.1258009319904202  0.4985089960196017   T   T   T
  0.0000258774751628  0.8751436366396446  0.4995368531279480   T   T   T
  0.3334717718723489  0.8740788383729244  0.4991915272574321   T   T   T
  0.6659536161098577  0.1259660916734069  0.4991918136125136   T   T   T
  0.2511150012976636  0.4392706479902149  0.4548751753416811   T   T   T
  0.0833333358191695  0.5625000000092442  0.3605200052333331   F   F   F
  0.9166666865332829  0.0625000000159659  0.3605200052333331   F   F   F
  0.4171213129055609  0.1871291842317771  0.4535755979118253   T   T   T
  0.9152103267268995  0.3126066846072805  0.5466510596962220   T   T   T
  0.4231707679209199  0.6880258702591545  0.5467015788402657   T   T   T
  0.9159171960035870  0.4369266116333065  0.4536000669880287   T   T   T
  0.7495136999788367  0.4382256999544865  0.4557734877485339   T   T   T
  0.7491019718676976  0.6886543985376751  0.4573010966264517   T   T   T
  0.5833333134730552  0.0625000000159659  0.3605200052333331   F   F   F
  0.9166666865332829  0.6874999999963620  0.3605200052333331   F   F   F
  0.9166666865332829  0.4374999701794380  0.3605200052333331   F   F   F
  0.9166666865332829  0.1875000000030838  0.3605200052333331   F   F   F
  0.5833333134730552  0.9375000000154046  0.3605200052333331   F   F   F
  0.5833333134730552  0.6874999999963620  0.3605200052333331   F   F   F
  0.5833333134730552  0.4374999701794380  0.3605200052333331   F   F   F
  0.5833333134730552  0.1875000000030838  0.3605200052333331   F   F   F
  0.2499999999799343  0.9375000000154046  0.3605200052333331   F   F   F
  0.9166666865332829  0.9375000000154046  0.3605200052333331   F   F   F
  0.9177123631377956  0.0632508429159944  0.5475756109490574   T   T   T
  0.2499999999799343  0.6874999999963620  0.3605200052333331   F   F   F
  0.7499999404149307  0.9375000000154046  0.3605200052333331   F   F   F
  0.7521906633521656  0.1737561443009249  0.7860299851832916   T   T   T
  0.5844288126332666  0.5628827394180163  0.4548144838082547   T   T   T
  0.5826076650649331  0.1902267590333984  0.4554941337315422   T   T   T
  0.7499999404149307  0.6874999999963620  0.3605200052333331   F   F   F
  0.4166666269218169  0.6874999999963620  0.3605200052333331   F   F   F
  0.4166666269218169  0.4374999701794380  0.3605200052333331   F   F   F
  0.2499999999799343  0.4374999701794380  0.3605200052333331   F   F   F
  0.0833333358191695  0.0625000000159659  0.3605200052333331   F   F   F
  0.9153498286405122  0.6867407072402240  0.4531571130705631   T   T   T
  0.6654071349098141  0.3785112902601555  0.5033710627197883   T   T   T
  0.3342677764936527  0.3784398003723388  0.5030163366650559   T   T   T
  0.3355944259627212  0.6258846934047638  0.5037673353033261   T   T   T
  0.2498833403165361  0.1886716871633656  0.4542058920068157   T   T   T
  0.2499999999799343  0.1875000000030838  0.3605200052333331   F   F   F
  0.2505178944539588  0.0620775671085765  0.4542635572529320   T   T   T
  0.7494232001663664  0.9383952437655494  0.4553760193999064   T   T   T
  0.7499999404149307  0.4374999701794380  0.3605200052333331   F   F   F
  0.7499999404149307  0.1875000000030838  0.3605200052333331   F   F   F
  0.4166666269218169  0.9375000000154046  0.3605200052333331   F   F   F
  0.2511165400652541  0.0625371402065663  0.5472872147775288   T   T   T
  0.5824126134699416  0.3112310035600754  0.5448549271408194   T   T   T
  0.2499999999799343  0.8124999999834799  0.3605200052333331   F   F   F
  0.2499999999799343  0.5625000000092442  0.3605200052333331   F   F   F
  0.2499999999799343  0.3124999999901945  0.3605200052333331   F   F   F
  0.7499999404149307  0.5625000000092442  0.3605200052333331   F   F   F
  0.7499999404149307  0.3124999999901945  0.3605200052333331   F   F   F
  0.7499999404149307  0.0625000000159659  0.3605200052333331   F   F   F
  0.4166666269218169  0.8124999999834799  0.3605200052333331   F   F   F
  0.4166666269218169  0.3124999999901945  0.3605200052333331   F   F   F
  0.7499999404149307  0.8124999999834799  0.3605200052333331   F   F   F
  0.4166666269218169  0.0625000000159659  0.3605200052333331   F   F   F
  0.4168924155429407  0.0616094764292452  0.4553764327443564   T   T   T
  0.0834743085617228  0.8121556675474821  0.4541564967005998   T   T   T
  0.4166666269218169  0.5625000000092442  0.3605200052333331   F   F   F
  0.5833333134730552  0.3124999999901945  0.3605200052333331   F   F   F
  0.5833333134730552  0.8124999999834799  0.3605200052333331   F   F   F
  0.0833862549197025  0.3120112819959783  0.4540400160794426   T   T   T
  0.8333332538436267  0.7500000000123208  0.4070133268666680   F   F   F
  0.4144495419482966  0.8117925251101432  0.5478407908326995   T   T   T
  0.8333332538436267  0.4999999999932783  0.4070133268666680   F   F   F
  0.7495279778725604  0.0639801889345570  0.4534410828969375   T   T   T
  0.4166666269218169  0.1875000000030838  0.3605200052333331   F   F   F
  0.0833333358191695  0.9375000000154046  0.3605200052333331   F   F   F
  0.0833333358191695  0.8124999999834799  0.3605200052333331   F   F   F
  0.0833333358191695  0.4374999701794380  0.3605200052333331   F   F   F
  0.2519314024469381  0.5646794662246982  0.4538047284331093   T   T   T
  0.4154203758631124  0.3113405988223635  0.4573792271576343   T   T   T
  0.0837537717934404  0.0618770156226631  0.4542500828577393   T   T   T
  0.4160005318939050  0.5594594444086297  0.4579581525601765   T   T   T
  0.0839470191314707  0.5625016174960112  0.4539309807592507   T   T   T
  0.0833333358191695  0.6874999999963620  0.3605200052333331   F   F   F
  0.2499999999799343  0.0625000000159659  0.3605200052333331   F   F   F
  0.6652929400827005  0.6258976400546425  0.5030055531725431   T   T   T
  0.5000000000021103  0.0000000000000000  0.4070133268666680   F   F   F
  0.6666666865533486  0.7500000000123208  0.4070133268666680   F   F   F
  0.0833333358191695  0.1875000000030838  0.3605200052333331   F   F   F
  0.0000000000000000  0.2500000000190425  0.4070133268666680   F   F   F
  0.0000000000000000  0.4999999999932783  0.4070133268666680   F   F   F
  0.3333333432766779  0.0000000000000000  0.4070133268666680   F   F   F
  0.3333333432766779  0.4999999999932783  0.4070133268666680   F   F   F
  0.3333333432766779  0.7500000000123208  0.4070133268666680   F   F   F
  0.5827820878624330  0.6861195681356067  0.4545929572023031   T   T   T
  0.6666666865533486  0.0000000000000000  0.4070133268666680   F   F   F
  0.6666666865533486  0.4999999999932783  0.4070133268666680   F   F   F
  0.8333332538436267  0.2500000000190425  0.4070133268666680   F   F   F
  0.1666666716383389  0.0000000000000000  0.4070133268666680   F   F   F
  0.1666666716383389  0.4999999999932783  0.4070133268666680   F   F   F
  0.1666666716383389  0.7500000000123208  0.4070133268666680   F   F   F
  0.5000000000021103  0.4999999999932783  0.4070133268666680   F   F   F
  0.5831409262646003  0.0634475501432890  0.4539835443412500   T   T   T
  0.5000000000021103  0.2500000000190425  0.4070133268666680   F   F   F
  0.3333333432766779  0.2500000000190425  0.4070133268666680   F   F   F
  0.7473892618291663  0.3141852698756477  0.4546735590542932   T   T   T
  0.0000000000000000  0.7500000000123208  0.4070133268666680   F   F   F
  0.4167671755256360  0.8102120985354331  0.4550594782896122   T   T   T
  0.5843735487774906  0.3154600122573469  0.4535915541951757   T   T   T
  0.5827367061021699  0.9370598747508943  0.4543101032416981   T   T   T
  0.6666666865533486  0.2500000000190425  0.4070133268666680   F   F   F
  0.2522689261745741  0.3141499953104838  0.4541721383524338   T   T   T
  0.1666666716383389  0.2500000000190425  0.4070133268666680   F   F   F
  0.2504883465263498  0.8108080618083213  0.4553342564606419   T   T   T
  0.5833333134730552  0.5625000000092442  0.3605200052333331   F   F   F
  0.2500198993139568  0.9361568215979891  0.4540769216053776   T   T   T
  0.8333332538436267  0.0000000000000000  0.4070133268666680   F   F   F
  0.5000000000021103  0.7500000000123208  0.4070133268666680   F   F   F
  0.9166666865332829  0.3124999999901945  0.3605200052333331   F   F   F
  0.0000000000000000  0.0000000000000000  0.4070133268666680   F   F   F
  0.7481591891659407  0.5642454688967607  0.4537481432468423   T   T   T
  0.0859807421599148  0.6893270885507550  0.5453587034427614   T   T   T
  0.0835339301345755  0.1889254786012289  0.5455196134127442   T   T   T
  0.0833333358191695  0.3124999999901945  0.3605200052333331   F   F   F
  0.9996509332771663  0.4989744958080589  0.5941491818627241   T   T   T
  0.5807551148226702  0.1857331415489947  0.5495195735137229   T   T   T
  0.9997861800973089  0.7532185739707511  0.5923098148044612   T   T   T
  0.3340327169538776  0.9998040653874354  0.5920545041244032   T   T   T
  0.9997664412156145  0.9993365146945032  0.5931861048306765   T   T   T
  0.0010126019421536  0.2501285405936947  0.5918991936062379   T   T   T
  0.3331510047424435  0.4965060859463195  0.5905888318646871   T   T   T
  0.3355926897495385  0.7411997873049248  0.5903030391744710   T   T   T
  0.6631869740225708  0.2479467833824871  0.5905395279836714   T   T   T
  0.6658084140009242  0.0005978765536328  0.5918389281849045   T   T   T
  0.4156596587441757  0.1915082258715431  0.5465555377806317   T   T   T
  0.6658076710710035  0.7414028378183436  0.5904518392080905   T   T   T
  0.4983625507218782  0.2531470891702590  0.5902429492010194   T   T   T
  0.4271504329181548  0.3054425250985336  0.6552233693445020   T   T   T
  0.1706433229489582  0.7504781731118270  0.5948626517602517   T   T   T
  0.2482016668092276  0.4361043238114351  0.5488771857732722   T   T   T
  0.1655517535871825  0.5034523981806194  0.5872176012889390   T   T   T
  0.3345987530407384  0.2544698790978846  0.5927120173819479   T   T   T
  0.4996665605395147  0.0000361919423478  0.5910065267629114   T   T   T
  0.8326221399840780  0.8742023782271916  0.4986132236937840   T   T   T
  0.4231273554050953  0.4439521739805065  0.5455584356544683   T   T   T
  0.7520431844469972  0.4352061159014101  0.5491114947949153   T   T   T
  0.7517313403017970  0.6804561303642338  0.5530309573722089   T   T   T
  0.7482155912993673  0.8080942380785687  0.5456678297881283   T   T   T
  0.4177924426823381  0.0652083702291137  0.6400353145172178   T   T   T
  0.2490733085895641  0.3162158892368967  0.6412875325816365   T   T   T
  0.6666853863215279  0.4947372805337920  0.5914941507216117   T   T   T
  0.5911086482807285  0.8102368236175835  0.6460814635552963   T   T   T
  0.1674295069406279  0.9984018710892563  0.5923091016808989   T   T   T
  0.1684933813427634  0.2481960071759447  0.5931304917227189   T   T   T
  0.4994063786227967  0.1255631696567665  0.4996314248950453   T   T   T
  0.7483311796203443  0.9370550929526161  0.6400723164721511   T   T   T
  0.5905289206381065  0.5662852010227980  0.6388301608383161   T   T   T
  0.5766442897070525  0.4359468258255427  0.5522509559732600   T   T   T
  0.0848670818021306  0.8129245492182635  0.5473204469657915   T   T   T
  0.4165350496859893  0.0654190309702067  0.5473232850212695   T   T   T
  0.4159272472096803  0.3197221156083048  0.5525424571698954   T   T   T
  0.2532554914267331  0.8125261465609787  0.5507287802343594   T   T   T
  0.5810554944931029  0.5602259357992263  0.5489948803332562   T   T   T
  0.7480383469120560  0.3116028719444836  0.5481949110940244   T   T   T
  0.5860294729230832  0.8144306273971456  0.5504642648360198   T   T   T
  0.5827782074593308  0.0625747255598946  0.5459472431958157   T   T   T
  0.2525789102246405  0.5592075605511875  0.5438259912157269   T   T   T
  0.0822750418040305  0.0632250226720007  0.5475927874079836   T   T   T
  0.2490580643704995  0.6831860671980224  0.5520797512113652   T   T   T
  0.7494049579192831  0.9339559913639203  0.5477510496554442   T   T   T
  0.5828061845394025  0.4397283322835910  0.4564013565683276   T   T   T
  0.9141063689422099  0.6890221153426991  0.5452533973540190   T   T   T
  0.9157088425625592  0.4376415284843513  0.5457163657784346   T   T   T
  0.5794401963944585  0.6861301540655781  0.5473834559526468   T   T   T
  0.2514895916169830  0.9373068728913878  0.5452926095406727   T   T   T
  0.4974819634340406  0.5044223534027295  0.6088706518548971   T   T   T
  0.9178648620491328  0.5639613308187414  0.5471885377283386   T   T   T
  0.4199117392621229  0.5650700664102357  0.5553594834319100   T   T   T
  0.9155108092346751  0.8128677652134544  0.5467950675395070   T   T   T
  0.0836272349172805  0.9389596515473740  0.5457048079502382   T   T   T
  0.0867140155618168  0.3135133258148566  0.5471229159339578   T   T   T
  0.8321442229119804  0.0021114969073056  0.5923038970384851   T   T   T
  0.9158173013984920  0.1869376880644384  0.4532643501578586   T   T   T
  0.9156569644530713  0.9385046530679521  0.5464306183018852   T   T   T
  0.2492341750148205  0.3138336828156518  0.5459691613190648   T   T   T
  0.5836377853825930  0.9378149599882962  0.5461727556955057   T   T   T
  0.9170477807296566  0.1887644304515035  0.5455728373335416   T   T   T
  0.9161337844368773  0.5621171373085272  0.4541204039624376   T   T   T
  0.9161285747562127  0.0621914559216211  0.4541501071899557   T   T   T
  0.9140095683554449  0.8132731667797185  0.6415571719055099   T   T   T
  0.5824269785713144  0.0665229097192993  0.6391694830246447   T   T   T
  0.5827851063695083  0.3208392290270253  0.6333563102286759   T   T   T
  0.2476694116977603  0.5737894614321497  0.6288099247221314   T   T   T
  0.7541049090167523  0.6923210653220916  0.6570966840259359   T   T   T
  0.2621781169458129  0.7993061203519050  0.6464148595195521   T   T   T
  0.2509450857311644  0.0594848757162968  0.6422993455033853   T   T   T
  0.9166666865332829  0.5625000000092442  0.3605200052333331   F   F   F
  0.4174462827997210  0.9348838447774861  0.6398342353519212   T   T   T
  0.4999852546255988  0.8733487276775640  0.5007951969191422   T   T   T
  0.4205690340779301  0.6760026221258015  0.6335795401482009   T   T   T
  0.8324224139758374  0.6230304144252695  0.5000261740398305   T   T   T
  0.8324095107971893  0.3732886677131524  0.4996860644048703   T   T   T
  0.9150662128248380  0.3119180614528098  0.6396373562318084   T   T   T
  0.1666959009831283  0.3761695236081817  0.4976178958054872   T   T   T
  0.9133921523370017  0.5623010471027921  0.6411283473008093   T   T   T
  0.5783935485737902  0.6860050982781853  0.6395028381364344   T   T   T
  0.4159958581346733  0.9371022221783066  0.5460606064484573   T   T   T
  0.1670379443565700  0.1243643481605233  0.4993545211838289   T   T   T
  0.7481749051534147  0.0598091048340346  0.5446191946409611   T   T   T
  0.1677844595679686  0.8732452091066479  0.4999309205554169   T   T   T
  0.5009472275701280  0.7563633392616247  0.5927460215300906   T   T   T
  0.5002203194209096  0.6211047128524095  0.4999979468664256   T   T   T
  0.7555081963355256  0.4347519166154827  0.6383125628919120   T   T   T
  0.2519606614489528  0.1881991385778287  0.5472526888531246   T   T   T
  0.7484239103291668  0.1837612435815058  0.5506323547615567   T   T   T
  0.0809960780597390  0.5645408050071017  0.5463616189850689   T   T   T
  0.3971467174307210  0.5506523823107338  0.6519271201676251   T   T   T
  0.1676368811421960  0.6241601230474396  0.5001866264310268   T   T   T
  0.8328935361696457  0.1245574327166758  0.4998715676043930   T   T   T
  0.7532439299101491  0.5690361978300870  0.6353384376992204   T   T   T
  0.9170918949231105  0.1867398087785817  0.6406686838188120   T   T   T
  0.4994694808639842  0.3743946068399643  0.4996818644538589   T   T   T
  0.5813275466467588  0.4397883458425970  0.6465710177288473   T   T   T
  0.7471621846523600  0.3128963382466015  0.6399810712227335   T   T   T
  0.7411621785541440  0.8098468782723758  0.6399468494622106   T   T   T
  0.0828179511635773  0.4388613825435999  0.5448593976856688   T   T   T
  0.9158517856850609  0.0627236026850162  0.6418231702604087   T   T   T
  0.7473805146039190  0.0673581147475889  0.6392326495531515   T   T   T
  0.0841972923717319  0.3113888373332879  0.6406276808216137   T   T   T
  0.0867023880430060  0.5628107518684378  0.6400822370800375   T   T   T
  0.0842236980539422  0.0606571213109756  0.6421390636412013   T   T   T
  0.0873131858627375  0.4366314132213659  0.6396599955051143   T   T   T
  0.0834620534962601  0.1855003352438637  0.6410564619463944   T   T   T
  0.6664102803985704  0.8746504039360657  0.4992691691734403   T   T   T
  0.8315638837218540  0.2477989682715260  0.5914141530901288   T   T   T
  0.8305070083952207  0.7507755647011386  0.5927429799041261   T   T   T
  0.0841991247727013  0.9357023692224230  0.6406510092610186   T   T   T
  0.8333111580467288  0.5030566908150456  0.5887836689749836   T   T   T
  0.4182508517626461  0.1882115346090538  0.6398736386095830   T   T   T
  0.4149895709969790  0.4192465178104328  0.6298977073727420   T   T   T
  0.2535905847526062  0.1863842078047833  0.6413453152864039   T   T   T
  0.2519518719778460  0.9301461427069563  0.6373884920571927   T   T   T
  0.5774707233335501  0.1917556262228641  0.6441298518595916   T   T   T
  0.0842444170521845  0.8126301197651825  0.6422825533996959   T   T   T
  0.2407093327861132  0.4421257501878263  0.6411448481956070   T   T   T
  0.9143244223235890  0.9371000185456742  0.6411022168697008   T   T   T
  0.9166068781212257  0.6872478606293161  0.6389085321633688   T   T   T
  0.9124402793017496  0.4359898956451628  0.6398478758109239   T   T   T
  0.4127868037701914  0.8127986826608004  0.6395772629005992   T   T   T
  0.2548096275665840  0.6776617174086174  0.6628175784136008   T   T   T
  0.5820011980281652  0.9359685071228050  0.6395340142058755   T   T   T
  0.7453308775507743  0.1949658384751719  0.6467368082450258   T   T   T
  0.0831067174219363  0.6870275376616171  0.6389266865851913   T   T   T
  0.9166666865332829  0.8124999999834799  0.3605200052333331   F   F   F
  0.6667608948525605  0.2478676548171597  0.5027950298969183   T   T   T
  0.8333332538436267  0.6249999999803961  0.4070133268666680   F   F   F
  0.3300198403072393  0.2480631745173069  0.5027345900859422   T   T   T
  0.3338989045893054  0.7511801826011603  0.5014384415372416   T   T   T
  0.5009325925677702  0.2479677876837909  0.5019660068941021   T   T   T
  0.0000000000000000  0.3750000000061604  0.4070133268666680   F   F   F
  0.6654745738501472  0.7518978357260963  0.5022061209454868   T   T   T
  0.3311701156188497  0.4992547268591372  0.5007838720348240   T   T   T
  0.6658102214421510  0.0001622026791571  0.5055484870851573   T   T   T
  0.3330695115480707  0.0010709308323345  0.5057851028610413   T   T   T
  0.1666666716383389  0.3750000000061604  0.4070133268666680   F   F   F
  0.0005701907079801  0.1225682022039038  0.6191676114889915   T   T   T
  0.0000042513843087  0.9999747925366211  0.5066535768289713   T   T   T
  0.5011350618248110  0.4998890880337267  0.5002320583901003   T   T   T
  0.1659686680657568  0.0011423249406042  0.5065205045677036   T   T   T
  0.5011340117178298  0.7528748651516175  0.5038513300954737   T   T   T
  0.0007894444840513  0.2497942000353895  0.5059039910176728   T   T   T
  0.6685718953316050  0.4998845344349934  0.5006872354512528   T   T   T
  0.6666666865533486  0.1249999999871179  0.4070133268666680   F   F   F
  0.1643196114659508  0.7516122894310796  0.5033859284366484   T   T   T
  0.9996431342090335  0.5000841270687102  0.5067732336728363   T   T   T
  0.9998917470442352  0.7510539918140653  0.5065082250229079   T   T   T
  0.6666666865533486  0.6249999999803961  0.4070133268666680   F   F   F
  0.8333332538436267  0.8749999404036828  0.4070133268666680   F   F   F
  0.3333333432766779  0.6249999999803961  0.4070133268666680   F   F   F
  0.3333333432766779  0.1249999999871179  0.4070133268666680   F   F   F
  0.0000000000000000  0.6249999999803961  0.4070133268666680   F   F   F
  0.8342828875426980  0.0003913833351482  0.5065752974600525   T   T   T
  0.3333333432766779  0.8749999404036828  0.4070133268666680   F   F   F
  0.1663471078136964  0.2481641617796027  0.5062026431651701   T   T   T
  0.5007880602519319  0.8768921011035773  0.6095321528845473   T   T   T
  0.5001821671482912  0.9994382161219946  0.5055080156861302   T   T   T
  0.0000000000000000  0.8749999404036828  0.4070133268666680   F   F   F
  0.3333333432766779  0.3750000000061604  0.4070133268666680   F   F   F
  0.8361974905889831  0.4999420502473286  0.5028002456116384   T   T   T
  0.6666666865533486  0.3750000000061604  0.4070133268666680   F   F   F
  0.3255969857038898  0.3736938919856657  0.5927276915438533   T   T   T
  0.8320715259408474  0.8763824889395035  0.6175475567249494   T   T   T
  0.5000000000021103  0.1249999999871179  0.4070133268666680   F   F   F
  0.5000000000021103  0.3750000000061604  0.4070133268666680   F   F   F
  0.8396345298708836  0.6269525306607456  0.6036962927821082   T   T   T
  0.3315942099039328  0.1198572354028782  0.6133205934809319   T   T   T
  0.9990440386164207  0.8751003122409670  0.6220319573120799   T   T   T
  0.1634824045123116  0.4998425046332536  0.5018817291520097   T   T   T
  0.5000000000021103  0.6249999999803961  0.4070133268666680   F   F   F
  0.8333332538436267  0.3750000000061604  0.4070133268666680   F   F   F
  0.9996927866229446  0.6230085056743615  0.6247009729905041   T   T   T
  0.8357509493734944  0.2482963416963241  0.5030892616655371   T   T   T
  0.0000000000000000  0.1249999999871179  0.4070133268666680   F   F   F
  0.1666666716383389  0.8749999404036828  0.4070133268666680   F   F   F
  0.8360891723368834  0.7516626580811302  0.5026033539214013   T   T   T
  0.1666666716383389  0.1249999999871179  0.4070133268666680   F   F   F
  0.8333332538436267  0.1249999999871179  0.4070133268666680   F   F   F
  0.6665264137326544  0.6261162330718008  0.5932874904163384   T   T   T
  0.8374555822221142  0.3724387329118831  0.6037585034864272   T   T   T
  0.5012277960289585  0.3718209832842050  0.5948805219196998   T   T   T
  0.5000000000021103  0.8749999404036828  0.4070133268666680   F   F   F
  0.5001073423127252  0.1222392167762538  0.6059497368240871   T   T   T
  0.6651050649089125  0.1248887139962532  0.6107234166618384   T   T   T
  0.3340647719045884  0.6245634320545728  0.5950561734696421   T   T   T
  0.1676809146440824  0.1229367468807239  0.6217555499075696   T   T   T
  0.3344673001293706  0.8787398487026040  0.6028735240885792   T   T   T
  0.1660994103754032  0.8736551428518098  0.6177442958237492   T   T   T
  0.6666666865533486  0.8749999404036828  0.4070133268666680   F   F   F
  0.1596296082756399  0.6274528635514611  0.6015812612172358   T   T   T
  0.1634027221894799  0.3712439773743530  0.6075662772683914   T   T   T
  0.1666666716383389  0.6249999999803961  0.4070133268666680   F   F   F
  0.6652597396870406  0.8811639616011950  0.6070802374214083   T   T   T
  0.0002378345014560  0.3749705355074238  0.6241037392725439   T   T   T
  0.8336551248087962  0.1250385119539106  0.6189511471320264   T   T   T
  0.5037078099593604  0.6251733901118559  0.5940249498596195   T   T   T
  0.6707720690305786  0.3724211081766933  0.5935032456905186   T   T   T
  0.5847535352012623  0.7500498907612242  0.5997166186647156   T   T   T
  0.9162464529954989  0.0003310490500301  0.6039567841465724   T   T   T
  0.7499999404149307  0.4999999999932783  0.4070133268666680   F   F   F
  0.5825911140839544  0.0012008295283722  0.6043631605292362   T   T   T
  0.0811380135465587  0.6259106510467189  0.5054263785789777   T   T   T
  0.0835603367178153  0.2478995347694091  0.6036438349904835   T   T   T
  0.7539490614066893  0.2479004342195420  0.5935730573803890   T   T   T
  0.4170854709307397  0.0000860555392894  0.6047322280277901   T   T   T
  0.5902816793327800  0.5014346752015484  0.5936382978423691   T   T   T
  0.4146106174544670  0.2489697641074556  0.5911043615368223   T   T   T
  0.2494390567928869  0.7527128078092473  0.5919559489309590   T   T   T
  0.5840116665757242  0.2481172923555850  0.5967257285166309   T   T   T