Au  C  H  O Sr Ti                       
   1.00000000000000     
    23.6707801818999997    0.0000000000000000    0.0000000000000000
     0.0000000000000000   22.3170261383000010    0.0000000000000000
     0.0000000000000000    0.0000000000000000   30.0000000000000000
   Au   C    H    O    Sr   Ti
    50     2     1   266    72    72
Selective dynamics
Direct
  0.7122395707905219  0.5254646640477633  0.7544958279874358   T   T   T
  0.2940054285316350  0.7472530376193037  0.6961037860516501   T   T   T
  0.5095043684503703  0.6060348536890984  0.7780424785246097   T   T   T
  0.5777870997040582  0.7264674526716818  0.7942285943499013   T   T   T
  0.2397111148031597  0.4701440329718601  0.7090459213902088   T   T   T
  0.5993553608077199  0.2985144045136289  0.7849369888348980   T   T   T
  0.5137251334608641  0.4843748487610904  0.6779283643474326   T   T   T
  0.5606869811276463  0.4886343524964832  0.7629768400918880   T   T   T
  0.4828916732671832  0.2744763880889819  0.7742117928663974   T   T   T
  0.5426919557841284  0.3874834194105322  0.8301155239410156   T   T   T
  0.5450424287344393  0.2208471583617875  0.7068404082744080   T   T   T
  0.6267841461636170  0.3164487011369917  0.6949638834799169   T   T   T
  0.2853976463340575  0.6637149472778977  0.7641449386500933   T   T   T
  0.6203169892261620  0.5700671913824631  0.7038339141326967   T   T   T
  0.3914768949776336  0.8180013376584221  0.7062556117069037   T   T   T
  0.7471080566889607  0.2598855975279435  0.6951928491736268   T   T   T
  0.4855465236830239  0.7772248490411550  0.7549027870368576   T   T   T
  0.7311017579478614  0.6150501774780563  0.6942126532841600   T   T   T
  0.7633242972791275  0.4334037200717059  0.7060466217225475   T   T   T
  0.6315964507702438  0.5867100321317875  0.7999688215095272   T   T   T
  0.5959437130688322  0.7847119599486526  0.7128431855342590   T   T   T
  0.4244798655609869  0.3735534382697175  0.8188027466314340   T   T   T
  0.3679902511422129  0.3015351063073912  0.7571641826950434   T   T   T
  0.4278942975484579  0.2273789361485327  0.6993690930964483   T   T   T
  0.4628608284478092  0.6986348173071413  0.8314272757904589   T   T   T
  0.6471967745321983  0.4438311904767189  0.6956008458116008   T   T   T
  0.3482745815899981  0.5010223745514062  0.6977697472407868   T   T   T
  0.2880405006435725  0.5396177252977216  0.7775430535775879   T   T   T
  0.5687664628270347  0.5110755062534255  0.8568344805396394   T   T   T
  0.6396426086451917  0.1880455036628669  0.7493995413691473   T   T   T
  0.4682622757749568  0.4542097913349084  0.8812453693986473   T   T   T
  0.2810177247871375  0.3413978973071978  0.7026943837069279   T   T   T
  0.6686266660247769  0.6822953805510348  0.7488145825956154   T   T   T
  0.3970551015763729  0.3827186896784026  0.6906072960703297   T   T   T
  0.4515021447656216  0.5793186175915220  0.7040462669255062   T   T   T
  0.3747208240312357  0.4957742575671422  0.8326564214331439   T   T   T
  0.3230508999895667  0.4168266084660043  0.7702735197712770   T   T   T
  0.7066048730842219  0.3414975938126240  0.7574719998565859   T   T   T
  0.3680636404855571  0.6207420696274558  0.8199175466884631   T   T   T
  0.7718682934876399  0.4320388672663860  0.7963678381267654   T   T   T
  0.2558953778633627  0.5939567047091203  0.6945723208525447   T   T   T
  0.5631219951972273  0.6414534880257448  0.8624263018483082   T   T   T
  0.5402116313317107  0.6673040340085766  0.7020885384165471   T   T   T
  0.4426154048328994  0.4696201924639965  0.7552838528075427   T   T   T
  0.7064153007919508  0.7574503567249615  0.6882960035016819   T   T   T
  0.3739115005318244  0.7415389827549640  0.7789120010539502   T   T   T
  0.4612662731177836  0.5763478081017883  0.8653717503355466   T   T   T
  0.6517814382241853  0.4343550260209752  0.8100972358858186   T   T   T
  0.4174019212165189  0.6965741011493155  0.6998412684928806   T   T   T
  0.5244664352766782  0.3778484139248102  0.7313930103576834   T   T   T
  0.7652151018528417  0.2053158925055192  0.7471031959056986   T   T   T
  0.7184015765388305  0.1602531584018864  0.7584415982366033   T   T   T
  0.7761736457173080  0.1020987466811414  0.7662588649981540   T   T   T
  0.0833333358191695  0.3124999999901945  0.3605200052333331   F   F   F
  0.0843399151016048  0.6869607746446821  0.4531607100222858   T   T   T
  0.2520882160679383  0.6875649646923065  0.4560486643405497   T   T   T
  0.0840799845491634  0.9368515620774077  0.4536492129471067   T   T   T
  0.0827932443364687  0.4368141919324239  0.4528471363874109   T   T   T
  0.0838646295316905  0.1865646197678134  0.4529761677416938   T   T   T
  0.9165823942660977  0.8121209410744632  0.4540625960472158   T   T   T
  0.7464189135456673  0.5577002054729806  0.5446188186830677   T   T   T
  0.9160844001635225  0.5622183409969614  0.4540625457194387   T   T   T
  0.9162194919979331  0.0622745888580788  0.4540409132395639   T   T   T
  0.9162295905080813  0.3122965349831201  0.4537005441388983   T   T   T
  0.5819607618813160  0.4392492141341759  0.4565710136111091   T   T   T
  0.5829778551479811  0.1903765304170531  0.4556706478819973   T   T   T
  0.5833333134730552  0.6874999999963620  0.3605200052333331   F   F   F
  0.9164524566727488  0.9371214942680030  0.4536561021977706   T   T   T
 -0.0000008688424005  0.3738130523492015  0.4982312888443094   T   T   T
  0.9996675631812382  0.6271268134637693  0.4976416935505740   T   T   T
  0.3337462614133434  0.1257506270775418  0.4987799748149463   T   T   T
  0.0000855970652974  0.8751773031252217  0.4995584102528168   T   T   T
  0.3334775005151439  0.8741508003780127  0.4990772351657317   T   T   T
  0.6657747102146419  0.1263599353023555  0.4997412595865321   T   T   T
  0.2511640644335295  0.4392641851828918  0.4549336412585316   T   T   T
  0.0833333358191695  0.5625000000092442  0.3605200052333331   F   F   F
  0.9166666865332829  0.0625000000159659  0.3605200052333331   F   F   F
  0.7494960703112182  0.8131889086000573  0.4529756927417571   T   T   T
  0.7497229840991035  0.4385587543126172  0.4557104606894854   T   T   T
  0.9160254525515196  0.3126661246727351  0.5463788204077324   T   T   T
  0.4172869731794710  0.6846715561252317  0.4547960961116864   T   T   T
  0.0000642967323698  0.1251895079630919  0.4984610712259917   T   T   T
  0.5833074791085475  0.8103711515086806  0.4553526937525091   T   T   T
  0.4169002958206595  0.1872639980120887  0.4537481201964705   T   T   T
  0.4165993266803135  0.8099586603525937  0.4550553185836748   T   T   T
  0.4159629336093044  0.9370070649043684  0.5460049165922228   T   T   T
  0.5833333134730552  0.0625000000159659  0.3605200052333331   F   F   F
  0.9166666865332829  0.1875000000030838  0.3605200052333331   F   F   F
  0.5833333134730552  0.9375000000154046  0.3605200052333331   F   F   F
  0.0808918299604706  0.5644818091149527  0.5464416145925353   T   T   T
  0.5833333134730552  0.4374999701794380  0.3605200052333331   F   F   F
  0.5833333134730552  0.1875000000030838  0.3605200052333331   F   F   F
  0.2499999999799343  0.9375000000154046  0.3605200052333331   F   F   F
  0.9166666865332829  0.9375000000154046  0.3605200052333331   F   F   F
  0.2499999999799343  0.6874999999963620  0.3605200052333331   F   F   F
  0.2499999999799343  0.1875000000030838  0.3605200052333331   F   F   F
  0.7499999404149307  0.9375000000154046  0.3605200052333331   F   F   F
  0.7499999404149307  0.6874999999963620  0.3605200052333331   F   F   F
  0.4174493082843170  0.9357595462799407  0.4539083622281830   T   T   T
  0.5832612815369514  0.0636908297333196  0.4538219545291034   T   T   T
  0.7499999404149307  0.4374999701794380  0.3605200052333331   F   F   F
  0.4166666269218169  0.6874999999963620  0.3605200052333331   F   F   F
  0.4166666269218169  0.4374999701794380  0.3605200052333331   F   F   F
  0.2499999999799343  0.4374999701794380  0.3605200052333331   F   F   F
  0.0833333358191695  0.0625000000159659  0.3605200052333331   F   F   F
  0.9152995413831416  0.6868672982543215  0.4533300763671717   T   T   T
  0.6653630323626371  0.3797237961694323  0.5027605947278357   T   T   T
  0.3344275190929470  0.3784613979786572  0.5030055680991269   T   T   T
  0.3355693461671336  0.6257660509418886  0.5037588118180338   T   T   T
  0.9175479523494308  0.0633802360047558  0.5474259102730160   T   T   T
  0.7495304445605678  0.9383797277865734  0.4553580237524837   T   T   T
  0.2499991329735318  0.9360672201594636  0.4539805021522071   T   T   T
  0.2500370370574211  0.1884518422022541  0.4541407286833964   T   T   T
  0.7490803190669778  0.6886726836148784  0.4574444422499701   T   T   T
  0.7499999404149307  0.1875000000030838  0.3605200052333331   F   F   F
  0.4166666269218169  0.9375000000154046  0.3605200052333331   F   F   F
  0.2505330059045355  0.0620478887458500  0.4542574466473751   T   T   T
  0.7346549794108974  0.1057643949392541  0.7665981810187737   T   T   T
  0.2499999999799343  0.8124999999834799  0.3605200052333331   F   F   F
  0.0833333358191695  0.1875000000030838  0.3605200052333331   F   F   F
  0.5833333134730552  0.8124999999834799  0.3605200052333331   F   F   F
  0.2499999999799343  0.3124999999901945  0.3605200052333331   F   F   F
  0.7499999404149307  0.5625000000092442  0.3605200052333331   F   F   F
  0.7499999404149307  0.3124999999901945  0.3605200052333331   F   F   F
  0.7499999404149307  0.0625000000159659  0.3605200052333331   F   F   F
  0.4166666269218169  0.8124999999834799  0.3605200052333331   F   F   F
  0.4166666269218169  0.3124999999901945  0.3605200052333331   F   F   F
  0.7499999404149307  0.8124999999834799  0.3605200052333331   F   F   F
  0.4166666269218169  0.0625000000159659  0.3605200052333331   F   F   F
  0.4168184785882072  0.0615320516614744  0.4553500329711692   T   T   T
  0.0834661042464521  0.8121689069241538  0.4541519713579829   T   T   T
  0.4166666269218169  0.5625000000092442  0.3605200052333331   F   F   F
  0.4140485632574685  0.8116286881325950  0.5476712949312255   T   T   T
  0.5833333134730552  0.3124999999901945  0.3605200052333331   F   F   F
  0.0834300526438741  0.3120393477276425  0.4539859348277860   T   T   T
  0.4155618625920279  0.3114124378166059  0.4573575257664328   T   T   T
  0.2511350105672435  0.0625990926331915  0.5472579126366972   T   T   T
  0.8333332538436267  0.4999999999932783  0.4070133268666680   F   F   F
  0.4166666269218169  0.1875000000030838  0.3605200052333331   F   F   F
  0.0833333358191695  0.9375000000154046  0.3605200052333331   F   F   F
  0.0833333358191695  0.8124999999834799  0.3605200052333331   F   F   F
  0.0833333358191695  0.4374999701794380  0.3605200052333331   F   F   F
  0.8333332538436267  0.7500000000123208  0.4070133268666680   F   F   F
  0.5833333134730552  0.5625000000092442  0.3605200052333331   F   F   F
  0.0837186034005126  0.0618947016987551  0.4542027447265790   T   T   T
  0.4159168579913948  0.5594620601374518  0.4578915181238937   T   T   T
  0.0833333358191695  0.6874999999963620  0.3605200052333331   F   F   F
  0.0839677028346842  0.5625218987976942  0.4539866057917601   T   T   T
  0.2522746322933043  0.3141157221294077  0.4541819337766447   T   T   T
  0.2499999999799343  0.0625000000159659  0.3605200052333331   F   F   F
  0.2499999999799343  0.5625000000092442  0.3605200052333331   F   F   F
  0.1666666716383389  0.4999999999932783  0.4070133268666680   F   F   F
  0.6666666865533486  0.7500000000123208  0.4070133268666680   F   F   F
  0.0000000000000000  0.0000000000000000  0.4070133268666680   F   F   F
  0.0000000000000000  0.2500000000190425  0.4070133268666680   F   F   F
  0.4166354351402993  0.0652227403561775  0.5473094286323823   T   T   T
  0.7482012086496772  0.5643343052845826  0.4537919956822061   T   T   T
  0.3333333432766779  0.0000000000000000  0.4070133268666680   F   F   F
  0.3333333432766779  0.4999999999932783  0.4070133268666680   F   F   F
  0.3333333432766779  0.7500000000123208  0.4070133268666680   F   F   F
  0.6666666865533486  0.0000000000000000  0.4070133268666680   F   F   F
  0.6666666865533486  0.2500000000190425  0.4070133268666680   F   F   F
  0.6666666865533486  0.4999999999932783  0.4070133268666680   F   F   F
  0.8333332538436267  0.2500000000190425  0.4070133268666680   F   F   F
  0.1666666716383389  0.0000000000000000  0.4070133268666680   F   F   F
  0.5843304893107324  0.3152257099957099  0.4540331857877590   T   T   T
  0.5000000000021103  0.4999999999932783  0.4070133268666680   F   F   F
  0.9166666865332829  0.4374999701794380  0.3605200052333331   F   F   F
  0.5000000000021103  0.0000000000000000  0.4070133268666680   F   F   F
  0.9166666865332829  0.3124999999901945  0.3605200052333331   F   F   F
  0.3333333432766779  0.2500000000190425  0.4070133268666680   F   F   F
  0.7477032674993663  0.3144690582622413  0.4539691828031070   T   T   T
  0.0000000000000000  0.7500000000123208  0.4070133268666680   F   F   F
  0.5844485146541810  0.5627429974621634  0.4549138128815283   T   T   T
  0.7493079915192044  0.0640212487532893  0.4533108442013767   T   T   T
  0.8333332538436267  0.0000000000000000  0.4070133268666680   F   F   F
  0.5827321986689658  0.6860769338353979  0.4546559390688426   T   T   T
  0.2517703864437749  0.5645392350108845  0.4538238315035613   T   T   T
  0.1666666716383389  0.2500000000190425  0.4070133268666680   F   F   F
  0.2504776281868341  0.8108029049619712  0.4553014053758114   T   T   T
  0.1666666716383389  0.7500000000123208  0.4070133268666680   F   F   F
  0.7477966855405440  0.8076152186164770  0.5453917794303195   T   T   T
  0.5000000000021103  0.2500000000190425  0.4070133268666680   F   F   F
  0.5000000000021103  0.7500000000123208  0.4070133268666680   F   F   F
  0.9166666865332829  0.6874999999963620  0.3605200052333331   F   F   F
  0.0000000000000000  0.4999999999932783  0.4070133268666680   F   F   F
  0.5003999549014233  0.7566885108971058  0.5925175568727662   T   T   T
  0.4993670435088276  0.1255577301077848  0.4989407820906805   T   T   T
  0.9995071484143351  0.4985089494892432  0.5941402231490216   T   T   T
  0.5786323581208468  0.1845369191057288  0.5504919073838513   T   T   T
  0.9996789771261126  0.7536529628129951  0.5928016258260284   T   T   T
  0.8101208570324219  0.2024669087631619  0.7668446376303705   T   T   T
  0.9998513636471048  0.9988336524919519  0.5930827138847717   T   T   T
  0.0002771687036366  0.2500296212722933  0.5920479588895113   T   T   T
  0.3332511244559575  0.4959913261417179  0.5911772940402688   T   T   T
  0.3352297845669175  0.7407838494407569  0.5903922689199873   T   T   T
  0.6642423158130245  0.2422632731038945  0.5905807553486446   T   T   T
  0.6661191801407311  0.0009483209587770  0.5919610819440321   T   T   T
  0.6654814716097752  0.7412329775004253  0.5908486660429093   T   T   T
  0.5825146064111483  0.9371557881855597  0.4544129739554754   T   T   T
  0.6667066294852932  0.4939499369267232  0.5913614058165506   T   T   T
  0.0835453465725098  0.1889568336076878  0.5455883562822201   T   T   T
  0.1683707610547966  0.2487972905151274  0.5932549277682516   T   T   T
  0.2482957965827653  0.4359222895174934  0.5491324011323309   T   T   T
  0.1654587762533377  0.5033175951847063  0.5872629684550574   T   T   T
  0.3347276172217402  0.2545576392423243  0.5926416593776407   T   T   T
  0.4997376145530751  0.0001642416085062  0.5911191389002942   T   T   T
  0.8326833273563279  0.8741726868997257  0.4986615781203660   T   T   T
  0.7483548614214125  0.9368436281039630  0.6400602864266953   T   T   T
  0.8323864376698672  0.0015073373322778  0.5920280357040668   T   T   T
  0.7500269586199850  0.1831695951856691  0.5505845242669426   T   T   T
  0.4228843988448138  0.6876169402296360  0.5468768971248981   T   T   T
  0.4232728836195135  0.4434252527617795  0.5460903915553351   T   T   T
  0.7529357943857726  0.4342562391250631  0.5497438169542975   T   T   T
  0.5845584923476189  0.3103959545956314  0.5457302203093780   T   T   T
  0.1674206931923659  0.9984599145367147  0.5923214469366710   T   T   T
  0.9141509324957457  0.5627158906305001  0.6409219906273302   T   T   T
  0.1708685426144686  0.7503415294739906  0.5950055224120185   T   T   T
  0.5907288364135750  0.8105250345215372  0.6460109078219769   T   T   T
  0.0829215541412296  0.4389532676121901  0.5448519740545409   T   T   T
  0.3340415353622589  0.9998797752080127  0.5919091923111399   T   T   T
  0.6653196332022643  0.6260347671818836  0.5030012703982090   T   T   T
  0.0863559701911110  0.3134544968574707  0.5468620607653918   T   T   T
  0.0851126748082879  0.8126032240542884  0.5473247810943723   T   T   T
  0.0823434030871710  0.0631885814815613  0.5475541540902034   T   T   T
  0.5764618357263348  0.4356446028650847  0.5522815588495905   T   T   T
  0.5859079728175396  0.8142139520867284  0.5504408061049874   T   T   T
  0.2526361810334700  0.5590855643418621  0.5439280792958041   T   T   T
  0.5812200782094511  0.5598969978888257  0.5489875236681270   T   T   T
  0.7460323637710501  0.3103207606543582  0.5459846237423531   T   T   T
  0.9142886592019517  0.6887512691250472  0.5456787748523755   T   T   T
  0.5824484754679170  0.0615494971286044  0.5453337611547583   T   T   T
  0.4158913388004213  0.3192021218610174  0.5526037272115986   T   T   T
  0.9162788403695286  0.1887893801843438  0.5453785483900032   T   T   T
  0.4175923716746465  0.0651646813843177  0.6401038811230469   T   T   T
  0.2532610043310274  0.8125772961143624  0.5505324064946727   T   T   T
  0.5792275619313414  0.6860114335234864  0.5475579246282685   T   T   T
  0.4974751560211855  0.5045874302824080  0.6090052931152109   T   T   T
  0.9179101269022966  0.5638107799012859  0.5471233222352513   T   T   T
  0.4199117129967036  0.5646455765918893  0.5554322237568191   T   T   T
  0.9154380478818669  0.8126511625170406  0.5468018427189336   T   T   T
  0.0840866066227888  0.9384004212078244  0.5461175604584146   T   T   T
  0.2489005215812251  0.6833263160115668  0.5517753430024482   T   T   T
  0.7493076077563344  0.9337629668726275  0.5476377664644062   T   T   T
  0.7516526593258207  0.6800934780843664  0.5533894320547332   T   T   T
  0.9156457663237282  0.9384412862180349  0.5463725351645992   T   T   T
  0.5838907866191599  0.9375631764046517  0.5461706461899768   T   T   T
  0.4122652006054326  0.8128950934675349  0.6393007833800414   T   T   T
  0.7502033614623631  0.1896445862121675  0.4556067534710277   T   T   T
  0.9152861524602757  0.4376334101469342  0.5456398157339096   T   T   T
  0.9157759591907212  0.1868817916001622  0.4532119523955068   T   T   T
  0.2515071449929847  0.9372755635334388  0.5451986597366884   T   T   T
  0.5828338551552299  0.0669167688642611  0.6389113809400006   T   T   T
  0.4173458372916667  0.4354887798895979  0.4542534207916888   T   T   T
  0.7439349751198088  0.3127867932042114  0.6384072469161338   T   T   T
  0.2475952749220970  0.5740127321589147  0.6287408227753016   T   T   T
  0.7536891568624050  0.6922649582979771  0.6575620739834256   T   T   T
  0.2626243882637402  0.8008828062557021  0.6458468184356745   T   T   T
  0.2509513134216742  0.0595204632408959  0.6422701576444763   T   T   T
  0.9166666865332829  0.5625000000092442  0.3605200052333331   F   F   F
  0.4998189004537611  0.3726503207792689  0.5008511484096148   T   T   T
  0.5002282075441996  0.6208930447593695  0.5001186499996740   T   T   T
  0.8323745159422816  0.6230752999983861  0.5001547325825620   T   T   T
  0.2519975256399174  0.1882594901878240  0.5472186554474859   T   T   T
  0.8324926566982271  0.3729308214716828  0.4997096356223901   T   T   T
  0.9138053512980416  0.3120238991019841  0.6398041287309181   T   T   T
  0.1667404557134667  0.3762007327003148  0.4977315657890903   T   T   T
  0.9132469038850847  0.8133905663950971  0.6419161781437572   T   T   T
  0.5806360380459866  0.4384391929906284  0.6461792698208887   T   T   T
  0.5906606049065826  0.5659436747083996  0.6386533315943250   T   T   T
  0.2492946420279453  0.3164729290908292  0.6414038769505970   T   T   T
  0.9158558335572434  0.4369929786214059  0.4535636767436697   T   T   T
  0.1670829098514415  0.1244559896420811  0.4994854229737892   T   T   T
  0.7483147177211078  0.0595234283001308  0.5446291732475897   T   T   T
  0.4256017503678439  0.3049713102022801  0.6569573301926397   T   T   T
  0.0855812297179055  0.6892847978818752  0.5454229770458101   T   T   T
  0.4203865190506322  0.6762111983594925  0.6338787407150764   T   T   T
  0.7554930039212185  0.4365987780082756  0.6395466733157438   T   T   T
  0.4985749085961076  0.2542896211129547  0.5918946177654232   T   T   T
  0.9157613938081456  0.0626417440259749  0.6412001889661387   T   T   T
  0.1675460922637486  0.6242714562338106  0.5002384948831834   T   T   T
  0.4999924569200638  0.8730152800836843  0.5009351272388219   T   T   T
  0.5768829474565436  0.6862539575190677  0.6397318235459502   T   T   T
  0.5884390145459867  0.3200757899728665  0.6338742190800652   T   T   T
  0.4175580879607272  0.9349689952535013  0.6397318698279409   T   T   T
  0.1677462142370348  0.8732810425475529  0.4998651420719386   T   T   T
  0.2493366346622367  0.3137924399292033  0.5459975194725506   T   T   T
  0.9154249581864798  0.1863966452636661  0.6393388072422208   T   T   T
  0.4167998886574703  0.1910368030526133  0.5470155644484074   T   T   T
  0.0836212497985337  0.3118011491823612  0.6404466382068107   T   T   T
  0.8328565084381497  0.1237943072061572  0.4998036913741936   T   T   T
  0.7488812612132165  0.0671495280241364  0.6395245560166605   T   T   T
  0.6664937917885684  0.8742891789869326  0.4987604934132085   T   T   T
  0.0864441279995863  0.5628000204495395  0.6399940310595416   T   T   T
  0.0871407773825140  0.4365344338788890  0.6397267554503916   T   T   T
  0.4171595343088744  0.1872136002990934  0.6398720804576002   T   T   T
  0.4157862260908084  0.4181965670626160  0.6300655065473333   T   T   T
  0.0845036504644550  0.9357624217217636  0.6409936040838994   T   T   T
  0.0839835907223204  0.0608197546428454  0.6420086710103081   T   T   T
  0.8331002501221166  0.5038568400125265  0.5893912497707466   T   T   T
  0.0834177205374281  0.1858617430095753  0.6409560940724983   T   T   T
  0.2400035712270618  0.4422051900906621  0.6415924852800715   T   T   T
  0.9119935812924483  0.4361216498338829  0.6399751426558252   T   T   T
  0.2520569249661843  0.9303386843381213  0.6373141561680172   T   T   T
  0.0833518115303215  0.6871071906510228  0.6388560762324291   T   T   T
  0.7527642698288654  0.1934348996403676  0.6458849913883972   T   T   T
  0.9143332815158758  0.9369992318541412  0.6413236774760662   T   T   T
  0.3977055910208656  0.5503801147492842  0.6523131354393458   T   T   T
  0.2543004301129347  0.6783079658304784  0.6627538585384213   T   T   T
  0.2535747716001550  0.1865181560935385  0.6411988262235172   T   T   T
  0.5778394485327351  0.1925937004084411  0.6459173052323136   T   T   T
  0.5821183793650340  0.9361784644263937  0.6391790173808529   T   T   T
  0.9166666865332829  0.8124999999834799  0.3605200052333331   F   F   F
  0.7411264372356784  0.8099176571157987  0.6397679469677328   T   T   T
  0.8315237920422258  0.2508843108170642  0.5899242045785668   T   T   T
  0.8303078220512813  0.7507341344357372  0.5927010980098302   T   T   T
  0.0846290773549346  0.8126572712982946  0.6424345316261068   T   T   T
  0.9163031392604740  0.6876452334800489  0.6390291624240214   T   T   T
  0.7518773521538856  0.5701352615638410  0.6351900281825635   T   T   T
  0.6674157779264299  0.2476108912379868  0.5025932298688900   T   T   T
  0.3261863956912635  0.3733308217321456  0.5927634135386273   T   T   T
  0.3311782439338642  0.4991386275120991  0.5010127646987852   T   T   T
  0.5009115761674313  0.8771329070447018  0.6093651531832868   T   T   T
  0.9998667881904572  0.7510721038549611  0.5067205889531313   T   T   T
  0.1666666716383389  0.3750000000061604  0.4070133268666680   F   F   F
  0.8350883997776855  0.2486491079463538  0.5029295009115978   T   T   T
  0.8333332538436267  0.6249999999803961  0.4070133268666680   F   F   F
  0.0002784403144662  0.1231039054619825  0.6198603174471194   T   T   T
  0.3303074749726229  0.2480234775371116  0.5029455024895307   T   T   T
  0.6660487115681712  0.0000791359234519  0.5055959723523363   T   T   T
  0.1643810889737212  0.7513789349731583  0.5034132167865525   T   T   T
  0.3338327195419004  0.7510906329772566  0.5014722337213233   T   T   T
  0.5010882517783730  0.7527747140549284  0.5038472757474907   T   T   T
  0.6666666865533486  0.3750000000061604  0.4070133268666680   F   F   F
  0.6653381154531787  0.7517646779864801  0.5021732596456796   T   T   T
  0.0001282672985300  0.9999140149500537  0.5067136966039056   T   T   T
  0.5010951373909938  0.4997041611065240  0.5003657892352288   T   T   T
  0.3333333432766779  0.3750000000061604  0.4070133268666680   F   F   F
  0.0000000000000000  0.8749999404036828  0.4070133268666680   F   F   F
  0.5013131721324917  0.2479649612244370  0.5022701154799797   T   T   T
  0.0006992339604382  0.2499010782230637  0.5059530343835880   T   T   T
  0.6666666865533486  0.6249999999803961  0.4070133268666680   F   F   F
  0.8333332538436267  0.8749999404036828  0.4070133268666680   F   F   F
  0.3333333432766779  0.6249999999803961  0.4070133268666680   F   F   F
  0.3333333432766779  0.8749999404036828  0.4070133268666680   F   F   F
  0.0000000000000000  0.6249999999803961  0.4070133268666680   F   F   F
  0.8342210508540394  0.0000963045792009  0.5061955971802802   T   T   T
  0.6666666865533486  0.1249999999871179  0.4070133268666680   F   F   F
  0.1663618347779226  0.2482399867979639  0.5062860735818306   T   T   T
  0.5002764957089417  0.9991426901867411  0.5054593441673995   T   T   T
  0.1659922094593671  0.0011861274364520  0.5065424461946991   T   T   T
  0.9994542780701078  0.4999938588702134  0.5067698947503543   T   T   T
  0.3333333432766779  0.1249999999871179  0.4070133268666680   F   F   F
  0.3331200583482449  0.0011050471644180  0.5057023778749660   T   T   T
  0.6686199592532057  0.4999111626784007  0.5005868758672172   T   T   T
  0.0000000000000000  0.1249999999871179  0.4070133268666680   F   F   F
  0.8361415951400377  0.3730624643242354  0.6038885516580249   T   T   T
  0.8333332538436267  0.3750000000061604  0.4070133268666680   F   F   F
  0.3314797322107375  0.1197831066333744  0.6123887490673482   T   T   T
  0.8393972037006483  0.6271134381190870  0.6042334234947970   T   T   T
  0.5000000000021103  0.8749999404036828  0.4070133268666680   F   F   F
  0.1635044206777364  0.4998814346927785  0.5019866226590197   T   T   T
  0.8318924817301838  0.8765924542676796  0.6175647114729709   T   T   T
  0.5000000000021103  0.6249999999803961  0.4070133268666680   F   F   F
  0.8357922238081126  0.4999133444311201  0.5030731176663066   T   T   T
  0.1666666716383389  0.6249999999803961  0.4070133268666680   F   F   F
  0.9997996279216069  0.6235706700964004  0.6242074716850605   T   T   T
  0.8333332538436267  0.1249999999871179  0.4070133268666680   F   F   F
  0.1666666716383389  0.8749999404036828  0.4070133268666680   F   F   F
  0.5000000000021103  0.1249999999871179  0.4070133268666680   F   F   F
  0.6664486730341717  0.1250769433426759  0.6127887609819378   T   T   T
  0.5003536580067022  0.1224309520924990  0.6067664752431760   T   T   T
  0.6662493246659988  0.6261271187879928  0.5931838732899173   T   T   T
  0.8360277033164477  0.7515581110855886  0.5025707159878282   T   T   T
  0.5029278655272404  0.3707615953520743  0.5955773210374399   T   T   T
  0.0000000000000000  0.3750000000061604  0.4070133268666680   F   F   F
  0.1666666716383389  0.1249999999871179  0.4070133268666680   F   F   F
  0.5035108918672998  0.6248736868599598  0.5941919176172397   T   T   T
  0.5000000000021103  0.3750000000061604  0.4070133268666680   F   F   F
  0.6666666865533486  0.8749999404036828  0.4070133268666680   F   F   F
  0.3345869704637909  0.8789089750161367  0.6025820572639652   T   T   T
  0.1662822366247984  0.8737934297290220  0.6176016075782702   T   T   T
  0.3341246354071110  0.6245221355591237  0.5950487127815749   T   T   T
  0.1595632848973929  0.6274224745339581  0.6013087039820738   T   T   T
  0.1676110327577209  0.1230975853483535  0.6218952209997776   T   T   T
  0.1632162284488393  0.3712087637299215  0.6075479178507704   T   T   T
  0.6652375717936259  0.8812915275469698  0.6071774360474098   T   T   T
  0.9995309415068901  0.3751022841604030  0.6249963451976294   T   T   T
  0.8343928087343591  0.1240266373006152  0.6126584791037442   T   T   T
  0.9991462851452086  0.8748747878016663  0.6236987277750294   T   T   T
  0.6717291498619465  0.3735487181452630  0.5930756678136851   T   T   T
  0.5847170085321519  0.7499078245750784  0.5997351745433726   T   T   T
  0.5829521838834454  0.0016148469208826  0.6041593569775674   T   T   T
  0.9166666865332829  0.2500000000190425  0.4070133268666680   F   F   F
  0.0830783959956222  0.1247942671232833  0.5067888648534975   T   T   T
  0.0809480649048704  0.6258349593082357  0.5054235147154086   T   T   T
  0.0831706864185319  0.2482386730166356  0.6035281106637973   T   T   T
  0.2496163032295662  0.9978139422889931  0.6041714183328348   T   T   T
  0.2493000524436752  0.2460198432947664  0.6037588726444846   T   T   T
  0.9165416952112025  0.9997386997007410  0.6038190214253147   T   T   T
  0.5902605404536821  0.5012426318045224  0.5935604591320396   T   T   T
  0.4152346670098750  0.2483111381839916  0.5913278451760670   T   T   T
  0.2497836219299543  0.7530452336444631  0.5919092895790649   T   T   T
  0.5853368567560370  0.2479360599902087  0.5963627174593800   T   T   T
  0.7498097872131682  0.0018511108916199  0.6044069511884486   T   T   T