Au  C  H  O Sr Ti                       
   1.00000000000000     
    23.6707801818999997    0.0000000000000000    0.0000000000000000
     0.0000000000000000   22.3170261383000010    0.0000000000000000
     0.0000000000000000    0.0000000000000000   30.0000000000000000
   Au   C    H    O    Sr   Ti
    50     2     1   266    72    72
Selective dynamics
Direct
  0.7123573013640233  0.5254916445340542  0.7544603732276368   T   T   T
  0.2938873024272194  0.7472037079977698  0.6961621956398089   T   T   T
  0.5096084122913696  0.6060375344402898  0.7779612192500686   T   T   T
  0.5778559012841168  0.7264485664970995  0.7942200865391599   T   T   T
  0.2396500148256774  0.4701673989616317  0.7090391895661950   T   T   T
  0.5992108134456243  0.2986017069982883  0.7849869508244104   T   T   T
  0.5136601618589078  0.4843955648356704  0.6779309266813446   T   T   T
  0.5607315711954116  0.4885650100044500  0.7629690775582012   T   T   T
  0.4828507747009914  0.2743107426067434  0.7742018494284679   T   T   T
  0.5427341631900413  0.3876757593344460  0.8301051770449926   T   T   T
  0.5452479243394799  0.2202903279025177  0.7070651175609944   T   T   T
  0.6263975833104825  0.3164812856844222  0.6951906002594432   T   T   T
  0.2852471085294817  0.6636014915759845  0.7641942190108179   T   T   T
  0.6203557383160675  0.5700169784576370  0.7038440151355212   T   T   T
  0.3914125665161912  0.8179832187489603  0.7062442475598949   T   T   T
  0.7470820377475538  0.2599457187411167  0.6953015690983120   T   T   T
  0.4856092564847781  0.7772681635848186  0.7548462694426279   T   T   T
  0.7311020209759223  0.6150553161298961  0.6942070791705497   T   T   T
  0.7632719365134271  0.4333455080930974  0.7059668121241338   T   T   T
  0.6316175079336918  0.5866648319135799  0.7999891753910102   T   T   T
  0.5959621691823722  0.7846974145486461  0.7128388557054143   T   T   T
  0.4244434346396512  0.3735195820715909  0.8187919932406607   T   T   T
  0.3680071440074323  0.3014835340444162  0.7571114583377569   T   T   T
  0.4284478241239109  0.2273158865650831  0.6993380434260315   T   T   T
  0.4627969995094214  0.6985603535720818  0.8313982855335844   T   T   T
  0.6471699433776933  0.4437749968585651  0.6955322960043925   T   T   T
  0.3481884063644543  0.5010364096920872  0.6976553308908753   T   T   T
  0.2880417944026201  0.5395751115601461  0.7775299886031838   T   T   T
  0.5687611378650009  0.5110749153001093  0.8568273415449711   T   T   T
  0.6399029984596655  0.1883031745586433  0.7496389394617450   T   T   T
  0.4683539599902242  0.4542721696653851  0.8812110452307814   T   T   T
  0.2810480256357905  0.3413260326007531  0.7026842671383049   T   T   T
  0.6686315573957630  0.6822735971424618  0.7488232503990038   T   T   T
  0.3970377008788879  0.3827170371257843  0.6906031069007063   T   T   T
  0.4515313399089679  0.5793020278705860  0.7040075554334870   T   T   T
  0.3746156984468814  0.4957734823228865  0.8327787292639579   T   T   T
  0.3230544355041797  0.4168196453199184  0.7702559866850555   T   T   T
  0.7065313268640699  0.3415955510641165  0.7575611119450398   T   T   T
  0.3680406679727314  0.6207196046189063  0.8198992349555845   T   T   T
  0.7719034388440311  0.4321789226486429  0.7963517462675657   T   T   T
  0.2558801001568822  0.5939576249386475  0.6945631071853334   T   T   T
  0.5631573462176164  0.6415093450804440  0.8624060745574426   T   T   T
  0.5402458770440043  0.6673509600183020  0.7020266046769401   T   T   T
  0.4425812376367962  0.4696490638208927  0.7553241162362946   T   T   T
  0.7063945715291626  0.7574111344333900  0.6882860013359405   T   T   T
  0.3736821121720701  0.7415134758540032  0.7787881435749278   T   T   T
  0.4612725268800831  0.5764529534074780  0.8653913769780612   T   T   T
  0.6518850136804327  0.4344695472800846  0.8100481235248114   T   T   T
  0.4174974538862719  0.6966088796441910  0.6998100511431564   T   T   T
  0.5243970053429444  0.3778622169062547  0.7314057406896992   T   T   T
  0.7652174479354066  0.2052083376722911  0.7471434569236972   T   T   T
  0.7185998318981729  0.1600881998044255  0.7584107876091888   T   T   T
  0.7763474287803670  0.1021299521453728  0.7664997233575072   T   T   T
  0.0833333358191695  0.3124999999901945  0.3605200052333331   F   F   F
  0.0843391931280211  0.6869493383767242  0.4531503574422591   T   T   T
  0.2520667905792270  0.6875715813762816  0.4560525132203813   T   T   T
  0.0840820932910426  0.9368491948357558  0.4536541268068071   T   T   T
  0.0828105570610505  0.4367858451287377  0.4528124667668089   T   T   T
  0.0838497679598743  0.1865597261772226  0.4529765004744800   T   T   T
  0.9166152222338944  0.8121264528421761  0.4540490335952609   T   T   T
  0.7463702106730615  0.5577067326698810  0.5446160461583430   T   T   T
  0.9160939626939599  0.5622145909700120  0.4540597252525527   T   T   T
  0.9162232602278449  0.0622586947555591  0.4540446376841141   T   T   T
  0.9162348071819760  0.3122972345938841  0.4536867212014836   T   T   T
  0.5819979929971034  0.4393366042519988  0.4565828094565749   T   T   T
  0.5829911754824476  0.1904021484150756  0.4556739245522394   T   T   T
  0.5833333134730552  0.6874999999963620  0.3605200052333331   F   F   F
  0.9164481658109493  0.9371214218560437  0.4536651419614634   T   T   T
  0.0000249725796322  0.3737858149061822  0.4982185003401572   T   T   T
  0.9996601142105955  0.6271255142412754  0.4976533337850896   T   T   T
  0.3337363706696987  0.1257239066554995  0.4987893394071642   T   T   T
  0.0000943083557607  0.8751750505964619  0.4995725614808552   T   T   T
  0.3334826289428277  0.8741419428442400  0.4990865673145604   T   T   T
  0.6657676856889226  0.1263606258726669  0.4997559522381935   T   T   T
  0.2511618831304850  0.4392647567001544  0.4549308336515875   T   T   T
  0.0833333358191695  0.5625000000092442  0.3605200052333331   F   F   F
  0.9166666865332829  0.0625000000159659  0.3605200052333331   F   F   F
  0.7494676304377418  0.8131849000694734  0.4530086613345209   T   T   T
  0.7496962672530555  0.4385978283729137  0.4557228687408030   T   T   T
  0.9159928962621963  0.3126554836666387  0.5464040133261020   T   T   T
  0.4172801469637802  0.6846992144353828  0.4548060695781228   T   T   T
  0.0000724217096098  0.1251785144316088  0.4984604284966761   T   T   T
  0.5832761571320175  0.8103571618361224  0.4553576869786087   T   T   T
  0.4169072341677518  0.1873169151547601  0.4537475739788054   T   T   T
  0.4166078301298084  0.8099684934423440  0.4550518908753142   T   T   T
  0.4159739276212731  0.9370026009067702  0.5460001197872968   T   T   T
  0.5833333134730552  0.0625000000159659  0.3605200052333331   F   F   F
  0.9166666865332829  0.1875000000030838  0.3605200052333331   F   F   F
  0.5833333134730552  0.9375000000154046  0.3605200052333331   F   F   F
  0.0808538396138900  0.5644531257639901  0.5464329566421631   T   T   T
  0.5833333134730552  0.4374999701794380  0.3605200052333331   F   F   F
  0.5833333134730552  0.1875000000030838  0.3605200052333331   F   F   F
  0.2499999999799343  0.9375000000154046  0.3605200052333331   F   F   F
  0.9166666865332829  0.9375000000154046  0.3605200052333331   F   F   F
  0.2499999999799343  0.6874999999963620  0.3605200052333331   F   F   F
  0.2499999999799343  0.1875000000030838  0.3605200052333331   F   F   F
  0.7499999404149307  0.9375000000154046  0.3605200052333331   F   F   F
  0.7499999404149307  0.6874999999963620  0.3605200052333331   F   F   F
  0.4174115285004239  0.9357771334367032  0.4539141247559330   T   T   T
  0.5832682631718290  0.0636931241523096  0.4538330202311188   T   T   T
  0.7499999404149307  0.4374999701794380  0.3605200052333331   F   F   F
  0.4166666269218169  0.6874999999963620  0.3605200052333331   F   F   F
  0.4166666269218169  0.4374999701794380  0.3605200052333331   F   F   F
  0.2499999999799343  0.4374999701794380  0.3605200052333331   F   F   F
  0.0833333358191695  0.0625000000159659  0.3605200052333331   F   F   F
  0.9152810763186533  0.6868587875590968  0.4533302460369918   T   T   T
  0.6653950880645170  0.3796831671521103  0.5027077254023643   T   T   T
  0.3344456808387753  0.3784463991825289  0.5030004267408391   T   T   T
  0.3356013838455102  0.6257912484928143  0.5037863496956702   T   T   T
  0.9175682375332812  0.0633864467284596  0.5474728663295189   T   T   T
  0.7495514840526931  0.9383879078327279  0.4553514990643841   T   T   T
  0.2499987514024946  0.9361010002229063  0.4540053167468735   T   T   T
  0.2500065281516668  0.1884617184109002  0.4541327259913125   T   T   T
  0.7490857923008122  0.6886438265100308  0.4574349940221646   T   T   T
  0.7499999404149307  0.1875000000030838  0.3605200052333331   F   F   F
  0.4166666269218169  0.9375000000154046  0.3605200052333331   F   F   F
  0.2505221765958003  0.0620578484766668  0.4542599088216613   T   T   T
  0.7347925167530406  0.1056709262932657  0.7666854156738295   T   T   T
  0.2499999999799343  0.8124999999834799  0.3605200052333331   F   F   F
  0.0833333358191695  0.1875000000030838  0.3605200052333331   F   F   F
  0.5833333134730552  0.8124999999834799  0.3605200052333331   F   F   F
  0.2499999999799343  0.3124999999901945  0.3605200052333331   F   F   F
  0.7499999404149307  0.5625000000092442  0.3605200052333331   F   F   F
  0.7499999404149307  0.3124999999901945  0.3605200052333331   F   F   F
  0.7499999404149307  0.0625000000159659  0.3605200052333331   F   F   F
  0.4166666269218169  0.8124999999834799  0.3605200052333331   F   F   F
  0.4166666269218169  0.3124999999901945  0.3605200052333331   F   F   F
  0.7499999404149307  0.8124999999834799  0.3605200052333331   F   F   F
  0.4166666269218169  0.0625000000159659  0.3605200052333331   F   F   F
  0.4167935386419253  0.0615627337210639  0.4553598826032643   T   T   T
  0.0834764033480487  0.8121805349684353  0.4541614079242925   T   T   T
  0.4166666269218169  0.5625000000092442  0.3605200052333331   F   F   F
  0.4140703967626373  0.8116251280394786  0.5476651465937569   T   T   T
  0.5833333134730552  0.3124999999901945  0.3605200052333331   F   F   F
  0.0834367061907525  0.3120174264550383  0.4539851567715353   T   T   T
  0.4155606953165705  0.3114175744809397  0.4573686762648004   T   T   T
  0.2511143468401262  0.0626077606876796  0.5472692419979212   T   T   T
  0.8333332538436267  0.4999999999932783  0.4070133268666680   F   F   F
  0.4166666269218169  0.1875000000030838  0.3605200052333331   F   F   F
  0.0833333358191695  0.9375000000154046  0.3605200052333331   F   F   F
  0.0833333358191695  0.8124999999834799  0.3605200052333331   F   F   F
  0.0833333358191695  0.4374999701794380  0.3605200052333331   F   F   F
  0.8333332538436267  0.7500000000123208  0.4070133268666680   F   F   F
  0.5833333134730552  0.5625000000092442  0.3605200052333331   F   F   F
  0.0837112920473957  0.0619074392129297  0.4542016260930601   T   T   T
  0.4159088781038054  0.5594758329131857  0.4578977798833879   T   T   T
  0.0833333358191695  0.6874999999963620  0.3605200052333331   F   F   F
  0.0839518217497278  0.5624965015433766  0.4539882141227916   T   T   T
  0.2522893209479926  0.3141193367268575  0.4541791553333598   T   T   T
  0.2499999999799343  0.0625000000159659  0.3605200052333331   F   F   F
  0.2499999999799343  0.5625000000092442  0.3605200052333331   F   F   F
  0.1666666716383389  0.4999999999932783  0.4070133268666680   F   F   F
  0.6666666865533486  0.7500000000123208  0.4070133268666680   F   F   F
  0.0000000000000000  0.0000000000000000  0.4070133268666680   F   F   F
  0.0000000000000000  0.2500000000190425  0.4070133268666680   F   F   F
  0.4166301091227622  0.0652242682801285  0.5473124087904998   T   T   T
  0.7481714941502092  0.5643831116144967  0.4537896079038944   T   T   T
  0.3333333432766779  0.0000000000000000  0.4070133268666680   F   F   F
  0.3333333432766779  0.4999999999932783  0.4070133268666680   F   F   F
  0.3333333432766779  0.7500000000123208  0.4070133268666680   F   F   F
  0.6666666865533486  0.0000000000000000  0.4070133268666680   F   F   F
  0.6666666865533486  0.2500000000190425  0.4070133268666680   F   F   F
  0.6666666865533486  0.4999999999932783  0.4070133268666680   F   F   F
  0.8333332538436267  0.2500000000190425  0.4070133268666680   F   F   F
  0.1666666716383389  0.0000000000000000  0.4070133268666680   F   F   F
  0.5843171100953387  0.3153051999734527  0.4539825826358996   T   T   T
  0.5000000000021103  0.4999999999932783  0.4070133268666680   F   F   F
  0.9166666865332829  0.4374999701794380  0.3605200052333331   F   F   F
  0.5000000000021103  0.0000000000000000  0.4070133268666680   F   F   F
  0.9166666865332829  0.3124999999901945  0.3605200052333331   F   F   F
  0.3333333432766779  0.2500000000190425  0.4070133268666680   F   F   F
  0.7477370965516570  0.3145283674768732  0.4538680748740332   T   T   T
  0.0000000000000000  0.7500000000123208  0.4070133268666680   F   F   F
  0.5844616825992230  0.5627503891770035  0.4548958715337441   T   T   T
  0.7493324824439499  0.0640036923205548  0.4533154435002767   T   T   T
  0.8333332538436267  0.0000000000000000  0.4070133268666680   F   F   F
  0.5827268189621786  0.6860922715477057  0.4546456502380046   T   T   T
  0.2517740273862689  0.5645468440387221  0.4538214233081699   T   T   T
  0.1666666716383389  0.2500000000190425  0.4070133268666680   F   F   F
  0.2504721788432133  0.8108327953805210  0.4552936255945937   T   T   T
  0.1666666716383389  0.7500000000123208  0.4070133268666680   F   F   F
  0.7477688960588323  0.8076364825548100  0.5454370432807192   T   T   T
  0.5000000000021103  0.2500000000190425  0.4070133268666680   F   F   F
  0.5000000000021103  0.7500000000123208  0.4070133268666680   F   F   F
  0.9166666865332829  0.6874999999963620  0.3605200052333331   F   F   F
  0.0000000000000000  0.4999999999932783  0.4070133268666680   F   F   F
  0.5004343678989708  0.7566130261118431  0.5925094777522492   T   T   T
  0.4993734014268635  0.1255517156608610  0.4989391511286183   T   T   T
  0.9995312179279683  0.4985708139896788  0.5941362423757146   T   T   T
  0.5785799082318701  0.1845923018021946  0.5505103994653729   T   T   T
  0.9996594812941231  0.7536462334011194  0.5928025581086045   T   T   T
  0.8102367084304081  0.2025650574544713  0.7666549160888587   T   T   T
  0.9998519560731581  0.9988176012478500  0.5930905673856033   T   T   T
  0.0002857791849691  0.2500213704335263  0.5920258012169275   T   T   T
  0.3332640253431581  0.4959848452610696  0.5911774830208463   T   T   T
  0.3352429887183936  0.7408419848018826  0.5903600696029571   T   T   T
  0.6643331390383919  0.2423493816506365  0.5907387317863553   T   T   T
  0.6661164620621740  0.0009257745713153  0.5919501942895711   T   T   T
  0.6654746656338614  0.7412454457568783  0.5908671098711138   T   T   T
  0.5825379823674469  0.9371534474126015  0.4544242967721986   T   T   T
  0.6666551085575911  0.4938934691334140  0.5913539621134144   T   T   T
  0.0835481503045692  0.1889936245427231  0.5455894847528758   T   T   T
  0.1683490063624348  0.2487697419575998  0.5932581138887969   T   T   T
  0.2483136592929757  0.4358902465309122  0.5491593628010458   T   T   T
  0.1654458544762099  0.5033125240490284  0.5872660851271897   T   T   T
  0.3347590688416476  0.2545715601640485  0.5926634600035174   T   T   T
  0.4997166959298653  0.0001737562542037  0.5911046263047550   T   T   T
  0.8326833115403444  0.8741586169991368  0.4986557480720416   T   T   T
  0.7483664321134164  0.9368905868327640  0.6400617010476263   T   T   T
  0.8323910111199677  0.0015107009151477  0.5920296731143508   T   T   T
  0.7500891671282246  0.1831040787664233  0.5506347211058749   T   T   T
  0.4228903434743446  0.6876266425692826  0.5468653710193783   T   T   T
  0.4233055784800066  0.4434381335302769  0.5460936255017760   T   T   T
  0.7529980921544964  0.4341639805288875  0.5497272337501594   T   T   T
  0.5845824023034264  0.3104345776444444  0.5457061206532869   T   T   T
  0.1674340986972643  0.9984399835701471  0.5923140313418850   T   T   T
  0.9141424475380845  0.5627290104754392  0.6409120615125730   T   T   T
  0.1708508998961540  0.7503415994184017  0.5950150014662495   T   T   T
  0.5907404178491795  0.8105146991273702  0.6460065812161263   T   T   T
  0.0829158793069963  0.4389470915106291  0.5448565712042942   T   T   T
  0.3340279510078134  0.9998762849666734  0.5919069354927020   T   T   T
  0.6653568630515178  0.6259915845791334  0.5029796064414405   T   T   T
  0.0863875366067236  0.3134417441484311  0.5468806780908571   T   T   T
  0.0850906843567801  0.8126173830669907  0.5473192077292021   T   T   T
  0.0823533510675750  0.0631981582249489  0.5475494183965340   T   T   T
  0.5764557873842890  0.4356187644181136  0.5522648921714350   T   T   T
  0.5859126474927329  0.8142105316278567  0.5504294668416789   T   T   T
  0.2526523053460648  0.5590866240072858  0.5439150795052792   T   T   T
  0.5812460930514067  0.5598779229363814  0.5489712010486066   T   T   T
  0.7460669980463094  0.3102230949103782  0.5459669586979740   T   T   T
  0.9143039418020374  0.6887706051185203  0.5456796510010823   T   T   T
  0.5824258334255479  0.0615148262705537  0.5453041630300516   T   T   T
  0.4159080394779570  0.3192179023005602  0.5526249256761668   T   T   T
  0.9163580120123670  0.1887883479343932  0.5453582490998282   T   T   T
  0.4176319719842556  0.0651639256350185  0.6400618803482384   T   T   T
  0.2532362318524966  0.8125726288400663  0.5505474816507212   T   T   T
  0.5792887065304847  0.6860091445258200  0.5475439004553434   T   T   T
  0.4974297329298893  0.5045880466344893  0.6090034685570427   T   T   T
  0.9179072616730604  0.5638168670749656  0.5471251800645569   T   T   T
  0.4198946980049726  0.5646809696909626  0.5553937042275410   T   T   T
  0.9154398106860039  0.8126489705260153  0.5468076015501644   T   T   T
  0.0840855271110994  0.9383965015814959  0.5461148358481341   T   T   T
  0.2488879118698591  0.6833418647942111  0.5517899327624338   T   T   T
  0.7493047794933736  0.9337455120715602  0.5476332515954321   T   T   T
  0.7516814213372767  0.6800924710321264  0.5533685534443701   T   T   T
  0.9156301156766440  0.9384317089948352  0.5463819900144428   T   T   T
  0.5838910905774244  0.9375895942659797  0.5461659861937956   T   T   T
  0.4122956172467956  0.8128586043329891  0.6393009053126386   T   T   T
  0.7501752189202694  0.1896897511973462  0.4556171767788749   T   T   T
  0.9152904454361723  0.4376506439348405  0.5456510526632856   T   T   T
  0.9157880853865789  0.1868933566772796  0.4532017318329971   T   T   T
  0.2514882350874146  0.9372787289524919  0.5452381742321531   T   T   T
  0.5828203523289782  0.0668347161354508  0.6388619107344043   T   T   T
  0.4173401284620579  0.4355327692811810  0.4542297655318837   T   T   T
  0.7441801569893498  0.3129022822190006  0.6385094273849915   T   T   T
  0.2475995659617637  0.5740425188278272  0.6287295812657890   T   T   T
  0.7537026494694750  0.6922113822678898  0.6575564589633403   T   T   T
  0.2625626922309890  0.8008612341035229  0.6459014240743474   T   T   T
  0.2509535584399210  0.0595239835008128  0.6422383637898269   T   T   T
  0.9166666865332829  0.5625000000092442  0.3605200052333331   F   F   F
  0.4998239017725460  0.3727043520304574  0.5008116164170709   T   T   T
  0.5002569338124094  0.6209205296159400  0.5001421045636806   T   T   T
  0.8323590424007300  0.6230607349944586  0.5001615670849862   T   T   T
  0.2519906641043372  0.1882960261925240  0.5472162435510081   T   T   T
  0.8325294239470842  0.3728717868178749  0.4996679584711225   T   T   T
  0.9137058291357908  0.3119945744745541  0.6397587067452097   T   T   T
  0.1667491225684040  0.3762388476126455  0.4977363794209222   T   T   T
  0.9132618429131137  0.8133968899885590  0.6419071824456092   T   T   T
  0.5805768425115658  0.4384731003836600  0.6461790720890355   T   T   T
  0.5906683114978699  0.5659534884302915  0.6386671554207017   T   T   T
  0.2492568126048071  0.3164483937342609  0.6413886351794221   T   T   T
  0.9159115117494888  0.4370088568861109  0.4535782996698718   T   T   T
  0.1670877501377923  0.1244850014199451  0.4994866591698632   T   T   T
  0.7483225643232665  0.0595097403212902  0.5446245190039892   T   T   T
  0.4255887265428451  0.3049178545782603  0.6569674702704524   T   T   T
  0.0855742365327045  0.6892941430332875  0.5454202807229839   T   T   T
  0.4203960888610759  0.6761701728812947  0.6338353187039840   T   T   T
  0.7554049724086765  0.4365399305704778  0.6395166542289852   T   T   T
  0.4986507340085218  0.2542873086804643  0.5918589639364989   T   T   T
  0.9157324426179706  0.0625116558590020  0.6412815393876831   T   T   T
  0.1675416111608155  0.6242775307789212  0.5002580576065706   T   T   T
  0.4999804711678980  0.8730387031525871  0.5009403914720983   T   T   T
  0.5769234321809579  0.6862350395987077  0.6396715545610796   T   T   T
  0.5884874954023305  0.3200433388009321  0.6338980451778302   T   T   T
  0.4174923005521283  0.9349425479919945  0.6397179309718413   T   T   T
  0.1677347126468619  0.8732708173089750  0.4998966071973630   T   T   T
  0.2493157817752968  0.3137398922428168  0.5459796495641067   T   T   T
  0.9154469050239105  0.1863704399977174  0.6393746553634125   T   T   T
  0.4167481926892003  0.1910466276543911  0.5470275133210677   T   T   T
  0.0836453778131091  0.3117558128097972  0.6404946117610388   T   T   T
  0.8328858928908341  0.1238212801584014  0.4997836979516410   T   T   T
  0.7489147026062797  0.0672367026979667  0.6394598096426460   T   T   T
  0.6664922095463751  0.8742948697463351  0.4987669090140462   T   T   T
  0.0864773060238401  0.5628303275587406  0.6399859699695187   T   T   T
  0.0871382419216252  0.4365188964638677  0.6397258826790831   T   T   T
  0.4171085547774150  0.1872337456210664  0.6398846327923086   T   T   T
  0.4158127690456363  0.4182454858574949  0.6300697096539659   T   T   T
  0.0844786474789429  0.9357137936190997  0.6409917604632978   T   T   T
  0.0839924855247029  0.0607536667058284  0.6420422215799937   T   T   T
  0.8331189955229522  0.5038809734582333  0.5893790815749406   T   T   T
  0.0834113129041109  0.1858767998936198  0.6409554529793928   T   T   T
  0.2400105141078745  0.4422022596909188  0.6416010404848602   T   T   T
  0.9119639033135212  0.4360949702532611  0.6399413507330395   T   T   T
  0.2520492542611364  0.9303551803137884  0.6373117416332009   T   T   T
  0.0833336077988415  0.6871088379710940  0.6388689259727711   T   T   T
  0.7526947101642335  0.1934236506588149  0.6459298745974719   T   T   T
  0.9143451732147523  0.9369885680886291  0.6413053323916033   T   T   T
  0.3977008195142591  0.5504052720425791  0.6522805360744707   T   T   T
  0.2542882435215724  0.6782827398758744  0.6627609854612092   T   T   T
  0.2535727948760019  0.1865340034815498  0.6411537822440592   T   T   T
  0.5777471802935092  0.1924780501923387  0.6459925821429613   T   T   T
  0.5820703915908501  0.9362024927279570  0.6391815533315569   T   T   T
  0.9166666865332829  0.8124999999834799  0.3605200052333331   F   F   F
  0.7411271995289224  0.8098955820633006  0.6398059933490436   T   T   T
  0.8315167432868300  0.2510027204720385  0.5899090439369473   T   T   T
  0.8303268907376399  0.7507438554734192  0.5927007529945489   T   T   T
  0.0845910370243041  0.8126190826101235  0.6424625816879004   T   T   T
  0.9163104713671313  0.6876505449120918  0.6390086134148254   T   T   T
  0.7518573467147471  0.5702148250793656  0.6351360227899594   T   T   T
  0.6674234240735989  0.2476104256074166  0.5026069162797506   T   T   T
  0.3261875832439649  0.3733275294330005  0.5927679055883948   T   T   T
  0.3311795963958781  0.4991297641093499  0.5010139708261729   T   T   T
  0.5008646359354879  0.8770898538574039  0.6093560712818120   T   T   T
  0.9998714293583287  0.7510716200934543  0.5067319182991092   T   T   T
  0.1666666716383389  0.3750000000061604  0.4070133268666680   F   F   F
  0.8350795443162551  0.2486507589141833  0.5029287337217954   T   T   T
  0.8333332538436267  0.6249999999803961  0.4070133268666680   F   F   F
  0.0002854399559600  0.1230406968137826  0.6198869393144013   T   T   T
  0.3302990907835830  0.2480426105284416  0.5029541623934511   T   T   T
  0.6660596001506056  0.0000694054538308  0.5056089531810658   T   T   T
  0.1643772215112247  0.7513786516750084  0.5034069129662739   T   T   T
  0.3338241508486716  0.7511080282610074  0.5014780608919186   T   T   T
  0.5010801267443011  0.7527677770721973  0.5038421976560282   T   T   T
  0.6666666865533486  0.3750000000061604  0.4070133268666680   F   F   F
  0.6653357239100524  0.7517527089199497  0.5021817695191577   T   T   T
  0.0001411761026430  0.9999071879723046  0.5067232636391737   T   T   T
  0.5011089524804514  0.4996967859297079  0.5003587210239182   T   T   T
  0.3333333432766779  0.3750000000061604  0.4070133268666680   F   F   F
  0.0000000000000000  0.8749999404036828  0.4070133268666680   F   F   F
  0.5013248903252787  0.2479426675726671  0.5023148856114872   T   T   T
  0.0007101552806087  0.2498897975104015  0.5059683017066365   T   T   T
  0.6666666865533486  0.6249999999803961  0.4070133268666680   F   F   F
  0.8333332538436267  0.8749999404036828  0.4070133268666680   F   F   F
  0.3333333432766779  0.6249999999803961  0.4070133268666680   F   F   F
  0.3333333432766779  0.8749999404036828  0.4070133268666680   F   F   F
  0.0000000000000000  0.6249999999803961  0.4070133268666680   F   F   F
  0.8342222880800765  0.0000905655265815  0.5062132594951873   T   T   T
  0.6666666865533486  0.1249999999871179  0.4070133268666680   F   F   F
  0.1663575259670494  0.2482368639703761  0.5062938219488370   T   T   T
  0.5002665290481477  0.9991576265977279  0.5054619724864946   T   T   T
  0.1659917057342027  0.0011809486575609  0.5065430413373064   T   T   T
  0.9994558397342331  0.4999895171506363  0.5067743828087010   T   T   T
  0.3333333432766779  0.1249999999871179  0.4070133268666680   F   F   F
  0.3331067795112229  0.0011056726184474  0.5057221292134242   T   T   T
  0.6685978861267329  0.4998844606567862  0.5005896029742901   T   T   T
  0.0000000000000000  0.1249999999871179  0.4070133268666680   F   F   F
  0.8361427934550921  0.3730699424237303  0.6038656530426313   T   T   T
  0.8333332538436267  0.3750000000061604  0.4070133268666680   F   F   F
  0.3314669094899952  0.1197975607628772  0.6124073489244968   T   T   T
  0.8394169630461247  0.6271156606135605  0.6042464890019010   T   T   T
  0.5000000000021103  0.8749999404036828  0.4070133268666680   F   F   F
  0.1634914937132578  0.4998739321513509  0.5019901052355398   T   T   T
  0.8319107060727476  0.8765579253145152  0.6175690797811573   T   T   T
  0.5000000000021103  0.6249999999803961  0.4070133268666680   F   F   F
  0.8357946117621838  0.4999099092322239  0.5030786411797550   T   T   T
  0.1666666716383389  0.6249999999803961  0.4070133268666680   F   F   F
  0.9997947469522813  0.6235687247246432  0.6242078237556363   T   T   T
  0.8333332538436267  0.1249999999871179  0.4070133268666680   F   F   F
  0.1666666716383389  0.8749999404036828  0.4070133268666680   F   F   F
  0.5000000000021103  0.1249999999871179  0.4070133268666680   F   F   F
  0.6664796371840191  0.1250312955136454  0.6128606138127372   T   T   T
  0.5003049902308331  0.1223939385151762  0.6067617503598145   T   T   T
  0.6662343303502408  0.6261146984801037  0.5931634294122198   T   T   T
  0.8360342329488527  0.7515528090009231  0.5025886598315460   T   T   T
  0.5029177015621047  0.3707240396138182  0.5956094788497340   T   T   T
  0.0000000000000000  0.3750000000061604  0.4070133268666680   F   F   F
  0.1666666716383389  0.1249999999871179  0.4070133268666680   F   F   F
  0.5035074011136043  0.6248769931604209  0.5941624856122922   T   T   T
  0.5000000000021103  0.3750000000061604  0.4070133268666680   F   F   F
  0.6666666865533486  0.8749999404036828  0.4070133268666680   F   F   F
  0.3345643074089121  0.8789004153788864  0.6025792886138001   T   T   T
  0.1662979326455487  0.8737852510381631  0.6175860070177547   T   T   T
  0.3341083436545931  0.6245281969820574  0.5950450981503493   T   T   T
  0.1595570550041641  0.6274152899965074  0.6013152405487093   T   T   T
  0.1675814840057939  0.1230533020572456  0.6219110381828058   T   T   T
  0.1632178525087830  0.3712049410074423  0.6075463225481499   T   T   T
  0.6652400798390932  0.8812751425021931  0.6071995352049950   T   T   T
  0.9995485439798213  0.3750827343197937  0.6250037711399014   T   T   T
  0.8343965249784498  0.1240243294037282  0.6126624636673301   T   T   T
  0.9991313828128997  0.8748614104262985  0.6236926613780650   T   T   T
  0.6716097883823263  0.3735118087331023  0.5930243613834254   T   T   T
  0.5847076758471503  0.7499096884217268  0.5997253293179243   T   T   T
  0.5829944788300969  0.0015562054134566  0.6041044202882191   T   T   T
  0.9166666865332829  0.2500000000190425  0.4070133268666680   F   F   F
  0.0830888081819854  0.1248364944238303  0.5068030987909709   T   T   T
  0.0809390134787201  0.6258279099709830  0.5054296228442202   T   T   T
  0.0832009360053894  0.2482418215201215  0.6035509010328999   T   T   T
  0.2496165620137910  0.9978193072753734  0.6041781837615399   T   T   T
  0.2492830463825454  0.2459801151856333  0.6037661085300068   T   T   T
  0.9165519337273029  0.9997383781567073  0.6038284252321277   T   T   T
  0.5902763035108899  0.5012426710146506  0.5935442305177467   T   T   T
  0.4152241790406675  0.2483149844554209  0.5913476786568683   T   T   T
  0.2497790154730186  0.7530311082531431  0.5919228230002922   T   T   T
  0.5853567246918432  0.2478682269367168  0.5964812618621091   T   T   T
  0.7498167454830400  0.0018728966574565  0.6044167489549762   T   T   T