C  H                                    
   1.00000000000000     
    23.6707801818999997    0.0000000000000000    0.0000000000000000
     0.0000000000000000   27.8962826732999716    0.0000000000000000
     0.0000000000000000    0.0000000000000000   30.0000000000000000
   C    H 
     4    10
Direct
  0.4999930695875392  0.4845226843776942  0.4787443960283966
  0.5000252560355065  0.4857111284688926  0.5640873269011095
  0.5000036803477883  0.5152128806922107  0.5210781160995452
  0.4999778445811245  0.5144835633417060  0.4360608401762391
  0.4999747673596602  0.4919658928831723  0.4062670269168009
  0.4999633274090911  0.5087687968203412  0.5935404871598777
  0.5374180047791270  0.4627273237272291  0.5659430532138003
  0.4627063112967491  0.4626362064946434  0.5658952055977977
  0.4629501500839339  0.4609305192909829  0.4791229072831058
  0.5372282749118966  0.5375921502191687  0.4345946535396763
  0.4627252440944716  0.5375905679784552  0.4346079059978933
  0.4629471690110449  0.5388371078218910  0.5206411042583028
  0.5370482003370540  0.5388503637738040  0.5206288917260622
  0.5370403314911911  0.4609321073080608  0.4791081413556100
 
  0.00000000E+00  0.00000000E+00  0.00000000E+00
  0.00000000E+00  0.00000000E+00  0.00000000E+00
  0.00000000E+00  0.00000000E+00  0.00000000E+00
  0.00000000E+00  0.00000000E+00  0.00000000E+00
  0.00000000E+00  0.00000000E+00  0.00000000E+00
  0.00000000E+00  0.00000000E+00  0.00000000E+00
  0.00000000E+00  0.00000000E+00  0.00000000E+00
  0.00000000E+00  0.00000000E+00  0.00000000E+00
  0.00000000E+00  0.00000000E+00  0.00000000E+00
  0.00000000E+00  0.00000000E+00  0.00000000E+00
  0.00000000E+00  0.00000000E+00  0.00000000E+00
  0.00000000E+00  0.00000000E+00  0.00000000E+00
  0.00000000E+00  0.00000000E+00  0.00000000E+00
  0.00000000E+00  0.00000000E+00  0.00000000E+00
