Au O  Sr Ti H                           
   1.00000000000000     
    23.6707801818999997    0.0000000000000000    0.0000000000000000
     0.0000000000000000   22.3170261383000010    0.0000000000000000
     0.0000000000000000    0.0000000000000000   30.0000000000000000
   Au   O    Sr   Ti   H 
    50   264    72    72     1
Selective dynamics
Direct
  0.7183932617275843  0.5262435525373874  0.7538539991548276   F   F   F
  0.6244965862842378  0.5676565396635951  0.7039046857430051   F   F   F
  0.7182476427992128  0.2590853511392197  0.6915534208316529   F   F   F
  0.2939120050933539  0.7457421372338260  0.6976888773539187   F   F   F
  0.5154040624688889  0.6032075870044977  0.7765047322613654   F   F   F
  0.5772792413491104  0.7266468114665727  0.7926628110639058   F   F   F
  0.5506496519495485  0.3830592571046125  0.8285466059373334   F   F   F
  0.2419861398879775  0.4653219647864191  0.7093401950064333   F   F   F
  0.2841361583596083  0.6593831477749532  0.7652365629544349   F   F   F
  0.6028008109819325  0.2863849560447846  0.7865042661998203   F   F   F
  0.5143330220370643  0.4835374890256645  0.6778977407807432   F   F   F
  0.5622443950552523  0.4845296291392103  0.7621297244631293   F   F   F
  0.4642022365554723  0.6988275354693201  0.8279859987501013   F   F   F
  0.7645715947640781  0.4319420637290463  0.7058455151418812   F   F   F
  0.7335772273899153  0.6159450816586443  0.6938624450184747   F   F   F
  0.6358721483290708  0.5830921236847502  0.8002434475133100   F   F   F
  0.5948744537095649  0.7853371199839003  0.7125054801561035   F   F   F
  0.4833609341734899  0.7798411424890332  0.7573522332657490   F   F   F
  0.3493124274842074  0.5006307708423279  0.6976435969951424   F   F   F
  0.4305095148826936  0.3712946879347214  0.8147398189643127   F   F   F
  0.3722573350699250  0.2980868418752038  0.7550320763481153   F   F   F
  0.4418156055238995  0.2282284050598022  0.6968436879270570   F   F   F
  0.3912886579743358  0.8178381662173067  0.7061009238184255   F   F   F
  0.2893729921367125  0.5357371008814198  0.7785183271249778   F   F   F
  0.5569026335920668  0.2090432143254475  0.7115162857040360   F   F   F
  0.4535061640838549  0.5801706479946418  0.7032752299693783   F   F   F
  0.6136476383947880  0.3200696795410920  0.6972893860955338   F   F   F
  0.7054106466067012  0.7577641412227223  0.6885395019070586   F   F   F
  0.6560234769424511  0.4437026178428027  0.8127414277985139   F   F   F
  0.3638027821831500  0.6183899524672611  0.8240736510386313   F   F   F
  0.5694001529217729  0.5098106362543433  0.8565492468781315   F   F   F
  0.6660509666892622  0.1914518091585720  0.7513487670238632   F   F   F
  0.4720369604915717  0.4486168713894116  0.8788808271813480   F   F   F
  0.5153509939274201  0.3766063560910879  0.7335511215585342   F   F   F
  0.2833728093159493  0.3381094833662743  0.7026683927724093   F   F   F
  0.6689229480880243  0.6812532851334794  0.7489381951038112   F   F   F
  0.3980154378428722  0.3821377325285837  0.6901357868203419   F   F   F
  0.3756363069607502  0.4916376553708304  0.8343166794333712   F   F   F
  0.4635703163319178  0.5714440042244817  0.8670366140451407   F   F   F
  0.3266003765602719  0.4138906521126344  0.7698605278382757   F   F   F
  0.4872329830274964  0.2682999515255347  0.7753478027096818   F   F   F
  0.4221264465733086  0.6978661085026232  0.6999447080250363   F   F   F
  0.6990110626444661  0.3471073218135743  0.7567283626009669   F   F   F
  0.7738500523968455  0.4294578646556531  0.7962847874233958   F   F   F
  0.2558852954250739  0.5897007416089082  0.6952796583339875   F   F   F
  0.6478505702672095  0.4417548976653336  0.6965182636922833   F   F   F
  0.5650358941465612  0.6399973847835270  0.8604400563354631   F   F   F
  0.5437907501037600  0.6659063024846006  0.7009994097310894   F   F   F
  0.4426111699623192  0.4748398868947419  0.7564120345925218   F   F   F
  0.3705894097035554  0.7401005482325971  0.7779504246268232   F   F   F
  0.2499623736543128  0.1886686422337931  0.4542836484354424   F   F   F
  0.7494901198315560  0.9384227485743182  0.4553323735406352   F   F   F
  0.7490133499347493  0.6886310071436554  0.4573022917100005   F   F   F
  0.7494459772189259  0.4383740164312186  0.4558459021332411   F   F   F
  0.7501934604916087  0.1896785374138830  0.4556434500144277   F   F   F
  0.4174780699117662  0.9357155566905604  0.4539753557585868   F   F   F
  0.4168965977872929  0.6845975245617240  0.4548193412669761   F   F   F
  0.4166968583047890  0.4353905275194805  0.4538301940109335   F   F   F
  0.0843793445079157  0.6869475348196517  0.4530824392900357   F   F   F
  0.0838795077482217  0.9367029584195024  0.4534704825506424   F   F   F
  0.0828476980222916  0.4368607253471311  0.4529463790885231   F   F   F
  0.0839021951951935  0.1866709560937991  0.4530027889027366   F   F   F
  0.9165799888016295  0.8120161356628870  0.4540934752585954   F   F   F
  0.9161190304340181  0.5624107915228507  0.4538322971916458   F   F   F
  0.2511456953274305  0.4392409870511287  0.4549062706454450   F   F   F
  0.9161386607163919  0.0621180639343919  0.4541064307191220   F   F   F
  0.9162785715092241  0.3122097147015879  0.4538426752711544   F   F   F
  0.4171806333583703  0.1870785833154471  0.4535884610372705   F   F   F
  0.2524227227407252  0.6873238825170418  0.4560941892921662   F   F   F
  0.9167011296888816  0.9367613336186906  0.4532998969029336   F   F   F
  0.5825335041845037  0.1890121321225919  0.4550595264690145   F   F   F
  0.0000603175758300  0.1251261305248050  0.4984041106655681   F   F   F
  0.5835922512792635  0.8099517053741039  0.4554458764054985   F   F   F
  0.9999574061268817  0.3733976242192938  0.4984487718199873   F   F   F
  0.9997212868084446  0.6270865854579455  0.4976731538095649   F   F   F
  0.3335305433012437  0.1253450120945487  0.4984142422153539   F   F   F
  0.0000356683885343  0.8751027189736291  0.4995519521759704   F   F   F
  0.3334745380727924  0.8738417382948569  0.4988299260395124   F   F   F
  0.6659301999359784  0.1259191056924749  0.4991505841145454   F   F   F
  0.3358011293947243  0.6252023029254943  0.5043729169227262   F   F   F
  0.3343541545122832  0.3784588365903616  0.5029937041957950   F   F   F
  0.6655201045586665  0.3785885081645262  0.5033206026661645   F   F   F
  0.9153223154237580  0.6866875252183391  0.4529943713506057   F   F   F
  0.9160808746286762  0.4370737140556784  0.4537012054644833   F   F   F
  0.9158484570808909  0.1868927100954139  0.4531850075529036   F   F   F
  0.5826078814068012  0.9361148611469545  0.4538228701839273   F   F   F
  0.5827739324729748  0.6859743833705636  0.4545942345124558   F   F   F
  0.5826672314735148  0.4386546589625411  0.4559431274208379   F   F   F
  0.2499897231088539  0.9360300419530390  0.4540196849562648   F   F   F
  0.6654040819302551  0.6258255327149911  0.5029402370157712   F   F   F
  0.5846355901060747  0.5623788561267276  0.4550902524537221   F   F   F
  0.5828765905113116  0.0623807136600902  0.4547642081475303   F   F   F
  0.9166666865332829  0.6874999999963620  0.3605200052333331   F   F   F
  0.9166666865332829  0.4374999701794380  0.3605200052333331   F   F   F
  0.9166666865332829  0.1875000000030838  0.3605200052333331   F   F   F
  0.5833333134730552  0.9375000000154046  0.3605200052333331   F   F   F
  0.5833333134730552  0.6874999999963620  0.3605200052333331   F   F   F
  0.5833333134730552  0.4374999701794380  0.3605200052333331   F   F   F
  0.5833333134730552  0.1875000000030838  0.3605200052333331   F   F   F
  0.2499999999799343  0.9375000000154046  0.3605200052333331   F   F   F
  0.9166666865332829  0.9375000000154046  0.3605200052333331   F   F   F
  0.2499999999799343  0.6874999999963620  0.3605200052333331   F   F   F
  0.2499999999799343  0.1875000000030838  0.3605200052333331   F   F   F
  0.7499999404149307  0.9375000000154046  0.3605200052333331   F   F   F
  0.7499999404149307  0.6874999999963620  0.3605200052333331   F   F   F
  0.7499999404149307  0.4374999701794380  0.3605200052333331   F   F   F
  0.7499999404149307  0.1875000000030838  0.3605200052333331   F   F   F
  0.4166666269218169  0.9375000000154046  0.3605200052333331   F   F   F
  0.4166666269218169  0.6874999999963620  0.3605200052333331   F   F   F
  0.4166666269218169  0.4374999701794380  0.3605200052333331   F   F   F
  0.2499999999799343  0.4374999701794380  0.3605200052333331   F   F   F
  0.0833333358191695  0.0625000000159659  0.3605200052333331   F   F   F
  0.0833333358191695  0.3124999999901945  0.3605200052333331   F   F   F
  0.0833333358191695  0.5625000000092442  0.3605200052333331   F   F   F
  0.9166666865332829  0.3124999999901945  0.3605200052333331   F   F   F
  0.9166666865332829  0.0625000000159659  0.3605200052333331   F   F   F
  0.5833333134730552  0.8124999999834799  0.3605200052333331   F   F   F
  0.5833333134730552  0.5625000000092442  0.3605200052333331   F   F   F
  0.5833333134730552  0.3124999999901945  0.3605200052333331   F   F   F
  0.5833333134730552  0.0625000000159659  0.3605200052333331   F   F   F
  0.2499999999799343  0.8124999999834799  0.3605200052333331   F   F   F
  0.2499999999799343  0.5625000000092442  0.3605200052333331   F   F   F
  0.2499999999799343  0.3124999999901945  0.3605200052333331   F   F   F
  0.2499999999799343  0.0625000000159659  0.3605200052333331   F   F   F
  0.7499999404149307  0.8124999999834799  0.3605200052333331   F   F   F
  0.7499999404149307  0.5625000000092442  0.3605200052333331   F   F   F
  0.7499999404149307  0.3124999999901945  0.3605200052333331   F   F   F
  0.7499999404149307  0.0625000000159659  0.3605200052333331   F   F   F
  0.4166666269218169  0.8124999999834799  0.3605200052333331   F   F   F
  0.4166666269218169  0.5625000000092442  0.3605200052333331   F   F   F
  0.4166666269218169  0.3124999999901945  0.3605200052333331   F   F   F
  0.4166666269218169  0.0625000000159659  0.3605200052333331   F   F   F
  0.0833333358191695  0.8124999999834799  0.3605200052333331   F   F   F
  0.4166666269218169  0.1875000000030838  0.3605200052333331   F   F   F
  0.0833333358191695  0.9375000000154046  0.3605200052333331   F   F   F
  0.0833333358191695  0.6874999999963620  0.3605200052333331   F   F   F
  0.0833333358191695  0.4374999701794380  0.3605200052333331   F   F   F
  0.8333332538436267  0.4999999999932783  0.4070133268666680   F   F   F
  0.8333332538436267  0.7500000000123208  0.4070133268666680   F   F   F
  0.0837307615594085  0.0618599222954330  0.4542121322024855   F   F   F
  0.0835543386135598  0.3121560156257743  0.4538447621388215   F   F   F
  0.0839271501584093  0.5624999887932418  0.4538633949661062   F   F   F
  0.0834308611046097  0.8121456412547161  0.4541830809759659   F   F   F
  0.4168465342711229  0.0615241423220141  0.4553148763491635   F   F   F
  0.4154528336805114  0.3112816567709586  0.4573971654207298   F   F   F
  0.4160476546873255  0.5594612397517906  0.4578909015788355   F   F   F
  0.4166244473906531  0.8097398157840630  0.4551843443342563   F   F   F
  0.7496034463291537  0.0640591674969357  0.4533676997160114   F   F   F
  0.7473550915349136  0.3141065979088680  0.4546515848558172   F   F   F
  0.7481323938555917  0.5642455372420372  0.4537337391658269   F   F   F
  0.7494369162638819  0.8131591468305359  0.4530889689972355   F   F   F
  0.2502585783097544  0.0619760052638156  0.4541877644329233   F   F   F
  0.9153474028975381  0.3125336733726556  0.5467358699659073   F   F   F
  0.2522431595529397  0.3141716443515890  0.4541784267892268   F   F   F
  0.2519613704909602  0.5645429717489208  0.4537748327056761   F   F   F
  0.2502501952100502  0.8106676157530472  0.4553598085848236   F   F   F
  0.8333332538436267  0.2500000000190425  0.4070133268666680   F   F   F
  0.5844702708911100  0.3143651404363581  0.4542652589483751   F   F   F
  0.8333332538436267  0.0000000000000000  0.4070133268666680   F   F   F
  0.5000000000021103  0.4999999999932783  0.4070133268666680   F   F   F
  0.0833333358191695  0.1875000000030838  0.3605200052333331   F   F   F
  0.0000000000000000  0.0000000000000000  0.4070133268666680   F   F   F
  0.0000000000000000  0.2500000000190425  0.4070133268666680   F   F   F
  0.0000000000000000  0.4999999999932783  0.4070133268666680   F   F   F
  0.0000000000000000  0.7500000000123208  0.4070133268666680   F   F   F
  0.3333333432766779  0.0000000000000000  0.4070133268666680   F   F   F
  0.3333333432766779  0.2500000000190425  0.4070133268666680   F   F   F
  0.3333333432766779  0.4999999999932783  0.4070133268666680   F   F   F
  0.3333333432766779  0.7500000000123208  0.4070133268666680   F   F   F
  0.6666666865533486  0.0000000000000000  0.4070133268666680   F   F   F
  0.6666666865533486  0.2500000000190425  0.4070133268666680   F   F   F
  0.6666666865533486  0.4999999999932783  0.4070133268666680   F   F   F
  0.6666666865533486  0.7500000000123208  0.4070133268666680   F   F   F
  0.1666666716383389  0.0000000000000000  0.4070133268666680   F   F   F
  0.1666666716383389  0.2500000000190425  0.4070133268666680   F   F   F
  0.1666666716383389  0.4999999999932783  0.4070133268666680   F   F   F
  0.1666666716383389  0.7500000000123208  0.4070133268666680   F   F   F
  0.5000000000021103  0.0000000000000000  0.4070133268666680   F   F   F
  0.5000000000021103  0.2500000000190425  0.4070133268666680   F   F   F
  0.5000000000021103  0.7500000000123208  0.4070133268666680   F   F   F
  0.1670451328257982  0.1243506792656817  0.4993725527837469   F   F   F
  0.9177063226554765  0.0632889299818729  0.5474606809712199   F   F   F
  0.1677721202611195  0.8732688860513420  0.4998966591732810   F   F   F
  0.2519495126003051  0.1881365241544941  0.5473229037549672   F   F   F
  0.7492906012988385  0.9340156974828915  0.5476166572671062   F   F   F
  0.7517186938573559  0.6803652830790341  0.5530776723266158   F   F   F
  0.7528539150469982  0.4345500182306452  0.5496397088070850   F   F   F
  0.4231459790169083  0.4439987629466771  0.5455567900352349   F   F   F
  0.4231462370887229  0.6879231827145347  0.5467972846768205   F   F   F
  0.7484467563194883  0.1836143051697761  0.5508278896726893   F   F   F
  0.4159090644947554  0.9368159833859195  0.5460296238490088   F   F   F
  0.0836230077960423  0.9389670329486393  0.5457219731255947   F   F   F
  0.4156023667175504  0.1912994512771462  0.5464567760716577   F   F   F
  0.0866063683753708  0.6897193436646702  0.5451069149813179   F   F   F
  0.0825518666763827  0.4384985305904721  0.5451837111695710   F   F   F
  0.0837431049249417  0.1888296884301468  0.5456820229785961   F   F   F
  0.4993481983030534  0.1253830796752808  0.4997130522602191   F   F   F
  0.9996343393926352  0.4991921863474857  0.5944826992385757   F   F   F
  0.9994703681291739  0.7537632735682749  0.5921778305072323   F   F   F
  0.3347097303854554  0.2543452195657281  0.5926569656232772   F   F   F
  0.3339978316750702  0.9998218195427526  0.5920381498665606   F   F   F
  0.9996375535737840  0.9984648536046876  0.5928241520633577   F   F   F
  0.0009090382161219  0.2499000102849607  0.5917485718712783   F   F   F
  0.3333932537791213  0.4966852970159081  0.5910299783526654   F   F   F
  0.3353370347871660  0.7397186151450938  0.5910719522613874   F   F   F
  0.6634511123343998  0.2471692585852239  0.5907409860024018   F   F   F
  0.6658251226497498  0.0004326712716320  0.5918807992078001   F   F   F
  0.6657788150209285  0.7419758145899849  0.5901570202261652   F   F   F
  0.6669329814987464  0.4935637818137124  0.5914020805482778   F   F   F
  0.1673500544693951  0.9983300147031002  0.5923089080618453   F   F   F
  0.1685116645638445  0.2493365714252889  0.5932454260694726   F   F   F
  0.1706098447848703  0.7498414265563440  0.5949150133091550   F   F   F
  0.2484022531364971  0.4360234418340667  0.5490299981020286   F   F   F
  0.1653953622192077  0.5031838032570093  0.5875796795895880   F   F   F
  0.2490383269907070  0.6830942752013129  0.5520356701263722   F   F   F
  0.5806991009379843  0.1859806427038322  0.5491692227450784   F   F   F
  0.9153799567988656  0.8130918001689480  0.5469508328671253   F   F   F
  0.9168079836859846  0.5634862120095008  0.5465767895290625   F   F   F
  0.5813694147016619  0.5602175009885002  0.5495029788553296   F   F   F
  0.5862096578161697  0.8146562935663084  0.5504148530851438   F   F   F
  0.5831106025300343  0.3117013987368296  0.5456712266400388   F   F   F
  0.5826585237995729  0.0632426604174583  0.5468973538458144   F   F   F
  0.2535571154689009  0.8125507998969894  0.5508740083925829   F   F   F
  0.2523143354168411  0.5589361393672192  0.5438660145503604   F   F   F
  0.2494287883908726  0.3137713229734729  0.5460391236875424   F   F   F
  0.2510716052739994  0.0624659115459210  0.5472459164024315   F   F   F
  0.7483750913529192  0.8082608660523505  0.5457678384487039   F   F   F
  0.7464512224403421  0.5576316910211432  0.5445962277031953   F   F   F
  0.4134884709845963  0.8115111320558483  0.5482034073328563   F   F   F
  0.7482859099112389  0.0596349958221865  0.5445311438489924   F   F   F
  0.7479790165501115  0.3112324847117520  0.5479625048589369   F   F   F
  0.4159157657825858  0.3197029100200197  0.5525873371587906   F   F   F
  0.4204484077503921  0.5650569427530314  0.5555807142434830   F   F   F
  0.4165038513913473  0.0652094263393010  0.5473101225163646   F   F   F
  0.0848362623755108  0.8129646935886754  0.5473173471452029   F   F   F
  0.0824598815141044  0.5641155567738352  0.5463018598061637   F   F   F
  0.0863737983494275  0.3134152089742841  0.5468681564585722   F   F   F
  0.0823030266595666  0.0632435199648924  0.5475120432954910   F   F   F
  0.9156554794165785  0.9387345552655901  0.5460755034564571   F   F   F
  0.9132245125793759  0.6894935000231754  0.5449796614432643   F   F   F
  0.5835416802268725  0.9381307213550869  0.5456383949060282   F   F   F
  0.9169379516259255  0.1888832480742835  0.5454705184667006   F   F   F
  0.9156339680606465  0.4374307691512271  0.5458659497143543   F   F   F
  0.5764820825179271  0.4361974153761636  0.5516297010414988   F   F   F
  0.5795546370527092  0.6864595281283599  0.5471268412737658   F   F   F
  0.2515557746916102  0.9372750063519319  0.5452027797412171   F   F   F
  0.4976367849741195  0.5045016375493176  0.6090943030903517   F   F   F
  0.4985112821887512  0.2528818654468381  0.5902791313886695   F   F   F
  0.4995704276664696  0.9999903107740380  0.5910227320517123   F   F   F
  0.7537694520866438  0.6935843774349237  0.6575452864876326   F   F   F
  0.7485536052511321  0.9366301299575355  0.6398218679370657   F   F   F
  0.2532952655219916  0.1864020211304549  0.6411630443476071   F   F   F
  0.7454988850500044  0.1946765320866106  0.6469384617470340   F   F   F
  0.7560373485644476  0.4363122069479530  0.6393879033932137   F   F   F
  0.4173434375210761  0.9349989577101425  0.6398083997847905   F   F   F
  0.4215193168338374  0.6761025920333950  0.6340575030614701   F   F   F
  0.5898494821558202  0.8107510643692066  0.6456864682081260   F   F   F
  0.9161973820420002  0.0624231478119626  0.6414676236331474   F   F   F
  0.9131248747217882  0.5615613748210322  0.6426959939526498   F   F   F
  0.9152401181684127  0.3120231128342610  0.6395382101738392   F   F   F
  0.9139279884468792  0.8126829107605147  0.6415610062224388   F   F   F
  0.5821487370142862  0.0654993284987953  0.6398164236524622   F   F   F
  0.5831648480469056  0.3195874998176294  0.6340020663109840   F   F   F
  0.5915281074980712  0.5643613479980729  0.6398304884007260   F   F   F
  0.2473562522094142  0.5736578183367556  0.6288826245557644   F   F   F
  0.2614433362480924  0.7980786485672908  0.6467073526673417   F   F   F
  0.2498814750538543  0.3162810163757257  0.6415336916349617   F   F   F
  0.2508224895587574  0.0594398644272403  0.6421042262530676   F   F   F
  0.9166666865332829  0.5625000000092442  0.3605200052333331   F   F   F
  0.4995167519540047  0.3738670043732313  0.4998474384605700   F   F   F
  0.4999119099227585  0.8725630924166197  0.5009656783881411   F   F   F
  0.5004271864681868  0.6209838474162055  0.5001085566548298   F   F   F
  0.8322569166477862  0.6230878710507639  0.4999790782618305   F   F   F
  0.8327687284782073  0.8744980811500014  0.4985470581606677   F   F   F
  0.8326106363179093  0.3731636015290576  0.4994690306835139   F   F   F
  0.8328822329606140  0.1245095464279302  0.4997702805037179   F   F   F
  0.1667299774583739  0.3762416249245746  0.4978498881714586   F   F   F
  0.1677533108029863  0.6243027879645027  0.4999519098722232   F   F   F
  0.5811938874259042  0.4382303005983559  0.6458228150715186   F   F   F
  0.5801500414086576  0.6852751435942182  0.6387796889569444   F   F   F
  0.9171235628694774  0.1867407719664484  0.6406104526123571   F   F   F
  0.5819061314870311  0.9354106512005913  0.6391549358763911   F   F   F
  0.8304529918310379  0.7506084551541505  0.5927962964440283   F   F   F
  0.8316051330088499  0.2479661081987317  0.5915548811480633   F   F   F
  0.8333506826672235  0.5038303930022181  0.5893967409647942   F   F   F
  0.8321890380628503  0.0020100107435042  0.5922715579082549   F   F   F
  0.5009353020278198  0.7562932191634317  0.5927447258635752   F   F   F
  0.4176641002187580  0.0651736431746741  0.6400688345596350   F   F   F
  0.4274341122215901  0.3052919468871949  0.6548911948475578   F   F   F
  0.4121887307454699  0.8128206619865352  0.6394393132536820   F   F   F
  0.3978313357476395  0.5509848227587284  0.6525559394050546   F   F   F
  0.7520434249880807  0.5711565485467958  0.6342835154997886   F   F   F
  0.7410463598922163  0.8099256546921580  0.6400060288332696   F   F   F
  0.7464701667294733  0.3126861938080054  0.6402643571615627   F   F   F
  0.7476164127455647  0.0669691885376409  0.6391543043513508   F   F   F
  0.0836090155411000  0.3120211142861464  0.6404426293934691   F   F   F
  0.6666008428512811  0.8744749270657550  0.4988955536168547   F   F   F
  0.0870309245095271  0.5618390104646522  0.6419090836770849   F   F   F
  0.0835219011738531  0.0605279070681419  0.6414714553520326   F   F   F
  0.0870259860518630  0.4366822048663010  0.6394734326926752   F   F   F
  0.0835038366889691  0.1857569743644021  0.6409722363168271   F   F   F
  0.4184487017264189  0.1878084412997154  0.6398059402485288   F   F   F
  0.4150622811726876  0.4192046141087573  0.6297949415093598   F   F   F
  0.0841228099431177  0.9353023873430359  0.6408085154327381   F   F   F
  0.0829092876550632  0.6872017305358042  0.6398627253633720   F   F   F
  0.9125388958874936  0.4361793597516410  0.6397416690430120   F   F   F
  0.9165805619010712  0.6875029822669276  0.6397534288626048   F   F   F
  0.9141703801478371  0.9366945491403129  0.6408911012224934   F   F   F
  0.2406808833056147  0.4419774134311893  0.6412786498363729   F   F   F
  0.2544322523420490  0.6753876197824127  0.6657270432743871   F   F   F
  0.5785139875547003  0.1906104304044618  0.6441442063556266   F   F   F
  0.2519047538403285  0.9300908569930399  0.6374097471521409   F   F   F
  0.0839863981584372  0.8118584910418392  0.6418585734277187   F   F   F
  0.9166666865332829  0.8124999999834799  0.3605200052333331   F   F   F
  0.0005637505579870  0.1228449777609484  0.6189640674638639   F   F   F
  0.8333332538436267  0.6249999999803961  0.4070133268666680   F   F   F
  0.9994738076510572  0.5005994712655664  0.5072038284485458   F   F   F
  0.3311263315323956  0.4992491806196426  0.5009489339859030   F   F   F
  0.3300585087276815  0.2480662651261483  0.5027924842481539   F   F   F
  0.3330916680602058  0.0010027490248348  0.5057634802158404   F   F   F
  0.3337410118170610  0.7508713778968996  0.5015889116705807   F   F   F
  0.6658984037708819  0.0001010952907308  0.5055776366920384   F   F   F
  0.6686214461017599  0.4996811190884642  0.5007174809235266   F   F   F
  0.6670827832204864  0.2477312584040945  0.5029102008259656   F   F   F
  0.6655333317814467  0.7518576626846993  0.5021893747278483   F   F   F
  0.1659702965442378  0.0011178904565767  0.5065075084749822   F   F   F
  0.1663384931150773  0.2482241568237313  0.5062522873793185   F   F   F
  0.1633096493671999  0.4999124193206441  0.5020549132529908   F   F   F
  0.5001385269866461  0.9992794462573400  0.5054783491213968   F   F   F
  0.1642677358222713  0.7514677347616043  0.5033354350168082   F   F   F
  0.5009954075859397  0.7526329060529875  0.5038926316342582   F   F   F
  0.8341680659552608  0.0003984918931224  0.5064774217294001   F   F   F
  0.5014093630235905  0.4997776684125199  0.5002553905164717   F   F   F
  0.5010606588976145  0.2478101658348990  0.5019067082744826   F   F   F
  0.8354284714557139  0.2483956857280845  0.5032395670507910   F   F   F
  0.9997152366707311  0.7507375194721675  0.5065662040138363   F   F   F
  0.0008027958682462  0.2497837824646041  0.5058696606169235   F   F   F
  0.9999734766628023  0.9999944666255658  0.5064586035012439   F   F   F
  0.8333332538436267  0.8749999404036828  0.4070133268666680   F   F   F
  0.0000000000000000  0.6249999999803961  0.4070133268666680   F   F   F
  0.0000000000000000  0.8749999404036828  0.4070133268666680   F   F   F
  0.3333333432766779  0.1249999999871179  0.4070133268666680   F   F   F
  0.3333333432766779  0.3750000000061604  0.4070133268666680   F   F   F
  0.3333333432766779  0.6249999999803961  0.4070133268666680   F   F   F
  0.3333333432766779  0.8749999404036828  0.4070133268666680   F   F   F
  0.6666666865533486  0.1249999999871179  0.4070133268666680   F   F   F
  0.6666666865533486  0.3750000000061604  0.4070133268666680   F   F   F
  0.6666666865533486  0.6249999999803961  0.4070133268666680   F   F   F
  0.8360894025003489  0.4999263187658585  0.5030778198578503   F   F   F
  0.6666666865533486  0.8749999404036828  0.4070133268666680   F   F   F
  0.1666666716383389  0.3750000000061604  0.4070133268666680   F   F   F
  0.1666666716383389  0.6249999999803961  0.4070133268666680   F   F   F
  0.1666666716383389  0.8749999404036828  0.4070133268666680   F   F   F
  0.5000000000021103  0.1249999999871179  0.4070133268666680   F   F   F
  0.5000000000021103  0.3750000000061604  0.4070133268666680   F   F   F
  0.5000000000021103  0.6249999999803961  0.4070133268666680   F   F   F
  0.5000000000021103  0.8749999404036828  0.4070133268666680   F   F   F
  0.8333332538436267  0.1249999999871179  0.4070133268666680   F   F   F
  0.8333332538436267  0.3750000000061604  0.4070133268666680   F   F   F
  0.1666666716383389  0.1249999999871179  0.4070133268666680   F   F   F
  0.0000000000000000  0.3750000000061604  0.4070133268666680   F   F   F
  0.8358183886717399  0.7517026930656030  0.5025389276065724   F   F   F
  0.8369435888494507  0.3726742289851046  0.6044845141232855   F   F   F
  0.8320118871660469  0.8757110398180146  0.6179514798310706   F   F   F
  0.8405424874288343  0.6266977651057530  0.6031173311652225   F   F   F
  0.9988756146498901  0.8747364758278806  0.6216702261567875   F   F   F
  0.3315063519906332  0.1197467059769650  0.6133568254698503   F   F   F
  0.3342080019794196  0.6239623774396392  0.5957562334718958   F   F   F
  0.3259327227502311  0.3737870808592731  0.5927514591482606   F   F   F
  0.6709968052689916  0.3719864217350235  0.5939690695486775   F   F   F
  0.6653299472097274  0.1243838124572960  0.6117066185902402   F   F   F
  0.3343465867190005  0.8787397271465736  0.6027728710645519   F   F   F
  0.1587086152179538  0.6271227484906063  0.6017516251146233   F   F   F
  0.1660606211046343  0.8728947437566816  0.6183703113910184   F   F   F
  0.5016965544621073  0.3710974457508982  0.5949315538279407   F   F   F
  0.5001857228089577  0.1218641002785716  0.6060409668823183   F   F   F
  0.1673576074637708  0.1225987637643726  0.6215224821779017   F   F   F
  0.1632579655201951  0.3714695771923928  0.6075608729191728   F   F   F
  0.6652684475397024  0.8809163458027882  0.6069196809278665   F   F   F
  0.6661182734326019  0.6265090614573126  0.5934425732298934   F   F   F
  0.0000171076454123  0.3751686537563188  0.6224661615709621   F   F   F
  0.9997544224881239  0.6221794659701914  0.6430870600593082   F   F   F
  0.8336906295374291  0.1248458727200372  0.6196591490435281   F   F   F
  0.5004352056258128  0.8766237168029534  0.6092485869070288   F   F   F
  0.0000000000000000  0.1249999999871179  0.4070133268666680   F   F   F
  0.5039581228430947  0.6250147561001143  0.5939055357839962   F   F   F
  0.9162338512243835  0.9998583442652347  0.6037855467311886   F   F   F
  0.5844339510789567  0.7502757371937534  0.5994232598116085   F   F   F
  0.5906469196332722  0.5006687801130667  0.5936477640645634   F   F   F
  0.2422427113377879  0.4984275412275281  0.5937520674838268   F   F   F
  0.2493168711184168  0.7526848612254966  0.5920004379483217   F   F   F
  0.5842984799770008  0.2471625825782269  0.5966779805866196   F   F   F
  0.5825294905314493  0.0009732476231008  0.6043003744243549   F   F   F
  0.2493865286673795  0.9975470972306510  0.6041784387494999   F   F   F
  0.2491297478929653  0.2456746495856237  0.6035966290330990   F   F   F
  0.4170122933020863  0.0001029540457083  0.6046779843128718   F   F   F
  0.4146851561462199  0.2487018805761991  0.5910856156728599   F   F   F
  0.4161048351707635  0.7497680527742716  0.5943095517125556   F   F   F
  0.7565630165571164  0.5026336882403584  0.5955467673078019   F   F   F
  0.7518074652463014  0.7525256958448168  0.5905871030647774   F   F   F
  0.7538655197785360  0.2482363497739541  0.5941253532977626   F   F   F
  0.7496084712742999  0.0016970851137970  0.6041877082544076   F   F   F
  0.0834758279714549  0.2482807977452097  0.6037166784211792   F   F   F
  0.0812787908072963  0.5004632527969832  0.6033786979298483   F   F   F
  0.0802334447865718  0.7508025820182951  0.6031620501200692   F   F   F
  0.0832204317443157  0.9982038369403412  0.6035069418157519   F   F   F