Au O  Sr Ti H                           
   1.00000000000000     
    23.6707801818999997    0.0000000000000000    0.0000000000000000
     0.0000000000000000   22.3170261383000010    0.0000000000000000
     0.0000000000000000    0.0000000000000000   30.0000000000000000
   Au   O    Sr   Ti   H 
    50   264    72    72     1
Selective dynamics
Direct
  0.7156619587038833  0.5258574670313934  0.7532625161615272   F   F   F
  0.6215099747507082  0.5691105660072466  0.7038985524392132   F   F   F
  0.7203346409970237  0.2590586145362082  0.6923085406558158   F   F   F
  0.2586964870080593  0.7556174191762182  0.7030009579575776   F   F   F
  0.5118809408663907  0.6035819075456104  0.7766610240365992   F   F   F
  0.5785532012202452  0.7265039368690296  0.7939045939363680   F   F   F
  0.5498442957685299  0.3841105515064100  0.8291827583065583   F   F   F
  0.2421884210904324  0.4655392343844156  0.7089165158909978   F   F   F
  0.2798918381636142  0.6630573678809881  0.7683917425094222   F   F   F
  0.6034278669069053  0.2899646111717473  0.7869194402277202   F   F   F
  0.5140048770660712  0.4833823683772138  0.6782716085792302   F   F   F
  0.5626176610457136  0.4862236468677423  0.7629970398197017   F   F   F
  0.4633794217301812  0.6945261341409221  0.8302483858745120   F   F   F
  0.7644445089603735  0.4324739877872261  0.7049672874833206   F   F   F
  0.7313995070768300  0.6154725220779369  0.6934604153491932   F   F   F
  0.6344583882100210  0.5846454786869302  0.8001607021911497   F   F   F
  0.5959792220399365  0.7845036590174175  0.7127206356350868   F   F   F
  0.4851799324320965  0.7753333912778473  0.7549293439767411   F   F   F
  0.3503038764427586  0.4989484349370272  0.6974541552195959   F   F   F
  0.4302979167081915  0.3709959330514749  0.8159770255446048   F   F   F
  0.3724609403959604  0.2990210015328501  0.7555398230138337   F   F   F
  0.4421494284887473  0.2271440460692062  0.6973508206448713   F   F   F
  0.3912923956214698  0.8133175835849471  0.7061321785793595   F   F   F
  0.2907131085745434  0.5387575817641306  0.7769433655993723   F   F   F
  0.5570988469313818  0.2103330656929998  0.7117344690694978   F   F   F
  0.4525279861173956  0.5792275796110005  0.7026635795924818   F   F   F
  0.6157378784325118  0.3206061920324572  0.6968573462932426   F   F   F
  0.7063310318480660  0.7572862789447043  0.6883295488408763   F   F   F
  0.6560320806523094  0.4402288963270848  0.8121451493883995   F   F   F
  0.3685177326656728  0.6167215703810669  0.8176721078661728   F   F   F
  0.5716455054272558  0.5099105507386454  0.8576601522345584   F   F   F
  0.6656994552388227  0.1944165375906053  0.7528515206981226   F   F   F
  0.4725129527709839  0.4503625078130113  0.8789124955523846   F   F   F
  0.5177305070286877  0.3774680916903392  0.7334877110621321   F   F   F
  0.2837401549410288  0.3369134254595210  0.7023893266308434   F   F   F
  0.6690658956084121  0.6813377066260102  0.7487805003994268   F   F   F
  0.3992098997297830  0.3816974521116236  0.6903151216700394   F   F   F
  0.3751873002582471  0.4912166765013879  0.8337637518185090   F   F   F
  0.4622951591353583  0.5730537445249198  0.8632657342999792   F   F   F
  0.3254555429973465  0.4141441224952658  0.7695567499916933   F   F   F
  0.4878781036212132  0.2692956182987487  0.7751789228686192   F   F   F
  0.4200377884226327  0.6954769893493946  0.6992689211043484   F   F   F
  0.7015916906460689  0.3464779545735652  0.7560243627474179   F   F   F
  0.7743223287739482  0.4311218638111640  0.7953019121347964   F   F   F
  0.2576920651800165  0.5883087883402425  0.6952437252588695   F   F   F
  0.6475334233662551  0.4436637716704084  0.6965330297965835   F   F   F
  0.5641683322922333  0.6396751313648608  0.8611429102127772   F   F   F
  0.5424957339942580  0.6662533605009457  0.7013836317190112   F   F   F
  0.4435113030808111  0.4741585682372929  0.7571050046566228   F   F   F
  0.3741223830304747  0.7373578476439562  0.7781782170253493   F   F   F
  0.2498890122518063  0.1884768394879046  0.4540734163509370   F   F   F
  0.7494454820344529  0.9383681437200835  0.4553213308597677   F   F   F
  0.7490460472241836  0.6887151211868101  0.4572452667122064   F   F   F
  0.7494626004016069  0.4383047789225643  0.4556866682468552   F   F   F
  0.7500723905302351  0.1896849980549362  0.4555898586588398   F   F   F
  0.4177207293549898  0.9356988408037878  0.4538970474087236   F   F   F
  0.4170545530423624  0.6846685834663475  0.4546560863181313   F   F   F
  0.4164704571199209  0.4353669376062754  0.4538047457979957   F   F   F
  0.0843013972625570  0.6869746128229721  0.4530957803912372   F   F   F
  0.0841692898382576  0.9368112319836612  0.4536586684117410   F   F   F
  0.0827895128404705  0.4367869552484152  0.4528587470919518   F   F   F
  0.0838585306729840  0.1865787191768007  0.4529567052806485   F   F   F
  0.9165570507919796  0.8120081398285137  0.4540846001558805   F   F   F
  0.9162810023172767  0.5624168494636805  0.4538320515865308   F   F   F
  0.2512706168992480  0.4393749698474281  0.4550618603579792   F   F   F
  0.9162194567146145  0.0619059543937510  0.4542155066462712   F   F   F
  0.9162107219253954  0.3121594497381395  0.4538725607612051   F   F   F
  0.4172396950794521  0.1870549579712986  0.4535136397133570   F   F   F
  0.2521923310596321  0.6877939813798264  0.4559884657255751   F   F   F
  0.9167855550453083  0.9365794875145497  0.4533008955195541   F   F   F
  0.5827811088314689  0.1893264181798813  0.4551957732633980   F   F   F
  0.0000660715661169  0.1250596262213435  0.4984105275328403   F   F   F
  0.5838074418031809  0.8099434765378533  0.4555029481265009   F   F   F
  0.9999683891102720  0.3734036906237677  0.4983664642457697   F   F   F
  0.0000843727512674  0.6269604948902128  0.4979280481452335   F   F   F
  0.3335612119999141  0.1256134060703573  0.4985093609746016   F   F   F
  0.0002420182600815  0.8749079206872423  0.4996445015900193   F   F   F
  0.3335522149325243  0.8742673964303478  0.4987013051393490   F   F   F
  0.6659340954957003  0.1257235985830221  0.4992340866138960   F   F   F
  0.3354611120073088  0.6253676399428443  0.5035836079645080   F   F   F
  0.3344050957664351  0.3782137383619784  0.5029833607071765   F   F   F
  0.6654608650176073  0.3785117759703169  0.5032795073913050   F   F   F
  0.9154465446807194  0.6867132743995299  0.4530811681138829   F   F   F
  0.9158030029316464  0.4369961679643595  0.4536588837982052   F   F   F
  0.9158955409595180  0.1868034688133591  0.4531499755736803   F   F   F
  0.5826295056504023  0.9361247948476361  0.4538200879156378   F   F   F
  0.5827629180858693  0.6860240993620863  0.4545715802372285   F   F   F
  0.5827224238242934  0.4392090041223753  0.4560243416231700   F   F   F
  0.2499057835639960  0.9362669555129131  0.4540010114558655   F   F   F
  0.6653338789385614  0.6260532531294274  0.5028800928239150   F   F   F
  0.5843868480667993  0.5627624439569416  0.4548988023665999   F   F   F
  0.5829283943343029  0.0624751255659461  0.4547417415032911   F   F   F
  0.9166666865332829  0.6874999999963620  0.3605200052333331   F   F   F
  0.9166666865332829  0.4374999701794380  0.3605200052333331   F   F   F
  0.9166666865332829  0.1875000000030838  0.3605200052333331   F   F   F
  0.5833333134730552  0.9375000000154046  0.3605200052333331   F   F   F
  0.5833333134730552  0.6874999999963620  0.3605200052333331   F   F   F
  0.5833333134730552  0.4374999701794380  0.3605200052333331   F   F   F
  0.5833333134730552  0.1875000000030838  0.3605200052333331   F   F   F
  0.2499999999799343  0.9375000000154046  0.3605200052333331   F   F   F
  0.9166666865332829  0.9375000000154046  0.3605200052333331   F   F   F
  0.2499999999799343  0.6874999999963620  0.3605200052333331   F   F   F
  0.2499999999799343  0.1875000000030838  0.3605200052333331   F   F   F
  0.7499999404149307  0.9375000000154046  0.3605200052333331   F   F   F
  0.7499999404149307  0.6874999999963620  0.3605200052333331   F   F   F
  0.7499999404149307  0.4374999701794380  0.3605200052333331   F   F   F
  0.7499999404149307  0.1875000000030838  0.3605200052333331   F   F   F
  0.4166666269218169  0.9375000000154046  0.3605200052333331   F   F   F
  0.4166666269218169  0.6874999999963620  0.3605200052333331   F   F   F
  0.4166666269218169  0.4374999701794380  0.3605200052333331   F   F   F
  0.2499999999799343  0.4374999701794380  0.3605200052333331   F   F   F
  0.0833333358191695  0.0625000000159659  0.3605200052333331   F   F   F
  0.0833333358191695  0.3124999999901945  0.3605200052333331   F   F   F
  0.0833333358191695  0.5625000000092442  0.3605200052333331   F   F   F
  0.9166666865332829  0.3124999999901945  0.3605200052333331   F   F   F
  0.9166666865332829  0.0625000000159659  0.3605200052333331   F   F   F
  0.5833333134730552  0.8124999999834799  0.3605200052333331   F   F   F
  0.5833333134730552  0.5625000000092442  0.3605200052333331   F   F   F
  0.5833333134730552  0.3124999999901945  0.3605200052333331   F   F   F
  0.5833333134730552  0.0625000000159659  0.3605200052333331   F   F   F
  0.2499999999799343  0.8124999999834799  0.3605200052333331   F   F   F
  0.2499999999799343  0.5625000000092442  0.3605200052333331   F   F   F
  0.2499999999799343  0.3124999999901945  0.3605200052333331   F   F   F
  0.2499999999799343  0.0625000000159659  0.3605200052333331   F   F   F
  0.7499999404149307  0.8124999999834799  0.3605200052333331   F   F   F
  0.7499999404149307  0.5625000000092442  0.3605200052333331   F   F   F
  0.7499999404149307  0.3124999999901945  0.3605200052333331   F   F   F
  0.7499999404149307  0.0625000000159659  0.3605200052333331   F   F   F
  0.4166666269218169  0.8124999999834799  0.3605200052333331   F   F   F
  0.4166666269218169  0.5625000000092442  0.3605200052333331   F   F   F
  0.4166666269218169  0.3124999999901945  0.3605200052333331   F   F   F
  0.4166666269218169  0.0625000000159659  0.3605200052333331   F   F   F
  0.0833333358191695  0.8124999999834799  0.3605200052333331   F   F   F
  0.4166666269218169  0.1875000000030838  0.3605200052333331   F   F   F
  0.0833333358191695  0.9375000000154046  0.3605200052333331   F   F   F
  0.0833333358191695  0.6874999999963620  0.3605200052333331   F   F   F
  0.0833333358191695  0.4374999701794380  0.3605200052333331   F   F   F
  0.8333332538436267  0.4999999999932783  0.4070133268666680   F   F   F
  0.8333332538436267  0.7500000000123208  0.4070133268666680   F   F   F
  0.0837038934108847  0.0618847876931099  0.4541880004044430   F   F   F
  0.0834975546773009  0.3120897430601133  0.4539287474694262   F   F   F
  0.0839379132916847  0.5624708155527642  0.4538722964868711   F   F   F
  0.0835224012612770  0.8121449602650870  0.4541241820889965   F   F   F
  0.4168556411237390  0.0615358558564196  0.4553565706984983   F   F   F
  0.4155411186899585  0.3112098777613781  0.4573700454874086   F   F   F
  0.4159998219628775  0.5594558758306718  0.4578706927761402   F   F   F
  0.4166475723058269  0.8097805929913946  0.4551469883585497   F   F   F
  0.7495781460313040  0.0640623390220725  0.4533654564256366   F   F   F
  0.7473744596998912  0.3141030435519951  0.4546339751410642   F   F   F
  0.7481261714060352  0.5643147587276545  0.4536475528989286   F   F   F
  0.7489660055135658  0.8131999342174225  0.4530844608035096   F   F   F
  0.2505197757358104  0.0620547977258852  0.4542260845515571   F   F   F
  0.9152905276914325  0.3127799206841217  0.5467555148231256   F   F   F
  0.2521458923549176  0.3142225267364438  0.4540807912834168   F   F   F
  0.2518092943524977  0.5647924759268079  0.4533448776156064   F   F   F
  0.2504290818718644  0.8111444143887354  0.4549949564032616   F   F   F
  0.8333332538436267  0.2500000000190425  0.4070133268666680   F   F   F
  0.5844070470904654  0.3147620131585285  0.4540456798150245   F   F   F
  0.8333332538436267  0.0000000000000000  0.4070133268666680   F   F   F
  0.5000000000021103  0.4999999999932783  0.4070133268666680   F   F   F
  0.0833333358191695  0.1875000000030838  0.3605200052333331   F   F   F
  0.0000000000000000  0.0000000000000000  0.4070133268666680   F   F   F
  0.0000000000000000  0.2500000000190425  0.4070133268666680   F   F   F
  0.0000000000000000  0.4999999999932783  0.4070133268666680   F   F   F
  0.0000000000000000  0.7500000000123208  0.4070133268666680   F   F   F
  0.3333333432766779  0.0000000000000000  0.4070133268666680   F   F   F
  0.3333333432766779  0.2500000000190425  0.4070133268666680   F   F   F
  0.3333333432766779  0.4999999999932783  0.4070133268666680   F   F   F
  0.3333333432766779  0.7500000000123208  0.4070133268666680   F   F   F
  0.6666666865533486  0.0000000000000000  0.4070133268666680   F   F   F
  0.6666666865533486  0.2500000000190425  0.4070133268666680   F   F   F
  0.6666666865533486  0.4999999999932783  0.4070133268666680   F   F   F
  0.6666666865533486  0.7500000000123208  0.4070133268666680   F   F   F
  0.1666666716383389  0.0000000000000000  0.4070133268666680   F   F   F
  0.1666666716383389  0.2500000000190425  0.4070133268666680   F   F   F
  0.1666666716383389  0.4999999999932783  0.4070133268666680   F   F   F
  0.1666666716383389  0.7500000000123208  0.4070133268666680   F   F   F
  0.5000000000021103  0.0000000000000000  0.4070133268666680   F   F   F
  0.5000000000021103  0.2500000000190425  0.4070133268666680   F   F   F
  0.5000000000021103  0.7500000000123208  0.4070133268666680   F   F   F
  0.1670355936871033  0.1242558387843431  0.4993020974647706   F   F   F
  0.9177533333002401  0.0632999421869513  0.5475342668141678   F   F   F
  0.1678133040795800  0.8733790286537584  0.4998118312029121   F   F   F
  0.2517296456434508  0.1883433009224333  0.5470880735193902   F   F   F
  0.7493393477693431  0.9339552784740164  0.5476524526256128   F   F   F
  0.7518284886266571  0.6804918528562780  0.5530970133316799   F   F   F
  0.7520725513196993  0.4353242775621027  0.5490030200037310   F   F   F
  0.4234203876228761  0.4437692406705693  0.5454615615760900   F   F   F
  0.4222231352465329  0.6882164393357968  0.5465266556029036   F   F   F
  0.7482527913666033  0.1837309988910363  0.5505923901305465   F   F   F
  0.4159724304870807  0.9369876274888682  0.5459565335924026   F   F   F
  0.0842545167243571  0.9381830799080291  0.5461469517426920   F   F   F
  0.4156102990841362  0.1913158432495194  0.5464898113263956   F   F   F
  0.0864168635396965  0.6896393009071033  0.5451912463850164   F   F   F
  0.0823325575671419  0.4388178624806685  0.5449236538988913   F   F   F
  0.0836597597756850  0.1889691511671856  0.5454803759118221   F   F   F
  0.4994377371806067  0.1255751207457649  0.4996561860952866   F   F   F
  0.9997265455397084  0.5021287094803668  0.5947076152609796   F   F   F
  0.0001334665927359  0.7534558366845019  0.5923713078269515   F   F   F
  0.3346370499280980  0.2544931763958687  0.5926364237503705   F   F   F
  0.3339764917233978  0.9998463593706646  0.5920393099566752   F   F   F
  0.9998238364754002  0.9992571428842609  0.5929739137417442   F   F   F
  0.0007003429501040  0.2498460355169598  0.5914594326556681   F   F   F
  0.3336658832128734  0.4962354888048424  0.5901870509899254   F   F   F
  0.3340723714027334  0.7405262224900895  0.5909021649558142   F   F   F
  0.6635553026678025  0.2474920861254049  0.5907691721186552   F   F   F
  0.6657827312630431  0.0003700734057830  0.5918596566053651   F   F   F
  0.6656539437446725  0.7418779552003159  0.5901905351465757   F   F   F
  0.6666391491296721  0.4947000932064185  0.5911065343726492   F   F   F
  0.1672588182059584  0.9991245567982787  0.5921058019210861   F   F   F
  0.1683712928899936  0.2492571887228223  0.5930173548914368   F   F   F
  0.1709778736596448  0.7479763708784617  0.5941787828336089   F   F   F
  0.2482636744149218  0.4356849838598151  0.5490945402411072   F   F   F
  0.1657730976146468  0.5033537623279187  0.5875263625013858   F   F   F
  0.2493784158775512  0.6826490468939852  0.5515805950399368   F   F   F
  0.5808972104274162  0.1859932977762426  0.5494489057122109   F   F   F
  0.9155204088120712  0.8129438630251045  0.5469122734113228   F   F   F
  0.9167795659710691  0.5635562348833574  0.5465677222733092   F   F   F
  0.5811065590714932  0.5603642046611697  0.5490298427667071   F   F   F
  0.5857952955189205  0.8147806759396090  0.5506706636052030   F   F   F
  0.5829260634836331  0.3117569369365469  0.5455025154224558   F   F   F
  0.5826023398996227  0.0632748269117300  0.5469769962091178   F   F   F
  0.2529738269298818  0.8126539533704999  0.5498743200943608   F   F   F
  0.2520846856808845  0.5587904834868311  0.5434174948468851   F   F   F
  0.2493907581915025  0.3137319539401986  0.5459583921782638   F   F   F
  0.2511286329673723  0.0625560793171971  0.5472158437571508   F   F   F
  0.7483743224810695  0.8081847620405682  0.5457108000491928   F   F   F
  0.7464854566858534  0.5580587634068763  0.5444423914191674   F   F   F
  0.4136709350333305  0.8116282577232994  0.5479307545118033   F   F   F
  0.7482713246761818  0.0595971123614518  0.5446228761576108   F   F   F
  0.7480501537184097  0.3115041605917668  0.5480461032804484   F   F   F
  0.4161009188717486  0.3194966053233017  0.5526130627615302   F   F   F
  0.4203340152011776  0.5650183878230095  0.5552222993933498   F   F   F
  0.4164676387879638  0.0652301530597938  0.5472845706576734   F   F   F
  0.0859729840154841  0.8127261624529396  0.5472460221159920   F   F   F
  0.0831593898723284  0.5642487244612084  0.5462612981922206   F   F   F
  0.0863434097866076  0.3135455192844674  0.5468790104277730   F   F   F
  0.0822827836668978  0.0632142471040211  0.5475736180102260   F   F   F
  0.9157005769898987  0.9387335446205327  0.5459932815955284   F   F   F
  0.9136528546715965  0.6893867110395888  0.5450468944088627   F   F   F
  0.5832535697366907  0.9384008363469221  0.5455701058728621   F   F   F
  0.9169114999487320  0.1889449104268124  0.5453874863104105   F   F   F
  0.9161345266859016  0.4376923240723585  0.5457715613761209   F   F   F
  0.5764651260997198  0.4363159177137277  0.5516155941362157   F   F   F
  0.5795017155744162  0.6864631750436985  0.5471897740570526   F   F   F
  0.2513907316520019  0.9371898114732886  0.5452076193062680   F   F   F
  0.4974962876874613  0.5043513363348495  0.6089538084102557   F   F   F
  0.4986723486144982  0.2525915262574756  0.5903267260773504   F   F   F
  0.4996232186020606  0.0000383346518262  0.5909981507337250   F   F   F
  0.7538579758608961  0.6927556752608695  0.6571328512822916   F   F   F
  0.7484793958793858  0.9366664635988897  0.6398243000628199   F   F   F
  0.2532170945890542  0.1866054646936348  0.6409949694538426   F   F   F
  0.7457598884308325  0.1940711608659313  0.6466591630364249   F   F   F
  0.7552838395188033  0.4355716585825320  0.6382707521026418   F   F   F
  0.4174876708354063  0.9349539698786771  0.6395947779908155   F   F   F
  0.4206550945982030  0.6757429691501002  0.6333025159588388   F   F   F
  0.5907844540932885  0.8100928991127461  0.6459173124714468   F   F   F
  0.9160070290596494  0.0624773873938054  0.6417064625810269   F   F   F
  0.9123054525410765  0.5617550968930374  0.6424200592888738   F   F   F
  0.9152904979560432  0.3119756342018292  0.6393508449717444   F   F   F
  0.9144113541628798  0.8129026946625615  0.6414680074452477   F   F   F
  0.5821334914328702  0.0655249033164296  0.6398429341938794   F   F   F
  0.5829303668150132  0.3199358955282747  0.6340138541026548   F   F   F
  0.5907116036522950  0.5659103634468750  0.6388215285321408   F   F   F
  0.2490170222885340  0.5739131209510830  0.6283804467255862   F   F   F
  0.2594872577394938  0.8005672814917091  0.6447661528677529   F   F   F
  0.2491533669531734  0.3165460437122860  0.6411831008785143   F   F   F
  0.2509766440750809  0.0595648465456122  0.6423677131073262   F   F   F
  0.9166666865332829  0.5625000000092442  0.3605200052333331   F   F   F
  0.4995769626759738  0.3740045779891474  0.4996603036653795   F   F   F
  0.4999636430257652  0.8725101931138823  0.5008618350068872   F   F   F
  0.5001755406491881  0.6212413492840199  0.5000616698327889   F   F   F
  0.8323806076516576  0.6230827717570975  0.4999245754914767   F   F   F
  0.8327121231291699  0.8742619496029747  0.4985288308256486   F   F   F
  0.8324775512025653  0.3732533756021184  0.4997138106449981   F   F   F
  0.8328643380451339  0.1245010336248527  0.4997141872855551   F   F   F
  0.1667092143745066  0.3762414705263808  0.4977794549857819   F   F   F
  0.1677550535854522  0.6248383362561825  0.4994616006539516   F   F   F
  0.5817379668073102  0.4390549033227700  0.6458523225837212   F   F   F
  0.5795033130991527  0.6857254255372212  0.6389593213644105   F   F   F
  0.9170507387165188  0.1867565319775366  0.6407068951058577   F   F   F
  0.5818553460599816  0.9352827512871116  0.6390252411284081   F   F   F
  0.8306080176992197  0.7508293103656456  0.5928713742625291   F   F   F
  0.8315312856339290  0.2476635887200018  0.5914636251696805   F   F   F
  0.8331457334104115  0.5037468977477246  0.5889249217455372   F   F   F
  0.8322082814654124  0.0020866445091983  0.5922963623649125   F   F   F
  0.5000491894511967  0.7562487911953610  0.5927866249139271   F   F   F
  0.4178089386635406  0.0651043499718682  0.6400246116805874   F   F   F
  0.4271992606073809  0.3037677292531313  0.6558467801151195   F   F   F
  0.4112053328332550  0.8128702633411606  0.6391329123873817   F   F   F
  0.3974276188329924  0.5504718250289784  0.6517694096107434   F   F   F
  0.7523454846541924  0.5703632407045518  0.6346484874432576   F   F   F
  0.7411074306231100  0.8099410162928393  0.6398735694556592   F   F   F
  0.7471208356512307  0.3124905422115347  0.6401769254323710   F   F   F
  0.7475356765753460  0.0668472751134956  0.6393253561087704   F   F   F
  0.0834498727409141  0.3119070072367620  0.6401442012405667   F   F   F
  0.6664900585351603  0.8747175262396283  0.4993564262946109   F   F   F
  0.0878717994393483  0.5622640752540420  0.6417316880189574   F   F   F
  0.0839959427274195  0.0607371113041353  0.6422652589568045   F   F   F
  0.0863620573217645  0.4366946756613359  0.6388347711296163   F   F   F
  0.0834743705492187  0.1858408132425708  0.6409615616077602   F   F   F
  0.4179863606691328  0.1876170890680768  0.6397233277448393   F   F   F
  0.4151945394558183  0.4186260944425513  0.6298652397884155   F   F   F
  0.0843883633334173  0.9356630420043501  0.6404303997662311   F   F   F
  0.0832151029614110  0.6873027539138761  0.6399015317798984   F   F   F
  0.9127464852019855  0.4360596819342959  0.6390460597063239   F   F   F
  0.9164853632174186  0.6874501062390692  0.6393512761299220   F   F   F
  0.9147715824856988  0.9368620351954959  0.6406624980174414   F   F   F
  0.2405909731665545  0.4421290912981704  0.6410845574164696   F   F   F
  0.2524041688433130  0.6741336340420574  0.6668706009043959   F   F   F
  0.5792349203326523  0.1908399525960007  0.6444636552669820   F   F   F
  0.2511871672002215  0.9304965208432847  0.6370836010547052   F   F   F
  0.0859009053202584  0.8124052543133118  0.6412654506039885   F   F   F
  0.9166666865332829  0.8124999999834799  0.3605200052333331   F   F   F
  0.0005068253951777  0.1227688605247295  0.6198466185126676   F   F   F
  0.8333332538436267  0.6249999999803961  0.4070133268666680   F   F   F
  0.9997755061721918  0.5009097350636438  0.5070527302407584   F   F   F
  0.3315179087095714  0.4992168512602078  0.5007745487511670   F   F   F
  0.3302095920728263  0.2480415631659909  0.5028257795132589   F   F   F
  0.3331603410186688  0.0010731082040110  0.5057987201567187   F   F   F
  0.3344969038530579  0.7511219498746726  0.5013544160535375   F   F   F
  0.6658642420767009  0.0001332069904407  0.5055668133560047   F   F   F
  0.6685985265108911  0.4996021340252881  0.5007354978609442   F   F   F
  0.6670985634903062  0.2478575175478142  0.5031331104597498   F   F   F
  0.6656120947970408  0.7518964265253416  0.5020369984013655   F   F   F
  0.1659235947738793  0.0012516684653292  0.5063052156264263   F   F   F
  0.1662573016685798  0.2482605915633584  0.5061025072856467   F   F   F
  0.1634919501540395  0.4999055097135354  0.5019343932396794   F   F   F
  0.5001932916699019  0.9994611904259258  0.5054439971652798   F   F   F
  0.1645795678259603  0.7512856052754486  0.5029982835317810   F   F   F
  0.5011637734822330  0.7526694212125022  0.5037618071932997   F   F   F
  0.8342320632013696  0.0004255006008762  0.5065175168374836   F   F   F
  0.5013194419836324  0.4997193684874333  0.5002013767558111   F   F   F
  0.5011312305573341  0.2478133680706236  0.5021296584417954   F   F   F
  0.8352866669549499  0.2484170232060663  0.5033706538028611   F   F   F
  0.0000706734101783  0.7507623483140762  0.5065907456116392   F   F   F
  0.0007079674993093  0.2497852116533608  0.5057050136813928   F   F   F
  0.0000828034405842  0.9998765571787729  0.5066062283245429   F   F   F
  0.8333332538436267  0.8749999404036828  0.4070133268666680   F   F   F
  0.0000000000000000  0.6249999999803961  0.4070133268666680   F   F   F
  0.0000000000000000  0.8749999404036828  0.4070133268666680   F   F   F
  0.3333333432766779  0.1249999999871179  0.4070133268666680   F   F   F
  0.3333333432766779  0.3750000000061604  0.4070133268666680   F   F   F
  0.3333333432766779  0.6249999999803961  0.4070133268666680   F   F   F
  0.3333333432766779  0.8749999404036828  0.4070133268666680   F   F   F
  0.6666666865533486  0.1249999999871179  0.4070133268666680   F   F   F
  0.6666666865533486  0.3750000000061604  0.4070133268666680   F   F   F
  0.6666666865533486  0.6249999999803961  0.4070133268666680   F   F   F
  0.8360129203939763  0.4999011540230214  0.5029047970287550   F   F   F
  0.6666666865533486  0.8749999404036828  0.4070133268666680   F   F   F
  0.1666666716383389  0.3750000000061604  0.4070133268666680   F   F   F
  0.1666666716383389  0.6249999999803961  0.4070133268666680   F   F   F
  0.1666666716383389  0.8749999404036828  0.4070133268666680   F   F   F
  0.5000000000021103  0.1249999999871179  0.4070133268666680   F   F   F
  0.5000000000021103  0.3750000000061604  0.4070133268666680   F   F   F
  0.5000000000021103  0.6249999999803961  0.4070133268666680   F   F   F
  0.5000000000021103  0.8749999404036828  0.4070133268666680   F   F   F
  0.8333332538436267  0.1249999999871179  0.4070133268666680   F   F   F
  0.8333332538436267  0.3750000000061604  0.4070133268666680   F   F   F
  0.1666666716383389  0.1249999999871179  0.4070133268666680   F   F   F
  0.0000000000000000  0.3750000000061604  0.4070133268666680   F   F   F
  0.8360195467695348  0.7516878548766357  0.5025108334432886   F   F   F
  0.8368966727014708  0.3723141437951512  0.6043298698540838   F   F   F
  0.8323314401085540  0.8759877397741249  0.6179839153681428   F   F   F
  0.8399798647166818  0.6270199498531781  0.6033919354104000   F   F   F
  0.9995347116163629  0.8746672330880969  0.6223406400472697   F   F   F
  0.3317611196240691  0.1200162473182118  0.6136222275654433   F   F   F
  0.3348694658371514  0.6246908977863299  0.5954805889846213   F   F   F
  0.3259950746814653  0.3738021836258199  0.5928022096561563   F   F   F
  0.6711178382463885  0.3722731038214135  0.5942577572360364   F   F   F
  0.6652358184521745  0.1245999290665907  0.6120086236264370   F   F   F
  0.3342533487361976  0.8790360616017736  0.6032754156549984   F   F   F
  0.1602295619194720  0.6277381451947335  0.6026067973788614   F   F   F
  0.1658041965514769  0.8745420007031370  0.6132119584564677   F   F   F
  0.5017886736093402  0.3713748435988862  0.5948676577222614   F   F   F
  0.5002731659335069  0.1218914277940968  0.6064116712235972   F   F   F
  0.1675118174614951  0.1227774629987266  0.6217740743740308   F   F   F
  0.1630026618991920  0.3716045190644905  0.6073415318207722   F   F   F
  0.6653737278194356  0.8807625663887961  0.6067788326752677   F   F   F
  0.6663313194833620  0.6261861380136935  0.5931113059307265   F   F   F
  0.9999100688635565  0.3748459055938937  0.6216793837415935   F   F   F
  0.9998554197818947  0.6217801450787803  0.6368613269006289   F   F   F
  0.8334592710944975  0.1248225365579714  0.6200507937421094   F   F   F
  0.5005141283257544  0.8765306151754899  0.6096487993160551   F   F   F
  0.0000000000000000  0.1249999999871179  0.4070133268666680   F   F   F
  0.5039478398211727  0.6248440996571745  0.5939234440806800   F   F   F
  0.9161889820218647  0.0003509184714332  0.6037527307079600   F   F   F
  0.5854249668603373  0.7499077261907487  0.5993513835922428   F   F   F
  0.5903044775582700  0.5011625727964883  0.5936793246096173   F   F   F
  0.2427041427847598  0.4986700047982850  0.5933602381123819   F   F   F
  0.2505277085157616  0.7533703397890363  0.5911493085495465   F   F   F
  0.5841715978417241  0.2474706186645506  0.5973299817811224   F   F   F
  0.5826003666289381  0.0009529779692699  0.6043174136714811   F   F   F
  0.2495040071046404  0.9980494690762853  0.6041039942038182   F   F   F
  0.2489585576760973  0.2460352736697331  0.6034831739971338   F   F   F
  0.4171212890035534  0.0001338261530961  0.6046121875517088   F   F   F
  0.4146748094228840  0.2483477016764866  0.5914293939342841   F   F   F
  0.4179452652581759  0.7506581170527653  0.5946780340085951   F   F   F
  0.7563655777827805  0.5027248547239154  0.5954130727198361   F   F   F
  0.7523101737620550  0.7525816317783267  0.5905078898872773   F   F   F
  0.7536821138947616  0.2477000716479196  0.5946116955845540   F   F   F
  0.7495462997779327  0.0017422033392265  0.6041724578383239   F   F   F
  0.0833224661894434  0.2481033158331414  0.6034349880172556   F   F   F
  0.0816505254016704  0.5011285932687954  0.6032109376977530   F   F   F
  0.0815443194664240  0.7507732936218758  0.6030918573898987   F   F   F
  0.0830519682935034  0.9992045286904840  0.6037430820441045   F   F   F