Au O  Sr Ti H 
 1.0000000000000000
    23.6707801818999997    0.0000000000000000    0.0000000000000000
     0.0000000000000000   22.3170261383000010    0.0000000000000000
     0.0000000000000000    0.0000000000000000   30.0000000000000000
 Au  O   Sr  Ti  H  
  50 264  72  72   1
Selective dynamics
Cartesian
 16.9402769090276983 11.7355748367597847 22.5978754848457370   F   F   F
 14.7116259931821602 12.7008553771665085 21.1169565731763136   F   F   F
 17.0508829444484000  5.7814178719563696 20.7692562196744532   F   F   F
  6.1235476777975499 16.8631336943104557 21.0900287387274332   F   F   F
 12.1166212305525232 13.4701532073003936 23.2998307210979760   F   F   F
 13.6948056496189920 16.2134073486840400 23.8171378180910693   F   F   F
 13.0152434594084614  8.5722052179654309 24.8754827491968413   F   F   F
  5.7327888782329852 10.3894512621611028 21.2674954767299091   F   F   F
  6.6252581758787841 14.7974686101924355 23.0517522752826451   F   F   F
 14.2836083931861904  6.4711478067018700 23.6075832068316309   F   F   F
 12.1668964574554259 10.7876569498676744 20.3481482573768773   F   F   F
 13.3175989810678548 10.8510658362069528 22.8899111945911180   F   F   F
 10.9685524325910837 15.4997578893554362 24.9074515762354132   F   F   F
 18.0949979328615100  9.6515332895823942 21.1490186244995684   F   F   F
 17.3127969571656557 13.7355163626187871 20.8038124604758252   F   F   F
 15.0181250418820422 13.0475484294950803 24.0048210657345251   F   F   F
 14.1072931578870691 17.5077886638837583 21.3816190690527108   F   F   F
 11.4845875292691986 17.3031355590445628 22.6478803193022244   F   F   F
  8.2919660561439397 11.1350452641535593 20.9236246565879078   F   F   F
 10.1854873991290695  8.2795259351127317 24.4793107663380844   F   F   F
  8.8164410464565677  6.6732595071093028 22.6661946904149723   F   F   F
 10.4660219293099264  5.0691796132857325 20.9205246193461178   F   F   F
  9.2621962836048635 18.1508297716042044 21.1839653573808633   F   F   F
  6.8814060890648001 12.0234670344373402 23.3083009679810722   F   F   F
 13.1869643453027585  4.6940085248195196 21.3520340720848587   F   F   F
 10.7116904855427979 12.9266370342030044 21.0799073877744156   F   F   F
 14.5749959700454337  7.1549767676892255 20.9057203887973806   F   F   F
 16.7194065905302089 16.9003776813849385 20.6498864652263734   F   F   F
 15.5287911733953088  9.8245997861664680 24.3643544816519260   F   F   F
  8.7231022430613088 13.7633914062476830 24.5301632359851354   F   F   F
 13.5312951009396993 11.3796870890292841 25.7298045670368047   F   F   F
 15.7576254721687974  4.3387989511272655 22.5855456209437264   F   F   F
 11.1847502381425201 10.0507518585732747 26.3673748665715380   F   F   F
 12.2550850253396817  8.4239652686275726 22.0046313318640507   F   F   F
  6.7163508363873889  7.5189057223242699 21.0716797989252420   F   F   F
 15.8373117421527994 15.2054314077820489 22.4634150119827929   F   F   F
  9.4496097829420300  8.5183520156975412 20.7094536501011603   F   F   F
  8.8809761114534780 10.9624954090503213 25.0129125545551716   F   F   F
 10.9428870910496290 12.7888553952132984 25.8979720289994830   F   F   F
  7.7037866172710592  9.2424652067502286 23.0867024997507002   F   F   F
 11.5484553463799742  6.0098773525028015 23.2553676860585483   F   F   F
  9.9426221578435463 15.5209781498967079 20.9780676331305287   F   F   F
 16.6072226867307258  7.7323575685630317 22.6807308824225693   F   F   F
 18.3288136343450709  9.6213579034663201 23.8590573640438919   F   F   F
  6.0997722294960601 13.1293026067808221 20.8573117577660696   F   F   F
 15.3276213249358584  9.9012559889852838 20.8959908938974799   F   F   F
 13.3543045792786295 14.2756466266900670 25.8342873063834269   F   F   F
 12.8412972689965805 14.8687936610297875 21.0415089515702398   F   F   F
 10.4982585634139127 10.5818091610506375 22.7131501396987545   F   F   F
  8.8557686898429662 16.4556343591508387 23.3453465107604075   F   F   F
  5.9150678788846873  4.2062425533156782 13.6222024905281227   F   F   F
 17.7399592635557006 20.9415863907491833 13.6596399257929626   F   F   F
 17.7305043299646634 15.3700733613684264 13.7173580013663035   F   F   F
 17.7403644686615678  9.7816592077566735 13.6706000474055838   F   F   F
 17.7547986767533743  4.2332050596354680 13.6676957597652677   F   F   F
  9.8877755619849363 20.8820154877951758 13.6169114222618060   F   F   F
  9.8720066489263463 15.2797666732913449 13.6396825895439449   F   F   F
  9.8581806427410914  9.7160953263109295 13.6141423739398739   F   F   F
  1.9954798436290864 15.3312303907188099 13.5928734117372070   F   F   F
  1.9923527578279636 20.9068407508324619 13.6097600523522431   F   F   F
  1.9596923598133245  9.7477858971473772 13.5857624127586138   F   F   F
  1.9849968459372589  4.1638821527191965 13.5887011584194717   F   F   F
 21.6956204734675424 18.1216068810653752 13.6225380046763132   F   F   F
 21.6890861907032999 12.5514715301013009 13.6149615475958701   F   F   F
  5.9477715387925105  9.8055426865998960 13.6518558107394750   F   F   F
 21.6876293582715078  1.3815568023216931 13.6264651993882033   F   F   F
 21.6874225989958838  6.9664705991234399 13.6161768228360600   F   F   F
  9.8763891053886219  4.1745103863440924 13.6054091914007458   F   F   F
  5.9695892320735640 15.3495162602190369 13.6796539717672090   F   F   F
 21.7010293474186149 20.9016689034578071 13.5990268655866355   F   F   F
 13.7948835213137020  4.2252026231911968 13.6558731979018422   F   F   F
  0.0015639655178223  2.7909589472277374 14.9523158259852398   F   F   F
 13.8191776234804511 18.0755297364408456 13.6650884437949660   F   F   F
 23.6700319274778366  8.3332599237883702 14.9509939273730161   F   F   F
  0.0019971688485809 13.9918937521464297 14.9378414443570726   F   F   F
  7.8956541264580409  2.8033176665930917 14.9552808292380206   F   F   F
  0.0057287610343146 19.5253429345829197 14.9893350477006866   F   F   F
  7.8954411588536626 19.5110483379994974 14.9610391541803978   F   F   F
 15.7631795901111182  2.8057768357784969 14.9770225984169745   F   F   F
  7.9406262419007181 13.9563459666513996 15.1075082389352247   F   F   F
  7.9156295135944568  8.4406058848884964 15.0895008212153030   F   F   F
 15.7519778554888763  8.4472571979838573 15.0983852217391128   F   F   F
 21.6693339274172097 15.3253980942918826 13.5924350434165468   F   F   F
 21.6777715723189424  9.7524549027974778 13.6097665139461697   F   F   F
 21.6799620196351484  4.1688978962328234 13.5944992672104892   F   F   F
 13.7912949557397919 20.8915215153254934 13.6146026374692006   F   F   F
 13.7944529321732432 15.3100177569674312 13.6371474071167711   F   F   F
 13.7934944014088092  9.8018388251756843 13.6807302486951539   F   F   F
  5.9154648689287654 20.8946941186082213 13.6200303436760262   F   F   F
 15.7489719959255776 13.9716468140571433 15.0864027847173769   F   F   F
 13.8328926217826673 12.5591841714406627 13.6469640709980382   F   F   F
 13.7983698840752709  1.3942590102487826 13.6422522450987334   F   F   F
 21.6982156369999721 15.3429554700000619 10.8156001569999933   F   F   F
 21.6982156369999721  9.7636982699999884 10.8156001569999933   F   F   F
 21.6982156369999721  4.1844424010000720 10.8156001569999933   F   F   F
 13.8079546360000549 20.9222120050000342 10.8156001569999933   F   F   F
 13.8079546360000549 15.3429554700000619 10.8156001569999933   F   F   F
 13.8079546360000549  9.7636982699999884 10.8156001569999933   F   F   F
 13.8079546360000549  4.1844424010000720 10.8156001569999933   F   F   F
  5.9176950450000287 20.9222120050000342 10.8156001569999933   F   F   F
 21.6982156369999721 20.9222120050000342 10.8156001569999933   F   F   F
  5.9176950450000287 15.3429554700000619 10.8156001569999933   F   F   F
  5.9176950450000287  4.1844424010000720 10.8156001569999933   F   F   F
 17.7530837259999217 20.9222120050000342 10.8156001569999933   F   F   F
 17.7530837259999217 15.3429554700000619 10.8156001569999933   F   F   F
 17.7530837259999217  9.7636982699999884 10.8156001569999933   F   F   F
 17.7530837259999217  4.1844424010000720 10.8156001569999933   F   F   F
  9.8628241350000643 20.9222120050000342 10.8156001569999933   F   F   F
  9.8628241350000643 15.3429554700000619 10.8156001569999933   F   F   F
  9.8628241350000643  9.7636982699999884 10.8156001569999933   F   F   F
  5.9176950450000287  9.7636982699999884 10.8156001569999933   F   F   F
  1.9725650740000149  1.3948141340000613 10.8156001569999933   F   F   F
  1.9725650740000149  6.9740706679999214 10.8156001569999933   F   F   F
  1.9725650740000149 12.5533272030000536 10.8156001569999933   F   F   F
 21.6982156369999721  6.9740706679999214 10.8156001569999933   F   F   F
 21.6982156369999721  1.3948141340000613 10.8156001569999933   F   F   F
 13.8079546360000549 18.1325837370000720 10.8156001569999933   F   F   F
 13.8079546360000549 12.5533272030000536 10.8156001569999933   F   F   F
 13.8079546360000549  6.9740706679999214 10.8156001569999933   F   F   F
 13.8079546360000549  1.3948141340000613 10.8156001569999933   F   F   F
  5.9176950450000287 18.1325837370000720 10.8156001569999933   F   F   F
  5.9176950450000287 12.5533272030000536 10.8156001569999933   F   F   F
  5.9176950450000287  6.9740706679999214 10.8156001569999933   F   F   F
  5.9176950450000287  1.3948141340000613 10.8156001569999933   F   F   F
 17.7530837259999217 18.1325837370000720 10.8156001569999933   F   F   F
 17.7530837259999217 12.5533272030000536 10.8156001569999933   F   F   F
 17.7530837259999217  6.9740706679999214 10.8156001569999933   F   F   F
 17.7530837259999217  1.3948141340000613 10.8156001569999933   F   F   F
  9.8628241350000643 18.1325837370000720 10.8156001569999933   F   F   F
  9.8628241350000643 12.5533272030000536 10.8156001569999933   F   F   F
  9.8628241350000643  6.9740706679999214 10.8156001569999933   F   F   F
  9.8628241350000643  1.3948141340000613 10.8156001569999933   F   F   F
  1.9725650740000149 18.1325837370000720 10.8156001569999933   F   F   F
  9.8628241350000643  4.1844424010000720 10.8156001569999933   F   F   F
  1.9725650740000149 20.9222120050000342 10.8156001569999933   F   F   F
  1.9725650740000149 15.3429554700000619 10.8156001569999933   F   F   F
  1.9725650740000149  9.7636982699999884 10.8156001569999933   F   F   F
 19.7256482699999580 11.1585130689999925 12.2103998060000407   F   F   F
 19.7256482699999580 16.7377696039999648 12.2103998060000407   F   F   F
  1.9813364612982702  1.3810844245102865 13.6256400121333385   F   F   F
  1.9764522624925753  6.9649149533678871 13.6178624240828849   F   F   F
  1.9868758944548364 12.5526758927219095 13.6161688946060409   F   F   F
  1.9770404005200877 18.1246603063244898 13.6237254626699666   F   F   F
  9.8672982486250298  1.3732973035903908 13.6606971209549357   F   F   F
  9.8361824770507553  6.9452789764977503 13.7211013646221556   F   F   F
  9.8470403413928516 12.4853914041386815 13.7361207832843082   F   F   F
  9.8623730973735260 18.0718946600769748 13.6544096507565307   F   F   F
 17.7430995238631191  1.4296808944362549 13.6009636927692057   F   F   F
 17.6909365491223909  7.0098458330695026 13.6390192542319628   F   F   F
 17.7087301516786901 12.5938272207535800 13.6094265869679401   F   F   F
 17.7286096802272617 18.1482041875941214 13.5925338241053453   F   F   F
  5.9299985426613162  1.3848785428554637 13.6267825365467363   F   F   F
 21.6656408835592309  6.9803176654429810 16.4026654446938309   F   F   F
  5.9684899917022172  7.0125123424198401 13.6224237385024161   F   F   F
  5.9605224543773616 12.6044884479737043 13.6003463284682091   F   F   F
  5.9278517481439756 18.1023310978495360 13.6498486920978817   F   F   F
 19.7256482699999580  5.5792565349999723 12.2103998060000407   F   F   F
 13.8333707484316566  7.0245520750028332 13.6213703944507767   F   F   F
 19.7256482699999580  0.0000000000000000 12.2103998060000407   F   F   F
 11.8353900909999528 11.1585130689999925 12.2103998060000407   F   F   F
  1.9725650740000149  4.1844424010000720 10.8156001569999933   F   F   F
  0.0000000000000000  0.0000000000000000 12.2103998060000407   F   F   F
  0.0000000000000000  5.5792565349999723 12.2103998060000407   F   F   F
  0.0000000000000000 11.1585130689999925 12.2103998060000407   F   F   F
  0.0000000000000000 16.7377696039999648 12.2103998060000407   F   F   F
  7.8902602960000570  0.0000000000000000 12.2103998060000407   F   F   F
  7.8902602960000570  5.5792565349999723 12.2103998060000407   F   F   F
  7.8902602960000570 11.1585130689999925 12.2103998060000407   F   F   F
  7.8902602960000570 16.7377696039999648 12.2103998060000407   F   F   F
 15.7805205919999434  0.0000000000000000 12.2103998060000407   F   F   F
 15.7805205919999434  5.5792565349999723 12.2103998060000407   F   F   F
 15.7805205919999434 11.1585130689999925 12.2103998060000407   F   F   F
 15.7805205919999434 16.7377696039999648 12.2103998060000407   F   F   F
  3.9451301480000271  0.0000000000000000 12.2103998060000407   F   F   F
  3.9451301480000271  5.5792565349999723 12.2103998060000407   F   F   F
  3.9451301480000271 11.1585130689999925 12.2103998060000407   F   F   F
  3.9451301480000271 16.7377696039999648 12.2103998060000407   F   F   F
 11.8353900909999528  0.0000000000000000 12.2103998060000407   F   F   F
 11.8353900909999528  5.5792565349999723 12.2103998060000407   F   F   F
 11.8353900909999528 16.7377696039999648 12.2103998060000407   F   F   F
  3.9538628207206137  2.7730208019865068 14.9790629239430331   F   F   F
 21.7239374137559587  1.4126664643390419 16.4260280044251310   F   F   F
  3.9722718324661375 19.4912226111090661 14.9943549360874417   F   F   F
  5.9586371072937103  4.2032623696596421 16.4126422055817009   F   F   F
 17.7374469826965182 20.8431043617079048 16.4295735787684691   F   F   F
 17.7963668887717894 15.1865544670938259 16.5929103999503731   F   F   F
 17.8021440431292390  9.7151432809900324 16.4700906001119769   F   F   F
 10.0226909199560499  9.9036097434185884 16.3638468472827512   F   F   F
  9.9943510221332534 15.3589442654646877 16.3957996680870757   F   F   F
 17.7117273449320010  4.1003295046671902 16.5177717039163170   F   F   F
  9.8463919637903441 20.9107773739327847 16.3786960077720884   F   F   F
  1.9943701447144837 20.9374563168182632 16.3844085522807497   F   F   F
  9.8378200309543260  4.2696006744704169 16.3946943397918865   F   F   F
  2.0455545808574449 15.3906983043427221 16.3557373915504058   F   F   F
  1.9488758719854622  9.7931097069340396 16.3477096169668172   F   F   F
  1.9802917837207448  4.2172294859304200 16.3644112773545913   F   F   F
 11.8220808913476230  2.8024632520033648 14.9896855828586375   F   F   F
 23.6643073014806724 11.2060195342641755 17.8412284578294589   F   F   F
  0.0031592583782124 16.8148936013427459 17.7711392348084836   F   F   F
  7.9211200495675449  5.6795308696456432 17.7790927125111082   F   F   F
  7.9054841215067579 22.3135973363591695 17.7611792987001564   F   F   F
 23.6666102538332126 22.3004477766310352 17.7892174122522668   F   F   F
  0.0165776640238693  5.5758205051826559 17.7437829796700122   F   F   F
  7.8981317757314269 11.0745003744097961 17.7056115296977410   F   F   F
  7.9077536683201721 16.5263430634079143 17.7270649486743821   F   F   F
 15.7068717079835984  5.5232873550830046 17.7230751635596597   F   F   F
 15.7595966806325052  0.0082589378699244 17.7557896981608714   F   F   F
 15.7565481795950273 16.5565097176340679 17.7057160543973815   F   F   F
 15.7798687596973295 11.0402349107071398 17.7331960311794532   F   F   F
  3.9591467192376619 22.2974888494845693 17.7631740576326536   F   F   F
  3.9854798629414185  5.5626791958863819 17.7905206467431327   F   F   F
  4.0471796633660606 16.6926082197254040 17.8253634850082214   F   F   F
  5.8765948642264689  9.7231931728643737 16.4728362072332217   F   F   F
  3.9239785537089626 11.2333590706838624 17.6257908750415808   F   F   F
  5.9029816643480073 15.2346966228186567 16.5474178511980021   F   F   F
 13.7502901763063452  4.1508172880209546 16.4834671713662537   F   F   F
 21.6710823490338171 18.1424894401018477 16.4073682023395868   F   F   F
 21.7008875813588240 12.5768992242938467 16.3970316681992863   F   F   F
 13.7552456220416239 12.5056626023910837 16.4708952830012798   F   F   F
 13.8662316718194756 18.1834816419259511 16.5201199081561754   F   F   F
 13.7983147110214031  6.9574877104092394 16.3650754626736514   F   F   F
 13.7906519212245673  1.4121059660854152 16.4093098862735083   F   F   F
  5.9880878490313290 18.1360195187622715 16.4962296028307769   F   F   F
  5.9670411819755644 12.4705418258089633 16.3025248454066016   F   F   F
  5.9032738165484560  7.0015642165033158 16.3787517653478574   F   F   F
  5.9444106683516802  1.3960656572315160 16.4164753127144678   F   F   F
 17.7146040812277654 18.0362804590351722 16.3713240014757879   F   F   F
 17.6698931541960462 12.4542120096586792 16.3332717425749756   F   F   F
  9.7919137708149755 18.1131290421937692 16.4379226353540595   F   F   F
 17.7121660428290824  1.3300303143377219 16.3386862847284249   F   F   F
 17.7069307537049312  6.9518464941156317 16.4413830984134890   F   F   F
  9.8494333840998110  7.1302140920982691 16.5783918828459491   F   F   F
  9.9496340768024645 12.6095301296662470 16.6566689818004647   F   F   F
  9.8581139306247501  1.4557430308407102 16.4185371197301571   F   F   F
  2.0350476062124532 18.1376310107425276 16.4173806634798645   F   F   F
  1.9684476377288114 12.5923535323031999 16.3878389457667168   F   F   F
  2.0438158732145491  6.9974035494182774 16.4063703128331930   F   F   F
  1.9476976849340453  1.4107540049333203 16.4272085403068075   F   F   F
 21.6753470703669002 20.9497410521953817 16.3797984478659515   F   F   F
 21.6268758854968084 15.3850612496672063 16.3514068322658019   F   F   F
 13.8060670395456508 20.9423159929569174 16.3671031761858039   F   F   F
 21.7040105615426313  4.2166885046939315 16.3616245893122674   F   F   F
 21.6856189982309679  9.7679910368561593 16.3731468412835426   F   F   F
 13.6453792824376841  9.7372737401736913 16.5484678240865293   F   F   F
 13.7172577243958784 15.3198166204305899 16.4156932217115319   F   F   F
  5.9506147487014642 20.9152895191977670 16.3562285791880804   F   F   F
 11.7761252671611985 11.2556219558713178 18.2686142523076747   F   F   F
 11.8039635468455657  5.6370916938011719 17.7098017823204934   F   F   F
 11.8264713813026976  0.0008555154268057 17.7299445220117882   F   F   F
 17.8444064349753617 15.4602465122524464 19.7139855384687301   F   F   F
 17.7170912505422251 20.9036099510053930 19.1947290018845180   F   F   F
  5.9938461843169293  4.1644790331174812 19.2298490836153064   F   F   F
 17.6527183875244802  4.3310911697351751 19.3997748910927790   F   F   F
 17.8781577401909679  9.7206640896890288 19.1481225630792231   F   F   F
  9.8822588849982527 20.8653921838897780 19.1878433397244201   F   F   F
  9.9572342766304178 15.0805735052952503 18.9990754787652065   F   F   F
 13.9843289477260502 18.0788644039503481 19.3775193741434322   F   F   F
 21.6826010299462340  1.3943094875202970 19.2511938774308504   F   F   F
 21.5949818258485635 12.5367031806850946 19.2726017786663135   F   F   F
 21.6656401796993237  6.9623683829949012 19.1805253491523473   F   F   F
 21.6448301602229982 18.1415706846788680 19.2440402233573842   F   F   F
 13.7795539122294439  1.4623209800222661 19.1952880258163994   F   F   F
 13.7984165742324354  7.1400177430848935 19.0204156230796642   F   F   F
 13.9826045209511598 12.6294363729787715 19.1646458559641744   F   F   F
  5.8944271961431314 12.8080341213785882 18.8514134017676120   F   F   F
  6.1422658379555157 17.8662809465182875 19.3429845860326530   F   F   F
  5.8976545807288820  7.0643663315025105 19.2354930263554103   F   F   F
  5.9408129726922336  1.3293102372822247 19.2710313932197934   F   F   F
 21.6982156369999721 12.5533272030000536 10.8156001569999933   F   F   F
 11.8253764674441975  8.3466699428277185 14.9898091099612945   F   F   F
 11.8345294930047853 19.4718327856557423 15.0258550502066797   F   F   F
 11.8395452750698666 13.8642594301641875 15.0018500949836593   F   F   F
 19.7030983913988180 13.9053545036275725 14.9977372647442131   F   F   F
 19.7109456213937655 19.5109267810107454 14.9558649247694753   F   F   F
 19.7053931208823414  8.3299053395211580 14.9914143193499498   F   F   F
 19.7145486672099857  2.7784928216511560 14.9914256185666890   F   F   F
  3.9461371677562389  8.3965907320497504 14.9333836495734928   F   F   F
  3.9708929978241509 13.9445334824411322 14.9838480196184562   F   F   F
 13.7701915357612457  9.7983997536030927 19.3755696775116633   F   F   F
 13.7172955390528308 15.3033522454111193 19.1687796409323141   F   F   F
 21.7073064518077885  4.1678504056409507 19.2212068531756657   F   F   F
 13.7729699942491965 20.8727296071755646 19.1707572338521643   F   F   F
 19.6611398042819552 16.7562773448319469 17.7861412278759126   F   F   F
 19.6829942766134565  5.5271147829694698 17.7439087550904553   F   F   F
 19.7212095150457429 11.2421326841235292 17.6677476523662023   F   F   F
 19.6990192961244972  0.0465677000530561 17.7688908709474056   F   F   F
 11.8365544436364925 16.8772240401647053 17.7835987474179085   F   F   F
  9.8898635451376329  1.4529354800392380 19.2007383504175841   F   F   F
 10.1121397917074809  6.7791923537142207 19.6754034034536254   F   F   F
  9.7335510431209382 18.1408469140315098 19.1739873716214220   F   F   F
  9.4074218036116442 12.2848941075694977 19.5530822883223898   F   F   F
 17.8086045880943615 12.7288113511290106 19.0394546232976545   F   F   F
 17.5425910814524215 18.0754748310885986 19.1962070836698011   F   F   F
 17.6849330700177241  6.9738595985063059 19.2053077629710991   F   F   F
 17.6947526783429439  1.4918323859820415 19.1797606832631722   F   F   F
  1.9753235938577161  6.9608368332217205 19.2043260372170579   F   F   F
 15.7763396690074043 19.5210938967188632 14.9806927888383541   F   F   F
  2.0799940487167698 12.5480620640715834 19.2519506405688219   F   F   F
  1.9882494964721662  1.3554717005393020 19.2679577687041146   F   F   F
  2.0442572749201280  9.7457264911905384 19.1650431338884353   F   F   F
  1.9759034760930205  4.1474142866974013 19.2288468482328625   F   F   F
  9.8940632624314446  4.1870554807239850 19.1916998323452717   F   F   F
  9.8279786761838430  9.3424894918488643 18.8959571936525279   F   F   F
  1.9975383983756947 20.8812165650524548 19.2129119929869425   F   F   F
  1.9697664100137733 15.3385535240214708 19.1970459533969908   F   F   F
 21.6054214130180107  9.7315553195864499 19.1713817911897451   F   F   F
 21.6939235726483375 15.3418419897143909 19.1805382838975795   F   F   F
 21.6533570456677964 20.9079745274387676 19.2198749405231979   F   F   F
  5.6949760395748612  9.8670064870040886 19.2325367224940429   F   F   F
  5.9746035976851495 15.0446579316237283 20.0061180271319259   F   F   F
 13.7109424728745299  4.2589802103169365 19.3339096580094889   F   F   F
  5.9457962193105542 20.7659151772567405 19.1125080316410845   F   F   F
  2.0333414472619817 18.1304692954024951 19.2379635181196385   F   F   F
 21.6982156369999721 18.1325837370000720 10.8156001569999933   F   F   F
  0.0119969525199127  2.7398358692997018 18.5953985553800152   F   F   F
 19.7256482699999580 13.9481413360000008 12.2103998060000407   F   F   F
 23.6654662378497740 11.1788156503443243 15.2115819072227971   F   F   F
  7.8472875434275160 11.1410355182538954 15.0232364625350243   F   F   F
  7.8163186679108057  5.5355500485602809 15.0847733853976713   F   F   F
  7.8861651975797011  0.0239485838381823 15.1739616047015708   F   F   F
  7.9178026826318515 16.7628081884039304 15.0406324816061883   F   F   F
 15.7615261051849576  0.0029727838874359 15.1670044006801810   F   F   F
 15.8262487509816143 11.1496338837928075 15.0220649358282525   F   F   F
 15.7907434560402891  5.5314426976886919 15.0939933137925859   F   F   F
 15.7555575823547525 16.7800922040603595 15.0611099520410718   F   F   F
  3.9275409388831224  0.0279335178571707 15.1891564687927314   F   F   F
  3.9354400414328192  5.5404381110293217 15.1830752185693996   F   F   F
  3.8699820136064562 11.1564043269572224 15.0580317971904485   F   F   F
 11.8399654555792893 22.3050015109518540 15.1633199149584126   F   F   F
  3.8957267724404385 16.7664604902607159 15.0899485059533909   F   F   F
 11.8629375172293923 16.7973431466985552 15.1128542157990928   F   F   F
 19.7469237887325377  0.0094959080316388 15.1955255051244311   F   F   F
 11.8666223121072587 11.1522502083488000 15.0060413026743671   F   F   F
 11.8621672008076491  5.5304574126523143 15.0638897532538074   F   F   F
 19.7718870823625750  5.5439292000884546 15.1011196140857891   F   F   F
  0.0016728947570618 16.7547829509766935 15.1977223683490887   F   F   F
  0.0167581430521485  5.5744630974289198 15.1711504104418058   F   F   F
  0.0019600220403452 22.3142712616321433 15.1981868497363184   F   F   F
 19.7256482699999580 19.5273965409999306 12.2103998060000407   F   F   F
  0.0000000000000000 13.9481413360000008 12.2103998060000407   F   F   F
  0.0000000000000000 19.5273965409999306 12.2103998060000407   F   F   F
  7.8902602960000570  2.7896282670000101 12.2103998060000407   F   F   F
  7.8902602960000570  8.3688848019999824 12.2103998060000407   F   F   F
  7.8902602960000570 13.9481413360000008 12.2103998060000407   F   F   F
  7.8902602960000570 19.5273965409999306 12.2103998060000407   F   F   F
 15.7805205919999434  2.7896282670000101 12.2103998060000407   F   F   F
 15.7805205919999434  8.3688848019999824 12.2103998060000407   F   F   F
 15.7805205919999434 13.9481413360000008 12.2103998060000407   F   F   F
 19.7890780678740370 11.1563071208981022 15.0871439108627108   F   F   F
 15.7805205919999434 19.5273965409999306 12.2103998060000407   F   F   F
  3.9451301480000271  8.3688848019999824 12.2103998060000407   F   F   F
  3.9451301480000271 13.9481413360000008 12.2103998060000407   F   F   F
  3.9451301480000271 19.5273965409999306 12.2103998060000407   F   F   F
 11.8353900909999528  2.7896282670000101 12.2103998060000407   F   F   F
 11.8353900909999528  8.3688848019999824 12.2103998060000407   F   F   F
 11.8353900909999528 13.9481413360000008 12.2103998060000407   F   F   F
 11.8353900909999528 19.5273965409999306 12.2103998060000407   F   F   F
 19.7256482699999580  2.7896282670000101 12.2103998060000407   F   F   F
 19.7256482699999580  8.3688848019999824 12.2103998060000407   F   F   F
  3.9451301480000271  2.7896282670000101 12.2103998060000407   F   F   F
  0.0000000000000000  8.3688848019999824 12.2103998060000407   F   F   F
 19.7892349193533761 16.7754375051245290 15.0753250032985715   F   F   F
 19.8099971744799426  8.3089444787352011 18.1298960956224917   F   F   F
 19.7019345572937787 19.5494412853695643 18.5395174610443298   F   F   F
 19.8829787349306244 13.9932206101089047 18.1017580623120296   F   F   F
 23.6597664428497083 19.5199715031415550 18.6702192014179893   F   F   F
  7.8530445355223009  2.6784057284211613 18.4086668269632199   F   F   F
  7.9266215154615649 13.9412430942556433 17.8644176695386889   F   F   F
  7.7165577531670611  8.3421531025310216 17.7840662896846169   F   F   F
 15.8858828252822377  8.3080285885685594 17.8277327170810906   F   F   F
 15.7466508277077004  2.7806998738093904 18.3602587087930900   F   F   F
  7.9120375429984282 19.6174707632750582 18.0982624696498640   F   F   F
  3.7927587388379074 14.0092485943188869 18.0782039213659047   F   F   F
  3.9247146898065419 19.5171766887330627 18.3963587536939457   F   F   F
 11.8777293907739043  8.2879820917034444 17.8460297316679011   F   F   F
 11.8418561417151960  2.7202541801155187 18.1923501367080078   F   F   F
  3.9651354090015940  2.7400278509367650 18.6532222312209512   F   F   F
  3.8584001788802689  8.2931077650726088 18.2202459546230955   F   F   F
 15.7499152500252020 19.6560012157348929 18.2033649802579447   F   F   F
 15.7725821918060536 13.9746124094927620 17.7933391779217018   F   F   F
 -0.0021287401623241  8.3654458729737335 18.6503815122477015   F   F   F
 23.6673578553385298 13.8762837499990930 19.1058398070188105   F   F   F
 19.7286311966443932  2.7856678110131754 18.6015238122633200   F   F   F
 11.8475599095342723 19.5615566498915747 18.2894639794817060   F   F   F
  0.0000000000000000  2.7896282670000101 12.2103998060000407   F   F   F
 11.9288385395503411 13.9446621044117549 17.8177033224204848   F   F   F
 21.6869079985183184  0.0078314566993892 18.1125819212388279   F   F   F
 13.8574657035470707 16.7357103267120912 17.9805415077672173   F   F   F
 13.9729675286731663 11.1844582366369121 17.8103797382886064   F   F   F
  5.7449964130945181 11.1288315314695669 17.8008071433714363   F   F   F
  5.9301863177516596 16.8129855648918713 17.7344792564864804   F   F   F
 13.8277974810206619  5.5228082651980372 17.9198994534336613   F   F   F
 13.7906052123678666  0.0212676342493669 18.1295224101445420   F   F   F
  5.9059545066771308 22.2734960886919140 18.1231198261145074   F   F   F
  5.8930432931537622  5.4907756334311921 18.1044952199139679   F   F   F
  9.8735863411938904  0.0029866017566137 18.1383656265513338   F   F   F
  9.8156762608203731  5.5423821497009031 17.7428818180284651   F   F   F
  9.8930905019921216 16.7524568191936609 17.8403410202577497   F   F   F
 17.9037633288519373 11.2193237232467347 17.8623921815951405   F   F   F
 17.8077687517286378 16.7953839476013265 17.7152366966182413   F   F   F
 17.8402436450326753  5.5279289734254293 17.8383508675366578   F   F   F
 17.7423456981998982  0.0388807974597424 18.1251737351497901   F   F   F
  1.9723077813840715  5.5369281844470413 18.1030496405176855   F   F   F
  1.9327316385195656 11.1836999146292495 18.0963281309326618   F   F   F
  1.9302176611723847 16.7550272176970516 18.0927557216969177   F   F   F
  1.9659048851497254 22.2992735842932319 18.1122924613231824   F   F   F