Au O  Sr Ti H 
 1.0000000000000000
    23.6707801818999997    0.0000000000000000    0.0000000000000000
     0.0000000000000000   22.3170261383000010    0.0000000000000000
     0.0000000000000000    0.0000000000000000   30.0000000000000000
 Au  O   Sr  Ti  H  
  50 264  72  72   1
Selective dynamics
Cartesian
 17.0049289825117391 11.7441911170887519 22.6156199746447690   F   F   F
 14.7823214182812190 12.6684058332494569 21.1171405722901326   F   F   F
 17.0014820688679222  5.7820145534245286 20.7466026249495634   F   F   F
  6.9571264653863167 16.6427467690790074 20.9306663206175223   F   F   F
 12.2000162675593806 13.4617994860002668 23.2951419678409550   F   F   F
 13.6646500255487879 16.2165958848119125 23.7798843319172803   F   F   F
 13.0343068685374668  8.5487434533213804 24.8563981781199530   F   F   F
  5.7280007243548905 10.3846024508636727 21.2802058501930453   F   F   F
  6.7257245462598076 14.7154709440481710 22.9570968886329716   F   F   F
 14.2687654902244070  6.3912605496673098 23.5951279859945373   F   F   F
 12.1746639049316627 10.7911187814336706 20.3369322234223837   F   F   F
 13.3087634838581614 10.8132603982805442 22.8638917338939329   F   F   F
 10.9880291014509890 15.5957523752325677 24.8395799625030591   F   F   F
 18.0980061529852776  9.6396623264723242 21.1753654542564433   F   F   F
 17.3643452959943794 13.7460624871332282 20.8158733505541811   F   F   F
 15.0515898468900282 13.0128821653093496 24.0073034253993320   F   F   F
 14.0811424295869685 17.5263890340579067 21.3751644046831260   F   F   F
 11.4415304213385127 17.4037351606495463 22.7205669979724405   F   F   F
  8.2684976857844763 11.1725899985255417 20.9293079098543373   F   F   F
 10.1904960930046649  8.2861932556511206 24.4421945689294589   F   F   F
  8.8116215495400159  6.6524118416122517 22.6509622904434877   F   F   F
 10.4581200792892162  5.0933792812221190 20.9053106378116311   F   F   F
  9.2621078105811261 18.2517157323709895 21.1830277145527042   F   F   F
  6.8496844874468792 11.9560588836277528 23.3555498137492918   F   F   F
 13.1823198224789593  4.6652228781352951 21.3454885711211730   F   F   F
 10.7348447211655706 12.9476835159708035 21.0982568990814130   F   F   F
 14.5255183575850904  7.1430034043959285 20.9186815828659327   F   F   F
 16.6976203537992234 16.9110421463340224 20.6561850572117862   F   F   F
 15.5285875168704539  9.9021229200299246 24.3822428339555266   F   F   F
  8.6114956866210211 13.8006247328740166 24.7222095311589776   F   F   F
 13.4781458553515048 11.3774572948715775 25.6964774063439059   F   F   F
 15.7659460224434724  4.2726350292166480 22.5404630107159072   F   F   F
 11.1734831295281349 10.0117944448798202 26.3664248154404852   F   F   F
 12.1987600937796650  8.4047338927346793 22.0065336467560684   F   F   F
  6.7076554788453171  7.5455981778922325 21.0800517831723795   F   F   F
 15.8339280628201173 15.2035473711265983 22.4681458531143257   F   F   F
  9.4213359381812563  8.5281777652711188 20.7040736046101799   F   F   F
  8.8916044504086660 10.9718904054834070 25.0295003830012064   F   F   F
 10.9730710567466971 12.7529307788525355 26.0110984213542409   F   F   F
  7.7308857208838857  9.2368085015957035 23.0958158351482687   F   F   F
 11.5331848386152540  5.9876570310999284 23.2604340812904304   F   F   F
  9.9920623258034009 15.5742961844868013 20.9983412407510457   F   F   F
 16.5461372085734197  7.7464031737088410 22.7018508780290844   F   F   F
 18.3176344840374448  9.5842223908186739 23.8885436227018388   F   F   F
  6.0570045797874972 13.1603668642609506 20.8583897500196187   F   F   F
 15.3351284395137490  9.8586555979193111 20.8955479107683963   F   F   F
 13.3748404452264857 14.2828383646576587 25.8132016900639307   F   F   F
 12.8719513106566588 14.8610483582076149 21.0299822919327362   F   F   F
 10.4769517102316083 10.5970141673374272 22.6923610377755764   F   F   F
  8.7721404548330213 16.5168432798769942 23.3385127388047309   F   F   F
  5.9168044005171447  4.2105230202091679 13.6285094530632875   F   F   F
 17.7410158750387161 20.9428050087083548 13.6599712062189980   F   F   F
 17.7297303596139280 15.3681961860687561 13.7190687513000391   F   F   F
 17.7399709849583864  9.7832043830470425 13.6753770639971641   F   F   F
 17.7576644971957158  4.2330608773401437 13.6693035004329353   F   F   F
  9.8820316236452665 20.8823885366771940 13.6192606727575871   F   F   F
  9.8682677248049870 15.2781808498593943 13.6445802380092758   F   F   F
  9.8635397354210248  9.7166217830204999 13.6149058203280422   F   F   F
  1.9973249157397190 15.3306260902109788 13.5924731787011321   F   F   F
  1.9854933896740532 20.9044244068710086 13.6041144765192694   F   F   F
  1.9610696484621029  9.7494322263686346 13.5883913726557033   F   F   F
  1.9860304192443721  4.1659406064067550 13.5900836670821494   F   F   F
 21.6961634340516625 18.1217853243100890 13.6228042577578687   F   F   F
 21.6852521898589572 12.5513363348774156 13.6149689157493334   F   F   F
  5.9448145477260796  9.8025525890328051 13.6471881193633937   F   F   F
 21.6857168539579135  1.3862904564844905 13.6231929215736152   F   F   F
 21.6890286515801520  6.9675923636264523 13.6152802581345309   F   F   F
  9.8749910683717328  4.1750376337670136 13.6076538311181654   F   F   F
  5.9750427829124755 15.3390250516106139 13.6828256787649920   F   F   F
 21.6990309333649591 20.9057271677170995 13.5989969070879511   F   F   F
 13.7890225261433237  4.2181886930356791 13.6517857940703813   F   F   F
  0.0014277640785912  2.7924431255064626 14.9521233199670434   F   F   F
 13.8140838958915690 18.0757133795946174 13.6633762921648536   F   F   F
 -0.0010082302077169  8.3331245396810569 14.9534631545996071   F   F   F
 23.6641828232088898 13.9947077186423172 14.9301946142870019   F   F   F
  7.8949281744334545  2.7973279112194995 14.9524272664605427   F   F   F
  0.0008442985843741 19.5296902530318377 14.9865585652791875   F   F   F
  7.8936024869817398 19.5015489142638998 14.9648977811852735   F   F   F
 15.7630873791731876  2.8101399730503851 14.9745175234363561   F   F   F
  7.9486747187362470 13.9526561361136512 15.1311875076818012   F   F   F
  7.9144236943652118  8.4460757484577087 15.0898111258739434   F   F   F
 15.7533801016432751  8.4489696323677457 15.0996180799849160   F   F   F
 21.6663933239835593 15.3248234491422402 13.5898311405182799   F   F   F
 21.6843490121780107  9.7541855009443594 13.6110361639345232   F   F   F
 21.6788475074940301  4.1708894962569980 13.5955502265871555   F   F   F
 13.7907830930228474 20.8912998246676729 13.6146861055178636   F   F   F
 13.7947136513093032 15.3089082438850621 13.6378270353735758   F   F   F
 13.7921879554058933  9.7894674897541094 13.6782938226251165   F   F   F
  5.9174517834437905 20.8894069125000250 13.6205905486880106   F   F   F
 15.7506337555100551 13.9665647716159071 15.0882071104731210   F   F   F
 13.8387805399162893 12.5506236318074116 13.6527075736115844   F   F   F
 13.7971436471685802  1.3921520172780006 13.6429262444259898   F   F   F
 21.6982156369999721 15.3429554700000619 10.8156001569999933   F   F   F
 21.6982156369999721  9.7636982699999884 10.8156001569999933   F   F   F
 21.6982156369999721  4.1844424010000720 10.8156001569999933   F   F   F
 13.8079546360000549 20.9222120050000342 10.8156001569999933   F   F   F
 13.8079546360000549 15.3429554700000619 10.8156001569999933   F   F   F
 13.8079546360000549  9.7636982699999884 10.8156001569999933   F   F   F
 13.8079546360000549  4.1844424010000720 10.8156001569999933   F   F   F
  5.9176950450000287 20.9222120050000342 10.8156001569999933   F   F   F
 21.6982156369999721 20.9222120050000342 10.8156001569999933   F   F   F
  5.9176950450000287 15.3429554700000619 10.8156001569999933   F   F   F
  5.9176950450000287  4.1844424010000720 10.8156001569999933   F   F   F
 17.7530837259999217 20.9222120050000342 10.8156001569999933   F   F   F
 17.7530837259999217 15.3429554700000619 10.8156001569999933   F   F   F
 17.7530837259999217  9.7636982699999884 10.8156001569999933   F   F   F
 17.7530837259999217  4.1844424010000720 10.8156001569999933   F   F   F
  9.8628241350000643 20.9222120050000342 10.8156001569999933   F   F   F
  9.8628241350000643 15.3429554700000619 10.8156001569999933   F   F   F
  9.8628241350000643  9.7636982699999884 10.8156001569999933   F   F   F
  5.9176950450000287  9.7636982699999884 10.8156001569999933   F   F   F
  1.9725650740000149  1.3948141340000613 10.8156001569999933   F   F   F
  1.9725650740000149  6.9740706679999214 10.8156001569999933   F   F   F
  1.9725650740000149 12.5533272030000536 10.8156001569999933   F   F   F
 21.6982156369999721  6.9740706679999214 10.8156001569999933   F   F   F
 21.6982156369999721  1.3948141340000613 10.8156001569999933   F   F   F
 13.8079546360000549 18.1325837370000720 10.8156001569999933   F   F   F
 13.8079546360000549 12.5533272030000536 10.8156001569999933   F   F   F
 13.8079546360000549  6.9740706679999214 10.8156001569999933   F   F   F
 13.8079546360000549  1.3948141340000613 10.8156001569999933   F   F   F
  5.9176950450000287 18.1325837370000720 10.8156001569999933   F   F   F
  5.9176950450000287 12.5533272030000536 10.8156001569999933   F   F   F
  5.9176950450000287  6.9740706679999214 10.8156001569999933   F   F   F
  5.9176950450000287  1.3948141340000613 10.8156001569999933   F   F   F
 17.7530837259999217 18.1325837370000720 10.8156001569999933   F   F   F
 17.7530837259999217 12.5533272030000536 10.8156001569999933   F   F   F
 17.7530837259999217  6.9740706679999214 10.8156001569999933   F   F   F
 17.7530837259999217  1.3948141340000613 10.8156001569999933   F   F   F
  9.8628241350000643 18.1325837370000720 10.8156001569999933   F   F   F
  9.8628241350000643 12.5533272030000536 10.8156001569999933   F   F   F
  9.8628241350000643  6.9740706679999214 10.8156001569999933   F   F   F
  9.8628241350000643  1.3948141340000613 10.8156001569999933   F   F   F
  1.9725650740000149 18.1325837370000720 10.8156001569999933   F   F   F
  9.8628241350000643  4.1844424010000720 10.8156001569999933   F   F   F
  1.9725650740000149 20.9222120050000342 10.8156001569999933   F   F   F
  1.9725650740000149 15.3429554700000619 10.8156001569999933   F   F   F
  1.9725650740000149  9.7636982699999884 10.8156001569999933   F   F   F
 19.7256482699999580 11.1585130689999925 12.2103998060000407   F   F   F
 19.7256482699999580 16.7377696039999648 12.2103998060000407   F   F   F
  1.9819724513358339  1.3805295027803830 13.6263639660745017   F   F   F
  1.9777963825655684  6.9663939599480207 13.6153428641646421   F   F   F
  1.9866211226930390 12.5533269526921725 13.6159018489832615   F   F   F
  1.9748735735939178 18.1246755039879837 13.6254924292790456   F   F   F
  9.8670826823186584  1.3730358923369428 13.6594462904749196   F   F   F
  9.8340927019989071  6.9468808705308902 13.7219149626218737   F   F   F
  9.8481725792987689 12.4855111109064847 13.7367270473650880   F   F   F
  9.8618257125897593 18.0709846340751596 13.6555303300275952   F   F   F
 17.7436984016521535  1.4296101154268475 13.6010309914803287   F   F   F
 17.6904780895466978  7.0099251557447531 13.6395475456745014   F   F   F
 17.7088774419143071 12.5922824030496212 13.6120121749747405   F   F   F
 17.7397565050833954 18.1472939344148720 13.5926690699170916   F   F   F
  5.9238157958049538  1.3831201294200135 13.6256329329876849   F   F   F
 21.6669871640606644  6.9748221577564111 16.4020760989772860   F   F   F
  5.9707923821656168  7.0113767989071736 13.6253528036767904   F   F   F
  5.9641222152217157 12.5989202567141749 13.6132449811703236   F   F   F
  5.9236173612947285 18.0916903702340690 13.6607942575448167   F   F   F
 19.7256482699999580  5.5792565349999723 12.2103998060000407   F   F   F
 13.8348673051189532  7.0156950560885738 13.6279577684513367   F   F   F
 19.7256482699999580  0.0000000000000000 12.2103998060000407   F   F   F
 11.8353900909999528 11.1585130689999925 12.2103998060000407   F   F   F
  1.9725650740000149  4.1844424010000720 10.8156001569999933   F   F   F
  0.0000000000000000  0.0000000000000000 12.2103998060000407   F   F   F
  0.0000000000000000  5.5792565349999723 12.2103998060000407   F   F   F
  0.0000000000000000 11.1585130689999925 12.2103998060000407   F   F   F
  0.0000000000000000 16.7377696039999648 12.2103998060000407   F   F   F
  7.8902602960000570  0.0000000000000000 12.2103998060000407   F   F   F
  7.8902602960000570  5.5792565349999723 12.2103998060000407   F   F   F
  7.8902602960000570 11.1585130689999925 12.2103998060000407   F   F   F
  7.8902602960000570 16.7377696039999648 12.2103998060000407   F   F   F
 15.7805205919999434  0.0000000000000000 12.2103998060000407   F   F   F
 15.7805205919999434  5.5792565349999723 12.2103998060000407   F   F   F
 15.7805205919999434 11.1585130689999925 12.2103998060000407   F   F   F
 15.7805205919999434 16.7377696039999648 12.2103998060000407   F   F   F
  3.9451301480000271  0.0000000000000000 12.2103998060000407   F   F   F
  3.9451301480000271  5.5792565349999723 12.2103998060000407   F   F   F
  3.9451301480000271 11.1585130689999925 12.2103998060000407   F   F   F
  3.9451301480000271 16.7377696039999648 12.2103998060000407   F   F   F
 11.8353900909999528  0.0000000000000000 12.2103998060000407   F   F   F
 11.8353900909999528  5.5792565349999723 12.2103998060000407   F   F   F
 11.8353900909999528 16.7377696039999648 12.2103998060000407   F   F   F
  3.9540886195757050  2.7751373594876476 14.9811765835123865   F   F   F
 21.7228246351176537  1.4124207046704291 16.4238204291366330   F   F   F
  3.9712969793522750 19.4887645557719260 14.9968997751984023   F   F   F
  5.9638415296986969  4.1986477271247500 16.4196871126490898   F   F   F
 17.7362931157085448 20.8444527343082235 16.4284997180132493   F   F   F
 17.7937679609224446 15.1837298060667347 16.5923301697983732   F   F   F
 17.8206395321603139  9.6978641152520577 16.4891912642126250   F   F   F
 10.0161954541641531  9.9087319980538808 16.3667037010571157   F   F   F
 10.0162015629252910 15.3523996497828303 16.4039185403045487   F   F   F
 17.7163186466947131  4.0977252478397483 16.5248366901807167   F   F   F
  9.8448920413150436 20.9069467880007274 16.3808887154703164   F   F   F
  1.9794218356893705 20.9549518173167222 16.3716591937679148   F   F   F
  9.8376322656485371  4.2692348543945098 16.3937032821496729   F   F   F
  2.0500403081660652 15.3924846206555497 16.3532074494396298   F   F   F
  1.9540670897021848  9.7859831687936367 16.3555113350871899   F   F   F
  1.9822646284281202  4.2141170923825797 16.3704606893578521   F   F   F
 11.8199614362593302  2.7981774664137440 14.9913915678066214   F   F   F
 23.6621247100418586 11.1404850707519518 17.8344809771573480   F   F   F
 23.6582433823084273 16.8217546783137415 17.7653349152169184   F   F   F
  7.9228404526972129  5.6762289132000285 17.7797089686983085   F   F   F
  7.9059892548118755 22.3130496803782137 17.7611444959967493   F   F   F
 23.6622007922172806 22.2827662360697332 17.7847245619007772   F   F   F
  0.0215176437908106  5.5770250614909429 17.7524571561384157   F   F   F
  7.8916784243340548 11.0845387560133393 17.7308993505799997   F   F   F
  7.9376892372970840 16.5083196691802208 17.7321585678416547   F   F   F
 15.7044054415046634  5.5160828044306696 17.7222295800719678   F   F   F
 15.7606001178287851  0.0096559360782471 17.7564239762339255   F   F   F
 15.7595039801262153 16.5586936481911984 17.7047106067848965   F   F   F
 15.7868240011160417 11.0148758196547654 17.7420624164482490   F   F   F
  3.9613063527740686 22.2797570327784840 17.7692672418552711   F   F   F
  3.9888025699768899  5.5644507817322371 17.7973627820840967   F   F   F
  4.0384681327707481 16.7342307160380273 17.8474503992747557   F   F   F
  5.8798751306826960  9.7307465483224007 16.4708999430608856   F   F   F
  3.9150372621965319 11.2295660896559575 17.6273903876877434   F   F   F
  5.8949314950651024 15.2446327945907463 16.5610701037911454   F   F   F
 13.7456007701300162  4.1505348644392139 16.4750766823524160   F   F   F
 21.6677577403031414 18.1457909572078435 16.4085249860138269   F   F   F
 21.7015602508419612 12.5753365219876780 16.3973036858718295   F   F   F
 13.7614676198829518 12.5023886126934141 16.4850893656599062   F   F   F
 13.8760399506733165 18.1807057972499670 16.5124455925542755   F   F   F
 13.8026828942236648  6.9562482629544231 16.3701367992011129   F   F   F
 13.7919818379699937  1.4113881055920454 16.4069206153744069   F   F   F
  6.0018947438210368 18.1337174399976853 16.5262202517774384   F   F   F
  5.9724771703942174 12.4737924318987972 16.3159804365107348   F   F   F
  5.9041740210380738  7.0024428162479877 16.3811737106261894   F   F   F
  5.9430607783575375  1.3940533807229856 16.4173774920728910   F   F   F
 17.7146222810243259 18.0379788742553231 16.3730351534611955   F   F   F
 17.6690828028958116 12.4446810240633070 16.3378868310958296   F   F   F
  9.7875947044262848 18.1105151456117177 16.4461022199856082   F   F   F
 17.7125112867219272  1.3308757605211721 16.3359343154698280   F   F   F
 17.7052468814313961  6.9457834964003036 16.4388751457681366   F   F   F
  9.8450506660261912  7.1348181994073894 16.5776201147636790   F   F   F
  9.9523418376893922 12.6103905610472466 16.6674214273045536   F   F   F
  9.8589711111992475  1.4552804720776644 16.4193036754908910   F   F   F
  2.0081405181446312 18.1429543163335723 16.4195204143561071   F   F   F
  1.9518897291458182 12.5893816255433482 16.3890557941849124   F   F   F
  2.0445351942051242  6.9944954108198996 16.4060446937572735   F   F   F
  1.9481768523637204  1.4114072881346373 16.4253612988646580   F   F   F
 21.6742795756220943 20.9497636067876059 16.3822651036936655   F   F   F
 21.6167366939891181 15.3874444622052309 16.3493898432980096   F   F   F
 13.8128868396269446 20.9362878296236588 16.3691518471808202   F   F   F
 21.7046366933788661  4.2153123843607769 16.3641155540010885   F   F   F
 21.6737703850444348  9.7621539088446436 16.3759784914306898   F   F   F
 13.6457806540858186  9.7346291204088118 16.5488910312448780   F   F   F
 13.7185104170754393 15.3197352321256712 16.4138052382130795   F   F   F
  5.9545214462125875 20.9171908155313986 16.3560833922364957   F   F   F
 11.7794509475497637 11.2589762320033380 18.2728290927105554   F   F   F
 11.8001509788871282  5.6435712010792116 17.7083739416600032   F   F   F
 11.8252217786707643 -0.0002162347090360 17.7306819615513973   F   F   F
 17.8423110081741321 15.4787406803317680 19.7263585946290227   F   F   F
 17.7188478442683603 20.9027990921816205 19.1946560381119262   F   F   F
  5.9956965512869811  4.1599387778003871 19.2348913304282974   F   F   F
 17.6465402338702049  4.3446012550904536 19.4081538524110080   F   F   F
 17.8959938871756279  9.7371909269167922 19.1816371017963441   F   F   F
  9.8788447699199793 20.8663961785004695 19.1942519935437446   F   F   F
  9.9776910911984302 15.0885992185816669 19.0217250918440897   F   F   F
 13.9621974325180176 18.0935526951821615 19.3705940462437525   F   F   F
 21.6871068335484551  1.3930990213544669 19.2440287089944277   F   F   F
 21.6143781881643626 12.5323798801406365 19.2808798185795247   F   F   F
 21.6644476508207049  6.9634279648759332 19.1861463052151606   F   F   F
 21.6333885166121576 18.1366657615921554 19.2468301866732361   F   F   F
 13.7799147870358087  1.4617502261487778 19.1944927095738009   F   F   F
 13.8039669279293626  7.1322425869040353 19.0200619893295695   F   F   F
 14.0019318040021865 12.5948669547192580 19.1949146520217369   F   F   F
  5.8551154726677330 12.8023365262616018 18.8664787366730344   F   F   F
  6.1885677423512018 17.8107420604953788 19.4012205800203468   F   F   F
  5.9148894675287114  7.0584517095051362 19.2460107490487928   F   F   F
  5.9371640150221952  1.3265210080797816 19.2631267875920216   F   F   F
 21.6982156369999721 12.5533272030000536 10.8156001569999933   F   F   F
 11.8239512326799527  8.3435997088453142 14.9954231538171303   F   F   F
 11.8333049300954691 19.4730133407775305 15.0289703516441655   F   F   F
 11.8455019279350751 13.8585127542495083 15.0032566996448296   F   F   F
 19.7001705288355566 13.9054683046975711 14.9993723478548304   F   F   F
 19.7122855141679381 19.5161965349178530 14.9564117448200111   F   F   F
 19.7085433493931781  8.3279018491861176 14.9840709205054576   F   F   F
 19.7149722538207968  2.7786828020999241 14.9931084151115304   F   F   F
  3.9466286461503652  8.3965941777581286 14.9354966451437701   F   F   F
  3.9708517448033969 13.9325816372174138 14.9985572961665952   F   F   F
 13.7573127523225747  9.7799970730485519 19.3746844521455444   F   F   F
 13.7326041027044834 15.2933032915195195 19.1633906687082600   F   F   F
 21.7090302563243398  4.1674986890615626 19.2183135783706689   F   F   F
 13.7741721249292688 20.8755839528877658 19.1746480762918097   F   F   F
 19.6574702210336802 16.7513485133041726 17.7838888933209276   F   F   F
 19.6847423015921592  5.5338661180836910 17.7466464344418213   F   F   F
 19.7260608238521264 11.2439960499004084 17.6819022289437449   F   F   F
 19.6985637897726242  0.0448574623010917 17.7681467372476654   F   F   F
 11.8575294196542380 16.8782155402893892 17.7823417759072413   F   F   F
  9.8864351061491949  1.4544818982574461 19.2020650367891434   F   F   F
 10.1176989126428509  6.8132083584940162 19.6467358454266332   F   F   F
  9.7568288389324316 18.1397399593038600 19.1831793976104414   F   F   F
  9.4169780979539759 12.2963426913130736 19.5766781821516247   F   F   F
 17.8014546001361431 12.7465156229799774 19.0285054649936036   F   F   F
 17.5411454896057322 18.0751320058446758 19.2001808649981527   F   F   F
 17.6695312289995776  6.9782259602987873 19.2079307148469525   F   F   F
 17.6966637664808708  1.4945531310552682 19.1746291305404348   F   F   F
  1.9790906280984510  6.9633833632254589 19.2132788818041398   F   F   F
 15.7789620202019663 19.5156798046143933 14.9668666085056383   F   F   F
  2.0600898830926107 12.5385758820563140 19.2572725103125499   F   F   F
  1.9770285630606594  1.3508028841363318 19.2441436605609297   F   F   F
  2.0599729859468154  9.7454481801317421 19.1842029807803556   F   F   F
  1.9766009626099088  4.1455432522618381 19.2291670895049229   F   F   F
  9.9050072359674939  4.1913258934791031 19.1941782074558347   F   F   F
  9.8248480194366721  9.3554003303610251 18.8938482452808252   F   F   F
  1.9912525424472789 20.8731678255488973 19.2242554629822493   F   F   F
  1.9625275231209185 15.3362989826524831 19.1958817609011199   F   F   F
 21.6005076119865365  9.7342261725643251 19.1922500712902924   F   F   F
 21.6961769997625886 15.3430220254102228 19.1926028658781469   F   F   F
 21.6391261172834568 20.9042367367675581 19.2267330366748936   F   F   F
  5.6971042827126528  9.8636214880820656 19.2383594950911032   F   F   F
  6.0226099163743578 15.0726431641683263 19.9718112982316782   F   F   F
 13.6938774315617717  4.2538579575689228 19.3243261906687280   F   F   F
  5.9627820549301118 20.7568619665074721 19.1222924145643205   F   F   F
  1.9880235690779620 18.1182671651815888 19.2557572028314858   F   F   F
 21.6982156369999721 18.1325837370000720 10.8156001569999933   F   F   F
  0.0133444155354627  2.7415345796499078 18.5689220239160093   F   F   F
 19.7256482699999580 13.9481413360000008 12.2103998060000407   F   F   F
 23.6583247984747871 11.1718914850528499 15.2161148534564443   F   F   F
  7.8380186061423123 11.1417570134134660 15.0284680195770335   F   F   F
  7.8127424072587512  5.5361013228507749 15.0837745274445414   F   F   F
  7.8845396550754590  0.0223783761974489 15.1729044064753023   F   F   F
  7.8999101284065363 16.7572161670263959 15.0476673501173384   F   F   F
 15.7623347391386393  0.0022561462456291 15.1673291007611706   F   F   F
 15.8267912755788256 11.1513965955121801 15.0215244277057565   F   F   F
 15.7903699247422065  5.5286249690781224 15.0873060247790409   F   F   F
 15.7536932003260954 16.7792271104155546 15.0656812418354757   F   F   F
  3.9286464062233577  0.0249479905391560 15.1952252542495074   F   F   F
  3.9373619063155054  5.5396249959926971 15.1875686213795973   F   F   F
  3.8656668117541062 11.1565585288396747 15.0616473975897165   F   F   F
 11.8386691328001277 22.3009455215910073 15.1643504736419636   F   F   F
  3.8883454656274088 16.7705250787638320 15.1000630505041631   F   F   F
 11.8589521651082119 16.7965282369292837 15.1167789490277436   F   F   F
 19.7454089239876893  0.0088931539947110 15.1943226518819312   F   F   F
 11.8687508132778774 11.1535512893007915 15.0076617154942245   F   F   F
 11.8604967145634141  5.5303859482739366 15.0572012482345006   F   F   F
 19.7752437055289434  5.5434530110346572 15.0971870115238023   F   F   F
 23.6640396117290841 16.7542288450628298 15.1969861204150707   F   F   F
  0.0190028045282289  5.5744312021859468 15.1760898185076627   F   F   F
 -0.0006278280844214 22.3169026498381839 15.1937581050373574   F   F   F
 19.7256482699999580 19.5273965409999306 12.2103998060000407   F   F   F
  0.0000000000000000 13.9481413360000008 12.2103998060000407   F   F   F
  0.0000000000000000 19.5273965409999306 12.2103998060000407   F   F   F
  7.8902602960000570  2.7896282670000101 12.2103998060000407   F   F   F
  7.8902602960000570  8.3688848019999824 12.2103998060000407   F   F   F
  7.8902602960000570 13.9481413360000008 12.2103998060000407   F   F   F
  7.8902602960000570 19.5273965409999306 12.2103998060000407   F   F   F
 15.7805205919999434  2.7896282670000101 12.2103998060000407   F   F   F
 15.7805205919999434  8.3688848019999824 12.2103998060000407   F   F   F
 15.7805205919999434 13.9481413360000008 12.2103998060000407   F   F   F
 19.7908884590018985 11.1568687231217609 15.0923345957354282   F   F   F
 15.7805205919999434 19.5273965409999306 12.2103998060000407   F   F   F
  3.9451301480000271  8.3688848019999824 12.2103998060000407   F   F   F
  3.9451301480000271 13.9481413360000008 12.2103998060000407   F   F   F
  3.9451301480000271 19.5273965409999306 12.2103998060000407   F   F   F
 11.8353900909999528  2.7896282670000101 12.2103998060000407   F   F   F
 11.8353900909999528  8.3688848019999824 12.2103998060000407   F   F   F
 11.8353900909999528 13.9481413360000008 12.2103998060000407   F   F   F
 11.8353900909999528 19.5273965409999306 12.2103998060000407   F   F   F
 19.7256482699999580  2.7896282670000101 12.2103998060000407   F   F   F
 19.7256482699999580  8.3688848019999824 12.2103998060000407   F   F   F
  3.9451301480000271  2.7896282670000101 12.2103998060000407   F   F   F
  0.0000000000000000  8.3688848019999824 12.2103998060000407   F   F   F
 19.7844733502386880 16.7757686493754896 15.0761678281972635   F   F   F
 19.8111077163058518  8.3169805093313602 18.1345354236985692   F   F   F
 19.6943704898352259 19.5432661652164406 18.5385443949321136   F   F   F
 19.8962964534752977 13.9860304046793296 18.0935199349566886   F   F   F
 23.6441651034378104 19.5215167951752022 18.6501067847036808   F   F   F
  7.8470139868739235  2.6723903672632017 18.4007047640955115   F   F   F
  7.9109641498868015 13.9249846866362734 17.8726870041568127   F   F   F
  7.7150818343089158  8.3418160536953181 17.7825437744478130   F   F   F
 15.8830178802794055  8.3016306969532074 17.8190720864602703   F   F   F
 15.7488789288365876  2.7758767937908311 18.3511985577072032   F   F   F
  7.9142445587939605 19.6108574594927632 18.0831861319365927   F   F   F
  3.7567567437978862 13.9955147699874782 18.0525487534386286   F   F   F
  3.9307844590375449 19.4804148124025964 18.5511093417305979   F   F   F
 11.8755488586891413  8.2817913966792336 17.8479466148381327   F   F   F
 11.8397862947356511  2.7196443112373574 18.1812290064696569   F   F   F
  3.9614851380435732  2.7360398154528172 18.6456744653371302   F   F   F
  3.8644434147727598  8.2900962637859283 18.2268261875750994   F   F   F
 15.7474231836661875 19.6594331149364940 18.2075904278359637   F   F   F
 15.7675392255699176 13.9818191004245911 17.8032771968968078   F   F   F
  0.0004049513139584  8.3726486521506338 18.6739848471288461   F   F   F
 23.6649671705988034 13.8851954047702701 19.2926118017792056   F   F   F
 19.7341076314903390  2.7861886047519384 18.5897744713057875   F   F   F
 11.8456917476526140 19.5636344013451584 18.2774576072108879   F   F   F
  0.0000000000000000  2.7896282670000101 12.2103998060000407   F   F   F
 11.9290819467018050 13.9484706487094332 17.8171660735199637   F   F   F
 21.6879700875480736 22.3138648035646376 18.1135664019356426   F   F   F
 13.8340075868292285 16.7439232378852623 17.9826977943483541   F   F   F
 13.9810733997555179 11.1734382524140976 17.8094329219369847   F   F   F
  5.7340739707441779 11.1234204656233633 17.8125620245148077   F   F   F
  5.9015248518832122 16.7976877218720659 17.7600131384496116   F   F   F
 13.8308008801538236  5.5159338158079594 17.9003394175984951   F   F   F
 13.7889275198441101  0.0217199926438079 18.1290112327306154   F   F   F
  5.9031737004125784 22.2622846430816637 18.1253531624850766   F   F   F
  5.8970954991465678  5.4827275763200021 18.1078988709930364   F   F   F
  9.8710063279036131  0.0022976281290913 18.1403395293861891   F   F   F
  9.8159211758340614  5.5502863694633380 17.7325684701858535   F   F   F
  9.8495260859528404 16.7325932314257102 17.8292865513767644   F   F   F
 17.9084368586786447 11.2172891584502086 17.8664030192340988   F   F   F
 17.7958692489566310 16.7941356239111705 17.7176130919433454   F   F   F
 17.8445850053915187  5.5398971063815177 17.8237605989328500   F   F   F
 17.7438173460239881  0.0378738928434605 18.1256312476321426   F   F   F
  1.9759379744144603  5.5408890529178985 18.1115003526354705   F   F   F
  1.9239323906500669 11.1688514939289156 18.1013609378955280   F   F   F
  1.8991882347795965 16.7556808476054648 18.0948615036021110   F   F   F
  1.9698925464624883 22.2769411203489405 18.1052082544725970   F   F   F