Au C  H  O  Sr Ti                       
   1.00000000000000     
    23.6707801818999997    0.0000000000000000    0.0000000000000000
     0.0000000000000000   27.8962826732999716    0.0000000000000000
     0.0000000000000000    0.0000000000000000   30.0000000000000000
   Au   C    H    O    Sr   Ti
    50     7    15   330    90    90
Selective dynamics
Direct
  0.7122616005388380  0.6255294679644976  0.7547601092502347   F   F   F
  0.2941479925955832  0.7977116040059968  0.6966265848514723   F   F   F
  0.5079428636007037  0.6853445347363518  0.7783512381227808   F   F   F
  0.5775622725714769  0.7790400971244438  0.7943257366356633   F   F   F
  0.2403509675308158  0.5752453283077514  0.7092377498914644   F   F   F
  0.2855584665362443  0.7298400442686059  0.7642899316221303   F   F   F
  0.6017925188668158  0.4269680489793899  0.7844654906017183   F   F   F
  0.5137296826367006  0.5881199214152346  0.6782381933518806   F   F   F
  0.4857001400125753  0.4167929662402017  0.7741565980340610   F   F   F
  0.6191130086930769  0.4563601112223026  0.6976638024403528   F   F   F
  0.4609118081347177  0.7585132788468130  0.8327480260438236   F   F   F
  0.5520238771186072  0.5083774791982023  0.8269095669855488   F   F   F
  0.5619789419593104  0.5918857468538903  0.7632694497814114   F   F   F
  0.5540056772635253  0.3711683981542109  0.7095300617466123   F   F   F
  0.7375325304841596  0.3974136257391621  0.6939482852782746   T   T   T
  0.7610281790609292  0.5514403961698591  0.7043790527061375   F   F   F
  0.4857661965937865  0.8209178559462345  0.7553092073948449   F   F   F
  0.6203325893905642  0.6580031049730835  0.7037368050388011   F   F   F
  0.6295934346361847  0.6724761514664266  0.8010864784714684   F   F   F
  0.4300791065434240  0.4967543910559726  0.8151938719756160   F   F   F
  0.3490511614523299  0.5999979637108623  0.6979597471894010   F   F   F
  0.3698808078831348  0.4389949923261511  0.7557034184428630   F   F   F
  0.7324070311747235  0.6934743750896715  0.6932298045854566   F   F   F
  0.4368231188178910  0.3812611568138706  0.6981794259194700   F   F   F
  0.5199481027646797  0.5032254933427680  0.7330181181978404   F   F   F
  0.5670987205199722  0.6116779322462094  0.8586093758253313   F   F   F
  0.2571546587188891  0.6744531051433285  0.6946011538305754   F   F   F
  0.6639498502468228  0.3465157240127397  0.7414871478580380   T   T   T
  0.4717131236438092  0.5598371166322593  0.8774037021534227   F   F   F
  0.3920562308926847  0.8544303517872365  0.7065262390563660   F   F   F
  0.6699297947737222  0.7463695026727493  0.7486954722445489   F   F   F
  0.3978757202577157  0.5057633092075662  0.6907574537931467   F   F   F
  0.4512970495020383  0.6641642764058275  0.7035271857838694   F   F   F
  0.3750722626587901  0.5940153340319085  0.8332091777369968   F   F   F
  0.2892161870571996  0.6301830286784806  0.7778007292629141   F   F   F
  0.3678227202826392  0.6952192797014263  0.8201808261975287   F   F   F
  0.5964437758002035  0.8274149739347649  0.7133849980068661   F   F   F
  0.7751681051581514  0.5531023657646870  0.7943443096420921   F   F   F
  0.2821728934414551  0.4715965378079190  0.7023704064988152   F   F   F
  0.6457164147858165  0.5567583791566406  0.6955850327279265   F   F   F
  0.6944706841019581  0.4866029012456750  0.7640012046521534   T   T   T
  0.3252828154292615  0.5317100579567509  0.7693504405960354   F   F   F
  0.7070131629511991  0.8059972121771466  0.6877973826174610   F   F   F
  0.6557869076787881  0.5625918703101433  0.8171669712090406   F   F   F
  0.4601963537602529  0.6590099077474036  0.8654176703448186   F   F   F
  0.4157315480058372  0.7571291576625043  0.6998456848137096   F   F   F
  0.4435628362839736  0.5786644412235447  0.7565514495390460   F   F   F
  0.5394766557749051  0.7348732557669422  0.7024155409730639   F   F   F
  0.5604541137333001  0.7145937289785351  0.8647115287900888   F   F   F
  0.3735907904330418  0.7930450723173266  0.7790421449213341   F   F   F
  0.7210038438449615  0.2889108378175607  0.7503577679880067   T   T   T
  0.7561378608800879  0.4337268165696102  0.7504090050262349   T   T   T
  0.6516430064250684  0.2502315943601587  0.8050973324796331   T   T   T
  0.5800063213925739  0.2119923998514821  0.8579481692620874   T   T   T
  0.6136160969174824  0.2071678283819338  0.8145452966268181   T   T   T
  0.6844774992596783  0.2460209263677129  0.7611644325521141   T   T   T
  0.5417238257073151  0.1688615793336297  0.8668610262048588   T   T   T
  0.7485513119557865  0.3002344387263278  0.7776109769750974   T   T   T
  0.7136632661758711  0.2151896132566407  0.7630242025721259   T   T   T
  0.5543553834952917  0.2447468599538354  0.8565249381581310   T   T   T
  0.6253462769360425  0.2828216768460621  0.8042640974836246   T   T   T
  0.6560516114486248  0.2377775711335062  0.7333462624119349   T   T   T
  0.5843056071332100  0.2024190911387507  0.7865536606690284   T   T   T
  0.6395386609200386  0.1745817328679209  0.8158505237781455   T   T   T
  0.6094198161213953  0.2167643826823280  0.8858740740104025   T   T   T
  0.5111152141360478  0.1641617817824468  0.8399349898713879   T   T   T
  0.5183215117407087  0.1731156393416811  0.8980096997641738   T   T   T
  0.6815796873111566  0.2554426695686089  0.8326651653189643   T   T   T
  0.7437161855012562  0.2857537354964990  0.7189067228609076   T   T   T
  0.5665028726156294  0.1358755904101798  0.8692360642179224   T   T   T
  0.7550693818519179  0.4117556655100429  0.7805468619891798   T   T   T
  0.7959883970492359  0.4531165311700747  0.7465692760870463   T   T   T
  0.0000000000000000  0.8000000000129006  0.4070133268666680   F   F   F
  0.5833333134730552  0.6500000000127244  0.3605200052333331   F   F   F
  0.5000000000021103  0.4000000000243773  0.4070133268666680   F   F   F
  0.0833333358191695  0.3500000000123720  0.3605200052333331   F   F   F
  0.9166666865332829  0.4500000000005357  0.3605200052333331   F   F   F
  0.5766690135290062  0.5483131550962170  0.5523458695695069   F   F   F
  0.5844417777443880  0.6499344613603100  0.4548995073468944   F   F   F
  0.6666666865533486  0.4000000000243773  0.4070133268666680   F   F   F
  0.2516252310226363  0.7500919256557950  0.4561525125821646   F   F   F
  0.3333333432766779  0.8000000000129006  0.4070133268666680   F   F   F
  0.3337931548722253  0.3009153130133342  0.4988072299542736   F   F   F
  0.9998123011378226  0.7020169226910866  0.4972488065401492   F   F   F
  0.9161169174033503  0.6497753174040923  0.4542410020411509   F   F   F
  0.5833333134730552  0.9500000000130839  0.3605200052333331   F   F   F
  0.9163686965866518  0.9496075205092893  0.4537395604384642   F   F   F
  0.7499999404149307  0.4500000000005357  0.3605200052333331   F   F   F
  0.4166666269218169  0.8499999999890662  0.3605200052333331   F   F   F
  0.7499999404149307  0.6500000000127244  0.3605200052333331   F   F   F
  0.1666666716383389  0.2000000000121887  0.4070133268666680   F   F   F
  0.7499999404149307  0.2500000000242011  0.3605200052333331   F   F   F
  0.4166666269218169  0.4500000000005357  0.3605200052333331   F   F   F
  0.0833333358191695  0.9500000000130839  0.3605200052333331   F   F   F
  0.4159025208485403  0.6470603469447269  0.4581904763119766   F   F   F
  0.2505718896774880  0.8484064381854992  0.4555005630917250   F   F   F
  0.5833333134730552  0.8499999999890662  0.3605200052333331   F   F   F
  0.7499999404149307  0.1500000000001833  0.3605200052333331   F   F   F
  0.2518972138885829  0.4517928681986803  0.4538146195153629   F   F   F
  0.2499999999799343  0.1500000000001833  0.3605200052333331   F   F   F
  0.9166666865332829  0.1500000000001833  0.3605200052333331   F   F   F
  0.5834741982364022  0.0495779358356714  0.4541914341481856   F   F   F
  0.2501609230674759  0.0490907843947923  0.4542484062589978   F   F   F
  0.7499442946913959  0.0500330943040410  0.4536570676776108   F   F   F
  0.4164771712216364  0.0490618501253195  0.4544484220424252   F   F   F
  0.0832975374934293  0.0497578663327900  0.4538983142548716   F   F   F
  0.8333332538436267  0.0000000000000000  0.4070133268666680   F   F   F
  0.4999436445292531  0.1001525612384171  0.4988396432890880   F   F   F
  0.9995610105243884  0.5990529553516240  0.5941845050298014   F   F   F
  0.0836338176010898  0.1505789930032364  0.5463029246609850   F   F   F
  0.2499999999799343  0.2500000000242011  0.3605200052333331   F   F   F
  0.4166666269218169  0.6500000000127244  0.3605200052333331   F   F   F
  0.5000000000021103  0.8000000000129006  0.4070133268666680   F   F   F
  0.0000000000000000  0.2000000000121887  0.4070133268666680   F   F   F
  0.5828669629265022  0.3530362078779419  0.4561544630429069   F   F   F
  0.2502561664640908  0.2503047375288219  0.4543938312456675   F   F   F
  0.7489940073097543  0.5503036402258061  0.4556061303242416   F   F   F
  0.7499518421805504  0.8498891822123511  0.4537343800869849   F   F   F
  0.9166666865332829  0.2500000000242011  0.3605200052333331   F   F   F
  0.0833333358191695  0.6500000000127244  0.3605200052333331   F   F   F
  0.6661677993941169  0.3015446098985493  0.4996997464518174   F   F   F
  0.2519662575461652  0.6518814254607292  0.4537825101224229   F   F   F
  0.5833333134730552  0.4500000000005357  0.3605200052333331   F   F   F
  0.4166666269218169  0.2500000000242011  0.3605200052333331   F   F   F
  0.0837597092107600  0.0497926394808985  0.5465621828597520   F   F   F
  0.9163530901441277  0.1507251765994297  0.5463537138646473   F   F   F
  0.5827830299959516  0.1498178636378498  0.5476418119904665   F   F   F
  0.2501220092925820  0.1502661666053413  0.5464628979349087   F   F   F
  0.7498337134549047  0.1498327826014005  0.5469697380341003   F   F   F
  0.5829037062090876  0.8475628836151401  0.4557236593284699   F   F   F
  0.0000000000000000  0.0000000000000000  0.4070133268666680   F   F   F
  0.9999519951462119  0.4992209581485341  0.4983660868284474   F   F   F
  0.8333332538436267  0.2000000000121887  0.4070133268666680   F   F   F
  0.4165086984798947  0.1510317258451366  0.5463505861599245   F   F   F
  0.5834647066939667  0.0504833114479837  0.6416648714379605   F   F   F
  0.7473173496282968  0.8468177642952170  0.5458080021397933   F   F   F
  0.6666666865533486  0.8000000000129006  0.4070133268666680   F   F   F
  0.1666666716383389  0.4000000000243773  0.4070133268666680   F   F   F
  0.5844217322602248  0.4524481913841427  0.4538708263108902   F   F   F
  0.3333333432766779  0.4000000000243773  0.4070133268666680   F   F   F
  0.0833333358191695  0.4500000000005357  0.3605200052333331   F   F   F
  0.8333332538436267  0.4000000000243773  0.4070133268666680   F   F   F
  0.4171719808673444  0.2505379565221730  0.4550508614426150   F   F   F
  0.5000000000021103  0.2000000000121887  0.4070133268666680   F   F   F
  0.6666666865533486  0.6000000000007191  0.4070133268666680   F   F   F
  0.0840099237200107  0.6499107491683773  0.4542682996094669   F   F   F
  0.0838146556203014  0.8495788299016311  0.4541894647595655   F   F   F
  0.0835197289692715  0.4496164423344666  0.4541219592630839   F   F   F
  0.7499999404149307  0.8499999999890662  0.3605200052333331   F   F   F
  0.9151301488818788  0.4500214056426302  0.5467371927957174   F   F   F
  0.4169133410103498  0.3505090424476123  0.4542456021445886   F   F   F
  0.0840914591755180  0.2498371746840675  0.4542980978839708   F   F   F
  0.2499999999799343  0.4500000000005357  0.3605200052333331   F   F   F
  0.8333332538436267  0.8000000000129006  0.4070133268666680   F   F   F
  0.1666666716383389  0.0000000000000000  0.4070133268666680   F   F   F
  0.7499550922575153  0.1504989475023422  0.4541960614146916   F   F   F
  0.9163802502154539  0.0499536378261141  0.5465178026893156   F   F   F
  0.4144720437374403  0.8487193243393918  0.5479674392138989   F   F   F
  0.4166364839907573  0.1502704131791290  0.4538619377500837   F   F   F
  0.0833728514689298  0.1500202120099772  0.4537677973961465   F   F   F
  0.9166460151803335  0.0497527839585743  0.4538835276068411   F   F   F
  0.4166666269218169  0.1500000000001833  0.3605200052333331   F   F   F
  0.4996749056347483  0.0002211249167487  0.5915581359384348   F   F   F
  0.0833333358191695  0.1500000000001833  0.3605200052333331   F   F   F
  0.7497968584684926  0.0501442314967164  0.6408669816505466   F   F   F
  0.2514368475790505  0.2508229900859078  0.5475250393192113   F   F   F
  0.0833333358191695  0.8499999999890662  0.3605200052333331   F   F   F
  0.4171291758580651  0.0494894530350720  0.6425965262458249   F   F   F
  0.9159505889636108  0.0500138174103597  0.6402720824988108   F   F   F
  0.0836331819496792  0.0497599144001555  0.6404378693134376   F   F   F
  0.0833182073946546  0.1486500979410010  0.6404474029410423   F   F   F
  0.0833333358191695  0.7500000000008953  0.3605200052333331   F   F   F
  0.1674092980936948  0.9985704635463648  0.5922178386385255   F   F   F
  0.8326451783201634  0.9986838249145364  0.5919618883358027   F   F   F
  0.0000094529532717  0.9991562784662662  0.5920504110231164   F   F   F
  0.1666666716383389  0.8000000000129006  0.4070133268666680   F   F   F
  0.5820583471800944  0.3478560606891747  0.5509014634752987   F   F   F
  0.0001023792931534  0.8020218556089631  0.5926730541236793   F   F   F
  0.3338792688035142  0.2000717854028480  0.5921160163340318   F   F   F
  0.9998575426922685  0.2000236501226098  0.5924064639712014   F   F   F
  0.0006384084784301  0.3984559955338511  0.5923978880290832   F   F   F
  0.0841939061149191  0.9503074624162196  0.5461436369160921   F   F   F
  0.4197735375219978  0.6517787993791160  0.5557267495313880   F   F   F
  0.0838771917763097  0.3480806564379719  0.6420770426998743   F   F   F
  0.9177468623998664  0.6510016895166331  0.5470001285078894   F   F   F
  0.2530510468971414  0.8498485714714761  0.5507182320942263   F   F   F
  0.5856449992325707  0.8518703634617353  0.5507832072846455   F   F   F
  0.7494042443153006  0.4518285851709507  0.5503293782425942   F   F   F
  0.5808512095966307  0.6475567063734999  0.5488803163226379   F   F   F
  0.4163994720017001  0.4551360760200893  0.5525850219816846   F   F   F
  0.6661199264092801  0.0000970325661456  0.5918661937446004   F   F   F
  0.3340498405243721  0.9999180178961353  0.5918688670317991   F   F   F
  0.6664195173448064  0.1001485670347861  0.4990343127537287   F   F   F
  0.2524808055606513  0.6471288501025043  0.5441068992326237   F   F   F
  0.1667376074661107  0.0998874987623211  0.4987312605708425   F   F   F
  0.3334630855711183  0.0999347387980336  0.4990956570642808   F   F   F
  0.4166666269218169  0.0500000000120124  0.3605200052333331   F   F   F
  0.0833333358191695  0.0500000000120124  0.3605200052333331   F   F   F
  0.5833333134730552  0.1500000000001833  0.3605200052333331   F   F   F
  0.7477559932077966  0.9479565279752507  0.6393551994360607   F   F   F
  0.8325269192542635  0.2007297935131476  0.5919232108800117   F   F   F
  0.7491760198540263  0.3501985894744521  0.5470482569022224   F   F   F
  0.4230047435060698  0.7501538308023470  0.5466931228564391   F   F   F
  0.7499999404149307  0.0500000000120124  0.3605200052333331   F   F   F
  0.4230792231824765  0.5546459803342216  0.5461462601138010   F   F   F
  0.2499999999799343  0.8499999999890662  0.3605200052333331   F   F   F
  0.4165298112555433  0.2524928748439166  0.5473006793213671   F   F   F
  0.4172262394913204  0.5480428643576047  0.4541279239641867   F   F   F
  0.4171266568444594  0.0502438210545506  0.5472935714900586   F   F   F
  0.0847094004492774  0.7499849881965730  0.4535736332389533   F   F   F
  0.6666666865533486  0.0000000000000000  0.4070133268666680   F   F   F
  0.0833333358191695  0.5499999761504029  0.3605200052333331   F   F   F
  0.7521522842652715  0.5492932106459776  0.5486605611526443   F   F   F
  0.2499999999799343  0.0500000000120124  0.3605200052333331   F   F   F
  0.5833333134730552  0.0500000000120124  0.3605200052333331   F   F   F
  0.9166666865332829  0.0500000000120124  0.3605200052333331   F   F   F
  0.0000235945876739  0.1000509914528678  0.4991188043725003   F   F   F
  0.9166016362648861  0.1499410020443932  0.4537173961003944   F   F   F
  0.5831612844914460  0.1512003282298835  0.4546342772186520   F   F   F
  0.2500781338553182  0.1498723509803099  0.4536691472434953   F   F   F
  0.8332428767769571  0.1001487174726563  0.4988700652053879   F   F   F
  0.7500318257949985  0.0491879251734559  0.5461664984583621   F   F   F
  0.2500405393236633  0.0498903459568041  0.5468643126373252   F   F   F
  0.5829568289955915  0.0501547119731214  0.5471250810424664   F   F   F
  0.7498761454104965  0.1501328381857121  0.6418706240132153   F   F   F
  0.2508466708180208  0.1484352802888580  0.6411007021252857   F   F   F
  0.9159983413162678  0.1497427385368155  0.6407312748776590   F   F   F
  0.5826906678733010  0.1503587182061636  0.6428359356993028   F   F   F
  0.4166495821620373  0.1500289396354546  0.6414995873738079   F   F   F
  0.4166666269218169  0.3500000000123720  0.3605200052333331   F   F   F
  0.5000000000021103  0.0000000000000000  0.4070133268666680   F   F   F
  0.4155173930395080  0.4490060449775370  0.4573373681419497   F   F   F
  0.3333333432766779  0.0000000000000000  0.4070133268666680   F   F   F
  0.8333332538436267  0.6000000000007191  0.4070133268666680   F   F   F
  0.4994562774872620  0.4027529452059895  0.5914331151871579   F   F   F
  0.1666666716383389  0.6000000000007191  0.4070133268666680   F   F   F
  0.9161583575324883  0.2498348247829583  0.4541483427355857   F   F   F
  0.5832562449662291  0.2524926506116074  0.6386823314212648   F   F   F
  0.7490822803973316  0.7505938984082619  0.4570661927144357   F   F   F
  0.9143586825517218  0.8505895787575426  0.6413874790399916   F   F   F
  0.0858024564317432  0.7509026332168958  0.5459686319034844   F   F   F
  0.6661792851794317  0.1998712442550641  0.5921102545184809   F   F   F
  0.6650905777340199  0.3997586240313922  0.5898423595661626   F   F   F
  0.3354019032416602  0.7927667524900031  0.5906911593306390   F   F   F
  0.3331172508475362  0.5967742713889805  0.5914594662845829   F   F   F
  0.4971619819103310  0.6035608584766976  0.6091060763363814   F   F   F
  0.2517028957612126  0.9499198999161109  0.5450524960159555   F   F   F
  0.5792548295178221  0.7483489839629840  0.5476989736741871   F   F   F
  0.9157495802276614  0.5500677780383967  0.5458776138559784   F   F   F
  0.9173310200316394  0.3508932346598215  0.5453261884729059   F   F   F
  0.9143528596372406  0.7506813979246445  0.5459589690222231   F   F   F
  0.0836480046131953  0.4486920551981584  0.6405815040040181   F   F   F
  0.6662841376810533  0.8990889186128612  0.4988658122059988   F   F   F
  0.0866824426624575  0.6499975891332923  0.6402539398639462   F   F   F
  0.4173772787841585  0.9473811990900813  0.6392716166779522   F   F   F
  0.5829751771452720  0.4486694145217740  0.5456086929250645   F   F   F
  0.7536590581325697  0.4463068779672454  0.6445348751547826   F   F   F
  0.5833333134730552  0.3500000000123720  0.3605200052333331   F   F   F
  0.1673163082983251  0.3004230669983485  0.4999851456341347   F   F   F
  0.7486709006094259  0.2504786808743731  0.5464404962358955   F   F   F
  0.4274437553380181  0.4436464879989188  0.6572079209498654   F   F   F
  0.5899392603032823  0.8478281605487155  0.6465010553709760   F   F   F
  0.9124779415484952  0.5483138586205598  0.6399095836629840   F   F   F
  0.7537819673730795  0.5468270603241834  0.6380018677965040   F   F   F
  0.9166666865332829  0.8499999999890662  0.3605200052333331   F   F   F
  0.4159437838687552  0.3528805121885839  0.5474393647045304   F   F   F
  0.9138868696813489  0.6499631067014562  0.6408620956661508   F   F   F
  0.1677065581807469  0.6996391229091685  0.5002618625610680   F   F   F
  0.5000628509864526  0.8982303802580489  0.5007707234612866   F   F   F
  0.9146095800062142  0.3479942763893362  0.6399994817519001   F   F   F
  0.4166666269218169  0.7500000000008953  0.3605200052333331   F   F   F
  0.2500448950775791  0.3511565347098156  0.4544688412431270   F   F   F
  0.2499999999799343  0.7500000000008953  0.3605200052333331   F   F   F
  0.9166666865332829  0.9500000000130839  0.3605200052333331   F   F   F
  0.2499999999799343  0.9500000000130839  0.3605200052333331   F   F   F
  0.7485487640365278  0.2520841172600825  0.6396026381475082   F   F   F
  0.9160105813595791  0.5497003310331294  0.4537041969373519   F   F   F
  0.2483675591639667  0.5486488900476729  0.5491326465623274   F   F   F
  0.4127744835099421  0.8501214527247285  0.6395001434328123   F   F   F
  0.4182146468175816  0.2521703478518802  0.6391671526613223   F   F   F
  0.9160888870443671  0.9504473300466501  0.5462418596083225   F   F   F
  0.7511583277839762  0.7449098366230089  0.5526250254080054   F   F   F
  0.7483351879289373  0.9477974290877924  0.5470707919085598   F   F   F
  0.2493679465121161  0.7463494190642308  0.5522136284363839   F   F   F
  0.9156835773748782  0.8496913165659450  0.5463682963461878   F   F   F
  0.2395815990162333  0.5534137476139733  0.6417130387248164   F   F   F
  0.2506076512304674  0.0484507244201993  0.6416591875886937   F   F   F
  0.2521108676793702  0.9454157615150365  0.6373867706331922   F   F   F
  0.9166666865332829  0.5499999761504029  0.3605200052333331   F   F   F
  0.9166666865332829  0.3500000000123720  0.3605200052333331   F   F   F
  0.0857906264503114  0.4508345096906083  0.5471209757986415   F   F   F
  0.5833333134730552  0.7500000000008953  0.3605200052333331   F   F   F
  0.5833333134730552  0.5499999761504029  0.3605200052333331   F   F   F
  0.0853831476961702  0.8496721711810409  0.5468661862076232   F   F   F
  0.4161237248810110  0.9483954524440676  0.5467491203377790   F   F   F
  0.4998046208645235  0.3014315789629478  0.5003024903782674   F   F   F
  0.2499999999799343  0.6500000000127244  0.3605200052333331   F   F   F
  0.1683233297597226  0.3979263871485585  0.5933199863484688   F   F   F
  0.5837455940887466  0.9506884296375517  0.5456202290431094   F   F   F
  0.4173028537452623  0.9479625553871642  0.4540992842789535   F   F   F
  0.1672326664950816  0.1997823671107710  0.5923725202938996   F   F   F
  0.6665376529500122  0.5956081951746839  0.5914683992488960   F   F   F
  0.6651626077490675  0.7932182218388562  0.5909321455251373   F   F   F
  0.3352500271054524  0.4041455774548837  0.5933815307043773   F   F   F
  0.5826994880562850  0.9485575842187401  0.4538695496111771   F   F   F
  0.0868306370215777  0.5489110896461185  0.6395801615387668   F   F   F
  0.1708674208045267  0.7997097589957463  0.5945785594664414   F   F   F
  0.8331943281776120  0.6021526768282470  0.5895705795924826   F   F   F
  0.0839412438277520  0.2484620820954788  0.6421687335841355   F   F   F
  0.0840907180813630  0.7496167117379500  0.6396745425456842   F   F   F
  0.0844352050796076  0.9494360639361901  0.6409508187380339   F   F   F
  0.4157274114001979  0.5344059462698070  0.6301560562825017   F   F   F
  0.4182864168176224  0.3495803256080805  0.6398220607347866   F   F   F
  0.5007989360582883  0.8049349584015957  0.5926798511369569   F   F   F
  0.2491645498973725  0.4509370063840095  0.5459988624244048   F   F   F
  0.0811732752529721  0.6516915239117651  0.5466790082444248   F   F   F
  0.5833097325314824  0.2497182804108533  0.5458001937728625   F   F   F
  0.0828363045847240  0.2501062904744629  0.5474048416968955   F   F   F
  0.1678489374732379  0.8990540542822174  0.4995261884529825   F   F   F
  0.5000000000021103  0.6000000000007191  0.4070133268666680   F   F   F
  0.8303149269828012  0.8006297231363106  0.5923612378967178   F   F   F
  0.9160440415269235  0.4495709992503407  0.4541053892807554   F   F   F
  0.7540021547468783  0.7545930083493460  0.6553079997248830   F   F   F
  0.9151835006674602  0.2500127444911087  0.6408467097010728   F   F   F
  0.5877767199984163  0.4563058459090783  0.6344628686751719   F   F   F
  0.7500633014389280  0.3506348491147833  0.4541726360930198   F   F   F
  0.2474210992073651  0.6587803349280108  0.6290359875831655   F   F   F
  0.2617161783501629  0.8403052282118750  0.6461003441461415   F   F   F
  0.2512223968923166  0.2486084870795864  0.6416391438750395   F   F   F
  0.9166666865332829  0.6500000000127244  0.3605200052333331   F   F   F
  0.4997553774803194  0.4985984717251810  0.5002499648773338   F   F   F
  0.5002905520966365  0.6963934162523984  0.5000356526179459   F   F   F
  0.8323856160687910  0.6986099377640258  0.5004904240173929   F   F   F
  0.2530644433271689  0.3508280318663921  0.5475283972658005   F   F   F
  0.8328078246772534  0.4992920419362790  0.4995131018652899   F   F   F
  0.9150857555560492  0.4484750866426097  0.6397053246810529   F   F   F
  0.1665123163139270  0.5008902895880212  0.4978171805373606   F   F   F
  0.4166666269218169  0.9500000000130839  0.3605200052333331   F   F   F
  0.8328681505089293  0.3000526995454393  0.4999308884248492   F   F   F
  0.2506870506708765  0.9483165394384798  0.4536332496503377   F   F   F
  0.5000773133132981  0.2002460115652340  0.5916211456647886   F   F   F
  0.7466474631650257  0.6468645558766042  0.5451482445372733   F   F   F
  0.4201950291797090  0.7409086633619921  0.6339166269165801   F   F   F
  0.9166666865332829  0.7500000000008953  0.3605200052333331   F   F   F
  0.8324700079988503  0.8995893036043086  0.4995394771012798   F   F   F
  0.0000000000000000  0.4000000000243773  0.4070133268666680   F   F   F
  0.0000000000000000  0.6000000000007191  0.4070133268666680   F   F   F
  0.7483985846205599  0.6510174552286898  0.4541127417918602   F   F   F
  0.3333333432766779  0.2000000000121887  0.4070133268666680   F   F   F
  0.3333333432766779  0.6000000000007191  0.4070133268666680   F   F   F
  0.2510876286723658  0.5517786892223739  0.4552436577105397   F   F   F
  0.3336324402841626  0.8982705146633450  0.4994772942279084   F   F   F
  0.6666666865533486  0.2000000000121887  0.4070133268666680   F   F   F
  0.0001505305486162  0.8999071617343049  0.4991763211063969   F   F   F
  0.5904098654858672  0.6524806053933574  0.6387436603797738   F   F   F
  0.0838469044896542  0.9495260248920445  0.4536715617756286   F   F   F
  0.0829567633271893  0.5498055100072889  0.4531640367045782   F   F   F
  0.0837613775856241  0.3498126711575864  0.4536382463137514   F   F   F
  0.9162385849878092  0.8496991259335616  0.4540388244962443   F   F   F
  0.0002527773605863  0.2996938121217667  0.4984893173445641   F   F   F
  0.6653836687902128  0.7001541842060419  0.5030260802527380   F   F   F
  0.0828671602436160  0.5509750459252771  0.5452231625733006   F   F   F
  0.2499999999799343  0.3500000000123720  0.3605200052333331   F   F   F
  0.5809512561855001  0.3531635855894848  0.6448655866416360   F   F   F
  0.2541150187973855  0.3490271829764282  0.6408800875302134   F   F   F
  0.2553630174583859  0.7420094723884105  0.6630265972673328   F   F   F
  0.3972480838890391  0.6404068667255416  0.6522990364015442   F   F   F
  0.9158317003825758  0.9497455347188861  0.6409166772824548   F   F   F
  0.9156716580533200  0.7500874195906704  0.6393610713258724   F   F   F
  0.7414859460010206  0.8484837718964542  0.6396970180870412   F   F   F
  0.0853096650399365  0.8499799985000465  0.6419052345569227   F   F   F
  0.7527512220351582  0.6549546967187894  0.6358204472260169   F   F   F
  0.4171682560061996  0.8470954019789048  0.4554224619581646   F   F   F
  0.7495854562270807  0.2506440698422452  0.4542251341422912   F   F   F
  0.9160593476787895  0.3496805809830192  0.4534865275448325   F   F   F
  0.5830160822357442  0.2521334105374464  0.4537180518154145   F   F   F
  0.5829620494857508  0.7486276456883161  0.4547763873904387   F   F   F
  0.4166666269218169  0.5499999761504029  0.3605200052333331   F   F   F
  0.7425618742441813  0.3519763384006040  0.6411408794878355   F   F   F
  0.8321291669106117  0.3971464042984962  0.5904224897810479   F   F   F
  0.5817540578602376  0.9478156946674900  0.6379081060912597   F   F   F
  0.0836174542189099  0.3507807242994403  0.5462942442321150   F   F   F
  0.5833333134730552  0.2500000000242011  0.3605200052333331   F   F   F
  0.1654332402012315  0.6024042929418769  0.5873222228396955   F   F   F
  0.7499999404149307  0.9500000000130839  0.3605200052333331   F   F   F
  0.7499999404149307  0.5499999761504029  0.3605200052333331   F   F   F
  0.4171148465345595  0.7470151374515055  0.4545132592393202   F   F   F
  0.7482948586356883  0.4502843455792913  0.4558522609081734   F   F   F
  0.7499999404149307  0.3500000000123720  0.3605200052333331   F   F   F
  0.2499999999799343  0.5499999761504029  0.3605200052333331   F   F   F
  0.2488618056525169  0.4528007375051146  0.6413437010656935   F   F   F
  0.0833333358191695  0.2500000000242011  0.3605200052333331   F   F   F
  0.5828051597788360  0.5514811118013938  0.4565741295224797   F   F   F
  0.6657323147625078  0.5024030700089099  0.5035938112259544   F   F   F
  0.3343563740795403  0.5023458252354729  0.5031002033110994   F   F   F
  0.3355383544889250  0.7004273905020710  0.5040202371406792   F   F   F
  0.9164477491209411  0.2506533189769868  0.5470862175408442   F   F   F
  0.7494373925143094  0.9497376142992877  0.4547429415137216   F   F   F
  0.5795944557072161  0.5505408698100567  0.6458957611710190   F   F   F
  0.5772843661240756  0.7485594317701114  0.6399043838310021   F   F   F
  0.9146224883030172  0.7498643882755616  0.4536676449798378   F   F   F
  0.7499999404149307  0.7500000000008953  0.3605200052333331   F   F   F
  0.8332073217295175  0.2985130179653623  0.6122354289325642   F   F   F
  0.6662619999078885  0.7008689531967747  0.5931734296837874   F   F   F
  0.1666666716383389  0.5000000000125482  0.4070133268666680   F   F   F