Au C  H  O  Sr Ti
 1.0000000000000000
    23.6707801818999997    0.0000000000000000    0.0000000000000000
     0.0000000000000000   27.8962826732999716    0.0000000000000000
     0.0000000000000000    0.0000000000000000   30.0000000000000000
 Au  C   H   O   Sr  Ti 
  50   7  15 330  90  90
Selective dynamics
Cartesian
 16.8597877783630814 17.4499468588166096 22.6428032775069816   F   F   F
  6.9627124736772243 22.2531883971227487 20.8987975455441735   F   F   F
 12.0234038692571126 19.1185648696065584 23.3505371436835034   F   F   F
 13.6713495953980502 21.7323227632184626 23.8297720990698636   F   F   F
  5.6892949189289137 16.0472062849682864 21.2771324967438638   F   F   F
  6.7593916904598910 20.3598241812108185 22.9286979486639346   F   F   F
 14.2448984292083320 11.9108213867965453 23.5339647180516458   F   F   F
 12.1603823906105362 16.4063595735983903 20.3471458005564330   F   F   F
 11.4969012485557016 11.6269744024798047 23.2246979410219332   F   F   F
 14.6548879365285885 12.7307506634760355 20.9299140732105045   F   F   F
 10.9101420935989744 21.1597008381623688 24.9824407813146543   F   F   F
 13.0668358504346553 14.1818418644526876 24.8072870095663802   F   F   F
 13.3024800019755443 16.5114121045333562 22.8980834934422752   F   F   F
 13.1137466060295242 10.3542185543058132 21.2859018523984211   F   F   F
 17.4579704060910643 11.0863628418406552 20.8184485583481589   T   T   T
 18.0141307387829102 15.3831371690309648 21.1313715811841298   F   F   F
 11.4984648593691787 22.9005565610354012 22.6592762218454276   F   F   F
 14.6837563631328880 18.3558406162381438 21.1121041511640790   F   F   F
 14.9029677952404924 18.7595848123602771 24.0325943541439671   F   F   F
 10.1803079918173172 13.8576009121003914 24.4558161592685011   F   F   F
  8.2623133149749197 16.7377127990826544 20.9387924156820056   F   F   F
  8.7553672969052645 12.2463283980934694 22.6711025532858201   F   F   F
 17.3366458386148672 19.3453571941915428 20.7968941375636120   F   F   F
 10.3399440239103466 10.6357690028291287 20.9453827775840900   F   F   F
 12.3075772465386901 14.0381206107006680 21.9905435459351075   F   F   F
 13.4236691548649691 17.0635405029597891 25.7582812747599732   F   F   F
  6.0870513992863975 18.8147344709632343 20.8380346149171984   F   F   F
 15.7162109569980171  9.6665005878026253 22.2446144357411555   T   T   T
 11.1658176586900204 15.6173744565786343 26.3221110646025807   F   F   F
  9.2802768604049390 23.8354306181038638 21.1957871716909523   F   F   F
 15.8577609093941749 20.8209346252893077 22.4608641673364922   F   F   F
  9.4180287139355254 14.1089162394379581 20.7227236137943400   F   F   F
 10.6825532555027554 18.5277143961246402 21.1058155735160327   F   F   F
  8.8782530817240275 16.5708196704287225 24.9962753321098567   F   F   F
  6.8459727888782744 17.5797639039311306 23.3340218778873698   F   F   F
  8.7066507577187924 19.3940335464790223 24.6054247859257558   F   F   F
 14.1182895078290844 23.0818020010053893 21.4015499402060101   F   F   F
 18.3488338212186193 15.4294999426426269 23.8303292892627354   F   F   F
  6.6792525339434015 13.1557903264392735 21.0711121949643889   F   F   F
 15.2846113142396121 15.5314891256819756 20.8675509818377982   F   F   F
 16.4386629061511869 13.5744120827972772 22.9200361395646368   T   T   T
  7.6996980209755179 14.8327340769983156 23.0805132178810197   F   F   F
 16.7355531659277439 22.4843260647855026 20.6339214785238205   F   F   F
 15.5229877378324836 15.6942218438722403 24.5150091362712068   F   F   F
 10.8932067303709079 18.3839266710269627 25.9625301103446340   F   F   F
  9.8406900875272054 21.1210890023506437 20.9953705444111876   F   F   F
 10.4994783945380554 16.1425868253590821 22.6965434861713860   F   F   F
 12.7698333321142599 20.5002320719228521 21.0724662291918712   F   F   F
 13.2663861282224449 19.9345086601528152 25.9413458637027503   F   F   F
  8.8431854783227450 22.1230095100317889 23.3712643476399435   F   F   F
 17.0667234979590674  8.0595383991386882 22.5107330396401188   T   T   T
 17.8983730921046664 12.0993658780163660 22.5122701507870531   T   T   T
 15.4248983621601816  6.9805312900615908 24.1529199743889826   T   T   T
 13.7292021377961291  5.9137999108481658 25.7384450778625506   T   T   T
 14.5247717462092538  5.7792123013561607 24.4363588988044711   T   T   T
 16.2021164244325249  6.8630693055008996 22.8349329765635218   T   T   T
 12.8230255976157288  4.7106103497507306 26.0058307861456619   T   T   T
 17.7187935601782627  8.3754247709691452 23.3283293092529433   T   T   T
 16.8929662975459003  6.0029902797654406 22.8907260771638832   T   T   T
 13.1220244253698510  6.8275275886747311 25.6957481447440372   T   T   T
 14.8024342589227054  7.8896734434344795 24.1279229245086668   T   T   T
 15.5292534825816801  6.6331103377110052 22.0003878723579689   T   T   T
 13.8309695855017640  5.6467401848791479 23.5966098200707854   T   T   T
 15.1383790604648851  4.8701813696780825 24.4755157133443966   T   T   T
 14.4254425059033817  6.0469204928094991 26.5762222203121077   T   T   T
 12.0984958814391739  4.5795034687557967 25.1980496961415597   T   T   T
 12.2690745679644628  4.8292828102445551 26.9402909929251635   T   T   T
 16.1335229547905463  7.1259009171081846 24.9799549595689321   T   T   T
 17.6043423447213208  7.9714669803616864 21.5672016858271967   T   T   T
 13.4095649700994670  3.7904238784839945 26.0770819265375948   T   T   T
 17.8730813598999241 11.4864524374008283 23.4164058596754501   T   T   T
 18.8416663738954142 12.6402668374654592 22.4120782826114677   T   T   T
  0.0000000000000000 22.3170261389998572 12.2103998060000407   F   F   F
 13.8079546360000549 18.1325837379999442 10.8156001569999933   F   F   F
 11.8353900909999528 11.1585130700000246 12.2103998060000407   F   F   F
  1.9725650740000149  9.7636989360001234 10.8156001569999933   F   F   F
 21.6982156369999721 12.5533272029999310 10.8156001569999933   F   F   F
 13.6502054569581759 15.2958987680531191 16.5703760870852079   F   F   F
 13.8341928501062554 18.1307554532261683 13.6469852204067870   F   F   F
 15.7805205919999434 11.1585130700000246 12.2103998060000407   F   F   F
  5.9561655317566453 20.9247763890540455 13.6845753774649950   F   F   F
  7.8902602960000570 22.3170261389998572 12.2103998060000407   F   F   F
  7.9011443952033735  8.3944186325445767 14.9642168986282886   F   F   F
 23.6663372033929704 19.5836625168306462 14.9174641962045165   F   F   F
 21.6852021727745203 18.1263159284378013 13.6272300612346040   F   F   F
 13.8079546360000549 26.5014685399999657 10.8156001569999933   F   F   F
 21.6911619824768565 26.4905198208186121 13.6121868131538779   F   F   F
 17.7530837259999217 12.5533272029999310 10.8156001569999933   F   F   F
  9.8628241350000643 23.7118402719999644 10.8156001569999933   F   F   F
 17.7530837259999217 18.1325837379999442 10.8156001569999933   F   F   F
  3.9451301480000271  5.5792565350000141 12.2103998060000407   F   F   F
 17.7530837259999217  6.9740706690001133 10.8156001569999933   F   F   F
  9.8628241350000643 12.5533272029999310 10.8156001569999933   F   F   F
  1.9725650740000149 26.5014685399999657 10.8156001569999933   F   F   F
  9.8447371481038495 18.0505783450536441 13.7457142893592064   F   F   F
  5.9312321203191098 23.6673858214703614 13.6650168927517974   F   F   F
 13.8079546360000549 23.7118402719999644 10.8156001569999933   F   F   F
 17.7530837259999217  4.1844424010001093 10.8156001569999933   F   F   F
  5.9626035783897429 12.6033415610513231 13.6144385854609240   F   F   F
  5.9176950450000287  4.1844424010001093 10.8156001569999933   F   F   F
 21.6982156369999721  4.1844424010001093 10.8156001569999933   F   F   F
 13.8112894882642614  1.3830401124306597 13.6257430244456721   F   F   F
  5.9215042200313412  1.3694503981310682 13.6274521877698565   F   F   F
 17.7517665483100444  1.3957373417253773 13.6097120303284047   F   F   F
  9.8583395707669350  1.3686432395709627 13.6334526612728304   F   F   F
  1.9717176997004793  1.3880595044397244 13.6169494276462473   F   F   F
 19.7256482699999580  0.0000000000000000 12.2103998060000407   F   F   F
 11.8340561129898560  2.7938841587619252 14.9651892986727209   F   F   F
 23.6603889585205458 16.7113505787645948 17.8255351508940088   F   F   F
  1.9796777122085560  4.2005941534790603 16.3890877398295132   F   F   F
  5.9176950450000287  6.9740706690001133 10.8156001569999933   F   F   F
  9.8628241350000643 18.1325837379999442 10.8156001569999933   F   F   F
 11.8353900909999528 22.3170261389998572 12.2103998060000407   F   F   F
  0.0000000000000000  5.5792565350000141 12.2103998060000407   F   F   F
 13.7969157547248802  9.8483978488728834 13.6846338912871737   F   F   F
  5.9237587055364891  6.9825717125701878 13.6318149373699704   F   F   F
 17.7292725045895878 15.3514259038850103 13.6681839097272420   F   F   F
 17.7519452032667928 23.7087488679754088 13.6120314026095208   F   F   F
 21.6982156369999721  6.9740706690001133 10.8156001569999933   F   F   F
  1.9725650740000149 18.1325837379999442 10.8156001569999933   F   F   F
 15.7687115437181689  8.4119736763398496 14.9909923935544320   F   F   F
  5.9642378956312614 18.1850685141261401 13.6134753036726064   F   F   F
 13.8079546360000549 12.5533272029999310 10.8156001569999933   F   F   F
  9.8628241350000643  6.9740706690001133 10.8156001569999933   F   F   F
  1.9826576648278358  1.3890295460087996 16.3968654857924960   F   F   F
 21.6907925658064933  4.2046721324006686 16.3906114159394711   F   F   F
 13.7949289967757576  4.1793614735514000 16.4292543597139797   F   F   F
  5.9205831006198064  4.1918674598558869 16.3938869380472489   F   F   F
 17.7491490041688884  4.1797776571758005 16.4090921410230841   F   F   F
 13.7977854968901834 23.6438537847251773 13.6717097798541722   F   F   F
  0.0000000000000000  0.0000000000000000 12.2103998060000407   F   F   F
 23.6696438695583424 13.9264089649472407 14.9509826048534400   F   F   F
 19.7256482699999580  5.5792565350000141 12.2103998060000407   F   F   F
  9.8590858455669306  4.2132237168122257 16.3905175847977382   F   F   F
 13.8110648160496652  1.4082967264372301 19.2499461431387857   F   F   F
 17.6895847091715375 23.6230677255512234 16.3742400641937884   F   F   F
 15.7805205919999434 22.3170261389998572 12.2103998060000407   F   F   F
  3.9451301480000271 11.1585130700000246 12.2103998060000407   F   F   F
 13.8337183578570766 12.6216226418754616 13.6161247893267507   F   F   F
  7.8902602960000570 11.1585130700000246 12.2103998060000407   F   F   F
  1.9725650740000149 12.5533272029999310 10.8156001569999933   F   F   F
 19.7256482699999580 11.1585130700000246 12.2103998060000407   F   F   F
  9.8747862571587177  6.9890776555335270 13.6515258432784297   F   F   F
 11.8353900909999528  5.5792565350000141 12.2103998060000407   F   F   F
 15.7805205919999434 16.7377696040000430 12.2103998060000407   F   F   F
  1.9885804374745197 18.1300939712172848 13.6280489882841085   F   F   F
  1.9839582892098038 23.7000911921872408 13.6256839427868943   F   F   F
  1.9769771452834601 12.5426273699257091 13.6236587778926044   F   F   F
 17.7530837259999217 23.7118402719999644 10.8156001569999933   F   F   F
 21.6618445920123719 12.5539243408426877 16.4021157838715830   F   F   F
  9.8686640499575091  9.7778993276663666 13.6273680643377624   F   F   F
  1.9905104453188569  6.9695284472854597 13.6289429365191630   F   F   F
  5.9176950450000287 12.5533272029999310 10.8156001569999933   F   F   F
 19.7256482699999580 22.3170261389998572 12.2103998060000407   F   F   F
  3.9451301480000271  0.0000000000000000 12.2103998060000407   F   F   F
 17.7520221351242498  4.1983611815594317 13.6258818424407711   F   F   F
 21.6914354658845774  1.3935208013569569 16.3955340806795036   F   F   F
  9.8108766388518003 23.6761141820638450 16.4390231764169847   F   F   F
  9.8621106283048903  4.1919859234785832 13.6158581325025345   F   F   F
  1.9735004402593139  4.1850062409387379 13.6130339218842895   F   F   F
 21.6977263299481571  1.3879177250920494 13.6165058282052289   F   F   F
  9.8628241350000643  4.1844424010001093 10.8156001569999933   F   F   F
 11.8276948536917708  0.0061685631836842 17.7467440781529469   F   F   F
  1.9725650740000149  4.1844424010001093 10.8156001569999933   F   F   F
 17.7482766178868090  1.3988376562678009 19.2260094495164822   F   F   F
  5.9517063486736559  6.9970290323988502 16.4257511795763058   F   F   F
  1.9725650740000149 23.7118402719999644 10.8156001569999933   F   F   F
  9.8737730291933872  1.3805717712134582 19.2778957873748347   F   F   F
 21.6812650488393892  1.3951995880501418 19.2081624749642685   F   F   F
  1.9796626658436771  1.3881166379058667 19.2131360794030996   F   F   F
  1.9722069723888125  4.1467851515758065 19.2134220882312441   F   F   F
  1.9725650740000149 20.9222120049999525 10.8156001569999933   F   F   F
  3.9627086955820507 -0.0398787530023720 17.7665351591556764   F   F   F
 19.7093609855355290 -0.0367163922316027 17.7588566500740974   F   F   F
  0.0002237587789784 -0.0235366944026218 17.7615123306933960   F   F   F
  3.9451301480000271 22.3170261389998572 12.2103998060000407   F   F   F
 13.7777751891400229  9.7038909986058020 16.5270439042588961   F   F   F
  0.0024233977434716 22.3734283942322634 17.7801916237103228   F   F   F
  7.9031827791414084  5.5812590805497306 17.7634804900210135   F   F   F
 23.6674081062832933  5.5799162851655479 17.7721939191361180   F   F   F
  0.0151116267591304 11.1154410842835123 17.7719366408724682   F   F   F
  1.9929354443018141 26.5100455981093468 16.3843091074828244   F   F   F
  9.9363671328617809 18.1822056279439863 16.6718024859416616   F   F   F
  1.9854385688121658  9.7101563851015253 19.2623112809962542   F   F   F
 21.7237842424956256 18.1605271515517614 16.4100038552366811   F   F   F
  5.9899157059018950 23.7076159792685388 16.5215469628267826   F   F   F
 13.8626740414631442 23.7640164601353163 16.5234962185393286   F   F   F
 17.7389831345704110 12.6043379318061266 16.5098813472777408   F   F   F
 13.7492013007526346 18.0644249279861917 16.4664094896792150   F   F   F
  9.8565003696115046 12.6966046314730452 16.5775506594504627   F   F   F
 15.7675783528174094  0.0027068478937942 17.7559858123379257   F   F   F
  7.9072203448511704 -0.0022869959436117 17.7560660109540116   F   F   F
 15.7746699039968519  2.7937727353283015 14.9710293826118672   F   F   F
  5.9764176485752945 18.0524893285070149 16.3232069769786534   F   F   F
  3.9468092543862889  2.7864899010025770 14.9619378171252997   F   F   F
  7.8933313973320303  2.7878077223923681 14.9728697119283876   F   F   F
  9.8628241350000643  1.3948141340000999 10.8156001569999933   F   F   F
  1.9725650740000149  1.3948141340000999 10.8156001569999933   F   F   F
 13.8079546360000549  4.1844424010001093 10.8156001569999933   F   F   F
 17.6999677449200483 26.4444632663975590 19.1806559830817349   F   F   F
 19.7065617011821352  5.5996150607958413 17.7576963264002536   F   F   F
 17.7335808835154332  9.7692388437702888 16.4114477070667206   F   F   F
 10.0128522994331721 20.9265033125210351 16.4007936856931700   F   F   F
 17.7530837259999217  1.3948141340000999 10.8156001569999933   F   F   F
 10.0146152914813946 15.4725610510130114 16.3843878034139472   F   F   F
  5.9176950450000287 23.7118402719999644 10.8156001569999933   F   F   F
  9.8595856014383436  7.0436126096400207 16.4190203796410508   F   F   F
  9.8760706011198760 15.2883586612046916 13.6238377189255075   F   F   F
  9.8737134021760191  1.4016158347243717 16.4188071447017414   F   F   F
  2.0051375973753580 20.9217932314631305 13.6072089971686889   F   F   F
 15.7805205919999434  0.0000000000000000 12.2103998060000407   F   F   F
  1.9725650740000149 15.3429548049998807 10.8156001569999933   F   F   F
 17.8040313841571596 15.3232386747046867 16.4598168345792253   F   F   F
  5.9176950450000287  1.3948141340000999 10.8156001569999933   F   F   F
 13.8079546360000549  1.3948141340000999 10.8156001569999933   F   F   F
 21.6982156369999721  1.3948141340000999 10.8156001569999933   F   F   F
  0.0005585022982807  2.7910507393131199 14.9735641311749621   F   F   F
 21.6966758463960581  4.1827965773482134 13.6115218830119122   F   F   F
 13.8038825757915102  4.2179270965966627 13.6390283165595303   F   F   F
  5.9195445347890745  4.1808814678587902 13.6100744173048422   F   F   F
 19.7235089743213017  2.7937769319856733 14.9661019561617348   F   F   F
 17.7538384778224874  1.3721602647518756 16.3849949537508195   F   F   F
  5.9186546428940758  1.3917551934796797 16.4059293791198471   F   F   F
 13.7990429546921884  1.3991300226000507 16.4137524312739345   F   F   F
 17.7501534016623097  4.1881480925734564 19.2561187203963833   F   F   F
  5.9377364042947471  4.1407925376285668 19.2330210637585886   F   F   F
 21.6823953842823904  4.1772657624971075 19.2219382463297883   F   F   F
 13.7927427132733325  4.1944493054741869 19.2850780709790541   F   F   F
  9.8624206722381267  4.1852497092461132 19.2449876212142037   F   F   F
  9.8628241350000643  9.7636989360001234 10.8156001569999933   F   F   F
 11.8353900909999528  0.0000000000000000 12.2103998060000407   F   F   F
  9.8356208723942675 12.5255995527138122 13.7201210442584074   F   F   F
  7.8902602960000570  0.0000000000000000 12.2103998060000407   F   F   F
 19.7256482699999580 16.7377696040000430 12.2103998060000407   F   F   F
 11.8225197548710081 11.2353100069704244 17.7429934556147124   F   F   F
  3.9451301480000271 16.7377696040000430 12.2103998060000407   F   F   F
 21.6861830929621178  6.9694628937797489 13.6244502820675102   F   F   F
 13.8061303643160009  7.0436063543921117 19.1604699426378815   F   F   F
 17.7313619974416774 20.9387795628510602 13.7119857814331318   F   F   F
 21.6435833820935173 23.7282873279835975 19.2416243711997730   F   F   F
  2.0310110852628309 20.9473921163437140 16.3790589571044727   F   F   F
 15.7689834212175626  5.5756647280034679 17.7633076355543977   F   F   F
 15.7432128665949307 11.1517795770692008 17.6952707869848389   F   F   F
  7.9392247242241920 22.1152454214550609 17.7207347799192192   F   F   F
  7.8851452196108545 16.6477837668195505 17.7437839885375581   F   F   F
 11.7682119885971836 16.8371043186055189 18.2731822900914160   F   F   F
  5.9580039167114220 26.4992340450527273 16.3515748804787719   F   F   F
 13.7114137388204096 20.8761547949082455 16.4309692102255092   F   F   F
 21.6765070152362149 15.3448462256331553 16.3763284156793425   F   F   F
 21.7139409292071051  9.7886168622189764 16.3597856541872382   F   F   F
 21.6434455491648094 20.9412204740937931 16.3787690706666567   F   F   F
  1.9800135298534367 12.5168404050716706 19.2174451201204590   F   F   F
 15.7714653617349505 25.0812386220560128 14.9659743661799602   F   F   F
  2.0518410458932625 18.1325164834258068 19.2076181959183323   F   F   F
  9.8796458190193643 26.4284137291867012 19.1781485003386045   F   F   F
 13.7994772697098806 12.5162088143634413 16.3682607877519359   F   F   F
 17.8396978971538758 12.4503028268121838 19.3360462546435556   F   F   F
 13.8079546360000549  9.7636989360001234 10.8156001569999933   F   F   F
  3.9605075545766173  8.3806867985655682 14.9995543690240414   F   F   F
 17.7216243169108409  6.9874240853067793 16.3932148870769403   F   F   F
 10.1179271727320188 12.3760878362346673 19.7162376284958825   F   F   F
 13.9643225513116978 23.6512540250508216 19.3950316611292486   F   F   F
 21.5990647752269531 15.2959183937669572 19.1972875098895912   F   F   F
 17.8426072547682324 15.2544422482130440 19.1400560338951813   F   F   F
 21.6982156369999721 23.7118402719999644 10.8156001569999933   F   F   F
  9.8457138759850515  9.8440545179116548 16.4231809411359677   F   F   F
 21.6324152033518686 18.1315545517600007 19.2258628699846241   F   F   F
  3.9697450737595208 19.5173307419738720 15.0078558768321422   F   F   F
 11.8368778228345786 25.0572885934242251 15.0231217038386244   F   F   F
 21.6495223205870282  9.7077467028474533 19.1999844525569472   F   F   F
  9.8628241350000643 20.9222120049999525 10.8156001569999933   F   F   F
  5.9187577469876151  9.7959619548415766 13.6340652372937470   F   F   F
  5.9176950450000287 20.9222120049999525 10.8156001569999933   F   F   F
 21.6982156369999721 26.5014685399999657 10.8156001569999933   F   F   F
  5.9176950450000287 26.5014685399999657 10.8156001569999933   F   F   F
 17.7187332489415255  7.0322097925365519 19.1880791444253234   F   F   F
 21.6826851156570513 15.3345958201067134 13.6111259081206377   F   F   F
  5.8790538972852815 15.3052645251622561 16.4739793968697938   F   F   F
  9.7706940638611375 23.7152283518455071 19.1850043029843036   F   F   F
  9.8994669736698384  7.0346153055004104 19.1750145798397327   F   F   F
 21.6845386723086833 26.5139473850645508 16.3872557882496501   F   F   F
 17.7805036587780805 20.7802153685571440 16.5787507622402046   F   F   F
 17.7136777358467690 26.4400249988599967 16.4121237572568752   F   F   F
  5.9027338463001637 20.8203743672690216 16.5664088530915805   F   F   F
 21.6749446762165370 23.7032291519719500 16.3910488903857150   F   F   F
  5.6710833659413344 15.4381863387296878 19.2513911617445217   F   F   F
  5.9320786241786054  1.3515951041519623 19.2497756276607959   F   F   F
  5.9676609303063666 26.3735853270166416 19.1216031189956723   F   F   F
 21.6982156369999721 15.3429548049998807 10.8156001569999933   F   F   F
 21.6982156369999721  9.7636989360001234 10.8156001569999933   F   F   F
  2.0307310603728572 12.5766069212077962 16.4136292739593053   F   F   F
 13.8079546360000549 20.9222120049999525 10.8156001569999933   F   F   F
 13.8079546360000549 15.3429548049998807 10.8156001569999933   F   F   F
  2.0210857203547579 23.7026950669028089 16.4059855862287591   F   F   F
  9.8499732201318349 26.4567076274519977 16.4024736101334518   F   F   F
 11.8307653143820364  8.4088205334095747 15.0090747113479832   F   F   F
  5.9176950450000287 18.1325837379999442 10.8156001569999933   F   F   F
  3.9843445382277962 11.1006669790611809 17.7995995904540507   F   F   F
 13.8177136398274083 26.5206731674047091 16.3686068712933803   F   F   F
  9.8778841202836833 26.4446314087840548 13.6229785283685167   F   F   F
  3.9585276878380129  5.5731853860630522 17.7711756088169892   F   F   F
 15.7774662659393474 16.6152545751269258 17.7440519774668175   F   F   F
 15.7449178732474699 22.1278397380291487 17.7279643657542039   F   F   F
  7.9356296975891762 11.2741592698455673 17.8014459211312861   F   F   F
 13.7929514938860258 26.4612305012684743 13.6160864883352382   F   F   F
  2.0553489219921919 15.3125789192772928 19.1874048461629378   F   F   F
  4.0445651581121655 22.3089294935420099 17.8373567839931688   F   F   F
 19.7223597910980928 16.7978212852849289 17.6871173877744781   F   F   F
  1.9869547308420445  6.9311684757321350 19.2650620075241008   F   F   F
  1.9904929030421290 20.9115196872714471 19.1902362763705341   F   F   F
  1.9986471790530473 26.4857368197893344 19.2285245621409189   F   F   F
  9.8405921708443937 14.9079393394349289 18.9046816884749802   F   F   F
  9.9011658255645898  9.7519915801873527 19.1946618220435994   F   F   F
 11.8543015307651363 22.4546931331918849 17.7803955341087381   F   F   F
  5.8979192897428252 12.5794661979400502 16.3799658727320825   F   F   F
  1.9214347551578828 18.1797709668362408 16.4003702473327024   F   F   F
 13.8073964567156722  6.9662117390316034 16.3740058131857964   F   F   F
  1.9607999569058483  6.9770357774460274 16.4221452509069330   F   F   F
  3.9731153026945489 25.0802660368331232 14.9857856535894385   F   F   F
 11.8353900909999528 16.7377696040000430 12.2103998060000407   F   F   F
 19.6542021183602138 22.3345930732564284 17.7708371369014877   F   F   F
 21.6834771439231559 12.5413596768053370 13.6231616784227132   F   F   F
 17.8478192616923543 21.0503398642092492 19.6592399917465315   F   F   F
 21.6631074704012576  6.9744261922514159 19.2254012910321634   F   F   F
 13.9131335351206946 12.7292368629589969 19.0338860602552344   F   F   F
 17.7545835308710664  9.7814088660158180 13.6251790827905612   F   F   F
  5.8566504517016158 18.3775224427630697 18.8710796274949040   F   F   F
  6.1950261277737049 23.4413921780503074 19.3830103243843368   F   F   F
  5.9466301336080738  6.9352526305535553 19.2491743162512243   F   F   F
 21.6982156369999721 18.1325837379999442 10.8156001569999933   F   F   F
 11.8295996850591649 13.9090439077209744 15.0074989463200588   F   F   F
 11.8422676857608788 19.4267875916019435 15.0010695785382815   F   F   F
 19.7032169445398431 19.4886203022416780 15.0147127205218158   F   F   F
  5.9902328098522775  9.7867979466624089 16.4258519179739899   F   F   F
 19.7132109517015586 13.9283919383836441 14.9853930559587312   F   F   F
 21.6607937673551731 12.5107877889148948 19.1911597404316296   F   F   F
  3.9414764370460316 13.9729771066584458 14.9345154161208598   F   F   F
  9.8628241350000643 26.5014685399999657 10.8156001569999933   F   F   F
 19.7146389112025417  8.3703549234063459 14.9979266527454733   F   F   F
  5.9339580708792008 26.4545062479414312 13.6089974895101076   F   F   F
 11.8372201573942704  5.5861193428245652 17.7486343699437654   F   F   F
 17.6737279739525448 18.0451165020723536 16.3544473361182838   F   F   F
  9.9463441692398931 20.6685975082430744 19.0174988074973399   F   F   F
 21.6982156369999721 20.9222120049999525 10.8156001569999933   F   F   F
 19.7052145673652497 25.0951975032228241 14.9861843130382990   F   F   F
  0.0000000000000000 11.1585130700000246 12.2103998060000407   F   F   F
  0.0000000000000000 16.7377696040000430 12.2103998060000407   F   F   F
 17.7151783849983069 18.1609669563118636 13.6233822537558300   F   F   F
  7.8902602960000570  5.5792565350000141 12.2103998060000407   F   F   F
  7.8902602960000570 16.7377696040000430 12.2103998060000407   F   F   F
  5.9434400646980601 15.3925742876502358 13.6573097313162286   F   F   F
  7.8973401555172558 25.0584081941392647 14.9843188268373115   F   F   F
 15.7805205919999434  5.5792565350000141 12.2103998060000407   F   F   F
  0.0035631755269715 25.1040645634672011 14.9752896331918901   F   F   F
 13.9754621431411383 18.2017834068990254 19.1623098113932144   F   F   F
  1.9847216451072907 26.4882463960433405 13.6101468532688195   F   F   F
  1.9636513093198249 15.3375299225012043 13.5949211011373308   F   F   F
  1.9826971565624407  9.7584731573142278 13.6091473894125663   F   F   F
 21.6880821394214465 23.7034470042985888 13.6211647348873388   F   F   F
  0.0059834373373731  8.3603432983875781 14.9546795203370007   F   F   F
 15.7501505605593284 19.5316990375054047 15.0907824075820933   F   F   F
  1.9615303344249149 15.3701556270660582 16.3566948771989757   F   F   F
  5.9176950450000287  9.7636989360001234 10.8156001569999933   F   F   F
 13.7515694815655856  9.8519512135205094 19.3459675992491213   F   F   F
  6.0151007508723051  9.7365609569760885 19.2264026259064629   F   F   F
  6.0446418528440926 20.6993059880131831 19.8907979180199064   F   F   F
  9.4031720714184104 17.8649709800980219 19.5689710920463256   F   F   F
 21.6784508633716939 26.4943699042225482 19.2275003184736697   F   F   F
 21.6746625365760330 20.9246506865875688 19.1808321397760757   F   F   F
 17.5515508357583556 23.6695431445312074 19.1909105426113307   F   F   F
  2.0193463285517943 23.7112823048084671 19.2571570367077598   F   F   F
 17.8182087084507863 18.2708013578727630 19.0746134167806076   F   F   F
  9.8746980867892642 23.6308127848562712 13.6626738587449754   F   F   F
 17.7432725619004650  6.9920378227055631 13.6267540242686369   F   F   F
 21.6838394524792832  9.7547883324661129 13.6045958263448945   F   F   F
 13.8004455251147764  7.0335848917357859 13.6115415544625264   F   F   F
 13.7991665277671007 20.8839284211683349 13.6432916217131996   F   F   F
  9.8628241350000643 15.3429548049998807 10.8156001569999933   F   F   F
 17.5770188966937617  9.8188314303364024 19.2342263846350789   F   F   F
 19.6971465928886573 11.0789083569954911 17.7126746934314490   F   F   F
 13.7705724235379812 26.4405345406344026 19.1372431827377980   F   F   F
  1.9792903781859383  9.7854782414021138 16.3888273269633693   F   F   F
 13.8079546360000549  6.9740706690001133 10.8156001569999933   F   F   F
  3.9159338635828504 16.8048404395159849 17.6196666851908965   F   F   F
 17.7530837259999217 26.5014685399999657 10.8156001569999933   F   F   F
 17.7530837259999217 15.3429548049998807 10.8156001569999933   F   F   F
  9.8734338429264863 20.8389454355812376 13.6353977771795485   F   F   F
 17.7127231100112965 12.5612593876418597 13.6755678272451249   F   F   F
 17.7530837259999217  9.7636989360001234 10.8156001569999933   F   F   F
  5.9176950450000287 15.3429548049998807 10.8156001569999933   F   F   F
  5.8907530972714506 12.6314573681213940 19.2403110319708333   F   F   F
  1.9725650740000149  6.9740706690001133 10.8156001569999933   F   F   F
 13.7954528260019220 15.3842729837974357 13.6972238856743367   F   F   F
 15.7584032827308036 14.0151780569022915 15.1078143367785938   F   F   F
  7.9144762332539509 14.0135811405208237 15.0930060993329445   F   F   F
  7.9424546317038507 19.5393204775675962 15.1206071142203378   F   F   F
 21.6930332176388845  6.9922958391828054 16.4125865262252653   F   F   F
 17.7397677783025536 26.4941489539584758 13.6422882454117467   F   F   F
 13.7194529556935620 15.3580437274256898 19.3768728351304667   F   F   F
 13.6647713329704974 20.8820255064239113 19.1971315149300317   F   F   F
 21.6498278700431683 20.9184289419762592 13.6100293493951074   F   F   F
 17.7530837259999217 20.9222120049999525 10.8156001569999933   F   F   F
 19.7226673586090122  8.3274035308216892 18.3670628679768200   F   F   F
 15.7709413433727406 19.5516384353169919 17.7952028905136039   F   F   F
  3.9451301480000271 13.9481413370000329 12.2103998060000407   F   F   F
 19.7381911679984725  0.0202134422132482 15.1804601784161868   F   F   F