Au  C  H  O Sr Ti                       
   1.00000000000000     
    23.6707801818999997    0.0000000000000000    0.0000000000000000
     0.0000000000000000   22.3170261383000010    0.0000000000000000
     0.0000000000000000    0.0000000000000000   30.0000000000000000
   Au   C    H    O    Sr   Ti
    50     3     7   264    72    72
Selective dynamics
Direct
  0.7129039025429194  0.5310864119586327  0.7544095364660137   F   F   F
  0.6630374699747321  0.1789214832975787  0.7408717741728310   T   T   T
  0.4717941423456580  0.4494793451342645  0.8770990477619520   F   F   F
  0.5196745308565198  0.3789014047376398  0.7327685309821064   F   F   F
  0.2822173516179447  0.3398814659477765  0.7023858883917100   F   F   F
  0.6694734941894538  0.6825301393371959  0.7482905483288960   F   F   F
  0.3977511991094360  0.3818308492887681  0.6904932844567213   F   F   F
  0.4514973061234784  0.5803889610493513  0.7030882962929681   F   F   F
  0.3750378849120679  0.4926793230307780  0.8331011096479202   F   F   F
  0.2892086031580661  0.5380769217085728  0.7777148886142271   F   F   F
  0.3681574514380870  0.6191226901470799  0.8202270030007810   F   F   F
  0.6950732882996320  0.3573473453651914  0.7634616700336636   T   T   T
  0.3252709406576884  0.4147983121169219  0.7693594921009606   F   F   F
  0.2570778112870329  0.5933537311699411  0.6944032935674329   F   F   F
  0.6456396053424172  0.4456925885914416  0.6957141207474891   F   F   F
  0.5610591439144841  0.6430531846467744  0.8640732833379587   F   F   F
  0.5400620710147237  0.6678745685590854  0.7017932019445112   F   F   F
  0.4429851032538181  0.4736150074775125  0.7560820685125123   F   F   F
  0.3736622402710665  0.7406202191753621  0.7787771948649933   F   F   F
  0.4607264252640988  0.5733452289909735  0.8652767917559316   F   F   F
  0.6551808901836438  0.4519100182484550  0.8163468441186055   F   F   F
  0.7066543088831949  0.7578101977754486  0.6879165614833553   F   F   F
  0.4174067746274090  0.6970009100056558  0.6995151918581470   F   F   F
  0.7753883221628968  0.4407619532738423  0.7938975931098682   F   F   F
  0.5963983457930766  0.7845046302984713  0.7131179474024805   F   F   F
  0.5674551107336114  0.5142642990077988  0.8585107064435107   F   F   F
  0.4616320505883564  0.6976453882615772  0.8319413817405561   F   F   F
  0.2938268854255597  0.7466854954966777  0.6969729914658984   F   F   F
  0.5086049106583772  0.6064708989177277  0.7778363825028478   F   F   F
  0.5779760267885763  0.7250745562235821  0.7941327363936850   F   F   F
  0.2402992328554916  0.4695256650330961  0.7092569124227879   F   F   F
  0.2852146817443781  0.6624106176189173  0.7645215300249788   F   F   F
  0.6020845083051114  0.2832137119531026  0.7840306940957547   F   F   F
  0.5135466023465654  0.4852534769582917  0.6780079291825771   F   F   F
  0.5615183725628867  0.4895556500908214  0.7631046246728417   F   F   F
  0.4859053338333794  0.2708139647326107  0.7739892261281369   F   F   F
  0.6196478982482603  0.3202597288833573  0.6974964251315825   F   F   F
  0.5540313743037260  0.2141650056727187  0.7093923091161827   F   F   F
  0.5517224020220795  0.3843322996993521  0.8268088448189985   F   F   F
  0.4361991963339023  0.2273884416796363  0.6978818480792910   F   F   F
  0.3699171986768732  0.2989012693678177  0.7556380874834048   F   F   F
  0.3490094610869576  0.5001360622180968  0.6978238020444962   F   F   F
  0.4300708023516222  0.3709282937112235  0.8148244526355484   F   F   F
  0.6307090864605200  0.5895835371617935  0.8012083040085969   F   F   F
  0.7325141713016308  0.6167441608799820  0.6930411741545583   F   F   F
  0.4857748419740702  0.7765511466612764  0.7551835572308718   F   F   F
  0.7611941934425701  0.4385009387483905  0.7036618373204746   F   F   F
  0.7371816185908386  0.2447519702228789  0.6938610280764976   T   T   T
  0.6207330342410060  0.5720866235109554  0.7040067943766459   F   F   F
  0.3913886948504128  0.8178261774131030  0.7065093321319296   F   F   F
  0.6963969498930140  0.0623899725080008  0.7786250206380387   T   T   T
  0.7239179704115344  0.1116327568580786  0.7515726761613593   T   T   T
  0.7558045944341600  0.2900693815379043  0.7503261442844718   T   T   T
  0.7543386041993259  0.2627155655566895  0.7804618155628233   T   T   T
  0.6594925592738861  0.0432873673098371  0.7620477130869929   T   T   T
  0.7958368759456036  0.3139520320583813  0.7470845926300527   T   T   T
  0.6847360634952580  0.0767882553100492  0.8121890317998037   T   T   T
  0.7591221647456621  0.1333916332370677  0.7685476655702388   T   T   T
  0.7274505101361441  0.0260337099252794  0.7820533523611743   T   T   T
  0.7356576560004626  0.0978654196486985  0.7174187894557869   T   T   T
  0.2531043743200740  0.8125157242107193  0.5506948763330044   F   F   F
  0.5859839924316077  0.8145357500088792  0.5504681880157847   F   F   F
  0.7487605974118736  0.3143028708509732  0.5501431965240542   F   F   F
  0.5811301938409201  0.5599923121924988  0.5489473728715311   F   F   F
  0.4163260780757483  0.3194847914657188  0.5526398181016461   F   F   F
  0.5766522984426032  0.4358142407029106  0.5521751184772796   F   F   F
  0.4166164261043050  0.0653991305879060  0.5473743651247531   F   F   F
  0.0850035236267814  0.8127629410662891  0.5473127720714217   F   F   F
  0.0817883896009519  0.5643281055470979  0.5462938492516969   F   F   F
  0.2494910740140952  0.3135879207955767  0.5459780376851953   F   F   F
  0.5010070148167500  0.7562717552001956  0.5929144108027415   F   F   F
  0.9141982009768554  0.6888908962508538  0.5454223484652871   F   F   F
  0.9176753898536489  0.1887379197452290  0.5448930024984477   F   F   F
  0.9157309892440537  0.4375607840338915  0.5457030785139310   F   F   F
  0.5795411450999026  0.6860979408932053  0.5474018533300793   F   F   F
  0.2515117129121265  0.9372799998812269  0.5452635926001363   F   F   F
  0.4972320823726051  0.5047750725050690  0.6090245651897419   F   F   F
  0.9174527357238347  0.5637329983936965  0.5470122592959186   F   F   F
  0.4198425905171987  0.5648661443995380  0.5554416052451430   F   F   F
  0.9155712837198280  0.8128367648700561  0.5468099856341269   F   F   F
  0.0838478564680614  0.9386280635367186  0.5459051477564216   F   F   F
  0.2492261917658709  0.6831890939733398  0.5520206161435581   F   F   F
  0.7490980852751292  0.9342835812254009  0.5474595328570544   F   F   F
  0.7517937243803772  0.6804968060755385  0.5530415678160807   F   F   F
  0.9158324824270139  0.9385638859899217  0.5463620396804600   F   F   F
  0.4178886574561815  0.0652104347299982  0.6400647961319237   F   F   F
  0.5838604978183426  0.9378827574114794  0.5461013420224816   F   F   F
  0.0823840421961748  0.0631645218690480  0.5475293434798729   F   F   F
  0.4170672693854414  0.9360483350827735  0.4540733702033179   F   F   F
  0.4159490719607390  0.9370762030187905  0.5461120947784437   F   F   F
  0.5830801161083343  0.0625352650889326  0.5460515624469480   F   F   F
  0.4997258212002080  0.1257325202962036  0.4997282442254232   F   F   F
  0.9996365743463542  0.4994547090862724  0.5939976409297998   F   F   F
  0.5814255763021379  0.1855324392126789  0.5502834114914492   F   F   F
  0.9998472417962745  0.7531693702927029  0.5923327236644482   F   F   F
  0.3340570905121325  0.9998755117985709  0.5919762840042182   F   F   F
  0.9999013410699078  0.9988395047697693  0.5930528181658872   F   F   F
  0.0005985261497869  0.2480040777786101  0.5922800861202191   F   F   F
  0.3331980085555273  0.4958675492534255  0.5910531235110028   F   F   F
  0.3356187279354614  0.7412008634738498  0.5903009941312689   F   F   F
  0.6649503966286900  0.2492269241913334  0.5894729245203649   F   F   F
  0.6659871800100987  0.0001769881350810  0.5919977591239274   F   F   F
  0.6657409809782209  0.7416412470239848  0.5902939871161905   F   F   F
  0.6666090024488653  0.4944452919027000  0.5913717326136023   F   F   F
  0.1674842117990352  0.9983645404719610  0.5923268510161606   F   F   F
  0.4127463396204973  0.8128538275631385  0.6394713321531214   F   F   F
  0.1683827408522802  0.2484161421706546  0.5931355886340270   F   F   F
  0.2484083556732983  0.4356938570856599  0.5491907295837279   F   F   F
  0.1655907927059701  0.5026878620441622  0.5874116205153683   F   F   F
  0.3350369091373295  0.2543826972607235  0.5928539952842371   F   F   F
  0.4997171063990749  0.9999919097417802  0.5910431883517973   F   F   F
  0.8327688169998666  0.8743402610355062  0.4986685022115083   F   F   F
  0.7485519201602742  0.9358054202979744  0.6404126389789866   F   F   F
  0.8323269853886330  0.0010919094629642  0.5920036465659777   F   F   F
  0.7485907712667981  0.1868349673699967  0.5470227208147023   F   F   F
  0.4232474199063887  0.6878638625901203  0.5467347997836569   F   F   F
  0.4232103962558895  0.4437097291439684  0.5457903371914625   F   F   F
  0.7524163656266438  0.4365885016051081  0.5483548044069764   F   F   F
  0.0833333358191695  0.3124999999901945  0.3605200052333331   F   F   F
  0.5827017458292332  0.3115023438981410  0.5455765588348882   F   F   F
  0.5827503885303145  0.9371574601081107  0.4543145429169186   F   F   F
  0.1707384875786175  0.7502186614400586  0.5949640967227268   F   F   F
  0.0860171973685340  0.6892552531260421  0.5453437996770703   F   F   F
  0.9142393542480391  0.8132404026543725  0.6416084199736929   F   F   F
  0.5826595857373675  0.0656946532525566  0.6393290056228196   F   F   F
  0.4173545428805596  0.9350081596594819  0.6398316633398764   F   F   F
  0.7536623915700176  0.3062245507817920  0.6449050287453773   F   F   F
  0.7486068943856594  0.0650903540724954  0.6399955656858367   F   F   F
  0.0835397239102065  0.3110847960643497  0.6404488343242605   F   F   F
  0.6665641650419758  0.8744787640927001  0.4988705281905794   F   F   F
  0.0867491159374438  0.5626307927899390  0.6401416328801943   F   F   F
  0.0867787142367362  0.4363311726815269  0.6394994666278535   F   F   F
  0.4182942017527225  0.1871414429249896  0.6395475348569022   F   F   F
  0.4156298812408536  0.4185045556476368  0.6300587014300874   F   F   F
  0.0845476647833863  0.9356257224637119  0.6408428814252360   F   F   F
  0.0831412843372021  0.6870300035400589  0.6389731006442290   F   F   F
  0.0840655966788617  0.0603090844312533  0.6422038310518019   F   F   F
  0.8332270663707533  0.5025361538689523  0.5893003495161651   F   F   F
  0.0839584239717581  0.1851330078941587  0.6414738777651436   F   F   F
  0.2403581644138555  0.4418988083144129  0.6417735089091110   F   F   F
  0.9126839303363496  0.4355480619084275  0.6397667436705987   F   F   F
  0.2520421712431684  0.9302100370903474  0.6373958610393728   F   F   F
  0.9163747835848071  0.6874526760979691  0.6389896789037550   F   F   F
  0.9145403075082754  0.9370759220461480  0.6413369840231908   F   F   F
  0.3971674075995111  0.5506091682851348  0.6520089106085436   F   F   F
  0.2546487283401859  0.6778438485789451  0.6628370259612240   F   F   F
  0.2535849356658630  0.1864375367510576  0.6411984489224452   F   F   F
  0.5801778812970468  0.1917226982441775  0.6446540574093120   F   F   F
  0.5819275088582359  0.9352990670783399  0.6394507489448600   F   F   F
  0.9166666865332829  0.8124999999834799  0.3605200052333331   F   F   F
  0.7426673200272944  0.1891818937316074  0.6405312982535420   F   F   F
  0.8320872017739518  0.2461365400398492  0.5895230036056915   F   F   F
  0.8306362211640277  0.7509938123144977  0.5925941866889062   F   F   F
  0.0843146469920413  0.8125524884525817  0.6422676277025232   F   F   F
  0.7534132662301261  0.5681674163614261  0.6358732068806745   F   F   F
  0.0835831877335806  0.1888706874737878  0.5455948473025813   F   F   F
  0.7412863537077499  0.8105985664428275  0.6395587757320200   F   F   F
  0.8331273427959829  0.1246390482526820  0.5000881632683516   F   F   F
  0.5885047038431281  0.3206239166976417  0.6343027009339082   F   F   F
  0.7504502541773732  0.1878079741654162  0.4539026157690884   F   F   F
  0.2476434889720309  0.5736520811881363  0.6287589701276843   F   F   F
  0.2621148993890046  0.7995839903201372  0.6463248077205321   F   F   F
  0.2510402254763875  0.0593738123998904  0.6423245920621952   F   F   F
  0.9166666865332829  0.5625000000092442  0.3605200052333331   F   F   F
  0.4996583358244138  0.3742497095065218  0.4997948622335997   F   F   F
  0.5003127272228198  0.6210933342363489  0.5000770992059316   F   F   F
  0.8324096559413263  0.6230652404727905  0.5000155660910721   F   F   F
  0.2520239392884136  0.1882373547275407  0.5472469186468771   F   F   F
  0.8326641015274419  0.3732110619496467  0.4994997348739076   F   F   F
  0.9148964251795562  0.3103914920140909  0.6396185722039291   F   F   F
  0.1666593974877770  0.3760882723966574  0.4978822825465130   F   F   F
  0.5792820032616675  0.4383119822537580  0.6458983763767634   F   F   F
  0.5788314163377066  0.6855976783289179  0.6396800167712300   F   F   F
  0.9148545330006286  0.1847144332834674  0.6398103008806615   F   F   F
  0.2492161662549321  0.3161610082348503  0.6412538745947600   F   F   F
  0.1677465304898718  0.8732747567229708  0.4998755961806935   F   F   F
  0.9157841927019348  0.4370328605031304  0.4536375090957492   F   F   F
  0.1671117375005196  0.1244614298933939  0.4994887963471655   F   F   F
  0.7486561216957739  0.0614958320657735  0.5455447035960432   F   F   F
  0.4272072036483223  0.3045020725419150  0.6556287151996543   F   F   F
  0.5910839468712794  0.8100421445571087  0.6461110014631473   F   F   F
  0.4204371028023388  0.6761006510537868  0.6336438369038859   F   F   F
  0.7538138833195873  0.4325743396703743  0.6371470207032388   F   F   F
  0.4163503864508016  0.1916217079857603  0.5465611569566065   F   F   F
  0.9133922989778398  0.5622257088053217  0.6411611983362633   F   F   F
  0.1677150781398424  0.6242948600953753  0.5001180121861353   F   F   F
  0.5000200926283256  0.8734584465858717  0.5008991000642951   F   F   F
  0.9154672786935407  0.0623459858733497  0.6412243494585965   F   F   F
  0.0827337518371252  0.4389042211545657  0.5448343189920806   F   F   F
  0.7541351427918883  0.6937179086586980  0.6556856663966570   F   F   F
  0.9162072583015046  0.3121152123223041  0.4538716323105589   F   F   F
  0.9166666865332829  0.4374999701794380  0.3605200052333331   F   F   F
  0.9166666865332829  0.1875000000030838  0.3605200052333331   F   F   F
  0.0855870076032375  0.3134656165297400  0.5471041208825795   F   F   F
  0.5833333134730552  0.6874999999963620  0.3605200052333331   F   F   F
  0.5833333134730552  0.4374999701794380  0.3605200052333331   F   F   F
  0.5833333134730552  0.1875000000030838  0.3605200052333331   F   F   F
  0.2499999999799343  0.9375000000154046  0.3605200052333331   F   F   F
  0.9166666865332829  0.9375000000154046  0.3605200052333331   F   F   F
  0.2499999999799343  0.6874999999963620  0.3605200052333331   F   F   F
  0.2499999999799343  0.1875000000030838  0.3605200052333331   F   F   F
  0.7499999404149307  0.9375000000154046  0.3605200052333331   F   F   F
  0.7499999404149307  0.6874999999963620  0.3605200052333331   F   F   F
  0.7499999404149307  0.4374999701794380  0.3605200052333331   F   F   F
  0.4171588106045903  0.6849094026297848  0.4547769267017330   F   F   F
  0.9166666865332829  0.6874999999963620  0.3605200052333331   F   F   F
  0.7499999404149307  0.1875000000030838  0.3605200052333331   F   F   F
  0.4166666269218169  0.4374999701794380  0.3605200052333331   F   F   F
  0.2499999999799343  0.4374999701794380  0.3605200052333331   F   F   F
  0.0833333358191695  0.0625000000159659  0.3605200052333331   F   F   F
  0.9153620559881901  0.6867514519910216  0.4532048469463206   F   F   F
  0.6655788403770444  0.3783811883789099  0.5034974296634687   F   F   F
  0.3344177974395066  0.3783414846767954  0.5031522424225940   F   F   F
  0.3356477321265672  0.6258182841025146  0.5037793934646331   F   F   F
  0.9175995129518313  0.0633941207978239  0.5473973267643544   F   F   F
  0.7495797340000010  0.9382949125220321  0.4552848147201587   F   F   F
  0.5828021050825640  0.4395114104498745  0.4564725389339301   F   F   F
  0.6653531931656929  0.6258637350975107  0.5029702664869120   F   F   F
  0.2500611254493350  0.9360725455589645  0.4540498053179505   F   F   F
  0.2499894690059747  0.1885720621116889  0.4542301934460653   F   F   F
  0.4166666269218169  0.9375000000154046  0.3605200052333331   F   F   F
  0.4166666269218169  0.6874999999963620  0.3605200052333331   F   F   F
  0.2499999999799343  0.8124999999834799  0.3605200052333331   F   F   F
  0.7490577502701399  0.6886033702245626  0.4573274829524649   F   F   F
  0.4166196184016329  0.4354593629084533  0.4539617110013126   F   F   F
  0.0845701533571130  0.6868723416945244  0.4530658035029020   F   F   F
  0.5906988577964327  0.5651726473975813  0.6390209386722390   F   F   F
  0.0840591860064848  0.9367771340173618  0.4535674713387934   F   F   F
  0.0828030026730531  0.4368113139644549  0.4528353754766741   F   F   F
  0.0840275038988096  0.1866250343123141  0.4529778383669338   F   F   F
  0.9165860225293088  0.8121388550150215  0.4540721038561486   F   F   F
  0.7465131794573239  0.5585547529989370  0.5449092389596046   F   F   F
  0.0003996956068164  0.1249110601450028  0.4979361853605226   F   F   F
  0.9161122408617999  0.0621646394461521  0.4540841507692051   F   F   F
  0.4994531962662876  0.2538938666699693  0.5914918459903546   F   F   F
  0.4172038648510963  0.1871509353681802  0.4536104820339659   F   F   F
  0.2520757801493687  0.6876322150919378  0.4561446111341141   F   F   F
  0.9156074867923252  0.3126600375521562  0.5468679566607832   F   F   F
  0.9163861121280732  0.9371593406035075  0.4536188546932109   F   F   F
  0.5833333134730552  0.9375000000154046  0.3605200052333331   F   F   F
  0.9161876776966906  0.5623135777655861  0.4539695859003743   F   F   F
  0.9998433210598989  0.6271105836757869  0.4977023067792885   F   F   F
  0.3337540861494901  0.1256949494659736  0.4987705071963546   F   F   F
  0.0000955013945685  0.8751607292038841  0.4995021749066453   F   F   F
  0.3334643358615423  0.8739342704261333  0.4993166710038395   F   F   F
  0.6660268261530788  0.1257483007542817  0.4992498590284313   F   F   F
  0.2511674850759746  0.4392710520011320  0.4549566093417354   F   F   F
  0.0833333358191695  0.5625000000092442  0.3605200052333331   F   F   F
  0.9166666865332829  0.0625000000159659  0.3605200052333331   F   F   F
  0.7494008848865406  0.8131878704183535  0.4530586950910447   F   F   F
  0.7494011289301028  0.4377196257720257  0.4554195816135547   F   F   F
  0.2505049892206230  0.0620642342759652  0.4542794190660189   F   F   F
  0.5829494188879636  0.1901656813859134  0.4556383936658648   F   F   F
  0.2518825101936955  0.5645999295380335  0.4538462536089582   F   F   F
  0.9999077115482251  0.3737211085407921  0.4981796456531029   F   F   F
  0.5832772172448415  0.8104975276541992  0.4553760449938977   F   F   F
  0.8333332538436267  0.0000000000000000  0.4070133268666680   F   F   F
  0.2525465949490240  0.5590054768737431  0.5439687426955899   F   F   F
  0.2499999999799343  0.5625000000092442  0.3605200052333331   F   F   F
  0.0000000000000000  0.2500000000190425  0.4070133268666680   F   F   F
  0.0000000000000000  0.4999999999932783  0.4070133268666680   F   F   F
  0.7483012158073379  0.5639245943756990  0.4539918383192045   F   F   F
  0.3333333432766779  0.0000000000000000  0.4070133268666680   F   F   F
  0.3333333432766779  0.4999999999932783  0.4070133268666680   F   F   F
  0.3333333432766779  0.7500000000123208  0.4070133268666680   F   F   F
  0.6666666865533486  0.0000000000000000  0.4070133268666680   F   F   F
  0.6666666865533486  0.2500000000190425  0.4070133268666680   F   F   F
  0.6666666865533486  0.4999999999932783  0.4070133268666680   F   F   F
  0.6666666865533486  0.7500000000123208  0.4070133268666680   F   F   F
  0.5843075683735535  0.3152587031204703  0.4539993603975532   F   F   F
  0.1666666716383389  0.2500000000190425  0.4070133268666680   F   F   F
  0.7481558656345868  0.8080929989260213  0.5454999051425844   F   F   F
  0.1666666716383389  0.7500000000123208  0.4070133268666680   F   F   F
  0.0000000000000000  0.0000000000000000  0.4070133268666680   F   F   F
  0.5000000000021103  0.7500000000123208  0.4070133268666680   F   F   F
  0.3333333432766779  0.2500000000190425  0.4070133268666680   F   F   F
  0.7473851862104652  0.3127657346749402  0.4559998818156501   F   F   F
  0.0000000000000000  0.7500000000123208  0.4070133268666680   F   F   F
  0.4168730443271258  0.8103690059189219  0.4549446319960211   F   F   F
  0.7498685792288171  0.0632373619999314  0.4538146953034783   F   F   F
  0.9159436905076532  0.1866247652561270  0.4529555203552960   F   F   F
  0.5831292004480488  0.0636105370175883  0.4540790189740136   F   F   F
  0.5827814420240784  0.6861134032567122  0.4545931911241041   F   F   F
  0.5833333134730552  0.0625000000159659  0.3605200052333331   F   F   F
  0.1666666716383389  0.4999999999932783  0.4070133268666680   F   F   F
  0.8333332538436267  0.2500000000190425  0.4070133268666680   F   F   F
  0.5844559731306944  0.5627961276427982  0.4548208859429295   F   F   F
  0.5000000000021103  0.0000000000000000  0.4070133268666680   F   F   F
  0.5000000000021103  0.4999999999932783  0.4070133268666680   F   F   F
  0.9166666865332829  0.3124999999901945  0.3605200052333331   F   F   F
  0.0833333358191695  0.1875000000030838  0.3605200052333331   F   F   F
  0.5000000000021103  0.2500000000190425  0.4070133268666680   F   F   F
  0.5833333134730552  0.5625000000092442  0.3605200052333331   F   F   F
  0.7499999404149307  0.5625000000092442  0.3605200052333331   F   F   F
  0.1666666716383389  0.0000000000000000  0.4070133268666680   F   F   F
  0.2499999999799343  0.0625000000159659  0.3605200052333331   F   F   F
  0.7499999404149307  0.3124999999901945  0.3605200052333331   F   F   F
  0.7499999404149307  0.0625000000159659  0.3605200052333331   F   F   F
  0.4166666269218169  0.8124999999834799  0.3605200052333331   F   F   F
  0.4166666269218169  0.5625000000092442  0.3605200052333331   F   F   F
  0.7499999404149307  0.8124999999834799  0.3605200052333331   F   F   F
  0.0834803068099532  0.3119896454475821  0.4540448079286961   F   F   F
  0.4170423463927264  0.0616689039376439  0.4553657580553363   F   F   F
  0.0835325115397438  0.8120555393270479  0.4541778167834849   F   F   F
  0.0839723200683196  0.5624829357653240  0.4539045173701695   F   F   F
  0.4166666269218169  0.3124999999901945  0.3605200052333331   F   F   F
  0.5833333134730552  0.3124999999901945  0.3605200052333331   F   F   F
  0.2522563817834751  0.3141388603533954  0.4541696448742414   F   F   F
  0.4166666269218169  0.0625000000159659  0.3605200052333331   F   F   F
  0.5833333134730552  0.8124999999834799  0.3605200052333331   F   F   F
  0.2505035345276596  0.8108022349895165  0.4553256134191415   F   F   F
  0.4160580707681589  0.5595200568957139  0.4578739426520855   F   F   F
  0.0833333358191695  0.9375000000154046  0.3605200052333331   F   F   F
  0.0839512659489117  0.0619746153000307  0.4541029527660214   F   F   F
  0.2499999999799343  0.3124999999901945  0.3605200052333331   F   F   F
  0.8333332538436267  0.7500000000123208  0.4070133268666680   F   F   F
  0.0833333358191695  0.4374999701794380  0.3605200052333331   F   F   F
  0.4155597895086558  0.3113673408842317  0.4574043122532530   F   F   F
  0.8333332538436267  0.4999999999932783  0.4070133268666680   F   F   F
  0.4166666269218169  0.1875000000030838  0.3605200052333331   F   F   F
  0.0833333358191695  0.8124999999834799  0.3605200052333331   F   F   F
  0.2511080627308218  0.0625354395995501  0.5472764256337044   F   F   F
  0.4145834535798869  0.8116526035514084  0.5477365411620738   F   F   F
  0.0833333358191695  0.6874999999963620  0.3605200052333331   F   F   F
  0.5000000000021103  0.3750000000061604  0.4070133268666680   F   F   F
  0.9996822698807435  0.6229222722145238  0.6259438877783268   F   F   F
  0.8361268689633903  0.4998655944003900  0.5028906006573095   F   F   F
  0.8333332538436267  0.3750000000061604  0.4070133268666680   F   F   F
  0.1635905723524687  0.4997520263905955  0.5020779634084391   F   F   F
  0.1666666716383389  0.8749999404036828  0.4070133268666680   F   F   F
  0.1666666716383389  0.1249999999871179  0.4070133268666680   F   F   F
  0.8376475313260698  0.3716007366515655  0.6043021574375231   F   F   F
  0.8323985845262811  0.8760743668367112  0.6178459436157198   F   F   F
  0.8333332538436267  0.1249999999871179  0.4070133268666680   F   F   F
  0.3316715453539132  0.1198010214314991  0.6130926655327116   F   F   F
  0.5000000000021103  0.6249999999803961  0.4070133268666680   F   F   F
  0.9992986668575909  0.8750339896059245  0.6227160130986036   F   F   F
  0.8361060052818630  0.7516579237390175  0.5025965937235810   F   F   F
  0.5007069719663022  0.1222229379191901  0.6063568578971044   F   F   F
  0.9998588925090104  0.3742763316397060  0.6230934527415286   F   F   F
  0.6653438164400427  0.1220578257775671  0.6077887694823971   F   F   F
  0.0000000000000000  0.1249999999871179  0.4070133268666680   F   F   F
  0.5029253170039780  0.3707280663893471  0.5959066650198324   F   F   F
  0.8331978843478680  0.1226325075808035  0.6128351675315358   F   F   F
  0.6663279852645374  0.6261404457794129  0.5931626817937286   F   F   F
  0.6650812323816879  0.8808027658215067  0.6068671040984768   F   F   F
  0.1666666716383389  0.6249999999803961  0.4070133268666680   F   F   F
  0.1631227590437021  0.3709951429901963  0.6078182797062794   F   F   F
  0.1595986033876358  0.6272193480266068  0.6014451948490418   F   F   F
  0.6720883268333750  0.3725198494580795  0.5941713506775770   F   F   F
  0.1663166230917668  0.8735335167621443  0.6178797052467360   F   F   F
  0.3345594923123514  0.8786780473703857  0.6028563940773211   F   F   F
  0.5000000000021103  0.8749999404036828  0.4070133268666680   F   F   F
  0.6666666865533486  0.8749999404036828  0.4070133268666680   F   F   F
  0.1678437567588702  0.1225060625742600  0.6219086897546475   F   F   F
  0.3341615254537160  0.6244388049210272  0.5950618449748433   F   F   F
  0.3261493366338399  0.3733189661092098  0.5928046327371348   F   F   F
  0.5000000000021103  0.1249999999871179  0.4070133268666680   F   F   F
  0.8396985800401993  0.6268304234989728  0.6037199491527900   F   F   F
  0.8357503234567147  0.2481852403541964  0.5024705250308017   F   F   F
  0.5012668119006776  0.2480838096385867  0.5023112983547620   F   F   F
  0.5011561479031670  0.7528269280266997  0.5039596504107777   F   F   F
  0.3302108928420893  0.2480938528418193  0.5028448665646437   F   F   F
  0.6666666865533486  0.3750000000061604  0.4070133268666680   F   F   F
  0.6687531736088630  0.4998360029559095  0.5007147661362623   F   F   F
  0.1644506461519555  0.7514269547417030  0.5033501802859348   F   F   F
  0.6661951630072167  0.0000020495772048  0.5056163868636361   F   F   F
  0.6653812537960775  0.7518579726982324  0.5022362178373569   F   F   F
  0.0004969670768844  0.1226224093053432  0.6200881903002156   F   F   F
  0.1660145687504837  0.0011063959598729  0.5065528650091977   F   F   F
  0.8333332538436267  0.6249999999803961  0.4070133268666680   F   F   F
  0.6670799777133851  0.2480343155207478  0.5023465712982045   F   F   F
  0.1666666716383389  0.3750000000061604  0.4070133268666680   F   F   F
  0.5036988280579919  0.6250292958707746  0.5940701750533606   F   F   F
  0.0000000000000000  0.3750000000061604  0.4070133268666680   F   F   F
  0.0009095847601870  0.2497871647836547  0.5059996375023061   F   F   F
  0.3339085086463811  0.7511498403411210  0.5015149883128771   F   F   F
  0.3312164349943671  0.4991238538718008  0.5009918377825642   F   F   F
  0.3333333432766779  0.3750000000061604  0.4070133268666680   F   F   F
  0.5012239949573996  0.4998072313699566  0.5003519789443374   F   F   F
  0.9995921744001350  0.5001266977315595  0.5067592806240029   F   F   F
  0.3331501619592601  0.0010347693352912  0.5058007041872727   F   F   F
  0.0000000000000000  0.8749999404036828  0.4070133268666680   F   F   F
  0.5002562362933460  0.9992584943855576  0.5055723322694519   F   F   F
  0.5006492827646554  0.8766125943416796  0.6095284265105647   F   F   F
  0.0000000000000000  0.6249999999803961  0.4070133268666680   F   F   F
  0.3333333432766779  0.8749999404036828  0.4070133268666680   F   F   F
  0.1662612899464975  0.2482516687827925  0.5062476157423745   F   F   F
  0.6666666865533486  0.1249999999871179  0.4070133268666680   F   F   F
  0.3333333432766779  0.1249999999871179  0.4070133268666680   F   F   F
  0.3333333432766779  0.6249999999803961  0.4070133268666680   F   F   F
  0.8333332538436267  0.8749999404036828  0.4070133268666680   F   F   F
  0.6666666865533486  0.6249999999803961  0.4070133268666680   F   F   F
  0.0001765418949660  0.9998605465207220  0.5066394596174320   F   F   F
  0.9999526841909656  0.7509467651987904  0.5065767258284666   F   F   F
  0.8341497641260602  0.0001822288270787  0.5062870212545292   F   F   F
  0.7519381072876286  0.7525099540438589  0.5905201718568591   F   F   F
  0.2491963097238710  0.8787044542673570  0.5024857838949046   F   F   F
  0.9184310767179156  0.3742039458201489  0.5059572224376154   F   F   F
  0.0833333358191695  0.4999999999932783  0.4070133268666680   F   F   F
  0.4166666269218169  0.4999999999932783  0.4070133268666680   F   F   F
  0.2499999999799343  0.2500000000190425  0.4070133268666680   F   F   F
  0.7524871120061505  0.6247475955455641  0.5023300156995347   F   F   F
  0.0833333358191695  0.2500000000190425  0.4070133268666680   F   F   F
  0.9166666865332829  0.4999999999932783  0.4070133268666680   F   F   F