Au  C  H  O Sr Ti 
 1.0000000000000000
    23.6707801818999997    0.0000000000000000    0.0000000000000000
     0.0000000000000000   22.3170261383000010    0.0000000000000000
     0.0000000000000000    0.0000000000000000   30.0000000000000000
 Au  C   H   O   Sr  Ti 
  50   2   5 264  72  72
Selective dynamics
Cartesian
 16.9409866918624594 11.7170430061938600 22.5983268003805797   F   F   F
  6.9525280846536965 16.6611765741265181 20.9046732192557059   F   F   F
 12.1143136788724970 13.4681419597984782 23.3069356940215684   F   F   F
 13.6886051442505146 16.1952171347836078 23.8170134760884515   F   F   F
  5.6891463330359064 10.4798172587589686 21.2743943601145986   F   F   F
  6.7511619172601334 14.7837769126254912 22.9358148166599776   F   F   F
 14.1638058591291607  6.5123894232859492 23.5470492173719670   F   F   F
 12.1698780995675264 10.8086822330407344 20.3403409084733831   F   F   F
 13.3235846676724279 10.8489041424873847 22.8665411767281554   F   F   F
 11.4461200737759654  6.0436351738773100 23.2432630039840262   F   F   F
 12.9398307701243986  8.6290347025829899 24.8610653009109299   F   F   F
 13.0814831352398127  4.7808724115459036 21.3036831607314490   F   F   F
  9.2645537894065626 18.2437393313575242 21.1959049612003305   F   F   F
 10.3260813240826170  5.0752088993300086 20.9349762325740230   F   F   F
  8.7376939465570800  6.6715267849314932 22.6718496167021435   F   F   F
  8.2684673791100369 11.1578809646107970 20.9374528334766943   F   F   F
 10.1157743124572974  8.2996483660859841 24.4945473497791362   F   F   F
 15.0244568636379778 13.0334357351067549 24.0039975358874500   F   F   F
 17.3491121713457126 13.7199808561866714 20.8209629910500738   F   F   F
 11.4959089553086447 17.3303616914820893 22.6530587088398079   F   F   F
 18.0795025785798629  9.6289873233562435 21.1353654116787482   F   F   F
 17.1086482176337356  5.7852834563309674 20.7178622112015596   F   F   F
 14.7081382936666056 12.7398809309153016 21.1202790044839688   F   F   F
 10.9759716160800185 15.5183171075925355 24.9100836839307185   F   F   F
 14.6007551281222909  7.1500811521824366 20.8768453416816477   F   F   F
 14.1176220789018707 17.5093285601032953 21.3913183245665834   F   F   F
 16.5687230323027457  7.6885289039520703 22.7116077433138877   F   F   F
 13.4802007112530386 11.3834112950886048 25.7029346036368374   F   F   F
 15.7976237640188835  4.4339701821313318 22.5411356649539059   T   T   T
 11.1191278758683350 10.0762729812156895 26.3900670823541468   F   F   F
 12.2519745672866289  8.4201103402783879 21.9672635998492431   F   F   F
  6.6698835536388019  7.6048600458403408 21.0707399981631447   F   F   F
 15.8457382646820228 15.2015161118393625 22.4643118991127899   F   F   F
  6.8419488954027035 12.0131891120682539 23.3252808997118102   F   F   F
  9.4116353960822430  8.5180455674627265 20.7137823367069771   F   F   F
 10.7040764857338555 12.9392346094312849 21.0854071939068284   F   F   F
  8.8729875592074574 11.0113877496676604 24.9853955787588085   F   F   F
  8.7172868919824236 13.8173970921950531 24.6076497622626036   F   F   F
  7.6959592898792826  9.2656272761628511 23.0840390085356617   F   F   F
 18.3117996719516647  9.5628182748176229 23.8370829681481418   F   F   F
  6.0782431772706671 13.2364822451431952 20.8347815825775911   F   F   F
 15.3505865794200993  9.9390093453594162 20.8376907294781688   F   F   F
 13.3611321188296266 14.2717648796133858 25.8348400072296975   F   F   F
 12.7953412352993805 14.8990158718611330 21.0539589763685804   F   F   F
 10.4991501629229482 10.5652810961162853 22.6884660930028055   F   F   F
  8.8560567919891593 16.5110558442546953 23.3656207810067755   F   F   F
 10.9441697191274034 12.8039345885568352 25.9293477694112511   F   F   F
 15.5090388608419349  9.8347055648360158 24.3789896914476003   F   F   F
 16.7229936614511239 16.8925012966339949 20.6518613909146929   F   F   F
  9.8862524190399537 15.5447273924086478 20.9862521819027457   F   F   F
 16.3806944577277989  1.7638766058449469 23.5691004013503083   T   T   T
 17.0122340932013287  2.7215486984138235 22.5832544424237547   T   T   T
 17.9945764162428716  3.0870507850151228 22.8848256486613977   T   T   T
 16.9996621522151798  0.8565505952408026 23.6092836783360447   T   T   T
 17.0405850908334884  2.3578440698390799 21.5555454776591802   T   T   T
 15.3783461210155572  1.4538895855006460 23.2649631422850689   T   T   T
 16.3387803872928714  2.1716331277096268 24.5817864534282613   T   T   T
 11.7986223812575215  5.6453038541480165 17.7201967603187747   F   F   F
  2.0021248595255834 15.3297811671834090 13.5912658403157636   F   F   F
  1.9853979630814671 20.9038279800945439 13.6042765679876485   F   F   F
  1.9628521623283661  9.7502253537042733 13.5874423718108819   F   F   F
  1.9848564309961758  4.1637951782567191 13.5891115262617301   F   F   F
 21.6961985449704002 18.1243801589667015 13.6221696548966023   F   F   F
 17.6712090201732366 12.4572778171166867 16.3400728016967456   F   F   F
 21.6863410525314322 12.5493341521540884 13.6178301181724528   F   F   F
 21.6884344446390962  6.9672062329536457 13.6159607834049119   F   F   F
  9.8722405658026950  4.1767926082554903 13.6065515559274068   F   F   F
  5.9682713339311730 15.3447196705374704 13.6817718550779173   F   F   F
 21.6770909340647719  6.9849833875740748 16.4012147732272346   F   F   F
 21.6935787019372697 20.9135495332269841 13.6095228813455620   F   F   F
  0.0043357584536077  2.7902739103736582 14.9491210627130666   F   F   F
 13.8066030154552291 18.0873430133059401 13.6603804654626249   F   F   F
 23.6683273143578603 13.9959927516040157 14.9313153034429629   F   F   F
  7.8964144901158528  2.8029995862412256 14.9571826324664130   F   F   F
  0.0012453463884851 19.5309550332427051 14.9860241181475171   F   F   F
  7.8933482851730385 19.5048073340112538 14.9791669753965486   F   F   F
 15.7679230194593298  2.8248180938073628 14.9713218689860774   F   F   F
  5.9452879736571704  9.8034136083150560 13.6472105907661980   F   F   F
  1.9725650740000149 12.5533272030000536 10.8156001569999933   F   F   F
 21.6982156369999721  1.3948141340000613 10.8156001569999933   F   F   F
 17.7392345617774083 18.1475775454014432 13.5918406296735270   F   F   F
 17.7448285775677803  9.7839278184113994 13.6715341191236526   F   F   F
  5.9299185061128199  1.3841872737342173 13.6271988963120894   F   F   F
 13.7905646201818843  4.2461362647181708 13.6647565303051692   F   F   F
  5.9630848894223591 12.6001001638920727 13.6131619649652169   F   F   F
  9.8573543278788431  9.7181621906519613 13.6151915243864394   F   F   F
  0.0024024005356423  8.3404510973958494 14.9448515076071828   F   F   F
  9.8737424522963160 15.2824000189530409 13.6423741507152627   F   F   F
 13.8079546360000549 20.9222120050000342 10.8156001569999933   F   F   F
  5.9146531738945711  4.2066409492696772 13.6231406979796095   F   F   F
 21.6982156369999721 15.3429554700000619 10.8156001569999933   F   F   F
 21.6982156369999721  9.7636982699999884 10.8156001569999933   F   F   F
 21.6982156369999721  4.1844424010000720 10.8156001569999933   F   F   F
  2.0452018432217010  6.9958163814145307 16.4060443472242099   F   F   F
 13.8079546360000549 15.3429554700000619 10.8156001569999933   F   F   F
 13.8079546360000549  9.7636982699999884 10.8156001569999933   F   F   F
 13.8079546360000549  4.1844424010000720 10.8156001569999933   F   F   F
  5.9176950450000287 20.9222120050000342 10.8156001569999933   F   F   F
 21.6982156369999721 20.9222120050000342 10.8156001569999933   F   F   F
  5.9176950450000287 15.3429554700000619 10.8156001569999933   F   F   F
  5.9176950450000287  4.1844424010000720 10.8156001569999933   F   F   F
 17.7530837259999217 20.9222120050000342 10.8156001569999933   F   F   F
 17.7530837259999217 15.3429554700000619 10.8156001569999933   F   F   F
 17.7530837259999217  9.7636982699999884 10.8156001569999933   F   F   F
 17.7530837259999217  4.1844424010000720 10.8156001569999933   F   F   F
  9.8628241350000643 20.9222120050000342 10.8156001569999933   F   F   F
  9.8628241350000643 15.3429554700000619 10.8156001569999933   F   F   F
  9.8628241350000643  9.7636982699999884 10.8156001569999933   F   F   F
  5.9176950450000287  9.7636982699999884 10.8156001569999933   F   F   F
  1.9725650740000149  1.3948141340000613 10.8156001569999933   F   F   F
 21.6675719884486710 15.3267219600839315 13.5946723260344591   F   F   F
 15.7505273169125797  8.4497395831852611 15.0893823969592518   F   F   F
  7.9139571980595056  8.4472658235735452 15.0902511276555771   F   F   F
  7.9450463981137993 13.9660200239313745 15.1134510439852612   F   F   F
 21.7202174087237552  1.4143431122262713 16.4234029634432233   F   F   F
 17.7405079825148206 20.9430018634194752 13.6606088659655889   F   F   F
 13.7934579261902588  9.8116125612099321 13.6892602251519637   F   F   F
 15.7509285123653786 13.9718938434671358 15.0891693472254786   F   F   F
  5.9191533162214141 20.8903435338146828 13.6217730408627204   F   F   F
 17.7312727197741715 15.3693009724314855 13.7210245973571912   F   F   F
  5.9176950450000287 18.1325837370000720 10.8156001569999933   F   F   F
 13.7946110952228693 15.3128547982482779 13.6388448821905328   F   F   F
 11.8353900909999528 11.1585130689999925 12.2103998060000407   F   F   F
  5.9176950450000287 12.5533272030000536 10.8156001569999933   F   F   F
  5.9176950450000287  1.3948141340000613 10.8156001569999933   F   F   F
 17.7530837259999217 12.5533272030000536 10.8156001569999933   F   F   F
 17.7530837259999217  6.9740706679999214 10.8156001569999933   F   F   F
 17.7530837259999217  1.3948141340000613 10.8156001569999933   F   F   F
  9.8628241350000643 18.1325837370000720 10.8156001569999933   F   F   F
  9.8628241350000643 12.5533272030000536 10.8156001569999933   F   F   F
 17.7530837259999217 18.1325837370000720 10.8156001569999933   F   F   F
  1.9779775993001858  6.9640948114570227 13.6190908654343712   F   F   F
  9.8628241350000643  1.3948141340000613 10.8156001569999933   F   F   F
  9.8679749737219176  1.3745521785304042 13.6608376195917405   F   F   F
  1.9761918941171639 18.1238712715516357 13.6258261901482438   F   F   F
  1.9871812433600045 12.5531948474474113 13.6161679551360475   F   F   F
  9.8628241350000643  6.9740706679999214 10.8156001569999933   F   F   F
 13.8079546360000549  6.9740706679999214 10.8156001569999933   F   F   F
  5.9711507082863760  7.0106530250698667 13.6247262959717812   F   F   F
  9.8484844852822757 12.4866743323545872 13.7364559957485675   F   F   F
  9.8095482244057219 18.1164707411627006 16.4366219588890843   F   F   F
  5.9432691980829535  1.3952724548668942 16.4181374190488540   F   F   F
  1.9725650740000149 18.1325837370000720 10.8156001569999933   F   F   F
  9.8628241350000643  4.1844424010000720 10.8156001569999933   F   F   F
 19.7256482699999580 11.1585130689999925 12.2103998060000407   F   F   F
  1.9725650740000149 15.3429554700000619 10.8156001569999933   F   F   F
  1.9725650740000149  9.7636982699999884 10.8156001569999933   F   F   F
 19.7256482699999580 16.7377696039999648 12.2103998060000407   F   F   F
  9.8348074378356483  6.9487275715490338 13.7213952385769087   F   F   F
  1.9827428873395043  1.3807416668768846 13.6255916183189516   F   F   F
  1.9725650740000149 20.9222120050000342 10.8156001569999933   F   F   F
 13.8079546360000549 18.1325837370000720 10.8156001569999933   F   F   F
  5.9297219086824011 18.0946463255541019 13.6596695408754272   F   F   F
  5.9176950450000287  6.9740706679999214 10.8156001569999933   F   F   F
 13.8079546360000549 12.5533272030000536 10.8156001569999933   F   F   F
  3.9451301480000271  0.0000000000000000 12.2103998060000407   F   F   F
  1.9725650740000149  4.1844424010000720 10.8156001569999933   F   F   F
  0.0000000000000000  0.0000000000000000 12.2103998060000407   F   F   F
  0.0000000000000000  5.5792565349999723 12.2103998060000407   F   F   F
  0.0000000000000000 11.1585130689999925 12.2103998060000407   F   F   F
 17.7111871584402998 12.5932677039194036 13.6141478553191604   F   F   F
  7.8902602960000570  0.0000000000000000 12.2103998060000407   F   F   F
  7.8902602960000570 11.1585130689999925 12.2103998060000407   F   F   F
  7.8902602960000570 16.7377696039999648 12.2103998060000407   F   F   F
 15.7805205919999434  0.0000000000000000 12.2103998060000407   F   F   F
 15.7805205919999434  5.5792565349999723 12.2103998060000407   F   F   F
 15.7805205919999434 11.1585130689999925 12.2103998060000407   F   F   F
 15.7805205919999434 16.7377696039999648 12.2103998060000407   F   F   F
 13.8321239022495206  7.0400170414693406 13.6073047835900987   F   F   F
  3.9451301480000271  5.5792565349999723 12.2103998060000407   F   F   F
 17.7126429351247765 18.0353341735633990 16.3711160478473481   F   F   F
  3.9451301480000271 16.7377696039999648 12.2103998060000407   F   F   F
 11.8353900909999528  5.5792565349999723 12.2103998060000407   F   F   F
 11.8353900909999528 16.7377696039999648 12.2103998060000407   F   F   F
 21.6982156369999721  6.9740706679999214 10.8156001569999933   F   F   F
  7.8902602960000570  5.5792565349999723 12.2103998060000407   F   F   F
 17.6945477400909432  7.0128258490575357 13.6361478351623742   F   F   F
  0.0000000000000000 16.7377696039999648 12.2103998060000407   F   F   F
  9.8662399470931952 18.0788521512968821 13.6521721442332087   F   F   F
 17.7454971935154511  1.4326525591364461 13.5989622198607663   F   F   F
 21.6778250974140470  4.1693744868615097 13.5950530850739213   F   F   F
 19.7256482699999580  0.0000000000000000 12.2103998060000407   F   F   F
 13.8055512172028063  1.4216006778305812 13.6155339681154501   F   F   F
 13.8079546360000549  1.3948141340000613 10.8156001569999933   F   F   F
  3.9451301480000271 11.1585130689999925 12.2103998060000407   F   F   F
 19.7256482699999580  5.5792565349999723 12.2103998060000407   F   F   F
 11.8353900909999528  0.0000000000000000 12.2103998060000407   F   F   F
 13.8367106069470864 12.5612285805081303 13.6459056952295672   F   F   F
 21.6852367435829265  1.3882784890947135 13.6229784116117365   F   F   F
 13.9808098372648821 12.6293186283892673 19.1677345497522040   F   F   F
  1.9573725883668021  9.7881644881910130 16.3549277093098588   F   F   F
  1.9803221942655320  4.2173647588171752 16.3650841472899451   F   F   F
 11.8228228145022758  2.8041243167288528 14.9871183128320009   F   F   F
 23.6648827505224197 11.1520760057461477 17.8236250840286772   F   F   F
 13.7461576926542595  4.1353478406617556 16.4970044255994885   F   F   F
 23.6669739141535054 16.8080672096746007 17.7711185532713003   F   F   F
  7.9068061479951925 22.3138095341536840 17.7593309937690940   F   F   F
 23.6666621778782975 22.3004437940022164 17.7961381814287591   F   F   F
  0.0220543119090500  5.5753146484526015 17.7569067769556881   F   F   F
  7.8883287619307145 11.0775597393555465 17.7281137054165470   F   F   F
  7.9404154214779181 16.5415214962787687 17.7122983739776352   F   F   F
 15.7066479828505283  5.5329123984556698 17.7064321726233338   F   F   F
 15.7639946369483273  0.0096141977731454 17.7575418336566457   F   F   F
 15.7589305099181853 16.5486581767008012 17.7123329863279615   F   F   F
 15.7805732195299289 11.0395461723768626 17.7368125427678862   F   F   F
  3.9863938026661634  5.5491367409157117 17.7954385270945998   F   F   F
  4.0407985405154490 16.7403363632350306 17.8490658021249260   F   F   F
  5.8802337763296153  9.7274681139336927 16.4733949645691524   F   F   F
  3.9193525298706633 11.2191995701845091 17.6220171522883327   F   F   F
  7.9204279625738732  5.6832924894307979 17.7800101975230547   F   F   F
 11.8293066512572764  0.0024004881699452 17.7323711229384777   F   F   F
 19.7121752643886943 19.5121489188675135 14.9587367366204091   F   F   F
 17.7191053767217532 20.9155505887178066 19.2091968909330291   F   F   F
 19.6983058610995272  0.0463555520877676 17.7683653082405897   F   F   F
 17.7187132080539662  4.0960419229460063 16.5221268382859243   F   F   F
 10.0145806264011892 15.3536163110302919 16.4018354610281811   F   F   F
 10.0161967230049438  9.9068407745694103 16.3685479718864180   F   F   F
 17.8014805853135343  9.7122986686083195 16.4666791560380972   F   F   F
  5.9893552291557475 18.1329190490032097 16.5208477571090313   F   F   F
  1.9725650740000149  6.9740706679999214 10.8156001569999933   F   F   F
 13.7914160160682542  6.9452266221068575 16.3476071798312788   F   F   F
 13.7938509691462574 20.9146691166516590 13.6299301610049994   F   F   F
 13.8024985647262497  1.3865472169200921 16.3659022236941425   F   F   F
  9.8464364795585926 20.9140419074420869 16.3828725558912396   F   F   F
  9.8742797798132429 20.8864300120770139 13.6209108376279051   F   F   F
  1.9487312310962108  1.4116094987026462 16.4278044350741368   F   F   F
 11.8558390451757099 16.8801964560228512 17.7837185817158776   F   F   F
  5.9005280388774892  7.0022784537440721 16.3779809737969373   F   F   F
  1.9438520670617061 12.5947890682509307 16.3863952281356298   F   F   F
  2.0097084187373859 18.1417790526549361 16.4193950265957618   F   F   F
  9.8594377386922929  1.4600613560488105 16.4218197935719346   F   F   F
 13.6506420613655575  9.7272855670924052 16.5634803354393547   F   F   F
  9.8462103350226133  7.1356488948892549 16.5771599337522240   F   F   F
  5.9758382121620537 12.4761124574796032 16.3168765040230284   F   F   F
 13.7563068234061348 12.4997538767137968 16.4680282130666029   F   F   F
 17.7036756319127768  6.9500092492811492 16.4254973317063637   F   F   F
 13.8687612242702762 18.1738924158735848 16.5120903520897819   F   F   F
  9.7633102169939612 18.1401577001678262 19.1861407764433380   F   F   F
 21.6360052959224092 15.3794325742266071 16.3604513450038560   F   F   F
 21.7078266166151366  4.2172035851719185 16.3575573662921201   F   F   F
 21.6808407147810165  9.7682549880418819 16.3731458984946272   F   F   F
 13.7186240186046788 15.3127639326913538 16.4234685488708507   F   F   F
  5.9536268786037558 20.9178803678114349 16.3588326952795811   F   F   F
 11.7742688520361458 11.2560565796170504 18.2700984109700890   F   F   F
 21.7177901478777429 12.5834427814224501 16.4066093699777582   F   F   F
  9.9418932053773830 12.6094077940116360 16.6633865750905379   F   F   F
 21.6727825504039338 18.1409795930739648 16.4052161867317317   F   F   F
  1.9789180962461868 20.9542393615534586 16.3728703055821256   F   F   F
  5.8970454157263799 15.2467370829968161 16.5590086646124490   F   F   F
 17.7363209173227929 20.8445288342066490 16.4294668226840699   F   F   F
 17.7976939280608839 15.1870284223851790 16.5956388670086490   F   F   F
 21.6753775809089397 20.9461485754871326 16.3927530701413886   F   F   F
  9.8895297299381717  1.4552623028143412 19.2026333191335112   F   F   F
 13.8190081889654355 20.9262907592845977 16.3867933903733771   F   F   F
 21.6140119371938049 12.5476147393538646 19.2384823248425825   F   F   F
  3.9641945920375665 22.2802348181731986 17.7689665801424042   F   F   F
  9.8808950177422528 20.8650098471274497 19.1943393267565767   F   F   F
 21.6378057659331020 18.1503309313563221 19.2467977043132876   F   F   F
 13.7956846626928655  1.4897992743101918 19.1658741095321403   F   F   F
 13.8164355448860654  7.1608981119485682 19.0001923867807712   F   F   F
 17.7712125875660512  4.2362853612128699 13.6695633784417119   F   F   F
  5.8589899350154120 12.8066909441128285 18.8620982194602291   F   F   F
 17.8425057381265155 15.4465049405160713 19.7109839738271049   F   F   F
  6.2003665039249984 17.8442690627190039 19.3901533748938526   F   F   F
  5.9404750273077624  1.3265414892217950 19.2691758635061099   F   F   F
 21.6982156369999721 12.5533272030000536 10.8156001569999933   F   F   F
 11.8241853694453507  8.3519958465148729 14.9913485343340707   F   F   F
 11.8423662515037975 13.8613102337038665 15.0023799167530338   F   F   F
 19.7035937223924087 13.9056847108312596 15.0005533413978114   F   F   F
  5.9611429943943319  4.2018887758541741 16.4148753730274066   F   F   F
 19.7095525171294774  8.3324229286220941 14.9872727138197757   F   F   F
 21.6610995277734872  6.9589766632398122 19.1890524092108201   F   F   F
  2.0394430306387639 15.3851608430981859 16.3571606374115959   F   F   F
  3.9706418265521384 13.9329060966306173 15.0003347056516212   F   F   F
 13.7621217086353163  9.7977360702506040 19.3847693245635426   F   F   F
 13.6930721847776464 15.3067330014194631 19.1871000562697560   F   F   F
 21.6848874160161422  4.1589908777217781 19.1963322960100200   F   F   F
  5.8970727767523039  7.0625878796853492 19.2381929536066529   F   F   F
  3.9692466431573603 19.4899662715307613 14.9957736541907174   F   F   F
 21.6812440815506484  9.7537465184291836 13.6076626243308532   F   F   F
  3.9547589596291157  2.7742912318225539 14.9794402900647032   F   F   F
 17.7105857861614453  1.3371337148622007 16.3325927608754391   F   F   F
 10.1094708324146314  6.7952533119046663 19.6635479476766477   F   F   F
 13.9914411497528821 18.0815603267513438 19.3821743491230940   F   F   F
  9.9522662951415342 15.0886516443199294 19.0090166596949288   F   F   F
 17.8748700411013566  9.6890834908985397 19.1368653355253073   F   F   F
  9.8398945207898709  4.2734752823292990 16.3955243213478070   F   F   F
  3.9471506108423884  8.3972589078454902 14.9329264363699323   F   F   F
 11.8354052665469851 19.4923208171785127 15.0272391623089838   F   F   F
 19.7157798176508052  2.7794612031536801 15.0037887531892355   F   F   F
 21.6773903199721047  1.4003169696341975 19.2423000741129506   F   F   F
 17.5427306402457681 18.0743177448906387 19.2003417382891719   F   F   F
 17.8315678132564983 12.6874369940083191 19.0688881116295406   F   F   F
 17.6878390434766466  6.9751113011282193 19.2012024666922301   F   F   F
 17.6984529919624585  1.5174845294633148 19.1654895237004901   F   F   F
  1.9864074563455985  6.9570079098995823 19.2117574592888225   F   F   F
 15.7774113564961400 19.5134955352037238 14.9677498304731635   F   F   F
  2.0593622630831696 12.5588198360910752 19.2106679292264673   F   F   F
  2.0624567151717708  9.7433461472736091 19.1915298729656882   F   F   F
  1.9763298012167316  4.1437724164070620 19.2310392565859516   F   F   F
  9.8251287020142044  9.3450857911595495 18.9018334877053960   F   F   F
  1.9961857596508117 20.8806782229342041 19.2204139318363403   F   F   F
  1.9706412627925793 15.3343648105963073 19.1722671199245056   F   F   F
  1.9946779896505553  1.3536762165762197 19.2638471963714473   F   F   F
 19.7253489708125933 11.2260380269960347 17.6618848303589857   F   F   F
 21.5996795619781530  9.7329710722699474 19.1931220896824044   F   F   F
  9.8880104403352878  4.1804196038086161 19.1875155222398668   F   F   F
 19.6600112556946094 16.7574555689683464 17.7860110163090361   F   F   F
  6.0023226647683661  4.1629029626123861 19.2355069046192533   F   F   F
  5.9651252187785166 20.7594096294818442 19.1219082987538016   F   F   F
 21.6901850353384873 15.3453621864739667 19.1760542158184535   F   F   F
 21.6453279689905713 20.9133279423592988 19.2339638308939200   F   F   F
  9.4022141846947243 12.2881908757001739 19.5604235339142178   F   F   F
  6.0337643240780352 15.1212695619435227 19.8852369650972989   F   F   F
 13.7246494539435346  4.2897364063948711 19.3502288735204786   F   F   F
  5.6964018598338182  9.8670483530516435 19.2475725524084282   F   F   F
  1.9960277771727508 18.1332211653684432 19.2664493280315980   F   F   F
 13.7784141770334543 20.8906059816997889 19.1868231137155334   F   F   F
 21.6982156369999721 18.1325837370000720 10.8156001569999933   F   F   F
 17.6737679995522790  4.3526472841236741 19.3779038948592763   F   F   F
 19.6941990403467067  5.5603650069482242 17.7099567498742871   F   F   F
  3.9294923069373358  0.0254285992182202 15.1970709642519424   F   F   F
  0.0139854676079161  2.7400305129810847 18.5952241431046481   F   F   F
  3.9451301480000271  8.3688848019999824 12.2103998060000407   F   F   F
  0.0000000000000000  8.3688848019999824 12.2103998060000407   F   F   F
 15.7518851436688827 16.7807966500171695 15.0682895477020846   F   F   F
 19.7256482699999580 13.9481413360000008 12.2103998060000407   F   F   F
 11.8623620435976296 16.8016839439458501 15.1180470941413603   F   F   F
  7.8394061800298740 11.1418510890868419 15.0285196034925157   F   F   F
  3.8923137632614946 16.7720297373775651 15.1008969779968538   F   F   F
 15.8270491403698994 11.1576057992538651 15.0193661871000579   F   F   F
 15.7805205919999434  8.3688848019999824 12.2103998060000407   F   F   F
 15.7874624050139793  5.5366700790628824 15.0736169694751467   F   F   F
  7.8847340226579066  0.0236612378679555 15.1738359473020381   F   F   F
 11.8655130274465002 11.1561832074705762 15.0072383566918273   F   F   F
  7.8129235765659502  5.5368460142383142 15.0854849437294476   F   F   F
 15.7625445856529041 22.3145171851754966 15.1667797967741453   F   F   F
 11.8599117141310586  5.5340495357613646 15.0622375358698299   F   F   F
  0.0013323166853518 -0.0000271673495193 15.2005528459439692   F   F   F
  7.9032704966998297 16.7638059574894314 15.0461609315196547   F   F   F
  7.8902602960000570  8.3688848019999824 12.2103998060000407   F   F   F
 23.6659873603564535 11.1687993759130766 15.2058014399238921   F   F   F
 23.6698635821733809 16.7593535964853402 15.1982870554419307   F   F   F
  0.0225194801878330  5.5768085670528107 15.1764363594267930   F   F   F
 15.7805205919999434 13.9481413360000008 12.2103998060000407   F   F   F
 19.7256482699999580 19.5273965409999306 12.2103998060000407   F   F   F
  7.8902602960000570 13.9481413360000008 12.2103998060000407   F   F   F
  7.8902602960000570  2.7896282670000101 12.2103998060000407   F   F   F
 15.7805205919999434  2.7896282670000101 12.2103998060000407   F   F   F
 19.7478033179351939  0.0033437435948755 15.1942290262909605   F   F   F
  7.8902602960000570 19.5273965409999306 12.2103998060000407   F   F   F
  0.0000000000000000 13.9481413360000008 12.2103998060000407   F   F   F
  3.9382352625987855  5.5398885774858497 15.1859719291004946   F   F   F
 11.8556786525668230 19.5698046395556773 18.2911120184081923   F   F   F
 11.8411530507810259 22.3024826858207845 15.1673002623909685   F   F   F
  0.0000000000000000 19.5273965409999306 12.2103998060000407   F   F   F
 19.7933696453201158 11.1615644572547481 15.0823102630771970   F   F   F
 19.6947171981105207 19.5589346487694939 18.5442230225588993   F   F   F
  7.7165727381091811  8.3373769780787939 17.7826161423764226   F   F   F
 11.9239064100356789 13.9508891867404028 17.8226932492000110   F   F   F
 11.8353900909999528  2.7896282670000101 12.2103998060000407   F   F   F
  0.0000000000000000  2.7896282670000101 12.2103998060000407   F   F   F
  3.9451301480000271  2.7896282670000101 12.2103998060000407   F   F   F
 11.8353900909999528 13.9481413360000008 12.2103998060000407   F   F   F
  7.8484266662854498  2.6731691959574815 18.3909093301920024   F   F   F
 23.6637146484554322 13.8993180363691913 18.8502735998144679   F   F   F
 23.6516847021762189 19.5285018526025596 18.6699183374353197   F   F   F
 19.8289216734081535  8.3186670143332648 18.1019515963338620   F   F   F
 19.7904234100986081 16.7773160305729157 15.0783487949625545   F   F   F
  3.9451301480000271 19.5273965409999306 12.2103998060000407   F   F   F
  3.8722691536562546 11.1561963168900942 15.0616203961637822   F   F   F
 19.7256482699999580  8.3688848019999824 12.2103998060000407   F   F   F
 19.7901339734890591  5.5497436805426847 15.0717671025370610   F   F   F
 19.7256482699999580  2.7896282670000101 12.2103998060000407   F   F   F
 11.8353900909999528  8.3688848019999824 12.2103998060000407   F   F   F
 19.8743549473425247 13.9927085007703429 18.1123674595455348   F   F   F
 11.8448973111478324  2.7358378597339255 18.1955262444304680   F   F   F
 11.8353900909999528 19.5273965409999306 12.2103998060000407   F   F   F
  7.9087879996420263 13.9374213507117837 17.8540346673249282   F   F   F
  3.9707702567210243  2.7439413190039805 18.6566727507256154   F   F   F
 15.7805205919999434 19.5273965409999306 12.2103998060000407   F   F   F
 15.8835042964797868  8.3145795249261258 17.7922432940293120   F   F   F
  3.9352657279771006 19.4953841568472974 18.5374524976412367   F   F   F
 11.8748846617593209  8.2878778060174607 17.8440925715826637   F   F   F
  7.9187470394966297 19.6100787784487558 18.0865604689290222   F   F   F
 15.7518113789629890  2.7895019292544223 18.2843954820319361   F   F   F
  3.8649338821384935  8.2894530493806027 18.2265241242779688   F   F   F
  3.9451301480000271 13.9481413360000008 12.2103998060000407   F   F   F
 15.7495329766117180 19.6674023303255829 18.2214206302401216   F   F   F
 15.7781691206906203 13.9753904744142652 17.8033856802706936   F   F   F
  0.0031320017343452  8.3692431124090625 18.7063852833197011   F   F   F
 19.7453056880707543  2.7697126460942592 18.4566052393243361   F   F   F
  3.7759933167919515 14.0016821378245719 18.0406699774814463   F   F   F
 21.6932456563793856  0.0012992906247931 18.1161385705252727   F   F   F
 13.8433788978550290 16.7356356578077161 17.9935375698857385   F   F   F
  1.9770671658933279  5.5347633895255868 18.1070085535995027   F   F   F
 17.7423505739606888  0.0421826630070874 18.1325665527964865   F   F   F
 13.7895962830779091  0.0258984798025642 18.1298187532193467   F   F   F
 13.9733614574295633 11.1910503826313548 17.8055733438857118   F   F   F
  5.7387922045675355 11.1115153885655111 17.8206434583819551   F   F   F
  5.9077567164150775 16.7989705790642567 17.7599436916425013   F   F   F
 13.8407721918382922  5.5277692810897410 17.9018218217125202   F   F   F
  5.9104222126428105 22.2659457751209295 18.1273060917807918   F   F   F
 17.8588711530495949  5.5422158232693635 17.7718746121136988   F   F   F
  5.9001289302100917  5.4890177243350839 18.1119594530075680   F   F   F
  9.8743284516272922  0.0017113926848476 18.1404947155220064   F   F   F