Au  C  H  O Sr Ti                       
   1.00000000000000     
    23.6707801818999997    0.0000000000000000    0.0000000000000000
     0.0000000000000000   27.8962826732999716    0.0000000000000000
     0.0000000000000000    0.0000000000000000   30.0000000000000000
   Au   C    H    O    Sr   Ti
    50     5    11   330    90    90
Selective dynamics
Direct
  0.7177280760714578  0.6197855325212748  0.7532615022608892   T   T   T
  0.7052853031752265  0.8056192221553792  0.6887301730041955   T   T   T
  0.6564732608179957  0.5531438514090967  0.8127265805536895   T   T   T
  0.3682027468316611  0.6945039051644393  0.8201639557874381   T   T   T
  0.5701989082461294  0.6085650018452775  0.8569125038934664   T   T   T
  0.6691866947934477  0.3540093242949707  0.7542459301334274   T   T   T
  0.4719382067893984  0.5611615673371815  0.8797084555738349   T   T   T
  0.5176291015578670  0.5013460612291726  0.7337156775114071   T   T   T
  0.2829571390188740  0.4708046731259788  0.7028374647956075   T   T   T
  0.6691963776238544  0.7447767897519507  0.7495038473501691   T   T   T
  0.3977781363520582  0.5059870722571345  0.6906822833281698   T   T   T
  0.6159469222691035  0.4542348958594787  0.6971495414096373   T   T   T
  0.3759562798483619  0.5939397256045023  0.8338014216338326   T   T   T
  0.3265302038764892  0.5315939122749581  0.7696886612373576   T   T   T
  0.4860520870830675  0.4152010650827062  0.7758925830203600   T   T   T
  0.4268393286817647  0.7589074240707330  0.6992786590217294   T   T   T
  0.7005651590833867  0.4746950033550245  0.7574137215701873   T   T   T
  0.7743270063066714  0.5423134984766984  0.7949951209260919   T   T   T
  0.2561107332975680  0.6741881681379222  0.6950202310643624   T   T   T
  0.6475089917607566  0.5534685276254443  0.6960677760974031   T   T   T
  0.5656038617280351  0.7125019741029202  0.8611721272432935   T   T   T
  0.5456895248313577  0.7315962273064959  0.7014686644547510   T   T   T
  0.3727507606934238  0.7899115256675856  0.7777305245032965   T   T   T
  0.4633075341389542  0.6592486126157765  0.8639980443526651   T   T   T
  0.4540038833717577  0.6639561639189372  0.7033717184859631   T   T   T
  0.4432913356811448  0.5792629925855328  0.7563957958789342   T   T   T
  0.2897003602500354  0.6294649722743458  0.7781561185436163   T   T   T
  0.5547088991620042  0.3682912941729633  0.7114933483417407   T   T   T
  0.6240365684206546  0.6539188303605723  0.7041431412094937   T   T   T
  0.7214386080145408  0.4041280348536854  0.6921306086901746   T   T   T
  0.2894832073996898  0.7973439820601084  0.6985340044872448   T   T   T
  0.5137824076046524  0.6838313094464876  0.7772564311940180   T   T   T
  0.5771613958686883  0.7810572592206364  0.7932348292594986   T   T   T
  0.5500004470489898  0.5081067155830631  0.8296280107459753   T   T   T
  0.2416076072742723  0.5746822868007175  0.7095501218248808   T   T   T
  0.2823528088007313  0.7291029307981353  0.7660649922990515   T   T   T
  0.5145860202104654  0.5866385832958873  0.6784499013393014   T   T   T
  0.5625753967672028  0.5886330237201907  0.7628888803088169   T   T   T
  0.6011241454785373  0.4306934553733044  0.7861456367824927   T   T   T
  0.7633660599027082  0.5435669490303233  0.7050655357849536   T   T   T
  0.3893970864082915  0.8522609838587586  0.7062397770747940   T   T   T
  0.4390354456717623  0.3823874559642647  0.6980161028029186   T   T   T
  0.4629854395456761  0.7564308009015390  0.8300994610589373   T   T   T
  0.4309312458213295  0.4976376407075629  0.8158809940066730   T   T   T
  0.3494420664311821  0.6013129450561713  0.6978404594606690   T   T   T
  0.3714202776058294  0.4392241384943607  0.7561775678017331   T   T   T
  0.5941801407198238  0.8278969681808231  0.7127274787574345   T   T   T
  0.6360673760921878  0.6663152801828598  0.8003991378617497   T   T   T
  0.7331672331087730  0.6923879581765278  0.6943742526084924   T   T   T
  0.4838389605234777  0.8242247721834779  0.7575128195761530   T   T   T
  0.7176447009727506  0.2901033634950581  0.7560838418958470   T   T   T
  0.6465338126701974  0.2523146417998577  0.8101393325849784   T   T   T
  0.5753681113680594  0.2151375375636705  0.8640124855669404   T   T   T
  0.6083581563682007  0.2093628463407934  0.8203945010570328   T   T   T
  0.6789696987429068  0.2482531096393161  0.7658831950383578   T   T   T
  0.7476543658905748  0.2978620743515783  0.7828816128675173   T   T   T
  0.7065815344469376  0.2163847911481155  0.7669218735016261   T   T   T
  0.6768093447802517  0.2575609673421295  0.8374136373121561   T   T   T
  0.6202769516814552  0.2849056046444899  0.8093256180228493   T   T   T
  0.6500111421008677  0.2418775260606910  0.7380088519670110   T   T   T
  0.5788045425226910  0.2042007467673367  0.7926436455391891   T   T   T
  0.6341906367893242  0.1767633761213366  0.8219025441420257   T   T   T
  0.6036805386911296  0.2185285991212493  0.8926543811442165   T   T   T
  0.5486063036672011  0.2471200539657928  0.8632174884773999   T   T   T
  0.7384438084609040  0.2883223608510360  0.7237083007657096   T   T   T
  0.5479713444079242  0.1842937431366842  0.8700429842467091   T   T   T
  0.5011724704220203  0.8042741165892079  0.5928600166618041   T   T   T
  0.8329908747061852  0.6024954392128646  0.5899889107778844   T   T   T
  0.8315193818897516  0.3975560422430360  0.5912521608793166   T   T   T
  0.8301511063510115  0.8001304273003745  0.5930475430635268   T   T   T
  0.5815158276381042  0.9478069847517528  0.6380669645424610   T   T   T
  0.8325741811834367  0.2021501208201972  0.5922480003548662   T   T   T
  0.9163493710348297  0.3491402569326335  0.6404735874312465   T   T   T
  0.5807331195926859  0.7474150119154673  0.6386637311785199   T   T   T
  0.5810146080224884  0.5500140811852443  0.6461135380277452   T   T   T
  0.1677927677845626  0.6997174945918155  0.5001064232914838   T   T   T
  0.4179730276482752  0.2522897234501200  0.6390763595633203   T   T   T
  0.7404795310672877  0.8475538211482635  0.6403863386767564   T   T   T
  0.4126309957045096  0.8501088016767482  0.6396457536636661   T   T   T
  0.5837558911673680  0.0505429512288082  0.6418234851705862   T   T   T
  0.7460317819230683  0.4479427018917257  0.6421650203935909   T   T   T
  0.1665229364359060  0.5007654973698649  0.4977695164843925   T   T   T
  0.0868026848249821  0.5497482574264514  0.6397592237027291   T   T   T
  0.0840624982913127  0.2486048603877304  0.6419719548299188   T   T   T
  0.0860503009377335  0.6498107317175444  0.6419284050814514   T   T   T
  0.6663446338752380  0.8988738484408231  0.4989932922588446   T   T   T
  0.0843170966667945  0.4499187303682841  0.6403008704975627   T   T   T
  0.7477556345436939  0.2537644837038280  0.6392217914823974   T   T   T
  0.7520229315640043  0.6559156449820276  0.6352110730656334   T   T   T
  0.4270607258899078  0.4439994721450004  0.6563018410873112   T   T   T
  0.8324265244912796  0.3002997012360341  0.5000968699997121   T   T   T
  0.7474175397495054  0.9471441630337669  0.6393831389454470   T   T   T
  0.8324572958585432  0.8996392199427276  0.4996561607782541   T   T   T
  0.4985216946139653  0.4027415559684298  0.5910484495671509   T   T   T
  0.4975177196876869  0.6032360348735304  0.6092986068428562   T   T   T
  0.2517186916726712  0.9499151552129510  0.5450477780745573   T   T   T
  0.5794232041173721  0.7488409187064538  0.5469087119864681   T   T   T
  0.5762981108673971  0.5482549433659256  0.5520186376696653   T   T   T
  0.9153526521966550  0.5493880785052583  0.5463436286615744   T   T   T
  0.9170721308690528  0.3510149267727474  0.5457323132679194   T   T   T
  0.5836840501225375  0.9507562161653080  0.5455221118638620   T   T   T
  0.9134484025691652  0.7508265902947269  0.5459184304159280   T   T   T
  0.9162679836676842  0.9505197875113404  0.5462874543357491   T   T   T
  0.0826510908015619  0.2501255335910079  0.5473704019002326   T   T   T
  0.0859728498112193  0.4502957050900964  0.5466695429676039   T   T   T
  0.0826273969700151  0.6510067823364366  0.5460865694644220   T   T   T
  0.0854135901450880  0.8498974248604814  0.5475361258301681   T   T   T
  0.4165409432778405  0.2524129858638058  0.5472531095569869   T   T   T
  0.4199747196633518  0.6518888000210810  0.5557829276990343   T   T   T
  0.4156214373378002  0.4552573676106020  0.5525018981389093   T   T   T
  0.7483141092836644  0.4493908470122917  0.5491759228177613   T   T   T
  0.7485986830865166  0.2483970925104777  0.5450372418123511   T   T   T
  0.4146184687654164  0.8488404662244620  0.5483777883062919   T   T   T
  0.7469174196003457  0.6463014634386393  0.5448650312217573   T   T   T
  0.4999994451388372  0.2002867770110519  0.5916872904637956   T   T   T
  0.8327235938248161  0.4983836314856551  0.4995576921367706   T   T   T
  0.7535214650640397  0.7542177538209897  0.6577135927749063   T   T   T
  0.2536401255829072  0.3490920500432060  0.6407166601865250   T   T   T
  0.8322408614342017  0.6989665313265261  0.5001909998834934   T   T   T
  0.5001997576904281  0.6962361260265510  0.5002224819229254   T   T   T
  0.5000308659261573  0.8981663650879932  0.5008523394564440   T   T   T
  0.4994982669257529  0.4982277484026641  0.5000862664016190   T   T   T
  0.9166666865332829  0.6500000000127244  0.3605200052333331   F   F   F
  0.2509246285649477  0.2487654646771497  0.6412203429107799   T   T   T
  0.2486836229811408  0.4528079753973738  0.6420061938526488   T   T   T
  0.2615766367517686  0.8403663279743755  0.6467566127069904   T   T   T
  0.2476161989405205  0.6590764449843323  0.6291003000068994   T   T   T
  0.5917521350282930  0.6511449217313069  0.6396987884994444   T   T   T
  0.5844383933752039  0.4559091117229504  0.6341321596088645   T   T   T
  0.5829919974381358  0.2527488639116220  0.6388592274130387   T   T   T
  0.9143796966920555  0.8500082906431677  0.6415428155755817   T   T   T
  0.9146677904264424  0.4496062442195576  0.6390578700767715   T   T   T
  0.9136969254723427  0.6492151078809405  0.6424043176613266   T   T   T
  0.9161309944848147  0.2504619999390094  0.6414490698986485   T   T   T
  0.5893530807977724  0.8477849603499041  0.6459524418759673   T   T   T
  0.4215713963719774  0.7408797502905666  0.6338356927918913   T   T   T
  0.4174075660266052  0.9475007358288265  0.6391285739563832   T   T   T
  0.7544823900013556  0.5470042457369486  0.6386389491071531   T   T   T
  0.7459979168574186  0.3540377941254368  0.6465247454217828   T   T   T
  0.0839876728425831  0.3488828611837728  0.6416109481480222   T   T   T
  0.4182758051632419  0.3503793882140011  0.6401517846131130   T   T   T
  0.4166666269218169  0.1500000000001833  0.3605200052333331   F   F   F
  0.0844819394349155  0.9488992548544964  0.6405856882682052   T   T   T
  0.4173076810891086  0.0504915090020239  0.5476238389124571   T   T   T
  0.0837777265999279  0.0497303006981380  0.5465911618453598   T   T   T
  0.9161654332821806  0.1507025396942019  0.5463786842637068   T   T   T
  0.5828475241376723  0.1499457337118391  0.5473859825052917   T   T   T
  0.2502049009325930  0.1503845472552449  0.5463375135326707   T   T   T
  0.7500340220276397  0.1488356298364892  0.5477601372010095   T   T   T
  0.4166258662492577  0.1510705240196421  0.5463108716311145   T   T   T
  0.0835351115085420  0.1505214398870424  0.5462811653622688   T   T   T
  0.4999248254825917  0.1000528449811074  0.4987593908856496   T   T   T
  0.8332084500294268  0.1000594715786524  0.4988198643104469   T   T   T
  0.1667820323683587  0.0998374093972075  0.4987239020237943   T   T   T
  0.6663448923714563  0.0999255204489781  0.4990843173745115   T   T   T
  0.3335905396125203  0.0997171425583321  0.4989006814849668   T   T   T
 -0.0000088494048377  0.1000202624459822  0.4991128455111404   T   T   T
  0.9166591285919660  0.1499984007634612  0.4537933897077635   T   T   T
  0.7500051983704911  0.0488104047827463  0.5461406213814480   T   T   T
  0.2500403518823159  0.0499665582500053  0.5468706946871141   T   T   T
  0.5824090137083857  0.0503418868092943  0.5474786654602580   T   T   T
  0.9162657389134845  0.0499361859145295  0.5466066062046088   T   T   T
  0.9157267357494023  0.0499820147221069  0.6402536182708645   T   T   T
  0.7501411754850159  0.1509678864650854  0.6415269895495614   T   T   T
  0.2507391081749748  0.1483197694282492  0.6410274150052071   T   T   T
  0.9157349204397376  0.1498825115423868  0.6403525759400303   T   T   T
  0.5834531372038132  0.1507652779112388  0.6424548030264176   T   T   T
  0.4166326155625103  0.1499680097744847  0.6414960915253726   T   T   T
  0.0830782219196562  0.1485011235759844  0.6404753018101504   T   T   T
  0.5834050110806411  0.1505720424003024  0.4543139873189546   T   T   T
  0.0830574810396430  0.0492488309299968  0.6406710689686370   T   T   T
  0.4176104138563519  0.0495422893577281  0.6429167103473900   T   T   T
  0.8323539495340978  0.9978684573418402  0.5922018387217857   T   T   T
  0.4997804359293966  0.0001623771093047  0.5916754445410776   T   T   T
  0.1674149724951891  0.9988562943769207  0.5921971081844605   T   T   T
  0.6659667534066313 -0.0000376930654910  0.5918389890579461   T   T   T
  0.9999160805141600  0.9991638518859015  0.5921997792299740   T   T   T
  0.3340612833531129  0.0000586924330580  0.5919149460096157   T   T   T
  0.7498935060160888  0.0497567628276492  0.6406912184593547   T   T   T
  0.4153523875147994  0.5348139516660103  0.6300892264078254   T   T   T
  0.2500942594684988  0.1498838052920307  0.4537012959114913   T   T   T
  0.4166741646513062  0.1500843200337502  0.4538236940572237   T   T   T
  0.5833333134730552  0.1500000000001833  0.3605200052333331   F   F   F
  0.2499999999799343  0.1500000000001833  0.3605200052333331   F   F   F
  0.7499999404149307  0.1500000000001833  0.3605200052333331   F   F   F
  0.7479139416127440  0.8469224987127441  0.5462808714817879   T   T   T
  0.0833333358191695  0.1500000000001833  0.3605200052333331   F   F   F
  0.9166666865332829  0.8499999999890662  0.3605200052333331   F   F   F
  0.0842272460250505  0.8496266658849129  0.6419328942681921   T   T   T
  0.2520261599128890  0.9453104275264782  0.6373142779322423   T   T   T
  0.5800504704068113  0.3528436937653091  0.6453986898236416   T   T   T
  0.2536941814882760  0.7415906448670796  0.6635952929301446   T   T   T
  0.2406413600467530  0.5537531179734061  0.6418155067437935   T   T   T
  0.9157975459160971  0.9494612315076579  0.6410229366936669   T   T   T
  0.9154212684469982  0.7499481591554371  0.6404801783055496   T   T   T
  0.9125048982227351  0.5486424287146483  0.6395015313718093   T   T   T
  0.0839938291489992  0.7497978286594139  0.6408118716595080   T   T   T
  0.9166666865332829  0.1500000000001833  0.3605200052333331   F   F   F
  0.0833333358191695  0.0500000000120124  0.3605200052333331   F   F   F
  0.4166666269218169  0.0500000000120124  0.3605200052333331   F   F   F
  0.7499999404149307  0.0500000000120124  0.3605200052333331   F   F   F
  0.0833674743404992  0.1499810276988436  0.4537127836388166   T   T   T
  0.9166431798904719  0.0497078390363454  0.4538999860981652   T   T   T
  0.5833031681569271  0.0489937020510920  0.4546112122356838   T   T   T
  0.2501745250841825  0.0491039801402950  0.4542104412819961   T   T   T
  0.7499377840929901  0.0499438426492628  0.4536589480229549   T   T   T
  0.4168037754161822  0.0486421077867542  0.4547051718352009   T   T   T
  0.0832589296155934  0.0496238662137082  0.4539375329628776   T   T   T
  0.7498186255146014  0.1507219629078232  0.4544006578103512   T   T   T
  0.8333332538436267  0.0000000000000000  0.4070133268666680   F   F   F
  0.1666666716383389  0.0000000000000000  0.4070133268666680   F   F   F
  0.6666666865533486  0.0000000000000000  0.4070133268666680   F   F   F
  0.3333333432766779  0.0000000000000000  0.4070133268666680   F   F   F
  0.0000000000000000  0.0000000000000000  0.4070133268666680   F   F   F
  0.9166666865332829  0.0500000000120124  0.3605200052333331   F   F   F
  0.5833333134730552  0.0500000000120124  0.3605200052333331   F   F   F
  0.2499999999799343  0.0500000000120124  0.3605200052333331   F   F   F
  0.5000000000021103  0.0000000000000000  0.4070133268666680   F   F   F
  0.2512633472321565  0.2506761297040017  0.5473388110604831   T   T   T
  0.3983319969052848  0.6408166698044854  0.6524787401721454   T   T   T
  0.2524093381564170  0.6472452567322982  0.5442282591473989   T   T   T
  0.0833333358191695  0.4500000000005357  0.3605200052333331   F   F   F
  0.0833333358191695  0.2500000000242011  0.3605200052333331   F   F   F
  0.2499999999799343  0.5499999761504029  0.3605200052333331   F   F   F
  0.4166666269218169  0.5499999761504029  0.3605200052333331   F   F   F
  0.4166666269218169  0.7500000000008953  0.3605200052333331   F   F   F
  0.4166666269218169  0.9500000000130839  0.3605200052333331   F   F   F
  0.7499999404149307  0.3500000000123720  0.3605200052333331   F   F   F
  0.7499999404149307  0.5499999761504029  0.3605200052333331   F   F   F
  0.0833333358191695  0.6500000000127244  0.3605200052333331   F   F   F
  0.7499999404149307  0.7500000000008953  0.3605200052333331   F   F   F
  0.2499999999799343  0.3500000000123720  0.3605200052333331   F   F   F
  0.2499999999799343  0.7500000000008953  0.3605200052333331   F   F   F
  0.9166666865332829  0.9500000000130839  0.3605200052333331   F   F   F
  0.2499999999799343  0.9500000000130839  0.3605200052333331   F   F   F
  0.5833333134730552  0.3500000000123720  0.3605200052333331   F   F   F
  0.5833333134730552  0.5499999761504029  0.3605200052333331   F   F   F
  0.5833333134730552  0.7500000000008953  0.3605200052333331   F   F   F
  0.5833333134730552  0.9500000000130839  0.3605200052333331   F   F   F
  0.7499999404149307  0.9500000000130839  0.3605200052333331   F   F   F
  0.9166666865332829  0.3500000000123720  0.3605200052333331   F   F   F
  0.9166666865332829  0.4500000000005357  0.3605200052333331   F   F   F
  0.5833333134730552  0.8499999999890662  0.3605200052333331   F   F   F
  0.0833333358191695  0.9500000000130839  0.3605200052333331   F   F   F
  0.4166666269218169  0.3500000000123720  0.3605200052333331   F   F   F
  0.0833333358191695  0.8499999999890662  0.3605200052333331   F   F   F
  0.4166666269218169  0.2500000000242011  0.3605200052333331   F   F   F
  0.4166666269218169  0.4500000000005357  0.3605200052333331   F   F   F
  0.4166666269218169  0.6500000000127244  0.3605200052333331   F   F   F
  0.4166666269218169  0.8499999999890662  0.3605200052333331   F   F   F
  0.7499999404149307  0.2500000000242011  0.3605200052333331   F   F   F
  0.9166666865332829  0.2500000000242011  0.3605200052333331   F   F   F
  0.7499999404149307  0.4500000000005357  0.3605200052333331   F   F   F
  0.7499999404149307  0.8499999999890662  0.3605200052333331   F   F   F
  0.2499999999799343  0.2500000000242011  0.3605200052333331   F   F   F
  0.2499999999799343  0.4500000000005357  0.3605200052333331   F   F   F
  0.2499999999799343  0.6500000000127244  0.3605200052333331   F   F   F
  0.2499999999799343  0.8499999999890662  0.3605200052333331   F   F   F
  0.5833333134730552  0.2500000000242011  0.3605200052333331   F   F   F
  0.5833333134730552  0.4500000000005357  0.3605200052333331   F   F   F
  0.5833333134730552  0.6500000000127244  0.3605200052333331   F   F   F
  0.7499999404149307  0.6500000000127244  0.3605200052333331   F   F   F
  0.9166666865332829  0.5499999761504029  0.3605200052333331   F   F   F
  0.9166666865332829  0.7500000000008953  0.3605200052333331   F   F   F
  0.5833567035356085  0.2516500477670591  0.4539131826602172   T   T   T
  0.4168422676563075  0.3505245324319081  0.4542270073087508   T   T   T
  0.9161334187116524  0.4497180969873900  0.4539663494839309   T   T   T
  0.9160031007386541  0.2499144391456569  0.4543073792158495   T   T   T
  0.2510316096518475  0.5518010587946843  0.4552306538693650   T   T   T
  0.9162038996257058  0.6497754947901606  0.4539938028744075   T   T   T
  0.9162029337374755  0.8495177415276892  0.4542941898241710   T   T   T
  0.0837378547040239  0.3499629143120285  0.4537546767270630   T   T   T
  0.0832448613283510  0.5503482038362187  0.4538143629108828   T   T   T
  0.2516278556354490  0.7500824256378832  0.4561012054831871   T   T   T
  0.0838358918999009  0.9493209297363930  0.4536099989048911   T   T   T
  0.4171960891641218  0.5480257848378938  0.4540342204324139   T   T   T
  0.4171408523366577  0.7469849632726620  0.4544731488350461   T   T   T
  0.4173167851883868  0.9478937164637259  0.4541386009401538   T   T   T
  0.7502464481250058  0.3519345442255788  0.4556668781677459   T   T   T
  0.7497281440593697  0.5507943762840423  0.4562192599126796   T   T   T
  0.7488821234901656  0.7506960951445097  0.4571056566709276   T   T   T
  0.7494200926865104  0.9496985428597350  0.4547561446766735   T   T   T
  0.2499767635179539  0.3511103410914497  0.4544470876400367   T   T   T
  0.0847660367329492  0.7498840955128669  0.4535310766517216   T   T   T
  0.9164292642840138  0.9495505849691301  0.4537498372918318   T   T   T
  0.5828585498289622  0.3529279717871900  0.4561045823861957   T   T   T
  0.0000584548289839  0.2999573618596386  0.4987156606959281   T   T   T
  0.5844765642602752  0.6496100005227544  0.4550940989786487   T   T   T
  0.6653369681660544  0.7000518315656425  0.5030965253772177   T   T   T
  0.2506765153731326  0.9482040162371126  0.4536273155168322   T   T   T
  0.5825980554957060  0.5511711338678829  0.4562352458351916   T   T   T
  0.5826865418371405  0.7479327383588449  0.4542902955183395   T   T   T
  0.5827648720018865  0.9479415455510938  0.4535596630759554   T   T   T
  0.9158502827803570  0.3498656140026036  0.4536872137647182   T   T   T
  0.9159646727999095  0.5497512963811594  0.4539390801647933   T   T   T
  0.9150727765531703  0.7496868019619322  0.4535297899544174   T   T   T
  0.6657311942569357  0.5027089722022808  0.5034595700152582   T   T   T
  0.3340772141913994  0.5027865895665518  0.5030065061828618   T   T   T
  0.3354938495101544  0.7004118756346126  0.5040342683749599   T   T   T
  0.6659046131947403  0.3018555029953940  0.5000113270260155   T   T   T
  0.3335898543581722  0.8982219145399699  0.4995937680097943   T   T   T
  0.0001775566252542  0.8994586949173958  0.4993913776392063   T   T   T
  0.3336035379049962  0.3009893726526059  0.4988452697263712   T   T   T
  0.9998454276685814  0.7019814831507588  0.4974808073146436   T   T   T
  0.9999647707697039  0.4992083803696681  0.4985334221546175   T   T   T
  0.5829028195600129  0.8469338943231282  0.4560795819702442   T   T   T
  0.0833333358191695  0.7500000000008953  0.3605200052333331   F   F   F
  0.2493417306874545  0.4512818716328436  0.5462727191681300   T   T   T
  0.2505308639104502  0.0482863549848588  0.6417637799123882   T   T   T
  0.3338389403878779  0.2000292930225426  0.5921258172492154   T   T   T
  0.9164459439226915  0.6502473631356677  0.5463047793206697   T   T   T
  0.5810185762136352  0.6476647708226010  0.5493917050618665   T   T   T
  0.5858654849001343  0.8518713410471808  0.5508145463500709   T   T   T
  0.5832766923387721  0.4485193893936564  0.5454062996932141   T   T   T
  0.5831092964512143  0.2496483645996205  0.5458264548656181   T   T   T
  0.2530887126589906  0.8498078186330158  0.5511203886423292   T   T   T
  0.4233159057103113  0.5546786735071105  0.5460555774644099   T   T   T
  0.7528835676010247  0.5477524484786273  0.5496254328460173   T   T   T
  0.7511578742793720  0.7446715619895415  0.5528107331824776   T   T   T
  0.7481328715559519  0.9478286875269591  0.5470699535412824   T   T   T
  0.9152959275359468  0.8499249920178295  0.5469528194871864   T   T   T
  0.2525304739321013  0.3510901625536885  0.5473288046013762   T   T   T
  0.9168064688447362  0.2506663729424994  0.5472196883917430   T   T   T
  0.1671535536485299  0.3000995047559146  0.4999283081765784   T   T   T
  0.5000000000021103  0.8000000000129006  0.4070133268666680   F   F   F
  0.5000000000021103  0.4000000000243773  0.4070133268666680   F   F   F
  0.5000000000021103  0.2000000000121887  0.4070133268666680   F   F   F
  0.1666666716383389  0.8000000000129006  0.4070133268666680   F   F   F
  0.1666666716383389  0.6000000000007191  0.4070133268666680   F   F   F
  0.1666666716383389  0.4000000000243773  0.4070133268666680   F   F   F
  0.1666666716383389  0.2000000000121887  0.4070133268666680   F   F   F
  0.6666666865533486  0.8000000000129006  0.4070133268666680   F   F   F
  0.1678534157417522  0.8987056157913501  0.4994705600558007   T   T   T
  0.5800066910831073  0.3476623663369261  0.5507539710971437   T   T   T
  0.2492905756071380  0.7465724798049970  0.5522352602783352   T   T   T
  0.1654137273722208  0.6026719054217943  0.5882200658398067   T   T   T
  0.0840204180631320  0.9504335640319890  0.5459642411480087   T   T   T
  0.4157318088948140  0.3527660790342074  0.5474978770260241   T   T   T
  0.0867641335239636  0.7512768789813519  0.5459234144957043   T   T   T
  0.0831205886398672  0.5502407541393622  0.5459707255741648   T   T   T
  0.0836081488257682  0.3506955320242005  0.5463693210804480   T   T   T
  0.4994282364694594  0.3009121295887572  0.4995017737738200   T   T   T
  0.9995522072221290  0.5990669356314170  0.5941729059876355   T   T   T
  0.9997142065844705  0.8018712848639062  0.5927217235739792   T   T   T
  0.3346905820953697  0.4040734299454543  0.5933251785895080   T   T   T
  0.4224697941542437  0.7502461181138799  0.5465583747646351   T   T   T
  0.9997718203422091  0.2000262700253142  0.5924721860414666   T   T   T
  0.0010277438622157  0.3997999371924747  0.5923470622728987   T   T   T
  0.3333340150220926  0.5969387688991719  0.5913323223157194   T   T   T
  0.3354001281423553  0.7922632021625063  0.5915968036134992   T   T   T
  0.6635225906027667  0.3975370634058610  0.5906979757740918   T   T   T
  0.0833333358191695  0.5499999761504029  0.3605200052333331   F   F   F
  0.6662129291770816  0.2001727606802996  0.5920875125195109   T   T   T
  0.6656472038594533  0.7933697911923382  0.5905142951881425   T   T   T
  0.6667201343315340  0.5949637790681830  0.5910877050946767   T   T   T
  0.1670118568809661  0.1995367697250682  0.5921713062887130   T   T   T
  0.1684583585026938  0.3986294593192384  0.5930257562812072   T   T   T
  0.1709477640337695  0.7995789319566395  0.5957958051534888   T   T   T
  0.2479987774163187  0.5488361438404835  0.5492456370884087   T   T   T
  0.6666666865533486  0.6000000000007191  0.4070133268666680   F   F   F
  0.6666666865533486  0.4000000000243773  0.4070133268666680   F   F   F
  0.6666666865533486  0.2000000000121887  0.4070133268666680   F   F   F
  0.3333333432766779  0.8000000000129006  0.4070133268666680   F   F   F
  0.4155947038441358  0.6469987940737023  0.4582017235986727   T   T   T
  0.4170729620805992  0.8470379123026434  0.4554815770139906   T   T   T
  0.7489831141016714  0.2515370954188394  0.4535390499454383   T   T   T
  0.7475926459809177  0.4511596741928506  0.4551949658826767   T   T   T
  0.7483357235286096  0.6513266318218011  0.4538275866197696   T   T   T
  0.7499548990083740  0.8499455132037088  0.4537393052489819   T   T   T
  0.4151096685234626  0.4490604880903282  0.4572495807118062   T   T   T
  0.2501811986469751  0.2504143349742553  0.4542753542020052   T   T   T
  0.2519852868937859  0.4517488690254094  0.4539438896528298   T   T   T
  0.2519613745773667  0.6518569087967175  0.4538334051761724   T   T   T
  0.2505484288818462  0.8482378409497527  0.4555706407523374   T   T   T
  0.8333332538436267  0.4000000000243773  0.4070133268666680   F   F   F
  0.5845190392916809  0.4522941909241990  0.4537824565003736   T   T   T
  0.8333332538436267  0.2000000000121887  0.4070133268666680   F   F   F
  0.4160756577434119  0.9484835306776119  0.5466887514163485   T   T   T
  0.4162715626039786  0.2501987198683012  0.4550260339863535   T   T   T
  0.9152347368842902  0.4494766001392791  0.5463630776246872   T   T   T
  0.0840915628171017  0.6503023198635226  0.4538153811303181   T   T   T
  0.0837505664972717  0.8493648910881128  0.4544016206985773   T   T   T
  0.3333333432766779  0.6000000000007191  0.4070133268666680   F   F   F
  0.3333333432766779  0.4000000000243773  0.4070133268666680   F   F   F
  0.3333333432766779  0.2000000000121887  0.4070133268666680   F   F   F
  0.0000000000000000  0.8000000000129006  0.4070133268666680   F   F   F
  0.0000000000000000  0.6000000000007191  0.4070133268666680   F   F   F
  0.0000000000000000  0.4000000000243773  0.4070133268666680   F   F   F
  0.7475631479866626  0.3471375507499282  0.5509226963232376   T   T   T
  0.0000000000000000  0.2000000000121887  0.4070133268666680   F   F   F
  0.0833333358191695  0.3500000000123720  0.3605200052333331   F   F   F
  0.5000000000021103  0.6000000000007191  0.4070133268666680   F   F   F
  0.8333332538436267  0.6000000000007191  0.4070133268666680   F   F   F
  0.8333332538436267  0.8000000000129006  0.4070133268666680   F   F   F
  0.0838485940059845  0.2498499065681803  0.4542276071754681   T   T   T
  0.0833158398500188  0.4498748612798675  0.4538413902920805   T   T   T
  0.8324897355789770  0.1001978228303802  0.6179167177442237   T   T   T
  0.3340351156985581  0.0986145658188910  0.6197212966623098   T   T   T
  0.6669896768365056  0.1005809249421141  0.6187926568188354   T   T   T
  0.5003970047251161  0.1002910298634890  0.6200641570039642   T   T   T
  0.1669800403637914  0.0983883944808335  0.6196707153954849   T   T   T
  0.9994005205910010  0.0994648001432167  0.6188543690623267   T   T   T
  0.8338937641771228  0.0006816711350608  0.5060539770436792   T   T   T
  0.4998465227262912  0.0007970244012903  0.5058173347081150   T   T   T
  0.0001204517290450  0.0001141488007530  0.5059195386101915   T   T   T