Au  C  H  O Sr Ti 
 1.0000000000000000
    23.6707801818999997    0.0000000000000000    0.0000000000000000
     0.0000000000000000   27.8962826732999716    0.0000000000000000
     0.0000000000000000    0.0000000000000000   30.0000000000000000
 Au  C   H   O   Sr  Ti 
  50   5  11 330  90  90
Selective dynamics
Cartesian
 17.0079594408612884 17.2956845632131326 22.6070444473359906   T   T   T
 16.6946280748603364 22.4751562550699333 20.6599704183829189   T   T   T
 15.5448085231624074 15.4347053510024690 24.3794660626421624   T   T   T
  8.7168259902577034 19.3666921683735502 24.6081573331091938   T   T   T
 13.5185468088404832 16.9645824678617174 25.7130212329384626   T   T   T
 15.8421680556805349  9.8517224566747394 22.6125063503980499   T   T   T
 11.1775764955474521 15.6552060084764797 26.3877437821538336   T   T   T
 12.2324992425436516 13.9877436545277778 22.0245320937625166   T   T   T
  6.7107067390464019 13.1195784696642512 21.0842987812188021   T   T   T
 15.8431253913239427 20.7765951718229829 22.4827742135076001   T   T   T
  9.4183702668380800 14.1210312987136533 20.7178543000349720   T   T   T
 14.5544711585041799 12.6622102574412843 20.9260365155789643   T   T   T
  8.9012108755856971 16.5657520875906847 25.0162983189317494   T   T   T
  7.7391173584619164 14.8200904271370302 23.0917784744387298   T   T   T
 11.5300974162587799 11.5643619942588884 23.2634390965804165   T   T   T
 10.1246877062530327 21.1731883959931189 20.9726348417436093   T   T   T
 16.5809996173031600 13.2453437439795341 22.7164290737133072   T   T   T
 18.3292307206214069 15.1212844948931053 23.8552790676803106   T   T   T
  6.0523658132321758 18.7963752457045885 20.8537102458215067   T   T   T
 15.3307612257387689 15.4232633767221596 20.8956062439381824   T   T   T
 13.3937995070822353 19.8675812899587392 25.8342696062181254   T   T   T
 12.9405064119293076 20.4050071335753564 21.0445344429787440   T   T   T
  8.8292254983352176 22.0118820751554800 23.3314263894822886   T   T   T
 10.9738515223147584 18.3883680864767420 25.9215063105924308   T   T   T
 10.7632235348636875 18.5244635348756574 21.0956391635455702   T   T   T
 10.4852405518086638 16.1695693801127796 22.6867114454207979   T   T   T
  6.8664952519678097 17.5449128133165040 23.3389940009451138   T   T   T
 13.1423265114721257 10.2347934335002826 21.3355426762046214   T   T   T
 14.7885066047604088 18.2237900009955673 21.1191420702518506   T   T   T
 17.0713399069274416 11.2778604816049821 20.7642279623402963   T   T   T
  6.8244459430117708 22.2264309741043604 20.9672732570207501   T   T   T
 12.1753090061726841 19.0676387676607391 23.3162284303597360   T   T   T
 13.6511048149780923 21.7753672927012154 23.7854365036548359   T   T   T
 13.0304438919721974 14.1662972500879594 24.8839246959761020   T   T   T
  5.7470078495134755 16.0128610617727567 21.2764817960319021   T   T   T
  6.6842536845277127 20.3228578456814013 22.9862711197518657   T   T   T
 12.1891105499985350 16.3559264825668187 20.3503133950206561   T   T   T
 13.3158189057993113 16.4190023239168035 22.8880265109573600   T   T   T
 14.2458424135731203 11.9920600044290815 23.5930685989332858   T   T   T
 18.0797532448143237 15.1750469607850551 21.1548948270105655   T   T   T
  9.1872086183941519 23.7517490405278373 21.1859122145059118   T   T   T
 10.4107289936059946 10.6730787333752470 20.9272074719110144   T   T   T
 10.9638798726486595 21.0909066994520167 24.8955306157820573   T   T   T
 10.2131474340342177 13.8797738225510070 24.4719126461780334   T   T   T
  8.2821010641455182 16.7906126873763348 20.9197455109011301   T   T   T
  8.8176927634284770 12.2482358086187268 22.6784334457400334   T   T   T
 14.0646389983217812 23.0965433905667403 21.3780889454124186   T   T   T
 15.0646512740267919 18.5874145912262776 24.0106123697868696   T   T   T
 17.3599351921537455 19.3150388619072793 20.8296719138826667   T   T   T
 11.4456929097484466 22.9965330515819844 22.7215759336413043   T   T   T
 17.0063076384599796  8.0850531978843598 22.7065465903942041   T   T   T
 15.3050151609692566  7.0172679526996671 24.3123130533862550   T   T   T
 13.6081226970654008  5.9332855175681702 25.8894598695110716   T   T   T
 14.4055993313957149  5.8084686532224028 24.5851944062151091   T   T   T
 16.0875859936030494  6.9182215725763410 22.9928415111220659   T   T   T
 17.6963456594324100  8.3216621347432458 23.5193147557060023   T   T   T
 16.7407804582373103  6.0291371427240712 23.0310938922572355   T   T   T
 16.0102758956337965  7.1500815194865446 25.1431139567370785   T   T   T
 14.6782139878296434  7.9226566555704210 24.2939320155105420   T   T   T
 15.4113019905149855  6.7378549848093687 22.1480615369404212   T   T   T
 13.7122870334544640  5.6773989071311606 23.7448610949924372   T   T   T
 15.0213229815253762  4.9007887177567131 24.6206505309704689   T   T   T
 14.2996186889115791  6.0637379655762791 26.7310566731180081   T   T   T
 12.9954744917703486  6.8470742986380424 25.8511307458128101   T   T   T
 17.5250674813902378  8.0132240904571663 21.7492675059112130   T   T   T
 12.8534444994339321  5.2569746043088603 26.3029323943543751   T   T   T
 11.8586319564138094 22.4519153965455480 17.7820966295514111   T   T   T
 19.7211434267371111 16.8081540780070604 17.6949728502170096   T   T   T
 19.6809911864349623 11.0951830335046253 17.7446665603933091   T   T   T
 19.6502852564997497 22.3235920214456023 17.7936286499388672   T   T   T
 13.7751831606741995 26.4496511842064521 19.1300977293707888   T   T   T
 19.7081510630691454  5.6433617928388689 17.7698917687509876   T   T   T
 21.7000714876194927  9.7373713550961458 19.2107094690051809   T   T   T
 13.7405802150650960 20.8530370569194119 19.1503449047472074   T   T   T
 13.7693452051682925 15.3376783984570526 19.3791452811586673   T   T   T
  3.9720682764194177 19.5201123444926949 15.0039035382702366   T   T   T
  9.8964832515979246  7.0368935319647790 19.1735541515487817   T   T   T
 17.5286442148815418 23.6473971986335769 19.2117995586890409   T   T   T
  9.7634231027821521 23.7136825319234603 19.1951700368279106   T   T   T
 13.8108652305163098  1.4121393031036176 19.2417189579988630   T   T   T
 17.6408887260199627 12.5008385957524180 19.2621100236854588   T   T   T
  3.9426517310927691 13.9717258131918580 14.9306587807668620   T   T   T
  2.0602576640109560 15.3315590720048718 19.1898790531834749   T   T   T
  1.9878777910843912  6.9348539284583062 19.2575720759963787   T   T   T
  2.0388489489757151 18.1244288531289754 19.2607431482744822   T   T   T
 15.7739086610904753 25.0779796124915073 14.9665945712889688   T   T   T
  1.9944069234543418 12.5469276064889179 19.2068610942175795   T   T   T
 17.6993859439495189  7.0781198238231804 19.1868104970966691   T   T   T
 17.8063963676811596 18.3026271466448271 19.0496371963341211   T   T   T
 10.1153911280872304 12.3920780814361429 19.6841444610880458   T   T   T
 19.7056607995975455  8.3754616507708910 15.0033509185850740   T   T   T
 17.7132115982803029 26.4410842006569098 19.1812129317849198   T   T   T
 19.7078744066638762 25.1011460355500979 14.9561323902863492   T   T   T
 11.8021822769283968 11.2354548911278194 17.7238718895308764   T   T   T
 11.7811961073369513 16.8255219511383629 18.2767110890018287   T   T   T
  5.9580067583187111 26.5021249252354245 16.3469024065867430   T   T   T
 13.7105694610163926 20.8961060795479661 16.4060932114360298   T   T   T
 13.6432467168903351 15.3021348333303440 16.5597595804497324   T   T   T
 21.6681618964785514 15.3267366207507187 16.3906312681752659   T   T   T
 21.7076123353974104  9.7935644312544241 16.3700653261874507   T   T   T
 13.8190626516833888 26.5152937897563525 16.3699185344563745   T   T   T
 21.6190535344348511 20.9491121616764815 16.3690351837330113   T   T   T
 21.6835993809414980 26.5165357865011018 16.3789615299076452   T   T   T
  1.9522549928319657  6.9809333742313013 16.4228735707150797   T   T   T
  2.0372842658194172 12.5668479273242575 16.4013509779631512   T   T   T
  1.9566098330485018 18.1647102025311185 16.3845338217335197   T   T   T
  2.0202899324323229 23.7129124955541393 16.4245524840531729   T   T   T
  9.8599827999140750  7.0408946066605447 16.4179001004146414   T   T   T
  9.9468568387210183 18.1855735802421954 16.6686953039330774   T   T   T
  9.8384680599899035 12.7017054476133477 16.5741804834642679   T   T   T
 17.7132267134254064 12.5324095360558907 16.4733611987569297   T   T   T
 17.7164184920880778  6.9276658590895854 16.3535276052342979   T   T   T
  9.7920797497821024 23.6795284830865960 16.4536720332357440   T   T   T
 17.6836309854176790 18.0253460414302999 16.3425845639418661   T   T   T
 11.8375975867515919  5.5785576576871341 17.7413385425060426   T   T   T
 19.7127660408661782 13.8995479550376952 14.9797977167015848   T   T   T
 17.8375272538717020 21.0409063052964136 19.7322078572524511   T   T   T
  6.0016079902092221  9.7410597930216358 19.2252047846235783   T   T   T
 19.7009351425314527 19.4893809808982397 14.9991605435001993   T   T   T
 11.8444304214721576 19.4262607524881830 15.0043745838939930   T   T   T
 11.8345753450919435 25.0542776761729016 15.0251699678809345   T   T   T
 11.8259324671258614 13.8987608489985828 15.0039150700975412   T   T   T
 21.6982156369999721 18.1325837379999442 10.8156001569999933   F   F   F
  5.9366819098045402  6.9388167793543252 19.2417256555116900   T   T   T
  5.9011563714638582 12.6294789330348713 19.2506808975855606   T   T   T
  6.1844307069640267 23.4364847744107401 19.4079134483076530   T   T   T
  5.8626319249458581 18.3853108280035258 18.8730683111343218   T   T   T
 14.0076590126450586 18.1627052435475385 19.1953857525751452   T   T   T
 13.8210124600795226 12.7103695026342471 19.0322035237102121   T   T   T
 13.7963993274763315  7.0334342955404949 19.1842862121549800   T   T   T
 21.6428823291890780 23.7148803169263154 19.2475859113001810   T   T   T
 21.6602636803263593 12.5441774153961578 19.1769153764250078   T   T   T
 21.6251570802001503 18.1067090558907680 19.2766110513200424   T   T   T
 21.6882779355140336  6.9816085546463400 19.2438801403900754   T   T   T
 13.9494161422256013 23.6556244006690370 19.3750042655842414   T   T   T
  9.9803637695552236 20.6681435552536286 19.0121238628769831   T   T   T
  9.8698232903447938 26.4348460156409431 19.1612965634183752   T   T   T
 17.8629871558280904 15.2624014983207594 19.1612740947755427   T   T   T
 17.6592265036078722  9.8784254154090299 19.3985080165951693   T   T   T
  1.9859726044900383  9.7315801939447972 19.2423944285563238   T   T   T
  9.9035042605961650  9.7740066518224022 19.2007780006381061   T   T   T
  9.8628241350000643  4.1844424010001093 10.8156001569999933   F   F   F
  2.0014183459415507 26.4695553347594092 19.2098792926160868   T   T   T
  9.8626907969774056  1.3932921918108516 16.4007542229954630   T   T   T
  1.9824152736535205  1.3901861708956804 16.3995707479190003   T   T   T
 21.6832268760970805  4.2044296979558453 16.3873970194853769   T   T   T
 13.8097916989578966  4.1870060319727251 16.4069117621352056   T   T   T
  5.9171798380110996  4.1881845527970079 16.4007400504825362   T   T   T
 17.7541958960608390  4.1573386062302280 16.4287933316037282   T   T   T
  9.8582149441288038  4.2079520629581264 16.3906784180416487   T   T   T
  1.9840603120041869  4.2022300663131293 16.3852904988323651   T   T   T
 11.8348640331265056  2.7913799579930121 14.9644405868911079   T   T   T
 19.7250629224018041  2.7905041142732374 14.9619009823201647   T   T   T
  3.9456088320585421  2.7864287805945036 14.9576266424619053   T   T   T
 15.7784565921071831  2.7927620319915567 14.9642226045854940   T   T   T
  7.8922120054057014  2.7875363895290515 14.9648836686944779   T   T   T
  0.0007333757438978  2.7889841106450413 14.9761236216358249   T   T   T
 21.6982562393679750  4.1795586569193457 13.6093929531782738   T   T   T
 17.7520156791512740  1.3657530305808365 16.3822647516270656   T   T   T
  5.9162351625496896  1.3937640230533299 16.4085171009858470   T   T   T
 13.8054085308167931  1.3961875309190257 16.4020373617155464   T   T   T
 21.6918295846247631  1.3913931588365294 16.3967953684192551   T   T   T
 21.6790251883134744  1.3957091054379038 19.2102269692931173   T   T   T
 17.7500396997136569  4.2174674756501309 19.2469182622195021   T   T   T
  5.9298905236385124  4.1442740766210049 19.2370912922711810   T   T   T
 21.6749623855985547  4.1796096754367760 19.2125251421875376   T   T   T
 13.8085101788432514  4.1931120143134875 19.2629000368794188   T   T   T
  9.8625582759506454  4.1841293326048641 19.2419027559297504   T   T   T
  1.9727880988692916  4.1445895913418092 19.2147966351157606   T   T   T
 13.8084873853434100  4.1970739914968336 13.6227759018284864   T   T   T
  1.9660963545673444  1.3735887867754255 19.2154892005299409   T   T   T
  9.8690239406066009  1.3853849995837255 19.2504802203605010   T   T   T
 19.7061900606484777 -0.0262306572052983 17.7598158555441721   T   T   T
 11.8295608806707815  0.0079511630453247 17.7333965073259066   T   T   T
  3.9602939268626991 -0.0316932799009052 17.7584748011304612   T   T   T
 15.7721750783220021  0.0053459737077229 17.7506129335682701   T   T   T
 -0.0031514817033026 -0.0219664629183470 17.7576679812476179   T   T   T
  7.9007759793087127 -0.0010470845559199 17.7402293569726162   T   T   T
 17.7431204895034682  1.3997373624064273 19.2261467848298153   T   T   T
  9.8308660120142317 14.9215565179524994 18.8998021801817835   T   T   T
  5.9184765280001788  4.1813794571639624 13.6120757726531316   T   T   T
  9.8609893588172159  4.1880524499461922 13.6146383835875628   T   T   T
 13.8079546360000549  4.1844424010001093 10.8156001569999933   F   F   F
  5.9176950450000287  4.1844424010001093 10.8156001569999933   F   F   F
 17.7530837259999217  4.1844424010001093 10.8156001569999933   F   F   F
 17.7043420403415048 23.6271971822108853 16.3873469258550060   T   T   T
  1.9725650740000149  4.1844424010001093 10.8156001569999933   F   F   F
 21.6982156369999721 23.7118402719999644 10.8156001569999933   F   F   F
  1.9946497131573919 23.6970757766243452 19.2646936348563642   T   T   T
  5.9661640501298585 26.3772795120147165 19.1164941339272190   T   T   T
 13.7278291747007266  9.8270527561714349 19.3414605390721803   T   T   T
  5.9074927608673278 20.6858722546396585 19.9523758080495242   T   T   T
  5.6950053327931700 15.4416353302656031 19.2475865200966219   T   T   T
 21.6746560248420650 26.4923811860495846 19.2156907715733922   T   T   T
 21.6787044908903432 20.9214117592757169 19.2097749457667142   T   T   T
 21.5984965937005846 15.3067708886733200 19.1850153675959092   T   T   T
  1.9575130961180744 20.9098851238836154 19.2040468081484192   T   T   T
 21.6982156369999721  4.1844424010001093 10.8156001569999933   F   F   F
  1.9725650740000149  1.3948141340000999 10.8156001569999933   F   F   F
  9.8628241350000643  1.3948141340000999 10.8156001569999933   F   F   F
 17.7530837259999217  1.3948141340000999 10.8156001569999933   F   F   F
  1.9716057704855021  4.1761306213053384 13.6053995961570902   T   T   T
 21.6964361118356450  1.3849614764498981 13.6172715342476049   T   T   T
 13.8127209849877968  1.3798866881101854 13.6238174959045359   T   T   T
  5.9206603180126658  1.3679841865463118 13.6275409807722241   T   T   T
 17.7528815407199012  1.3939366392727350 13.6063570805084346   T   T   T
  9.8547688898438537  1.3696237876638637 13.6267986989622454   T   T   T
  1.9735708105968028  1.3816707377648347 13.6187789041441896   T   T   T
 17.7524320067017705  4.2054418232665736 13.6304325804743343   T   T   T
 19.7256482699999580  0.0000000000000000 12.2103998060000407   F   F   F
  3.9451301480000271  0.0000000000000000 12.2103998060000407   F   F   F
 15.7805205919999434  0.0000000000000000 12.2103998060000407   F   F   F
  7.8902602960000570  0.0000000000000000 12.2103998060000407   F   F   F
  0.0000000000000000  0.0000000000000000 12.2103998060000407   F   F   F
 21.6982156369999721  1.3948141340000999 10.8156001569999933   F   F   F
 13.8079546360000549  1.3948141340000999 10.8156001569999933   F   F   F
  5.9176950450000287  1.3948141340000999 10.8156001569999933   F   F   F
 11.8353900909999528  0.0000000000000000 12.2103998060000407   F   F   F
  5.9447048890115983  6.9889039228353207 16.4213711640060183   T   T   T
  9.4471951655569608 17.8897095307644882 19.5635237152314474   T   T   T
  5.9746636516208085 18.0541936371788090 16.3256405268823670   T   T   T
  1.9725650740000149 12.5533272029999310 10.8156001569999933   F   F   F
  1.9725650740000149  6.9740706690001133 10.8156001569999933   F   F   F
  5.9176950450000287 15.3429548049998807 10.8156001569999933   F   F   F
  9.8628241350000643 15.3429548049998807 10.8156001569999933   F   F   F
  9.8628241350000643 20.9222120049999525 10.8156001569999933   F   F   F
  9.8628241350000643 26.5014685399999657 10.8156001569999933   F   F   F
 17.7530837259999217  9.7636989360001234 10.8156001569999933   F   F   F
 17.7530837259999217 15.3429548049998807 10.8156001569999933   F   F   F
  1.9725650740000149 18.1325837379999442 10.8156001569999933   F   F   F
 17.7530837259999217 20.9222120049999525 10.8156001569999933   F   F   F
  5.9176950450000287  9.7636989360001234 10.8156001569999933   F   F   F
  5.9176950450000287 20.9222120049999525 10.8156001569999933   F   F   F
 21.6982156369999721 26.5014685399999657 10.8156001569999933   F   F   F
  5.9176950450000287 26.5014685399999657 10.8156001569999933   F   F   F
 13.8079546360000549  9.7636989360001234 10.8156001569999933   F   F   F
 13.8079546360000549 15.3429548049998807 10.8156001569999933   F   F   F
 13.8079546360000549 20.9222120049999525 10.8156001569999933   F   F   F
 13.8079546360000549 26.5014685399999657 10.8156001569999933   F   F   F
 17.7530837259999217 26.5014685399999657 10.8156001569999933   F   F   F
 21.6982156369999721  9.7636989360001234 10.8156001569999933   F   F   F
 21.6982156369999721 12.5533272029999310 10.8156001569999933   F   F   F
 13.8079546360000549 23.7118402719999644 10.8156001569999933   F   F   F
  1.9725650740000149 26.5014685399999657 10.8156001569999933   F   F   F
  9.8628241350000643  9.7636989360001234 10.8156001569999933   F   F   F
  1.9725650740000149 23.7118402719999644 10.8156001569999933   F   F   F
  9.8628241350000643  6.9740706690001133 10.8156001569999933   F   F   F
  9.8628241350000643 12.5533272029999310 10.8156001569999933   F   F   F
  9.8628241350000643 18.1325837379999442 10.8156001569999933   F   F   F
  9.8628241350000643 23.7118402719999644 10.8156001569999933   F   F   F
 17.7530837259999217  6.9740706690001133 10.8156001569999933   F   F   F
 21.6982156369999721  6.9740706690001133 10.8156001569999933   F   F   F
 17.7530837259999217 12.5533272029999310 10.8156001569999933   F   F   F
 17.7530837259999217 23.7118402719999644 10.8156001569999933   F   F   F
  5.9176950450000287  6.9740706690001133 10.8156001569999933   F   F   F
  5.9176950450000287 12.5533272029999310 10.8156001569999933   F   F   F
  5.9176950450000287 18.1325837379999442 10.8156001569999933   F   F   F
  5.9176950450000287 23.7118402719999644 10.8156001569999933   F   F   F
 13.8079546360000549  6.9740706690001133 10.8156001569999933   F   F   F
 13.8079546360000549 12.5533272029999310 10.8156001569999933   F   F   F
 13.8079546360000549 18.1325837379999442 10.8156001569999933   F   F   F
 17.7530837259999217 18.1325837379999442 10.8156001569999933   F   F   F
 21.6982156369999721 15.3429548049998807 10.8156001569999933   F   F   F
 21.6982156369999721 20.9222120049999525 10.8156001569999933   F   F   F
 13.8009989344481419  7.0085408119884542 13.6294987662412748   T   T   T
  9.8659861358326140  9.7763657437689577 13.6264705778116557   T   T   T
 21.6875697386453972 12.5426109243856558 13.6208923098398316   T   T   T
 21.6853461760986157  6.9698781121003401 13.6305994170671205   T   T   T
  5.9428343849258889 15.3956181988300109 13.6570817456985836   T   T   T
 21.6877414907313870 18.1253984674167512 13.6185517394492823   T   T   T
 21.6885871830962209 23.6978471469997984 13.6252489267470818   T   T   T
  1.9795287781250510  9.7589326733134989 13.6104922069826735   T   T   T
  1.9694876919561910 15.3457946136899857 13.6075970034963358   T   T   T
  5.9562948265274160 20.9249189498406700 13.6853877371455201   T   T   T
  1.9832874088890262 26.4840966695456572 13.6084731549125451   T   T   T
  9.8755743016360036 15.2898857246969229 13.6224282255558009   T   T   T
  9.8737797609190938 20.8394603524125799 13.6342786296156877   T   T   T
  9.8787138219267128 26.4451850225669283 13.6272080036956247   T   T   T
 17.7623601405223575  9.8158733322300797 13.6683646120023568   T   T   T
 17.7508390170554335 15.3683880323630611 13.6903310824677185   T   T   T
 17.7278611853486048 20.9438839176510250 13.7150199962914190   T   T   T
 17.7298662198301464 26.4996936966022716 13.6459334937168961   T   T   T
  5.9178086886015713  9.7930323543618734 13.6327824408255331   T   T   T
  2.0074902913864237 20.9167811519451412 13.6029487246607541   T   T   T
 21.6969405708729930 26.4918606140388633 13.6106079086606009   T   T   T
 13.7945309577643549  9.8320913116539987 13.6693045519431600   T   T   T
  0.0011711631053477  8.3688487744862048 14.9604086897335709   T   T   T
 13.8348827084556358 18.1224071920532239 13.6530670509250402   T   T   T
 15.7524195262385636 19.5320184355352424 15.0928650792136736   T   T   T
  5.9288119843214862 26.4526927878296334 13.6081713902556505   T   T   T
 13.7906274077967943 15.3760753855814052 13.6882004740891148   T   T   T
 13.8003468366125297 20.8717633790226813 13.6319245754999603   T   T   T
 13.7929309373214277 26.4585722346647856 13.6175167427980650   T   T   T
 21.6794478451390980  9.7582174434909739 13.6112029507085790   T   T   T
 21.6829448080656064 15.3362566025271345 13.6200096765424021   T   T   T
 21.6611043747852179 20.9125883927825598 13.6035104072822275   T   T   T
 15.7637659496858298 14.0287065819420587 15.1021784902814709   T   T   T
  7.9082959769859471 14.0250442153665791 15.0902775731100363   T   T   T
  7.9429420283711796 19.5375638956556479 15.1255669748502459   T   T   T
 15.7636016969843933  8.4150126413470563 14.9839327629021621   T   T   T
  7.8943047906766592 25.0626714155092429 14.9764772933862567   T   T   T
  0.0030854896505521 25.0896997354788738 14.9761852523381496   T   T   T
  7.8950187508349101  8.3931546207194234 14.9633705042567762   T   T   T
 23.6674468048722382 19.5795773706229106 14.9212317585774059   T   T   T
 -0.0016194561590397 13.9219812811284562 14.9584684363660312   T   T   T
 13.7999097856401018 23.6363629861281730 13.6740550139750425   T   T   T
  1.9725650740000149 20.9222120049999525 10.8156001569999933   F   F   F
  5.8982696693157965 12.5867850975935376 16.3806428768472863   T   T   T
  5.9290003802903959  1.3559228683994773 19.2410078437615901   T   T   T
  7.9012903671392598  5.5802899152824965 17.7637162985423096   T   T   T
 21.6955508102253525 18.1412640463964330 16.3885350818525559   T   T   T
 13.7615931381238124 18.0754607582588633 16.4851356455376283   T   T   T
 13.8750592545097646 23.7585252822722239 16.5180156433582788   T   T   T
 13.8164649075136179 12.5291252391179651 16.3754578293653879   T   T   T
 13.8057440972941787  6.9829720585681239 16.3943194376583392   T   T   T
  5.9961012632664632 23.7129542799012825 16.5377820434004654   T   T   T
 10.0233222572932004 15.4753056361343919 16.3781381757654145   T   T   T
 17.8279200894088987 15.2724523780071735 16.4929601070649809   T   T   T
 17.7882369797727584 20.7719145904488585 16.5862540104009817   T   T   T
 17.7191274459518482 26.4362795705699085 16.4132062689206286   T   T   T
 21.6536939407960922 23.7147345823194300 16.4030200758447968   T   T   T
  5.9796707462512275  9.7902553556357148 16.4182201487635169   T   T   T
 21.7122688726482380  6.9922466202505271 16.4209561176799284   T   T   T
  3.9564371016556170  8.3734666059158407 14.9984183162160569   T   T   T
 11.8353900909999528 22.3170261389998572 12.2103998060000407   F   F   F
 11.8353900909999528 11.1585130700000246 12.2103998060000407   F   F   F
 11.8353900909999528  5.5792565350000141 12.2103998060000407   F   F   F
  3.9451301480000271 22.3170261389998572 12.2103998060000407   F   F   F
  3.9451301480000271 16.7377696040000430 12.2103998060000407   F   F   F
  3.9451301480000271 11.1585130700000246 12.2103998060000407   F   F   F
  3.9451301480000271  5.5792565350000141 12.2103998060000407   F   F   F
 15.7805205919999434 22.3170261389998572 12.2103998060000407   F   F   F
  3.9722207257466398 25.0714583264140032 14.9831514623640132   T   T   T
 13.7333301403669008  9.7155323744532183 16.5032077983979306   T   T   T
  5.8981186915447470 20.8277625691615462 16.5695426921537532   T   T   T
  3.9169965404507083 16.8116780139648760 17.6447232025216323   T   T   T
  1.9848287248608265 26.5166898492216703 16.3727027456646042   T   T   T
  9.8432900545707263  9.8411011821394094 16.4192340987297527   T   T   T
  2.0501502965078391 20.9662834941666496 16.3682307093211783   T   T   T
  1.9653669143165844 15.3535459835053967 16.3726361599387005   T   T   T
  1.9815294409417361  9.7861392023846729 16.3872066150738043   T   T   T
 11.8212682005916552  8.3938705968247316 14.9859109874487828   T   T   T
 23.6624429971528443 16.7059107474007043 17.8308858892010420   T   T   T
 23.6599380173707274 22.3987975742137380 17.7781510326173411   T   T   T
  7.9232570628397196 11.2653748504803595 17.7924765993031926   T   T   T
 10.0051382908288495 20.9342460815400599 16.3955031297038474   T   T   T
 23.6697737494737694  5.5712945111483663 17.7730186300085720   T   T   T
  0.0241555081665737 11.1573190394182884 17.7611148219815078   T   T   T
  7.8930229325230465 16.6547409279480547 17.7371304310250650   T   T   T
  7.9327242565914879 22.0915522600262726 17.7587447456696239   T   T   T
 15.7072704640975847 11.0916518795228978 17.7222520731282245   T   T   T
  1.9725650740000149 15.3429548049998807 10.8156001569999933   F   F   F
 15.7703829762849548  5.5843852054935157 17.7641739079858212   T   T   T
 15.7577895726544952 22.1335706905248095 17.7163567766834724   T   T   T
 15.7875357234547824 16.5957927662318419 17.7314148317854929   T   T   T
  3.9538431208326204  5.5667452402302233 17.7648632996020801   T   T   T
  3.9886122651034612 11.1217892521164288 17.7876938111661538   T   T   T
  4.0426090611082275 22.3048938213033985 17.8669649226431062   T   T   T
  5.8714284688760356 15.3093129967944588 16.4774107773701637   T   T   T
 15.7805205919999434 16.7377696040000430 12.2103998060000407   F   F   F
 15.7805205919999434 11.1585130700000246 12.2103998060000407   F   F   F
 15.7805205919999434  5.5792565350000141 12.2103998060000407   F   F   F
  7.8902602960000570 22.3170261389998572 12.2103998060000407   F   F   F
  9.8438770769950228 18.0532100352423832 13.7429711828377652   T   T   T
  9.8739443628776691 23.6287146331511195 13.6677229933953122   T   T   T
 17.7349188557679405  7.0093664427005935 13.6101805112058241   T   T   T
 17.6950994275424627 12.5873630455640839 13.6504400443596445   T   T   T
 17.7124396640806765 18.1707495538222794 13.6117891378937852   T   T   T
 17.7517105598356224 23.7089735522934220 13.6118905597382636   T   T   T
  9.8268919407611897 12.5297884544562432 13.7154380112278549   T   T   T
  5.9177817547595613  6.9814323505007643 13.6319739664040966   T   T   T
  5.9636619174938463 12.6052403050446920 13.6140273276462871   T   T   T
  5.9656360088102884 18.1870430460296078 13.6136258402789068   T   T   T
  5.9301664568094488 23.6635381284363575 13.6674418222364444   T   T   T
 19.7256482699999580 11.1585130700000246 12.2103998060000407   F   F   F
 13.8361680265181821 12.6096343343757358 13.6238871215420847   T   T   T
 19.7256482699999580  5.5792565350000141 12.2103998060000407   F   F   F
  9.8466608403386289 26.4534175647839760 16.4011098527532582   T   T   T
  9.8523447042152750  6.9790328113556805 13.6509766160140789   T   T   T
 21.6567312542634944 12.5452319424663656 16.3980504075409144   T   T   T
  1.9888344769216308 18.1376282640060502 13.6173263351100360   T   T   T
  1.9846489862088643 23.6943694878569993 13.6302524627546067   T   T   T
  7.8902602960000570 16.7377696040000430 12.2103998060000407   F   F   F
  7.8902602960000570 11.1585130700000246 12.2103998060000407   F   F   F
  7.8902602960000570  5.5792565350000141 12.2103998060000407   F   F   F
  0.0000000000000000 22.3170261389998572 12.2103998060000407   F   F   F
  0.0000000000000000 16.7377696040000430 12.2103998060000407   F   F   F
  0.0000000000000000 11.1585130700000246 12.2103998060000407   F   F   F
 17.6946235901617399  9.6786310617576614 16.5301956009643867   T   T   T
  0.0000000000000000  5.5792565350000141 12.2103998060000407   F   F   F
  1.9725650740000149  9.7636989360001234 10.8156001569999933   F   F   F
 11.8353900909999528 16.7377696040000430 12.2103998060000407   F   F   F
 19.7256482699999580 16.7377696040000430 12.2103998060000407   F   F   F
 19.7256482699999580 22.3170261389998572 12.2103998060000407   F   F   F
  1.9863868453827591  6.9664303163601975 13.6296397941301972   T   T   T
  1.9725611857708489 12.5462674010121695 13.6148884186515904   T   T   T
 19.7048082652445018  2.7995779553310669 18.5504751242594601   T   T   T
  7.9004920132510685  2.7635361381740604 18.5659245239995414   T   T   T
 15.7863488918222110  2.8092434338068095 18.5471311790826334   T   T   T
 11.8354813747895591  2.7988678689858428 18.5753261205145606   T   T   T
  3.9502032586923748  2.7492888298140370 18.5763107672280796   T   T   T
 -0.0129925020267830  2.7791890900310245 18.5758558899644655   T   T   T
 19.7393910176188569  0.0224875248704059 15.1774911088404689   T   T   T
 11.8348981365879702  0.0204522450226819 15.1634106735298388   T   T   T
  0.0004655074103939  0.0010224443232595 15.1733590667911180   T   T   T
 15.7716390588697646  0.0392192038601989 15.1624600545310493   T   T   T