Au  C  H  O Sr Ti                       
   1.00000000000000     
    23.6707801818999997    0.0000000000000000    0.0000000000000000
     0.0000000000000000   22.3170261383000010    0.0000000000000000
     0.0000000000000000    0.0000000000000000   30.0000000000000000
   Au   C    H    O    Sr   Ti
    50     3     5   265    72    72
Selective dynamics
Direct
  0.7160311850330672  0.5239697295363968  0.7527241389228294   F   F   F
  0.5543613359377204  0.2126756544466204  0.7098559970394405   F   F   F
  0.7182175244788382  0.2550667577201224  0.6914805618627753   F   F   F
  0.2939317770677263  0.7464639144373564  0.6968797607406216   F   F   F
  0.5118815730911237  0.6035238741731277  0.7767918505314242   F   F   F
  0.5783763539431774  0.7256339773946365  0.7939405731953997   F   F   F
  0.2405425754925119  0.4695025304994047  0.7091169885574544   F   F   F
  0.2856314131311635  0.6623806986245100  0.7646266096660881   F   F   F
  0.6027354583837337  0.2831438052796429  0.7835556032382129   F   F   F
  0.5144258724878199  0.4845339185993893  0.6780514790561938   F   F   F
  0.5631606571097478  0.4855862158106419  0.7623809004671500   F   F   F
  0.2895258025492211  0.5381612890892669  0.7774769050247130   F   F   F
  0.5491037947558013  0.3809353352319604  0.8263839088890776   F   F   F
  0.3917062705688465  0.8170358816728012  0.7066895289445796   F   F   F
  0.4639323596796174  0.6950532526755779  0.8308984721250638   F   F   F
  0.4383091035853894  0.2282848092597618  0.6975692828049702   F   F   F
  0.3699084392997349  0.2986579374080449  0.7553723543411337   F   F   F
  0.3496174386081279  0.4995211755377724  0.6977914928744298   F   F   F
  0.4280990270626717  0.3710512177583780  0.8154431331712075   F   F   F
  0.5963937791476255  0.7845815143985533  0.7130842230823262   F   F   F
  0.6353227636850818  0.5837672263810703  0.7997452374688763   F   F   F
  0.7326737947211015  0.6145055590160240  0.6940783245800048   F   F   F
  0.4856913070346707  0.7764081741717419  0.7554400069808267   F   F   F
  0.7632451322618081  0.4294293301261050  0.7038342000833211   F   F   F
  0.4859495010539376  0.2705420383596078  0.7749620183184547   F   F   F
  0.6210927053722983  0.5709225649880807  0.7042118615258914   F   F   F
  0.4632536417068778  0.5724385275463533  0.8643197235901425   F   F   F
  0.7064220199288229  0.7568918529604431  0.6883592483335690   F   F   F
  0.6559706135412569  0.4403231497669537  0.8125373925935264   F   F   F
  0.3687658913316625  0.6188473849907297  0.8205394883693131   F   F   F
  0.5706941184587535  0.5089332245421190  0.8561965265305247   F   F   F
  0.6637461509719600  0.1801906333702590  0.7463350674739502   T   T   T
  0.4723577768773239  0.4491289637458138  0.8774643861602058   F   F   F
  0.5172156673447006  0.3772914636763787  0.7317841458592014   F   F   F
  0.2819150186210209  0.3399969372629670  0.7023178891274640   F   F   F
  0.4522815040230057  0.5797055095510117  0.7027661958139433   F   F   F
  0.3975874729964772  0.3817129102145174  0.6903735304772098   F   F   F
  0.6161112188621729  0.3210268762968198  0.6959655206233677   F   F   F
  0.6693871103974161  0.6812113557655479  0.7487791908789276   F   F   F
  0.3253189893716666  0.4148116878593839  0.7692873930945723   F   F   F
  0.3745411623695034  0.7394473336294780  0.7791191871441541   F   F   F
  0.3756534748866329  0.4930419304500120  0.8328316655803150   F   F   F
  0.5404685168313890  0.6678049026326462  0.7015216557467454   F   F   F
  0.5648195644640310  0.6389663291319323  0.8608119497701097   F   F   F
  0.4440788213600655  0.4738220016581636  0.7565369611870665   F   F   F
  0.2569034342982590  0.5929897970409641  0.6946167019067246   F   F   F
  0.7739856284144579  0.4277242240850256  0.7938932990529040   F   F   F
  0.6996696782283749  0.3437758125502981  0.7569537913213296   F   F   F
  0.4173021722660337  0.6960919639276000  0.6996472235395643   F   F   F
  0.6484178724308904  0.4455229408523138  0.6945319633204150   F   F   F
  0.6449936925502442  0.0385052346354442  0.7623897299010380   T   T   T
  0.7280913671737466  0.1142537797943959  0.7516405278132510   T   T   T
  0.7075152426999622  0.0494644672298179  0.7529872057014870   T   T   T
  0.6181686663475503  0.0532652720589084  0.7348624610681256   T   T   T
  0.6313893016228533  0.0602315693061541  0.7932985827127581   T   T   T
  0.6382669784906696  0.9903772294818936  0.7663950048721304   T   T   T
  0.7347216543112864  0.0284253875610219  0.7780828004006182   T   T   T
  0.7199316108175822  0.0314034945288100  0.7203254535935741   T   T   T
  0.5834768938148756  0.0626788446257578  0.5461593966825191   F   F   F
  0.4164195992153665  0.4354414195010037  0.4538333883118426   F   F   F
  0.0845631052150466  0.6869065272567241  0.4530617789462994   F   F   F
  0.0838903949559366  0.9366725898802031  0.4534847170104186   F   F   F
  0.0827340292013403  0.4367391744171556  0.4528151157127169   F   F   F
  0.0838670209507697  0.1865834596267035  0.4529779732445363   F   F   F
  0.9165782920558243  0.8121299194745362  0.4540645161757269   F   F   F
  0.0833333358191695  0.3124999999901945  0.3605200052333331   F   F   F
  0.9162023279543945  0.5623141912377960  0.4539524049288346   F   F   F
  0.5824543744846622  0.3111600370328489  0.5448990798723941   F   F   F
  0.9161094288740301  0.3121583010547795  0.4539068047712007   F   F   F
  0.4171862865603515  0.1871097337377066  0.4535551713148323   F   F   F
  0.2520724577741262  0.6876481332061672  0.4560841689449475   F   F   F
  0.9164437268185779  0.9371053324021048  0.4536432627782219   F   F   F
  0.5826710612986972  0.1902329257505855  0.4555125384536325   F   F   F
  0.0000323934008293  0.1250551022314710  0.4983982519261616   F   F   F
  0.5832814056888580  0.8104701849101232  0.4553377029927006   F   F   F
  0.9999978165344388  0.3733976476447580  0.4984364827653494   F   F   F
  0.9998435127675975  0.6270771892111711  0.4976822881367724   F   F   F
  0.3335777086915499  0.1255892265645855  0.4985424832284409   F   F   F
  0.0000180964832950  0.8751344710452997  0.4995091159356733   F   F   F
  0.3334646248776778  0.8740009318814828  0.4993541695568666   F   F   F
  0.6661983853856697  0.1267624090058135  0.4991100011400675   F   F   F
  0.2511832400608398  0.4392840626638801  0.4549108610358985   F   F   F
  0.0833333358191695  0.5625000000092442  0.3605200052333331   F   F   F
  0.7758568371028075  0.1308871491738159  0.7536092533748424   T   T   T
  0.9166666865332829  0.0625000000159659  0.3605200052333331   F   F   F
  0.7492804160433266  0.8132017043266231  0.4530278975309656   F   F   F
  0.2504684196056601  0.0619874486349943  0.4542711029301074   F   F   F
  0.9154170136517337  0.3127490928268841  0.5467646530954724   F   F   F
  0.4171326691029904  0.6848091186121792  0.4547283665147077   F   F   F
  0.2522709092415099  0.3141216150045878  0.4541401790117234   F   F   F
  0.4171848331629917  0.9359105314221310  0.4540489823427762   F   F   F
  0.7495190978825974  0.4382695521746385  0.4557365872779968   F   F   F
  0.5833056448300127  0.0635188062859839  0.4541276873078388   F   F   F
  0.9166666865332829  0.6874999999963620  0.3605200052333331   F   F   F
  0.9166666865332829  0.4374999701794380  0.3605200052333331   F   F   F
  0.9166666865332829  0.1875000000030838  0.3605200052333331   F   F   F
  0.5833333134730552  0.9375000000154046  0.3605200052333331   F   F   F
  0.5833333134730552  0.6874999999963620  0.3605200052333331   F   F   F
  0.5833333134730552  0.4374999701794380  0.3605200052333331   F   F   F
  0.5833333134730552  0.1875000000030838  0.3605200052333331   F   F   F
  0.2499999999799343  0.9375000000154046  0.3605200052333331   F   F   F
  0.9166666865332829  0.9375000000154046  0.3605200052333331   F   F   F
  0.2499999999799343  0.6874999999963620  0.3605200052333331   F   F   F
  0.2499999999799343  0.1875000000030838  0.3605200052333331   F   F   F
  0.7499999404149307  0.9375000000154046  0.3605200052333331   F   F   F
  0.7499999404149307  0.6874999999963620  0.3605200052333331   F   F   F
  0.7499999404149307  0.4374999701794380  0.3605200052333331   F   F   F
  0.7499999404149307  0.1875000000030838  0.3605200052333331   F   F   F
  0.4166666269218169  0.9375000000154046  0.3605200052333331   F   F   F
  0.4166666269218169  0.6874999999963620  0.3605200052333331   F   F   F
  0.4166666269218169  0.4374999701794380  0.3605200052333331   F   F   F
  0.2499999999799343  0.4374999701794380  0.3605200052333331   F   F   F
  0.0833333358191695  0.0625000000159659  0.3605200052333331   F   F   F
  0.9153154601478519  0.6867403182869509  0.4531591002042461   F   F   F
  0.6654237589414862  0.3785477140454248  0.5032707155126843   F   F   F
  0.3343103633667681  0.3784460366028739  0.5030243277255622   F   F   F
  0.3355798966567036  0.6257654832310564  0.5037950491029974   F   F   F
  0.9177355664446907  0.0633749861971893  0.5475568482669644   F   F   F
  0.2498617018648375  0.1885044425345441  0.4541105361895745   F   F   F
  0.7494977589285980  0.9384356449699354  0.4553395226393135   F   F   F
  0.7490880788777119  0.6886524347142924  0.4573856752549617   F   F   F
  0.7507754654846721  0.1897192513582056  0.4555675309167597   F   F   F
  0.2518934766931125  0.5645992801079061  0.4537593003910914   F   F   F
  0.2505154268895282  0.8108064039541745  0.4553670241799566   F   F   F
  0.8333332538436267  0.2500000000190425  0.4070133268666680   F   F   F
  0.2499999999799343  0.3124999999901945  0.3605200052333331   F   F   F
  0.2499999999799343  0.0625000000159659  0.3605200052333331   F   F   F
  0.7499999404149307  0.5625000000092442  0.3605200052333331   F   F   F
  0.7499999404149307  0.3124999999901945  0.3605200052333331   F   F   F
  0.7499999404149307  0.0625000000159659  0.3605200052333331   F   F   F
  0.4166666269218169  0.8124999999834799  0.3605200052333331   F   F   F
  0.4166666269218169  0.5625000000092442  0.3605200052333331   F   F   F
  0.4166666269218169  0.3124999999901945  0.3605200052333331   F   F   F
  0.7499999404149307  0.8124999999834799  0.3605200052333331   F   F   F
  0.0834999086448391  0.3119431102015753  0.4540293353186300   F   F   F
  0.4166666269218169  0.0625000000159659  0.3605200052333331   F   F   F
  0.4169133263077285  0.0615705768564965  0.4553495075785889   F   F   F
  0.0834812200607047  0.8121003338820643  0.4542069859946736   F   F   F
  0.0839490119344006  0.5624597642617530  0.4538835005168309   F   F   F
  0.4160857035875836  0.5595342507466796  0.4578675323218278   F   F   F
  0.0837225996688460  0.0618579168279538  0.4541970139326708   F   F   F
  0.4155106948153033  0.3113022793920592  0.4573424723220185   F   F   F
  0.8333332538436267  0.7500000000123208  0.4070133268666680   F   F   F
  0.0833333358191695  0.4374999701794380  0.3605200052333331   F   F   F
  0.0833333358191695  0.6874999999963620  0.3605200052333331   F   F   F
  0.0833333358191695  0.9375000000154046  0.3605200052333331   F   F   F
  0.4166666269218169  0.1875000000030838  0.3605200052333331   F   F   F
  0.0833333358191695  0.8124999999834799  0.3605200052333331   F   F   F
  0.8333332538436267  0.4999999999932783  0.4070133268666680   F   F   F
  0.2492719347958001  0.3137366389499263  0.5459171784046291   F   F   F
  0.7482826665960047  0.8081420975432252  0.5457182108020646   F   F   F
  0.7465458541511936  0.5581166595820193  0.5447148962205972   F   F   F
  0.2510773301918761  0.0625384424926239  0.5472642109374206   F   F   F
  0.4145746267615209  0.8118310196382552  0.5479538538617490   F   F   F
  0.2499999999799343  0.5625000000092442  0.3605200052333331   F   F   F
  0.2499999999799343  0.8124999999834799  0.3605200052333331   F   F   F
  0.5833333134730552  0.0625000000159659  0.3605200052333331   F   F   F
  0.5833333134730552  0.3124999999901945  0.3605200052333331   F   F   F
  0.5843510074295537  0.3154320882501764  0.4535679680732869   F   F   F
  0.8333332538436267  0.0000000000000000  0.4070133268666680   F   F   F
  0.5000000000021103  0.4999999999932783  0.4070133268666680   F   F   F
  0.0833333358191695  0.1875000000030838  0.3605200052333331   F   F   F
  0.2531208756182863  0.8125627382231215  0.5507670020007538   F   F   F
  0.0000000000000000  0.2500000000190425  0.4070133268666680   F   F   F
  0.0000000000000000  0.4999999999932783  0.4070133268666680   F   F   F
  0.7482026381770339  0.5642534649280009  0.4537932002857445   F   F   F
  0.3333333432766779  0.0000000000000000  0.4070133268666680   F   F   F
  0.3333333432766779  0.4999999999932783  0.4070133268666680   F   F   F
  0.3333333432766779  0.7500000000123208  0.4070133268666680   F   F   F
  0.6666666865533486  0.0000000000000000  0.4070133268666680   F   F   F
  0.6666666865533486  0.2500000000190425  0.4070133268666680   F   F   F
  0.6666666865533486  0.4999999999932783  0.4070133268666680   F   F   F
  0.5844798092842041  0.5628220193143463  0.4548504176980543   F   F   F
  0.6666666865533486  0.7500000000123208  0.4070133268666680   F   F   F
  0.1666666716383389  0.2500000000190425  0.4070133268666680   F   F   F
  0.1666666716383389  0.4999999999932783  0.4070133268666680   F   F   F
  0.1666666716383389  0.7500000000123208  0.4070133268666680   F   F   F
  0.5000000000021103  0.0000000000000000  0.4070133268666680   F   F   F
  0.5000000000021103  0.2500000000190425  0.4070133268666680   F   F   F
  0.5000000000021103  0.7500000000123208  0.4070133268666680   F   F   F
  0.9166666865332829  0.3124999999901945  0.3605200052333331   F   F   F
  0.3333333432766779  0.2500000000190425  0.4070133268666680   F   F   F
  0.7473175280372644  0.3139916512240362  0.4551395276230465   F   F   F
  0.0000000000000000  0.7500000000123208  0.4070133268666680   F   F   F
  0.4167327323089509  0.8101444206038906  0.4550872369709609   F   F   F
  0.5833333134730552  0.5625000000092442  0.3605200052333331   F   F   F
  0.7495864698376664  0.0638810299588570  0.4536490871050773   F   F   F
  0.5833333134730552  0.8124999999834799  0.3605200052333331   F   F   F
  0.1666666716383389  0.0000000000000000  0.4070133268666680   F   F   F
  0.6653903155020160  0.6258798069844218  0.5029715533647163   F   F   F
  0.0000000000000000  0.0000000000000000  0.4070133268666680   F   F   F
  0.5827670165556427  0.4396411613492646  0.4563474550904090   F   F   F
  0.0860290461346978  0.6894168342866536  0.5453440373852629   F   F   F
  0.0826975253801052  0.4389159566440668  0.5448287689229971   F   F   F
  0.0835960539193863  0.1889526348868742  0.5454678881672166   F   F   F
  0.4995854227658683  0.1255258456825246  0.4996201262717790   F   F   F
  0.9997860080036389  0.5000398805480870  0.5940206524487053   F   F   F
  0.5807862681939540  0.1855415262078637  0.5496885693845925   F   F   F
  0.9995440172858849  0.7532443102373279  0.5924895701188007   F   F   F
  0.3340246532979094  0.9998267353743415  0.5920216474379671   F   F   F
  0.9997783356778172  0.9992931663462983  0.5932182954104448   F   F   F
  0.0010769221517464  0.2498938945233036  0.5919768810860191   F   F   F
  0.3332394001807657  0.4963130551046078  0.5909397754421164   F   F   F
  0.3357162798695867  0.7411674281818179  0.5903256856591383   F   F   F
  0.6634001696045289  0.2480090172988412  0.5902918761840468   F   F   F
  0.6660266933095613  0.0003663155229319  0.5921846949295073   F   F   F
  0.6658282620146849  0.7415898413979747  0.5902511356818891   F   F   F
  0.6667584012734906  0.4943805010853524  0.5912701699969887   F   F   F
  0.1674498550052874  0.9983586578196508  0.5923137301216812   F   F   F
  0.1684950881002010  0.2480479267824620  0.5931181615310237   F   F   F
  0.1707661512370748  0.7501321645398846  0.5949810199067542   F   F   F
  0.2483816803508105  0.4358591944130907  0.5490919362943103   F   F   F
  0.1655812472328506  0.5027427240304618  0.5874071050984284   F   F   F
  0.3346477927844802  0.2545224974627516  0.5927227263435739   F   F   F
  0.4998366673389754  0.0001642242784072  0.5911307279274141   F   F   F
  0.8326793892913784  0.8742020451612476  0.4985906653113332   F   F   F
  0.7485586797955364  0.9375031206683886  0.6409018439625598   F   F   F
  0.8320333606912911  0.0030852193864916  0.5925211979800196   F   F   F
  0.5011094774377725  0.7563635885024595  0.5931207804324217   F   F   F
  0.4178468440956777  0.0651737924038684  0.6400904012505251   F   F   F
  0.4273360330064691  0.3048097079798282  0.6552208645203947   F   F   F
  0.4156841620166460  0.1913338226984322  0.5464670502004694   F   F   F
  0.4984647210018451  0.2528967416257402  0.5905604307509336   F   F   F
  0.4160004743646013  0.9371544264303679  0.5461162974075293   F   F   F
  0.7485830947783754  0.1844902161093316  0.5505448683324019   F   F   F
  0.5860139560907740  0.8144889128627355  0.5504109491358093   F   F   F
  0.7478497604915759  0.3125023020239297  0.5491657002341412   F   F   F
  0.5811694650414339  0.5600327825662959  0.5489315711245482   F   F   F
  0.2524397630916013  0.5590145725507512  0.5439036253439227   F   F   F
  0.4159754588351703  0.3194672327362085  0.5524277310613641   F   F   F
  0.2500187714516784  0.9360251912962099  0.4540520236056125   F   F   F
  0.5765753529989297  0.4357551877682795  0.5521076401162901   F   F   F
  0.4165284435683461  0.0653163638021610  0.5473291341076632   F   F   F
  0.0848897306096958  0.8128854682552102  0.5473397033552274   F   F   F
  0.0820985557072405  0.5644353212659823  0.5462870065497754   F   F   F
  0.0867017253522775  0.3135244282399441  0.5471250204744535   F   F   F
  0.0823278901933975  0.0632673979146077  0.5475890790586604   F   F   F
  0.9155233455069904  0.9385426136487638  0.5463524644237765   F   F   F
  0.9140385140127876  0.6890987042755157  0.5453671696114597   F   F   F
  0.4125821491092765  0.8128328817340176  0.6396115498975874   F   F   F
  0.5838834603784377  0.9378533585910205  0.5461442927876661   F   F   F
  0.9157671876711646  0.4375918754176311  0.5457039574415745   F   F   F
  0.5795402062516146  0.6861081750962441  0.5473887351118876   F   F   F
  0.2515108877303902  0.9372768602305754  0.5452617670296007   F   F   F
  0.4974183112870563  0.5043793069262748  0.6089676362215357   F   F   F
  0.9174173837386519  0.5637390927973414  0.5469056499077922   F   F   F
  0.4199493828941385  0.5649873652434465  0.5553509799970655   F   F   F
  0.9154695749571360  0.8128960430423149  0.5468784327266434   F   F   F
  0.0836234227101968  0.9388774819163928  0.5458364612961830   F   F   F
  0.2492688619261330  0.6831858863232014  0.5520527656778782   F   F   F
  0.7494360783344618  0.9340714796018190  0.5476931732472750   F   F   F
  0.7518212921556753  0.6803701262938802  0.5531428369294744   F   F   F
  0.7520633071350886  0.4356964489571027  0.5487221788489478   F   F   F
  0.4231662808408601  0.4437236851941861  0.5457065035844977   F   F   F
  0.4231937316453980  0.6879799124415413  0.5467354720266684   F   F   F
  0.9169681286035711  0.1890951394852181  0.5453072918653987   F   F   F
  0.3972127375295003  0.5505736185922245  0.6519767013238464   F   F   F
  0.9161282742272547  0.0621887176221989  0.4540839577122071   F   F   F
  0.7411050494480591  0.8098812433897038  0.6399596055216392   F   F   F
  0.9138081417002795  0.8132648526055917  0.6416036492047965   F   F   F
  0.5828886896152028  0.0660406929828952  0.6398449695204604   F   F   F
  0.5832388454824624  0.3208158083906127  0.6333620032858889   F   F   F
  0.5909683655077416  0.5653536789080391  0.6389696878861457   F   F   F
  0.2475223933505646  0.5737236774497347  0.6288288699400795   F   F   F
  0.7536790453815101  0.6919511246032428  0.6570887154352789   F   F   F
  0.2622284809315403  0.7993803909473556  0.6463938987203122   F   F   F
  0.2510634605206903  0.0593409923957040  0.6423279066137226   F   F   F
  0.9166666865332829  0.5625000000092442  0.3605200052333331   F   F   F
  0.4995252964703099  0.3742934396490227  0.4996456144028940   F   F   F
  0.5000434656635449  0.8734229651921197  0.5009494051969199   F   F   F
  0.5002886479968254  0.6211232151958512  0.5000307565793776   F   F   F
  0.8323723447535372  0.6231087561540036  0.5000112820588001   F   F   F
  0.8323936064699282  0.3731430389315946  0.4998306682553348   F   F   F
  0.8329288318671999  0.1244766750386219  0.4998592925133423   F   F   F
  0.1667285577655520  0.3761976958579112  0.4976938381440235   F   F   F
  0.1677830501608142  0.6243279918696274  0.5000424058149591   F   F   F
  0.5812195938111344  0.4387144638506797  0.6462167015336249   F   F   F
  0.5791230010520891  0.6856333359947016  0.6395064139276840   F   F   F
  0.9169091482105713  0.1860593954603900  0.6400767708050026   F   F   F
  0.2490362361703475  0.3162260463767268  0.6412125324809779   F   F   F
  0.1677512172593438  0.8732629745497817  0.4998886900128028   F   F   F
  0.5828189662262915  0.6861070209531803  0.4545988209401486   F   F   F
  0.5827347601143487  0.9370663574895559  0.4542878586765653   F   F   F
  0.9158173740958730  0.1868722105141032  0.4531480584498837   F   F   F
  0.9157747653799433  0.4369451514707379  0.4536438054747478   F   F   F
  0.1670858263458754  0.1243205621197632  0.4993212791839738   F   F   F
  0.7477390248590865  0.0605503710594277  0.5450569671301011   F   F   F
  0.7533489155210660  0.5680641480312545  0.6358207587317963   F   F   F
  0.9152420298994102  0.3117213068971125  0.6396731108656581   F   F   F
  0.9129554777880102  0.5618904322533638  0.6414175216274458   F   F   F
  0.2519830888603494  0.1881709274549479  0.5472424999214454   F   F   F
  0.5911950497261458  0.8101584967437816  0.6461061892883109   F   F   F
  0.7470217473289864  0.0669993534046682  0.6405579638796866   F   F   F
  0.7457587366566969  0.3104865932942573  0.6428270760729546   F   F   F
  0.9160836180696421  0.0621387293520286  0.6422124236883135   F   F   F
  0.0843262181058222  0.3110852910257549  0.6406347624313398   F   F   F
  0.6665812296659368  0.8743734215846217  0.4989235335774467   F   F   F
  0.0869594043969073  0.5626788755191257  0.6404651321436816   F   F   F
  0.0842458538533180  0.0603532230653769  0.6423088050127888   F   F   F
  0.0868109841275171  0.4364179031020257  0.6394519815545223   F   F   F
  0.0836058201422389  0.1853255744739712  0.6411873880522023   F   F   F
  0.4180577874670988  0.1874478176070156  0.6397428737875757   F   F   F
  0.0842510500645801  0.9355761654465766  0.6406961932702373   F   F   F
  0.0831869488744772  0.6871113859233375  0.6391392273670817   F   F   F
  0.9127036073758745  0.4358534665277247  0.6395485873863578   F   F   F
  0.9161557849083621  0.6874713044127603  0.6393175773529265   F   F   F
  0.9139180963056646  0.9369072256630488  0.6408079537151039   F   F   F
  0.4150590314696387  0.4187362387244420  0.6300433160827765   F   F   F
  0.7551593255879681  0.4326967648734197  0.6372058067920321   F   F   F
  0.4175523780096100  0.9349690688731087  0.6397616528901580   F   F   F
  0.2404913633205581  0.4419803797489621  0.6415960484111523   F   F   F
  0.7454417395612012  0.1932365437193013  0.6459353605692613   F   F   F
  0.2535980109121567  0.1864051690958490  0.6413780571543910   F   F   F
  0.8304302591995949  0.7507117923006632  0.5927974512723324   F   F   F
  0.8314955408489340  0.2489607876665758  0.5915367728593566   F   F   F
  0.5821895370956156  0.9357897701498246  0.6396391134321533   F   F   F
  0.9166666865332829  0.8124999999834799  0.3605200052333331   F   F   F
  0.0842146570321063  0.8125293471966586  0.6421786933129141   F   F   F
  0.2519766195435764  0.9301866127672795  0.6373932419712958   F   F   F
  0.5794077626709324  0.1914669337114461  0.6443358730014097   F   F   F
  0.2549850468305195  0.6774185365780951  0.6630272783449769   F   F   F
  0.8332772514211015  0.5029827215004303  0.5887791832160900   F   F   F
  0.4205613535711024  0.6759232998486624  0.6337167974070113   F   F   F
  0.6660323961738328  0.9999479649466636  0.5056828198079302   F   F   F
  0.8333332538436267  0.6249999999803961  0.4070133268666680   F   F   F
  0.5011492112279896  0.7528622246303200  0.5040097814160376   F   F   F
  0.1643345952630213  0.7515211949491984  0.5033684863750238   F   F   F
  0.1666666716383389  0.3750000000061604  0.4070133268666680   F   F   F
  0.0006522786080012  0.1222850417668795  0.6199791904242744   F   F   F
  0.6669886082427183  0.2481523870157716  0.5026029892950419   F   F   F
  0.3300579899137048  0.2480593533630682  0.5028190191137725   F   F   F
  0.3331301341152013  0.0010452536343450  0.5058008047842506   F   F   F
  0.3338810318289092  0.7511568029321936  0.5015488630027036   F   F   F
  0.6686425633802884  0.4999149394799431  0.5007045370243830   F   F   F
  0.5012062466813632  0.4998493830516111  0.5002431612240628   F   F   F
  0.9997068867078696  0.5003675773707172  0.5068565196792392   F   F   F
  0.8361570265102287  0.5000436897242508  0.5027692687332461   F   F   F
  0.5009548908572512  0.2479505336481935  0.5019797081539679   F   F   F
  0.6666666865533486  0.3750000000061604  0.4070133268666680   F   F   F
  0.6654055657525220  0.7519183778494849  0.5022293284211088   F   F   F
  0.0000000000000000  0.8749999404036828  0.4070133268666680   F   F   F
  0.8356974721325798  0.2483764987240136  0.5030153849989034   F   F   F
  0.9998353332831158  0.7509504775651763  0.5066628747294715   F   F   F
  0.0008557841377765  0.2497707046236712  0.5059300016158161   F   F   F
  0.9999724129025296  0.9999705420646023  0.5067065826193371   F   F   F
  0.6666666865533486  0.6249999999803961  0.4070133268666680   F   F   F
  0.8333332538436267  0.8749999404036828  0.4070133268666680   F   F   F
  0.3333333432766779  0.6249999999803961  0.4070133268666680   F   F   F
  0.3333333432766779  0.1249999999871179  0.4070133268666680   F   F   F
  0.3333333432766779  0.3750000000061604  0.4070133268666680   F   F   F
  0.8339977851686129  0.0004473481387279  0.5067505364146285   F   F   F
  0.3333333432766779  0.8749999404036828  0.4070133268666680   F   F   F
  0.6666666865533486  0.1249999999871179  0.4070133268666680   F   F   F
  0.0000000000000000  0.6249999999803961  0.4070133268666680   F   F   F
  0.1659765938641087  0.0011399458034447  0.5065532381644502   F   F   F
  0.3311577453189898  0.4992324043574428  0.5009444354020829   F   F   F
  0.1635368352060524  0.4998122958177333  0.5020411069071713   F   F   F
  0.5008685466790297  0.8768066721805141  0.6095898625913492   F   F   F
  0.3259030605604352  0.3734569874603295  0.5927487543807501   F   F   F
  0.0000000000000000  0.3750000000061604  0.4070133268666680   F   F   F
  0.5000000000021103  0.8749999404036828  0.4070133268666680   F   F   F
  0.8333332538436267  0.1249999999871179  0.4070133268666680   F   F   F
  0.8333332538436267  0.3750000000061604  0.4070133268666680   F   F   F
  0.1666666716383389  0.1249999999871179  0.4070133268666680   F   F   F
  0.6653618812235393  0.1241153019239931  0.6085409459275368   F   F   F
  0.5000000000021103  0.6249999999803961  0.4070133268666680   F   F   F
  0.8395487602021063  0.6268206844876048  0.6038795208665135   F   F   F
  0.1663567312939591  0.2481753494810093  0.5061833217496456   F   F   F
  0.3316570783806299  0.1197181214288250  0.6132591953673483   F   F   F
  0.9989221594311388  0.8751045269698139  0.6223173962044086   F   F   F
  0.5000000000021103  0.1249999999871179  0.4070133268666680   F   F   F
  0.8317335595351096  0.8761655839677971  0.6176138917585732   F   F   F
  0.8379717836351404  0.3722475968487799  0.6032502085479621   F   F   F
  0.8360084707509259  0.7516684503384212  0.5026215861115375   F   F   F
  0.1666666716383389  0.8749999404036828  0.4070133268666680   F   F   F
  0.3340906206658119  0.6244019418547140  0.5951461719167241   F   F   F
  0.0000000000000000  0.1249999999871179  0.4070133268666680   F   F   F
  0.3345495892037320  0.8786485295475472  0.6029913885823674   F   F   F
  0.5038203248055311  0.6250601085519349  0.5940838261084807   F   F   F
  0.1666666716383389  0.6249999999803961  0.4070133268666680   F   F   F
  0.5000000000021103  0.3750000000061604  0.4070133268666680   F   F   F
  0.6666666865533486  0.8749999404036828  0.4070133268666680   F   F   F
  0.5003641273668364  0.9993473424291608  0.5056597120149604   F   F   F
  0.1594345706254998  0.6273578282494796  0.6014886850881069   F   F   F
  0.1661541153024757  0.8735188902444975  0.6178506140565077   F   F   F
  0.6709368856643252  0.3724121337019213  0.5935923301100772   F   F   F
  0.5004575657238135  0.1221393478199673  0.6064055727954880   F   F   F
  0.1678341132558927  0.1226933247494415  0.6220403602691675   F   F   F
  0.1632461031253101  0.3712523231754687  0.6075549656133958   F   F   F
  0.6654887376131029  0.8812138403980541  0.6070699560160691   F   F   F
  0.6665156970096859  0.6261838023925463  0.5935455454346013   F   F   F
  0.0003242239181489  0.3744224705165848  0.6237127455570715   F   F   F
  0.8335979130889939  0.1241866799602889  0.6197785175449653   F   F   F
  0.9995933333755502  0.6225993588570375  0.6288830419283400   F   F   F
  0.5015118861600456  0.3714018392574161  0.5948067034396374   F   F   F
  0.0837577287954332  0.2476138830756227  0.6036783633840273   F   F   F
  0.7495773871259530  0.0020422694885411  0.6049277721798845   F   F   F
  0.5826604123313430  0.0011024271218290  0.6046355823185436   F   F   F
  0.9162712366006147  0.0003692853086292  0.6039060620417942   F   F   F
  0.5847182908651476  0.7499538952387681  0.5998382326033536   F   F   F
  0.5843437109414822  0.2477496905878027  0.5964055256167171   F   F   F
  0.2424524553158705  0.4978383816400864  0.5940040350654741   F   F   F
  0.2493732596261182  0.7527341265864536  0.5920021019411479   F   F   F
  0.2497038244417666  0.9976641264916282  0.6042293183295087   F   F   F
  0.7539072793773443  0.2482071095102469  0.5933281753877324   F   F   F