Au  O Sr Ti  H                          
   1.00000000000000     
    23.6707801818999997    0.0000000000000000    0.0000000000000000
     0.0000000000000000   22.3170261383000010    0.0000000000000000
     0.0000000000000000    0.0000000000000000   30.0000000000000000
   Au   O    Sr   Ti   H 
    50   264    72    72     1
Selective dynamics
Direct
  0.7175216009842974  0.5264436931774688  0.7538886308653675   T   T   T
  0.6236062055537063  0.5692370397711515  0.7042092187442588   T   T   T
  0.7181164656136884  0.2591745728363329  0.6914052622549236   T   T   T
  0.3047203187482594  0.7496117831321512  0.6918140413266887   T   T   T
  0.5095283936330056  0.6068816570436124  0.7773212387615817   T   T   T
  0.5787219485635483  0.7253551144923079  0.7933252741519221   T   T   T
  0.5492713078558648  0.3834507038005424  0.8272188447082514   T   T   T
  0.2417477343953967  0.4674018111891372  0.7093838719993351   T   T   T
  0.2914208278947159  0.6664706987036385  0.7651387557407532   T   T   T
  0.6028889839037512  0.2880080454657069  0.7866461884355209   T   T   T
  0.5132437572687581  0.4856805272176060  0.6775901310023040   T   T   T
  0.5600427877206834  0.4883598530190580  0.7622740020717163   T   T   T
  0.4637452802350580  0.6973120990703281  0.8328328976232254   T   T   T
  0.7641623020077686  0.4324739628902038  0.7051301690975007   T   T   T
  0.7336102209034269  0.6155008396218551  0.6938143877008375   T   T   T
  0.6342444663150372  0.5841570310717467  0.7997091061921145   T   T   T
  0.5953213982308401  0.7842636493066181  0.7127895171494796   T   T   T
  0.4854751969788152  0.7807576411652868  0.7593321910584121   T   T   T
  0.3485865898625559  0.5006960744261304  0.6949116228800873   T   T   T
  0.4291386792799683  0.3719905095604423  0.8142990465778486   T   T   T
  0.3714376850035008  0.2984103599071226  0.7545057994985876   T   T   T
  0.4415802344424924  0.2284896944782633  0.6969820231286582   T   T   T
  0.3981724772005917  0.8251362074260667  0.7052374720024112   T   T   T
  0.2938398802495155  0.5399814463646273  0.7759681262055239   T   T   T
  0.5561600616724821  0.2098501629755848  0.7113046469198933   T   T   T
  0.4518458305148935  0.5822051692579601  0.7025341269945365   T   T   T
  0.6134811609429920  0.3207325094712598  0.6972013748694461   T   T   T
  0.7062752238348331  0.7578579899604806  0.6884574148607197   T   T   T
  0.6548937446082267  0.4423830250112251  0.8101412702402891   T   T   T
  0.3729949475256288  0.6170394681212784  0.8206275288506308   T   T   T
  0.5707787972590874  0.5092159610632057  0.8566664976363831   T   T   T
  0.6648462236142579  0.1930472166079710  0.7516861017605260   T   T   T
  0.4723781315831858  0.4482163510942773  0.8785368345423279   T   T   T
  0.5157308552109576  0.3788409399564245  0.7327177924778979   T   T   T
  0.2828828573116303  0.3388857227266338  0.7025129067411090   T   T   T
  0.6698660640263373  0.6810087618623787  0.7485510587509284   T   T   T
  0.3975074806655831  0.3824840187138733  0.6897293536053978   T   T   T
  0.3760154280480067  0.4914247563237066  0.8333330636372553   T   T   T
  0.4648250312490607  0.5712698295143190  0.8647982996950342   T   T   T
  0.3256954347083486  0.4150007053647381  0.7690507359010282   T   T   T
  0.4870892362572169  0.2701911377230286  0.7748332731205467   T   T   T
  0.4244121358864244  0.7028941348121357  0.7001641596990918   T   T   T
  0.6999557821588499  0.3468425198531437  0.7559055424931186   T   T   T
  0.7741339605941499  0.4296453663143562  0.7951847587894432   T   T   T
  0.2622674981506302  0.5969480496420584  0.6969528884609995   T   T   T
  0.6470327624310499  0.4432194727131036  0.6969074699067855   T   T   T
  0.5646459381314775  0.6396419736685914  0.8612465900156182   T   T   T
  0.5430120921441400  0.6657819697867403  0.7012583369114131   T   T   T
  0.4411806958929675  0.4755902975402730  0.7549991858007378   T   T   T
  0.3759952430820108  0.7515638865695299  0.7804977245045234   T   T   T
  0.2498468576718625  0.1884795599464816  0.4541167962808085   T   T   T
  0.7494574611250575  0.9384205667736153  0.4553519488735606   T   T   T
  0.7490264135565899  0.6887148630386883  0.4574301413359771   T   T   T
  0.7494408866795895  0.4383854729537354  0.4557875129392715   T   T   T
  0.7501249753729526  0.1896627377068073  0.4556176179111214   T   T   T
  0.4171346551127217  0.9359262021703580  0.4539773437927427   T   T   T
  0.4170988884827797  0.6849625021599269  0.4549160640632073   T   T   T
  0.4164808724039803  0.4354333705816444  0.4537591646548010   T   T   T
  0.0843002368848050  0.6869770133566857  0.4531265573300244   T   T   T
  0.0837952478819291  0.9366103404115808  0.4534424415772315   T   T   T
  0.0827955398349703  0.4368156225415437  0.4528896073533527   T   T   T
  0.0838413043386129  0.1865679943244638  0.4529804921225807   T   T   T
  0.9165465589248126  0.8120292204260321  0.4540489251599433   T   T   T
  0.9162426916124269  0.5624071712622963  0.4538376877465026   T   T   T
  0.2511698663326775  0.4394723312908342  0.4550426077329630   T   T   T
  0.9161270995493994  0.0621437523032515  0.4540721457558085   T   T   T
  0.9162992084587085  0.3122257888252002  0.4538439712116859   T   T   T
  0.4172124359068614  0.1871825298560883  0.4535996785794699   T   T   T
  0.2519939532633015  0.6879328493764404  0.4560068946902689   T   T   T
  0.9164428407968439  0.9370064198447297  0.4535481884144277   T   T   T
  0.5826353484754014  0.1891152189205719  0.4551107175577995   T   T   T
  0.0000233158785713  0.1251022679762435  0.4983832859285722   T   T   T
  0.5836384169353339  0.8100277677434204  0.4555216951607639   T   T   T
 -0.0000132845180604  0.3734445795691615  0.4983943719616539   T   T   T
  0.0001215442230745  0.6269833219331642  0.4979590001640147   T   T   T
  0.3335628587258204  0.1256431675165897  0.4985511841093082   T   T   T
  0.0000471079910144  0.8750126366676535  0.4994754759431666   T   T   T
  0.3333985580809040  0.8738314901811021  0.4993587514279055   T   T   T
  0.6659102269024908  0.1257719771764061  0.4992515797636482   T   T   T
  0.3355571293274896  0.6257995371147338  0.5037750811155129   T   T   T
  0.3343184591142384  0.3785509213748582  0.5030302225731437   T   T   T
  0.6653907738156434  0.3785578918872511  0.5031829978394925   T   T   T
  0.9154569474873057  0.6866968802626784  0.4530787354045752   T   T   T
  0.9159364379848759  0.4369933406162433  0.4536242197564093   T   T   T
  0.9158424939487051  0.1869184790680641  0.4531905221078463   T   T   T
  0.5827559502971138  0.9360962058083220  0.4535972268958138   T   T   T
  0.5827906612161319  0.6860119205500941  0.4545672332575059   T   T   T
  0.5826377302314353  0.4392178187172455  0.4561898902429803   T   T   T
  0.2500187663384293  0.9360959791778533  0.4539717018904677   T   T   T
  0.6654057700605985  0.6257903712660278  0.5029586066990963   T   T   T
  0.5846232448376478  0.5625173218263428  0.4550306764340651   T   T   T
  0.5827845531500846  0.0623545389631525  0.4548464426370794   T   T   T
  0.9166666865332829  0.6874999999963620  0.3605200052333331   F   F   F
  0.9166666865332829  0.4374999701794380  0.3605200052333331   F   F   F
  0.9166666865332829  0.1875000000030838  0.3605200052333331   F   F   F
  0.5833333134730552  0.9375000000154046  0.3605200052333331   F   F   F
  0.5833333134730552  0.6874999999963620  0.3605200052333331   F   F   F
  0.5833333134730552  0.4374999701794380  0.3605200052333331   F   F   F
  0.5833333134730552  0.1875000000030838  0.3605200052333331   F   F   F
  0.2499999999799343  0.9375000000154046  0.3605200052333331   F   F   F
  0.9166666865332829  0.9375000000154046  0.3605200052333331   F   F   F
  0.2499999999799343  0.6874999999963620  0.3605200052333331   F   F   F
  0.2499999999799343  0.1875000000030838  0.3605200052333331   F   F   F
  0.7499999404149307  0.9375000000154046  0.3605200052333331   F   F   F
  0.7499999404149307  0.6874999999963620  0.3605200052333331   F   F   F
  0.7499999404149307  0.4374999701794380  0.3605200052333331   F   F   F
  0.7499999404149307  0.1875000000030838  0.3605200052333331   F   F   F
  0.4166666269218169  0.9375000000154046  0.3605200052333331   F   F   F
  0.4166666269218169  0.6874999999963620  0.3605200052333331   F   F   F
  0.4166666269218169  0.4374999701794380  0.3605200052333331   F   F   F
  0.2499999999799343  0.4374999701794380  0.3605200052333331   F   F   F
  0.0833333358191695  0.0625000000159659  0.3605200052333331   F   F   F
  0.0833333358191695  0.3124999999901945  0.3605200052333331   F   F   F
  0.0833333358191695  0.5625000000092442  0.3605200052333331   F   F   F
  0.9166666865332829  0.3124999999901945  0.3605200052333331   F   F   F
  0.9166666865332829  0.0625000000159659  0.3605200052333331   F   F   F
  0.5833333134730552  0.8124999999834799  0.3605200052333331   F   F   F
  0.5833333134730552  0.5625000000092442  0.3605200052333331   F   F   F
  0.5833333134730552  0.3124999999901945  0.3605200052333331   F   F   F
  0.5833333134730552  0.0625000000159659  0.3605200052333331   F   F   F
  0.2499999999799343  0.8124999999834799  0.3605200052333331   F   F   F
  0.2499999999799343  0.5625000000092442  0.3605200052333331   F   F   F
  0.2499999999799343  0.3124999999901945  0.3605200052333331   F   F   F
  0.2499999999799343  0.0625000000159659  0.3605200052333331   F   F   F
  0.7499999404149307  0.8124999999834799  0.3605200052333331   F   F   F
  0.7499999404149307  0.5625000000092442  0.3605200052333331   F   F   F
  0.7499999404149307  0.3124999999901945  0.3605200052333331   F   F   F
  0.7499999404149307  0.0625000000159659  0.3605200052333331   F   F   F
  0.4166666269218169  0.8124999999834799  0.3605200052333331   F   F   F
  0.4166666269218169  0.5625000000092442  0.3605200052333331   F   F   F
  0.4166666269218169  0.3124999999901945  0.3605200052333331   F   F   F
  0.4166666269218169  0.0625000000159659  0.3605200052333331   F   F   F
  0.0833333358191695  0.8124999999834799  0.3605200052333331   F   F   F
  0.4166666269218169  0.1875000000030838  0.3605200052333331   F   F   F
  0.0833333358191695  0.9375000000154046  0.3605200052333331   F   F   F
  0.0833333358191695  0.6874999999963620  0.3605200052333331   F   F   F
  0.0833333358191695  0.4374999701794380  0.3605200052333331   F   F   F
  0.8333332538436267  0.4999999999932783  0.4070133268666680   F   F   F
  0.8333332538436267  0.7500000000123208  0.4070133268666680   F   F   F
  0.0836806571118625  0.0618238325338778  0.4542388276717180   T   T   T
  0.0835272946081017  0.3119885445516036  0.4539909315347959   T   T   T
  0.0838443768749061  0.5624470212784312  0.4538449264276084   T   T   T
  0.0835709638534276  0.8120723526969681  0.4542398041282560   T   T   T
  0.4168933184772604  0.0616167631925718  0.4553489955159032   T   T   T
  0.4155023543461098  0.3114089901123329  0.4573646473337854   T   T   T
  0.4160646352683295  0.5595176618882102  0.4578417851185657   T   T   T
  0.4166584646763996  0.8101054897671793  0.4550364393312681   T   T   T
  0.7495976155927148  0.0640386954067759  0.4533649353693798   T   T   T
  0.7473447397300642  0.3140965750423729  0.4546042371435424   T   T   T
  0.7481724437081650  0.5642921199913282  0.4536761220866376   T   T   T
  0.7490401466464518  0.8134275970305231  0.4528839928618937   T   T   T
  0.2504500385759905  0.0620149104993538  0.4542394086466828   T   T   T
  0.9152912561409409  0.3127039304224794  0.5467127208866589   T   T   T
  0.2521914779930405  0.3142784551805141  0.4540751873387905   T   T   T
  0.2520270908583812  0.5650771798324581  0.4531036825916254   T   T   T
  0.2501610382229855  0.8111701213165828  0.4550144003604012   T   T   T
  0.8333332538436267  0.2500000000190425  0.4070133268666680   F   F   F
  0.5840874905518323  0.3146610152747801  0.4542413518717185   T   T   T
  0.8333332538436267  0.0000000000000000  0.4070133268666680   F   F   F
  0.5000000000021103  0.4999999999932783  0.4070133268666680   F   F   F
  0.0833333358191695  0.1875000000030838  0.3605200052333331   F   F   F
  0.0000000000000000  0.0000000000000000  0.4070133268666680   F   F   F
  0.0000000000000000  0.2500000000190425  0.4070133268666680   F   F   F
  0.0000000000000000  0.4999999999932783  0.4070133268666680   F   F   F
  0.0000000000000000  0.7500000000123208  0.4070133268666680   F   F   F
  0.3333333432766779  0.0000000000000000  0.4070133268666680   F   F   F
  0.3333333432766779  0.2500000000190425  0.4070133268666680   F   F   F
  0.3333333432766779  0.4999999999932783  0.4070133268666680   F   F   F
  0.3333333432766779  0.7500000000123208  0.4070133268666680   F   F   F
  0.6666666865533486  0.0000000000000000  0.4070133268666680   F   F   F
  0.6666666865533486  0.2500000000190425  0.4070133268666680   F   F   F
  0.6666666865533486  0.4999999999932783  0.4070133268666680   F   F   F
  0.6666666865533486  0.7500000000123208  0.4070133268666680   F   F   F
  0.1666666716383389  0.0000000000000000  0.4070133268666680   F   F   F
  0.1666666716383389  0.2500000000190425  0.4070133268666680   F   F   F
  0.1666666716383389  0.4999999999932783  0.4070133268666680   F   F   F
  0.1666666716383389  0.7500000000123208  0.4070133268666680   F   F   F
  0.5000000000021103  0.0000000000000000  0.4070133268666680   F   F   F
  0.5000000000021103  0.2500000000190425  0.4070133268666680   F   F   F
  0.5000000000021103  0.7500000000123208  0.4070133268666680   F   F   F
  0.1670164372475741  0.1243052908687373  0.4993279775715241   T   T   T
  0.9176917635444521  0.0632501961145233  0.5474455118498150   T   T   T
  0.1676264027054893  0.8734631287035773  0.4998346996072987   T   T   T
  0.2517303767534530  0.1883769743871362  0.5470804244967727   T   T   T
  0.7494064566809161  0.9340278709339561  0.5476516103535678   T   T   T
  0.7516705301545586  0.6800404923676620  0.5533458748844985   T   T   T
  0.7522805772299846  0.4345312393325889  0.5492916558826655   T   T   T
  0.4230847400151158  0.4442476419948040  0.5452947789021801   T   T   T
  0.4234643687998199  0.6876217849907713  0.5468009605004127   T   T   T
  0.7484286752469552  0.1835889539675707  0.5507384277838515   T   T   T
  0.4159172610009524  0.9368408467816719  0.5462319938525100   T   T   T
  0.0835687366788089  0.9389542902758284  0.5457244185058356   T   T   T
  0.4156910628734428  0.1915378223136754  0.5465276669517989   T   T   T
  0.0870271880570138  0.6896794234308971  0.5453257248514226   T   T   T
  0.0826699547305248  0.4386323191530879  0.5451844023237492   T   T   T
  0.0836570062508290  0.1889940568686405  0.5455007052738352   T   T   T
  0.4994031300889992  0.1255670011360026  0.4996444432633563   T   T   T
  0.9995875594818912  0.5014566280318665  0.5944796112923051   T   T   T
  0.9995595013933113  0.7528566454492256  0.5923172939839302   T   T   T
  0.3346394277321963  0.2545514432886302  0.5926814641233530   T   T   T
  0.3340083697789141 -0.0001716363233099  0.5920729902586234   T   T   T
  0.9996057722700270  0.9994748473713221  0.5930691297956336   T   T   T
  0.0007291583303857  0.2498045812107962  0.5915492155694599   T   T   T
  0.3332572653156865  0.4968695194638404  0.5906862913503751   T   T   T
  0.3357052355065121  0.7410893103307307  0.5891807348315834   T   T   T
  0.6633807144093011  0.2475715997264017  0.5905716818994745   T   T   T
  0.6657082135834462  0.0004093577472146  0.5918458045769284   T   T   T
  0.6656896139983772  0.7419982831100262  0.5901123487893367   T   T   T
  0.6667712219636590  0.4936652807643180  0.5914247438943994   T   T   T
  0.1672231883362898  0.9986014464912918  0.5923163481153111   T   T   T
  0.1683199616631918  0.2492926091923002  0.5929992537949272   T   T   T
  0.1712644742388077  0.7501797573798012  0.5956487547182093   T   T   T
  0.2481255900979238  0.4361695591035021  0.5492079882241414   T   T   T
  0.1657255485974587  0.5038909872763828  0.5879809887604787   T   T   T
  0.2485114845810584  0.6829768540809105  0.5520526016909404   T   T   T
  0.5807366057701858  0.1862177913526398  0.5492184388273930   T   T   T
  0.9154783675548466  0.8128219980703145  0.5467784196285429   T   T   T
  0.9167692810080503  0.5635232269290140  0.5465222241105271   T   T   T
  0.5812150003815784  0.5604457101325352  0.5495433855361105   T   T   T
  0.5853637995506936  0.8151091343728158  0.5506401215790960   T   T   T
  0.5828795755097009  0.3120503260480970  0.5457579399852429   T   T   T
  0.5824020113866897  0.0634955203194154  0.5471140617153998   T   T   T
  0.2526971876460073  0.8124020938421129  0.5501201643943575   T   T   T
  0.2521238080740641  0.5590869957603805  0.5433720437568043   T   T   T
  0.2494752219918485  0.3137686942351374  0.5459939254949541   T   T   T
  0.2510794429860652  0.0625973302908257  0.5472553369854273   T   T   T
  0.7482439935304940  0.8080735300442828  0.5455329545130162   T   T   T
  0.7464714653108807  0.5575526966675005  0.5444245279627249   T   T   T
  0.4150860296950114  0.8117081105308915  0.5475138516072696   T   T   T
  0.7482799090689232  0.0596138805671245  0.5445543537004847   T   T   T
  0.7479837113652411  0.3112419226922478  0.5479513476620539   T   T   T
  0.4160014871765385  0.3198056347741158  0.5525590863394267   T   T   T
  0.4200770311276800  0.5652839525081952  0.5549255006139977   T   T   T
  0.4164995703943971  0.0654081002281579  0.5474096371654297   T   T   T
  0.0852367796007245  0.8129494876479468  0.5475051395457233   T   T   T
  0.0829116413441200  0.5641889006180232  0.5463969144894865   T   T   T
  0.0858034957116160  0.3134820715489574  0.5469868462644470   T   T   T
  0.0822474598957315  0.0633338798054273  0.5475900217149627   T   T   T
  0.9156005056937726  0.9383596548152164  0.5462902844698455   T   T   T
  0.9136960761670384  0.6892033795675091  0.5450353003152036   T   T   T
  0.5831422178378004  0.9387631549493672  0.5453754107050029   T   T   T
  0.9168664476848281  0.1888840144307635  0.5454594018736344   T   T   T
  0.9160960797684313  0.4376091871463481  0.5457605362668307   T   T   T
  0.5765183676750461  0.4363663669875652  0.5518177414194931   T   T   T
  0.5795843067176301  0.6864520856297233  0.5471424224752145   T   T   T
  0.2514456967703991  0.9372597339309754  0.5451949224648571   T   T   T
  0.4978155353298799  0.5050405512578360  0.6084310867584019   T   T   T
  0.4986032509944726  0.2530996027831094  0.5903704927360057   T   T   T
  0.4994216381301128  0.0000848709319691  0.5910860290858682   T   T   T
  0.7535048935466028  0.6936771356063529  0.6573305350727067   T   T   T
  0.7483311980945144  0.9367572817236151  0.6398447105258874   T   T   T
  0.2532178077198253  0.1864655470205626  0.6409411557173320   T   T   T
  0.7455608504440360  0.1945485819191559  0.6468522899976675   T   T   T
  0.7554863979053256  0.4355250771719052  0.6386668628472145   T   T   T
  0.4174603124190570  0.9348325438386854  0.6402561123465548   T   T   T
  0.4191837349909780  0.6775550281850046  0.6346852467148251   T   T   T
  0.5906009022393230  0.8100575932629057  0.6462191944406894   T   T   T
  0.9158651244427340  0.0626391259993926  0.6418050144984832   T   T   T
  0.9123361066132963  0.5617842507519781  0.6422247059854767   T   T   T
  0.9152615570377319  0.3120086543087006  0.6393938146406744   T   T   T
  0.9136061794770757  0.8130081198326677  0.6411965979395077   T   T   T
  0.5821435057557166  0.0655881081089231  0.6398526037996678   T   T   T
  0.5831257650553038  0.3203771107180592  0.6339275095718105   T   T   T
  0.5919609092165276  0.5648564979026700  0.6397526554936994   T   T   T
  0.2477436555671298  0.5729855493126842  0.6310934992397924   T   T   T
  0.2642541161602072  0.8013345291463042  0.6450037203007444   T   T   T
  0.2491342621667977  0.3158587383756178  0.6416297009698333   T   T   T
  0.2509650239436275  0.0595231743558611  0.6423563925666724   T   T   T
  0.9166666865332829  0.5625000000092442  0.3605200052333331   F   F   F
  0.4995216330419103  0.3742196625511852  0.4998570455496460   T   T   T
  0.4999683659230158  0.8734452268884053  0.5007734197238419   T   T   T
  0.5004158201844384  0.6210179466275585  0.5000134050637675   T   T   T
  0.8323308581790647  0.6230765664172270  0.4999977389183682   T   T   T
  0.8326417192454884  0.8742117884899646  0.4985787362359448   T   T   T
  0.8325677189508347  0.3732035421904656  0.4995441822784508   T   T   T
  0.8328887153677290  0.1244989910877355  0.4996711592820095   T   T   T
  0.1666393432448959  0.3761514918044662  0.4978507420357715   T   T   T
  0.1676267604059741  0.6241838758071800  0.4992923908578712   T   T   T
  0.5802672429947300  0.4393430773245066  0.6466184319075001   T   T   T
  0.5799139850181707  0.6850251618557999  0.6390257346437792   T   T   T
  0.9170627866032526  0.1868243003305975  0.6407007342963413   T   T   T
  0.5815102708539590  0.9351142600358476  0.6385774238736743   T   T   T
  0.8303490746616954  0.7503807413026207  0.5924554234353711   T   T   T
  0.8315300101402492  0.2479302803020258  0.5914362353458276   T   T   T
  0.8332569950025409  0.5030739950102977  0.5887804311320050   T   T   T
  0.8321785635293026  0.0020623829018713  0.5922838089263183   T   T   T
  0.5012113522418523  0.7552659632472578  0.5927116745123068   T   T   T
  0.4176885570977463  0.0652235474776380  0.6401721153923190   T   T   T
  0.4272980560067834  0.3054066024479279  0.6548896170598453   T   T   T
  0.4130363197231323  0.8139330695051102  0.6377438913464051   T   T   T
  0.3987183835282444  0.5517286077305390  0.6509227015334760   T   T   T
  0.7528123773276797  0.5700900628065345  0.6345631605824738   T   T   T
  0.7411548914218029  0.8100983593907197  0.6398429797425947   T   T   T
  0.7465157277247300  0.3126063404969366  0.6401640944242650   T   T   T
  0.7473771460264736  0.0670106677348289  0.6391978690108622   T   T   T
  0.0835665380173473  0.3120656699149356  0.6402492376364703   T   T   T
  0.6664159043910347  0.8747485808652713  0.4993810935008211   T   T   T
  0.0870724750185295  0.5621760129290027  0.6418788396778198   T   T   T
  0.0839392162146092  0.0606056659711072  0.6421331100170813   T   T   T
  0.0863920606145297  0.4367297194492551  0.6390611051109375   T   T   T
  0.0834329836275399  0.1858917869430688  0.6409563657370876   T   T   T
  0.4182784457498341  0.1881877444744902  0.6398589564695336   T   T   T
  0.4150497434485341  0.4195911069124305  0.6294944108720223   T   T   T
  0.0840090052847544  0.9354887102142068  0.6404551803776382   T   T   T
  0.0831592909448574  0.6871259783886373  0.6398202236546843   T   T   T
  0.9128140256078695  0.4361001494010220  0.6393797621014498   T   T   T
  0.9156092602162587  0.6875583329656222  0.6395330288772575   T   T   T
  0.9144921035746553  0.9370920092899316  0.6408190726292021   T   T   T
  0.2407844059010071  0.4418114000027868  0.6412667855288455   T   T   T
  0.2623675708241057  0.6796469222092815  0.6623362210796089   T   T   T
  0.5786703092343490  0.1909847035477135  0.6440664336761266   T   T   T
  0.2515289376982501  0.9302957863833384  0.6371654823526818   T   T   T
  0.0840267880371612  0.8120097435019330  0.6418488410074136   T   T   T
  0.9166666865332829  0.8124999999834799  0.3605200052333331   F   F   F
  0.0005464717448159  0.1228050459613813  0.6197208817337824   T   T   T
  0.8333332538436267  0.6249999999803961  0.4070133268666680   F   F   F
  0.9998168449439314  0.5007850395919139  0.5070455324102890   T   T   T
  0.3308686128360444  0.4993623005035031  0.5009745388935655   T   T   T
  0.3299845472767483  0.2483958252749879  0.5028095733019926   T   T   T
  0.3331355237275079  0.0011490031557792  0.5057994915869128   T   T   T
  0.3337947034577395  0.7511008167656190  0.5012125022356622   T   T   T
  0.6658338470349618  0.0001855562471944  0.5056000514056352   T   T   T
  0.6685511393792001  0.4997557780942819  0.5007449557318273   T   T   T
  0.6669741722243300  0.2478426848820801  0.5029684464146134   T   T   T
  0.6653209405801070  0.7518246222945214  0.5022517423107611   T   T   T
  0.1658672523759421  0.0011577885628241  0.5064972352468894   T   T   T
  0.1663391635832278  0.2485904345218565  0.5061321751931109   T   T   T
  0.1637481571061904  0.4998774442904028  0.5025271516355916   T   T   T
  0.4999512377908125  0.9996009453822536  0.5054644971329821   T   T   T
  0.1644792747498880  0.7514603788751116  0.5032762529654502   T   T   T
  0.5010361303807794  0.7526669960029995  0.5038107971132415   T   T   T
  0.8342190392905812  0.0003608681910428  0.5065005530727560   T   T   T
  0.5013694353561219  0.4999370734310848  0.5002391248414476   T   T   T
  0.5009592366830324  0.2480048827968105  0.5019805031971746   T   T   T
  0.8354113340295679  0.2484779338238873  0.5032345279729747   T   T   T
 -0.0000859101317911  0.7506960066460894  0.5065614349044557   T   T   T
  0.0006948948419320  0.2498544050200779  0.5057418160991743   T   T   T
 -0.0000686431193311 -0.0000467408599354  0.5065574677947278   T   T   T
  0.8333332538436267  0.8749999404036828  0.4070133268666680   F   F   F
  0.0000000000000000  0.6249999999803961  0.4070133268666680   F   F   F
  0.0000000000000000  0.8749999404036828  0.4070133268666680   F   F   F
  0.3333333432766779  0.1249999999871179  0.4070133268666680   F   F   F
  0.3333333432766779  0.3750000000061604  0.4070133268666680   F   F   F
  0.3333333432766779  0.6249999999803961  0.4070133268666680   F   F   F
  0.3333333432766779  0.8749999404036828  0.4070133268666680   F   F   F
  0.6666666865533486  0.1249999999871179  0.4070133268666680   F   F   F
  0.6666666865533486  0.3750000000061604  0.4070133268666680   F   F   F
  0.6666666865533486  0.6249999999803961  0.4070133268666680   F   F   F
  0.8361007254048298  0.4999069365880182  0.5028407464251551   T   T   T
  0.6666666865533486  0.8749999404036828  0.4070133268666680   F   F   F
  0.1666666716383389  0.3750000000061604  0.4070133268666680   F   F   F
  0.1666666716383389  0.6249999999803961  0.4070133268666680   F   F   F
  0.1666666716383389  0.8749999404036828  0.4070133268666680   F   F   F
  0.5000000000021103  0.1249999999871179  0.4070133268666680   F   F   F
  0.5000000000021103  0.3750000000061604  0.4070133268666680   F   F   F
  0.5000000000021103  0.6249999999803961  0.4070133268666680   F   F   F
  0.5000000000021103  0.8749999404036828  0.4070133268666680   F   F   F
  0.8333332538436267  0.1249999999871179  0.4070133268666680   F   F   F
  0.8333332538436267  0.3750000000061604  0.4070133268666680   F   F   F
  0.1666666716383389  0.1249999999871179  0.4070133268666680   F   F   F
  0.0000000000000000  0.3750000000061604  0.4070133268666680   F   F   F
  0.8359383696570543  0.7515732077763595  0.5025385263412376   T   T   T
  0.8370540104772113  0.3726553725389819  0.6042882920863801   T   T   T
  0.8321111127741281  0.8763461665512925  0.6175345693863089   T   T   T
  0.8399789863339602  0.6267563668268411  0.6028150194374338   T   T   T
  0.9988382188497691  0.8748096113709248  0.6218932533479035   T   T   T
  0.3317413456432591  0.1199883943796723  0.6135541953547339   T   T   T
  0.3334465103812211  0.6246070250429271  0.5958488464594255   T   T   T
  0.3253299553852119  0.3742405915250047  0.5929047251924127   T   T   T
  0.6711012096134427  0.3722549974557273  0.5940345992287134   T   T   T
  0.6650977424080756  0.1245696663538999  0.6116088181485732   T   T   T
  0.3342059436699927  0.8790181223566914  0.6016557176310180   T   T   T
  0.1598474718864976  0.6269707163917816  0.6030731106631716   T   T   T
  0.1655935901507133  0.8736388302281787  0.6171090128508807   T   T   T
  0.5016515770880741  0.3716066993724277  0.5949742783584406   T   T   T
  0.5000277222904941  0.1220335222474672  0.6062879024260691   T   T   T
  0.1674839155623364  0.1227130008815642  0.6218692861719171   T   T   T
  0.1633539225425829  0.3720745222923268  0.6077311352357211   T   T   T
  0.6651401643387621  0.8808390431993802  0.6068455071092725   T   T   T
  0.6661277545149884  0.6264464758649415  0.5935193985127787   T   T   T
 -0.0000240606707965  0.3749633651989240  0.6219430976991299   T   T   T
  0.9994016339950539  0.6222139995627127  0.6363548397419359   T   T   T
  0.8334062049275630  0.1250426974738154  0.6200673245005307   T   T   T
  0.5004509657177172  0.8768500439352154  0.6073847058646868   T   T   T
  0.0000000000000000  0.1249999999871179  0.4070133268666680   F   F   F
  0.5031873409933990  0.6256497905131601  0.5940693276516901   T   T   T
  0.9161852626158030  0.0005000855383143  0.6038085436555601   T   T   T
  0.5842407685866376  0.7499453658342399  0.5996087745182540   T   T   T
  0.5904508207225125  0.5011267441532203  0.5937142434413700   T   T   T
  0.2426263599321925  0.5000574697860143  0.5950242456694046   T   T   T
  0.2493851602306622  0.7529099238816203  0.5916609835633383   T   T   T
  0.5839948949023025  0.2475314637997814  0.5966816009699631   T   T   T
  0.5824211962159388  0.0010706708887342  0.6042619417467698   T   T   T
  0.2495027970294921  0.9978194282178002  0.6041915613078609   T   T   T
  0.2489210372791248  0.2459643953528483  0.6035104817858011   T   T   T
  0.4170106807433397  0.0000620884660944  0.6051468273839080   T   T   T
  0.4146205668456188  0.2489916496188458  0.5911674340534735   T   T   T
  0.4162835991866802  0.7496513524996069  0.5939385879775575   T   T   T
  0.7564770517457791  0.5027204997822610  0.5952557771722624   T   T   T
  0.7518043909486788  0.7524943178646999  0.5904703034965254   T   T   T
  0.7537685138285931  0.2481143981099248  0.5941025585939439   T   T   T
  0.7494963896785564  0.0017664159231620  0.6041767638496246   T   T   T
  0.0834262194278757  0.2482642548354009  0.6035153302117515   T   T   T
  0.0813951974334432  0.5010835021897687  0.6033248067095023   T   T   T
  0.0803555895323186  0.7508311001046453  0.6033157937219797   T   T   T
  0.0831664268577304  0.9989350032323401  0.6036451302518457   T   T   T