Au  O Sr Ti  H 
 1.0000000000000000
    23.6707801818999997    0.0000000000000000    0.0000000000000000
     0.0000000000000000   22.3170261383000010    0.0000000000000000
     0.0000000000000000    0.0000000000000000   30.0000000000000000
 Au  O   Sr  Ti  H  
  50 264  72  72   1
Selective dynamics
Cartesian
 17.0252909102829051 11.7217197673815026 22.6182532253620039   T   T   T
 14.8138167547627724 12.6212875888569087 21.1154954283449996   T   T   T
 17.0147426779853603  5.7787070447939950 20.7505885277173014   T   T   T
  6.8207039054539500 16.6236117037859472 20.9804974921450231   T   T   T
 12.1945143181213211 13.4813985228298350 23.3121631556601727   T   T   T
 13.6586646532691525 16.1991132011607917 23.7674009224977993   T   T   T
 13.0295489733923073  8.5786025744083414 24.8897232692281847   T   T   T
  5.7511007291705347 10.4226232807261443 21.2734536370612020   T   T   T
  6.6764094167707366 14.7304241498185728 22.9977406183941397   T   T   T
 14.2587227877812079  6.4415543949152880 23.6422249747584985   T   T   T
 12.1891746356629884 10.7752230725789122 20.3418724283634234   T   T   T
 13.3165808281193367 10.8385381460363170 22.8836891283882906   T   T   T
 10.9776320840792643 15.5089859721497572 24.8924387824599513   T   T   T
 18.0958936647233131  9.6002977885179224 21.1662017920189243   T   T   T
 17.3711886556511637 13.7389503416882395 20.8222270854653750   T   T   T
 15.0707052671546631 13.0096765157533181 24.0058334356716507   T   T   T
 14.0714246937159064 17.5265382687303770 21.3732339819575365   T   T   T
 11.4336562178342085 17.4092820969072939 22.7264166883027663   T   T   T
  8.2864152968732494 11.2085982485877071 20.9194262789633783   T   T   T
 10.2097200349453345  8.2997333994122613 24.4749418842547506   T   T   T
  8.8279069044195708  6.6657627226512277 22.6762895355885625   T   T   T
 10.4310230860418081  5.1000571060355719 20.9126926447778914   T   T   T
  9.1560177899531343 18.1592771365108874 21.1816221682278254   T   T   T
  6.8678119052640909 11.9559951563829188 23.3348421033275137   T   T   T
 13.1393746797536402  4.6220012664750163 21.3523878851998212   T   T   T
 10.7727453392468853 12.9437274737764678 21.0952682122123889   T   T   T
 14.5128987406961532  7.0994472166816243 20.9380716822349981   T   T   T
 16.6935378729171795 16.9077428537197321 20.6538892361145834   T   T   T
 15.5406200166785329  9.8472395177295908 24.3746454211485748   T   T   T
  8.7266822766936993 13.7844775883557542 24.6045891221616699   T   T   T
 13.5256567206335081 11.3857601162238709 25.7119005505630618   T   T   T
 15.7271964377914610  4.3272931204223397 22.5627986268722722   T   T   T
 11.1883094793635074 10.0661724539554314 26.3844126062786408   T   T   T
 12.2175110193874321  8.4138725648635564 22.0268035997329008   T   T   T
  6.7214822160751915  7.5255848198454309 21.0807192760253201   T   T   T
 15.8492252631992496 15.1955795227282060 22.4725939238079917   T   T   T
  9.4233963093284476  8.5380694975291966 20.7181709171399895   T   T   T
  8.9071113063177840 10.9832371598892280 25.0085701270515166   T   T   T
 10.9857455464542273 12.7997983594126747 25.8999200569739365   T   T   T
  7.7405574429527881  9.2316993994106138 23.0890040284959888   T   T   T
 11.5373213698120658  5.9825718454854062 23.2573581856457139   T   T   T
 10.1691911776531150 15.6017825028293835 20.9639143614454930   T   T   T
 16.5683422639127400  7.7110591157796629 22.7046559994649897   T   T   T
 18.3324760788302257  9.5536830804525881 23.8802036146366952   T   T   T
  6.0459694974893576 13.2085153950400933 20.8612429261656587   T   T   T
 15.3252122984508308  9.8086801784810653 20.9273505942882743   T   T   T
 13.4057798966625956 14.2964320585404501 25.8261297610087190   T   T   T
 12.9689196250224708 14.8176927711899573 21.0497595966700857   T   T   T
 10.4894929478760890 10.5935046873444616 22.6850645355568723   T   T   T
  8.8219900079981688 16.4124973520070512 23.3242874696877180   T   T   T
  5.9172429096057817  4.2096494990821975 13.6274551500051970   T   T   T
 17.7392747987542272 20.9443140888090369 13.6595774995063159   T   T   T
 17.7298298702979800 15.3679909686351230 13.7176376573151266   T   T   T
 17.7411680824198754  9.7814646444748412 13.6730704541728354   T   T   T
 17.7547284867298139  4.2341018291057075 13.6678330519812032   T   T   T
  9.8817537273485545 20.8825103735242728 13.6222613953411749   T   T   T
  9.8675133381370337 15.2785696747064232 13.6436357515439735   T   T   T
  9.8707683772256924  9.7190604837890078 13.6202339052520145   T   T   T
  1.9970155001513734 15.3295484067143963 13.5930452889683906   T   T   T
  1.9831546155644697 20.9002583757250697 13.6040195972028588   T   T   T
  1.9703327038785119  9.7553813934571973 13.5953755200244917   T   T   T
  1.9847422461079676  4.1660956952835377 13.5902219678876559   T   T   T
 21.6947863466824806 18.1218094013647999 13.6222076672377757   T   T   T
 21.6853447277450648 12.5524400729305743 13.6108745492463505   T   T   T
  5.9451303144122267  9.8049644490664392 13.6513593295890026   T   T   T
 21.6858187641793485  1.3861772001909256 13.6230086069646088   T   T   T
 21.6894707101302551  6.9691317486018498 13.6143733020093798   T   T   T
  9.8705232318800231  4.1774199319193377 13.6095816955056037   T   T   T
  5.9752004509471526 15.3381023096686970 13.6850868496009817   T   T   T
 21.7015589001773250 20.9055612891977241 13.5980538846559842   T   T   T
 13.7911697672903681  4.2198199152447495 13.6531203171268878   T   T   T
  0.0033934338618665  2.7918339040878370 14.9492677267864824   T   T   T
 13.8140759082595359 18.0750206435554936 13.6634113837076629   T   T   T
  0.0003526971111411  8.3423527118316461 14.9585289157379044   T   T   T
 23.6652698537384651 13.9915330428872373 14.9301920229322072   T   T   T
  7.8942674886343127  2.7907766254564481 14.9516061222595891   T   T   T
 -0.0004198325886900 19.5198234799164432 14.9883074172406676   T   T   T
  7.8947807519487467 19.4993884216855697 14.9634104259863570   T   T   T
 15.7638709371027499  2.8097602286024421 14.9756433330502272   T   T   T
  7.9476977467338328 13.9503478393709077 15.1323752839058230   T   T   T
  7.9148331845250146  8.4470019630019220 15.0893129158924886   T   T   T
 15.7548542449796507  8.4462581874312423 15.0987784427466885   T   T   T
 21.6665620133864927 15.3257748385018857 13.5899784576690745   T   T   T
 21.6853180538677748  9.7569175362884373 13.6120275239579680   T   T   T
 21.6798671133982239  4.1722560929200636 13.5968793577166061   T   T   T
 13.7892205620812831 20.8900805811540309 13.6152690227336794   T   T   T
 13.7969032678185783 15.3082659328974433 13.6363595468218222   T   T   T
 13.7874934199318702  9.7878013507110158 13.6773616000666411   T   T   T
  5.9176648092511970 20.8850786436162110 13.6194959268989280   T   T   T
 15.7507502911434276 13.9677915209829351 15.0871522942150769   T   T   T
 13.8369053429459647 12.5481100515018316 13.6524723689825080   T   T   T
 13.7978919178857460  1.3917679343005265 13.6418998977324861   T   T   T
 21.6982156369999721 15.3429554700000619 10.8156001569999933   F   F   F
 21.6982156369999721  9.7636982699999884 10.8156001569999933   F   F   F
 21.6982156369999721  4.1844424010000720 10.8156001569999933   F   F   F
 13.8079546360000549 20.9222120050000342 10.8156001569999933   F   F   F
 13.8079546360000549 15.3429554700000619 10.8156001569999933   F   F   F
 13.8079546360000549  9.7636982699999884 10.8156001569999933   F   F   F
 13.8079546360000549  4.1844424010000720 10.8156001569999933   F   F   F
  5.9176950450000287 20.9222120050000342 10.8156001569999933   F   F   F
 21.6982156369999721 20.9222120050000342 10.8156001569999933   F   F   F
  5.9176950450000287 15.3429554700000619 10.8156001569999933   F   F   F
  5.9176950450000287  4.1844424010000720 10.8156001569999933   F   F   F
 17.7530837259999217 20.9222120050000342 10.8156001569999933   F   F   F
 17.7530837259999217 15.3429554700000619 10.8156001569999933   F   F   F
 17.7530837259999217  9.7636982699999884 10.8156001569999933   F   F   F
 17.7530837259999217  4.1844424010000720 10.8156001569999933   F   F   F
  9.8628241350000643 20.9222120050000342 10.8156001569999933   F   F   F
  9.8628241350000643 15.3429554700000619 10.8156001569999933   F   F   F
  9.8628241350000643  9.7636982699999884 10.8156001569999933   F   F   F
  5.9176950450000287  9.7636982699999884 10.8156001569999933   F   F   F
  1.9725650740000149  1.3948141340000613 10.8156001569999933   F   F   F
  1.9725650740000149  6.9740706679999214 10.8156001569999933   F   F   F
  1.9725650740000149 12.5533272030000536 10.8156001569999933   F   F   F
 21.6982156369999721  6.9740706679999214 10.8156001569999933   F   F   F
 21.6982156369999721  1.3948141340000613 10.8156001569999933   F   F   F
 13.8079546360000549 18.1325837370000720 10.8156001569999933   F   F   F
 13.8079546360000549 12.5533272030000536 10.8156001569999933   F   F   F
 13.8079546360000549  6.9740706679999214 10.8156001569999933   F   F   F
 13.8079546360000549  1.3948141340000613 10.8156001569999933   F   F   F
  5.9176950450000287 18.1325837370000720 10.8156001569999933   F   F   F
  5.9176950450000287 12.5533272030000536 10.8156001569999933   F   F   F
  5.9176950450000287  6.9740706679999214 10.8156001569999933   F   F   F
  5.9176950450000287  1.3948141340000613 10.8156001569999933   F   F   F
 17.7530837259999217 18.1325837370000720 10.8156001569999933   F   F   F
 17.7530837259999217 12.5533272030000536 10.8156001569999933   F   F   F
 17.7530837259999217  6.9740706679999214 10.8156001569999933   F   F   F
 17.7530837259999217  1.3948141340000613 10.8156001569999933   F   F   F
  9.8628241350000643 18.1325837370000720 10.8156001569999933   F   F   F
  9.8628241350000643 12.5533272030000536 10.8156001569999933   F   F   F
  9.8628241350000643  6.9740706679999214 10.8156001569999933   F   F   F
  9.8628241350000643  1.3948141340000613 10.8156001569999933   F   F   F
  1.9725650740000149 18.1325837370000720 10.8156001569999933   F   F   F
  9.8628241350000643  4.1844424010000720 10.8156001569999933   F   F   F
  1.9725650740000149 20.9222120050000342 10.8156001569999933   F   F   F
  1.9725650740000149 15.3429554700000619 10.8156001569999933   F   F   F
  1.9725650740000149  9.7636982699999884 10.8156001569999933   F   F   F
 19.7256482699999580 11.1585130689999925 12.2103998060000407   F   F   F
 19.7256482699999580 16.7377696039999648 12.2103998060000407   F   F   F
  1.9802777345089859  1.3809805584733343 13.6242779297135410   T   T   T
  1.9760947448981403  6.9701131276267798 13.6138177811677856   T   T   T
  1.9873598624854578 12.5541571892375270 13.6165347144727669   T   T   T
  1.9773242204099468 18.1229872055726347 13.6259152880572181   T   T   T
  9.8700954085095471  1.3764052102346012 13.6545939697697278   T   T   T
  9.8377643196694926  6.9516521576320400 13.7159756349963597   T   T   T
  9.8458325810704288 12.4840639678190222 13.7355528988005364   T   T   T
  9.8633530949291046 18.0715683892061314 13.6546323737040858   T   T   T
 17.7441204347857635  1.4319399615117134 13.5989434162350928   T   T   T
 17.6911158772077535  7.0087770362961646 13.6374159505098049   T   T   T
 17.7092268507661643 12.5917741805109884 13.6106490033615177   T   T   T
 17.7421465337943403 18.1483853506994244 13.5911730710762715   T   T   T
  5.9230699677295098  1.3824520779546954 13.6241456614325518   T   T   T
 21.6710886280308550  6.9692979252643941 16.3998115760451846   T   T   T
  5.9704183896168725  7.0146324578845327 13.6220148431978494   T   T   T
  5.9635482001230047 12.5989599127231084 13.6148571311467013   T   T   T
  5.9223791318353438 18.0856289059066597 13.6662257434378862   T   T   T
 19.7256482699999580  5.5792565349999723 12.2103998060000407   F   F   F
 13.8302786628923045  7.0190205243156427 13.6245561412369049   T   T   T
 19.7256482699999580  0.0000000000000000 12.2103998060000407   F   F   F
 11.8353900909999528 11.1585130689999925 12.2103998060000407   F   F   F
  1.9725650740000149  4.1844424010000720 10.8156001569999933   F   F   F
  0.0000000000000000  0.0000000000000000 12.2103998060000407   F   F   F
  0.0000000000000000  5.5792565349999723 12.2103998060000407   F   F   F
  0.0000000000000000 11.1585130689999925 12.2103998060000407   F   F   F
  0.0000000000000000 16.7377696039999648 12.2103998060000407   F   F   F
  7.8902602960000570  0.0000000000000000 12.2103998060000407   F   F   F
  7.8902602960000570  5.5792565349999723 12.2103998060000407   F   F   F
  7.8902602960000570 11.1585130689999925 12.2103998060000407   F   F   F
  7.8902602960000570 16.7377696039999648 12.2103998060000407   F   F   F
 15.7805205919999434  0.0000000000000000 12.2103998060000407   F   F   F
 15.7805205919999434  5.5792565349999723 12.2103998060000407   F   F   F
 15.7805205919999434 11.1585130689999925 12.2103998060000407   F   F   F
 15.7805205919999434 16.7377696039999648 12.2103998060000407   F   F   F
  3.9451301480000271  0.0000000000000000 12.2103998060000407   F   F   F
  3.9451301480000271  5.5792565349999723 12.2103998060000407   F   F   F
  3.9451301480000271 11.1585130689999925 12.2103998060000407   F   F   F
  3.9451301480000271 16.7377696039999648 12.2103998060000407   F   F   F
 11.8353900909999528  0.0000000000000000 12.2103998060000407   F   F   F
 11.8353900909999528  5.5792565349999723 12.2103998060000407   F   F   F
 11.8353900909999528 16.7377696039999648 12.2103998060000407   F   F   F
  3.9538731692616920  2.7741086042798422 14.9792975276245919   T   T   T
 21.7235985218171557  1.4109345633168959 16.4228315304873469   T   T   T
  3.9716474584461614 19.4888732819588490 14.9969975446176864   T   T   T
  5.9633846877382863  4.1944836624418214 16.4186956628962015   T   T   T
 17.7304745889696953 20.8487111649382086 16.4263243471875171   T   T   T
 17.7966154984468830 15.1856076383830843 16.5921007951806985   T   T   T
 17.8269045382121831  9.6968331711061406 16.4814663019861030   T   T   T
 10.0182523741028540  9.8978683323944985 16.3745890370856522   T   T   T
 10.0102879786218377 15.3491525137552607 16.4017629822804309   T   T   T
 17.7169955448954326  4.0975510157563670 16.5208228020315708   T   T   T
  9.8414083634260727 20.9003264586476263 16.3853504101344534   T   T   T
  1.9783156514144884 20.9548746892793432 16.3695961809665604   T   T   T
  9.8357704185404931  4.2624142314159972 16.3957333443990336   T   T   T
  2.0490136820322711 15.3894355259224120 16.3558405282811741   T   T   T
  1.9697789120876246  9.7826159769290140 16.3631221250687169   T   T   T
  1.9818276568257516  4.2136960717027874 16.3706560785835649   T   T   T
 11.8214404962624080  2.8005863136119760 14.9877358276505337   T   T   T
 23.6624953819287072 11.1154845914243356 17.8303247366174489   T   T   T
 23.6532467691856958 16.8326327635201700 17.7594727133622747   T   T   T
  7.9220614706931762  5.6715117941218676 17.7790896612832299   T   T   T
  7.9065003365298328 -0.0032967814453466 17.7604132186105517   T   T   T
 -0.0082807655459362 22.2740942338088068 17.7844091130934885   T   T   T
  0.0263693787914213  5.5760903469636069 17.7578456508258427   T   T   T
  7.8988990291042800 11.0899591553876231 17.7291984474666009   T   T   T
  7.9363200933820046 16.5003372232710070 17.7501893746025701   T   T   T
 15.7053259290768565  5.5148189322047036 17.7236532376865199   T   T   T
 15.7607797670180236  0.0099838278282867 17.7562944085161725   T   T   T
 15.7620695071218133 16.5618216489792260 17.6996020428712768   T   T   T
 15.7919633743030570 11.0039678220042774 17.7298964127059335   T   T   T
  3.9626450300754703 22.2792675046303152 17.7676761832235854   T   T   T
  3.9897152709430079  5.5605538238963534 17.7915455456886313   T   T   T
  4.0393581278451975 16.7350895920021863 17.8499008998812876   T   T   T
  5.8733271979450494  9.7303170914762198 16.4797931734063603   T   T   T
  3.9161422531329930 11.2390431886040947 17.6460449600685649   T   T   T
  5.8941760502165446 15.2477064094921797 16.5611315879768348   T   T   T
 13.7448357430445114  4.1506266154921310 16.4754704197247364   T   T   T
 21.6445543450560152 18.1460941659881847 16.4080936955227834   T   T   T
 21.6976235318733899 12.5641982854735463 16.3882683019368720   T   T   T
 13.7646366985395279 12.5038042992154850 16.4862605221313459   T   T   T
 13.8748120547567577 18.1800047402323912 16.5106792907295912   T   T   T
 13.8061104295663206  6.9558873677561035 16.3733314370010667   T   T   T
 13.7922554282850900  1.4105326130515043 16.4072660551789475   T   T   T
  6.0097721380587306 18.1358433757480135 16.5414187226120930   T   T   T
  5.9738308258721826 12.4749064795490217 16.3216669225508895   T   T   T
  5.9076031207781057  7.0019246419002075 16.3789364643440507   T   T   T
  5.9419167778972684  1.3931584528046470 16.4159895883261981   T   T   T
 17.7215193543437373 18.0394158334754309 16.3701624190593122   T   T   T
 17.6696036660179594 12.4466677064931037 16.3372192406945409   T   T   T
  9.7859887262121745 18.1071332122072306 16.4443419532557904   T   T   T
 17.7124656626838437  1.3306969299959910 16.3344857087518704   T   T   T
 17.7079848222363445  6.9447704370307006 16.4370917930697154   T   T   T
  9.8447880700875263  7.1190398915162971 16.5677969889039396   T   T   T
  9.9630186293716978 12.6027141598625221 16.6626685710249731   T   T   T
  9.8616632853005886  1.4446159565708434 16.4106027031828710   T   T   T
  2.0130281887946948 18.1392962467323642 16.4214028971016432   T   T   T
  1.9553023101802409 12.5825955968456338 16.3943446418976251   T   T   T
  2.0427605259833181  6.9912236676588586 16.4058978620060500   T   T   T
  1.9473531786922809  1.4116677330699590 16.4255311510406692   T   T   T
 21.6764276685679391 20.9515565298307571 16.3797050824890071   T   T   T
 21.6129768206180159 15.3827173578898062 16.3498678327532971   T   T   T
 13.8161389604357083 20.9356622683452471 16.3727129772259339   T   T   T
 21.7081903055904064  4.2107499347040811 16.3655056772780014   T   T   T
 21.6656385326569207  9.7546735307734753 16.3788399809624252   T   T   T
 13.6507809311382786  9.7323539569510569 16.5470850469085704   T   T   T
 13.7173648113195039 15.3209058881524278 16.4083671214996620   T   T   T
  5.9592822689497567 20.9191765854614928 16.3516016452551192   T   T   T
 11.7978252312727570 11.2460932973676506 18.2680823692494414   T   T   T
 11.8012454194319485  5.6433380690837742 17.7098938661750971   T   T   T
 11.8270787252659595 -0.0009801032105870 17.7300561785985131   T   T   T
 17.8343111708249324 15.4757708827661631 19.7253420971635975   T   T   T
 17.7204484494618697 20.9045348072856427 19.1943692415546181   T   T   T
  5.9978214017310956  4.1613220796082979 19.2343868861668206   T   T   T
 17.6513612217552343  4.3337513194257324 19.4020197914770911   T   T   T
 17.8926590197475939  9.7312764078150185 19.1721077340383204   T   T   T
  9.8776941156468467 20.8675649803702790 19.1925770159870730   T   T   T
  9.9862902035637227 15.0807386429318520 19.0087963909058359   T   T   T
 13.9645687173273920 18.0893646763729095 19.3690270664397950   T   T   T
 21.6873921542040371  1.3907571533810397 19.2404825635345169   T   T   T
 21.6301426331218707 12.5304890842098917 19.2784949268425194   T   T   T
 21.6676184113221701  6.9628581445818734 19.1845169262640063   T   T   T
 21.6410508957517465 18.1319152092669142 19.2570080117871427   T   T   T
 13.7806748214087289  1.4621052972591304 19.1953106241000917   T   T   T
 13.8031474901092484  7.1254564062021783 19.0286452182878776   T   T   T
 14.0312625974646163 12.5915381240838471 19.1919181894602922   T   T   T
  5.8669799900060884 12.8084309901268441 18.8733557398017631   T   T   T
  6.1797381166341667 17.8111763340964835 19.4209014970860423   T   T   T
  5.9092704606311912  7.0616463649374142 19.2429915959655098   T   T   T
  5.9371605890387880  1.3267241775001017 19.2598876130084591   T   T   T
 21.6982156369999721 12.5533272030000536 10.8156001569999933   F   F   F
 11.8244437749078308  8.3361442861267392 15.0119406779642457   T   T   T
 11.8341973960244911 19.4752691423997248 15.0296083806214966   T   T   T
 11.8450922803103040 13.8594354850165242 14.9999673380294709   T   T   T
 19.6998860376680653 13.9045691937441465 14.9979185450282522   T   T   T
 19.7099578858206144 19.5312048939028280 14.9485076893039253   T   T   T
 19.7105027939340651  8.3226534043241447 14.9801575101775768   T   T   T
 19.7153225321210179  2.7781511728101722 14.9919529771329572   T   T   T
  3.9471649527491035  8.3910498996858465 14.9321027736684702   T   T   T
  3.9701927373753660 13.9314708947309747 15.0007758026501943   T   T   T
 13.7759854507376556  9.7770612637021959 19.3743974735061215   T   T   T
 13.7354165214378430 15.2845848840767182 19.1446975850996033   T   T   T
 21.7100824887732387  4.1631859026427431 19.2174521352088803   T   T   T
 13.7767234411933863 20.8776688505110251 19.1777110234528045   T   T   T
 19.6551929951715536 16.7453357719974747 17.8021033211369648   T   T   T
 19.6878300856826485  5.5310729171346225 17.7445082876855160   T   T   T
 19.7251803059549857 11.2423150990313747 17.6854089662455074   T   T   T
 19.6989427496313034  0.0447918842948249 17.7664293066963310   T   T   T
 11.8560407426193439 16.8797697400740532 17.7823820924606473   T   T   T
  9.8884094218962844  1.4569824677441037 19.1965858578419208   T   T   T
 10.0962537277932221  6.8058156917135468 19.6561201291008310   T   T   T
  9.7493815054597910 18.1312292514958351 19.1927854005496030   T   T   T
  9.4621928769356156 12.3020468416333806 19.5617073006722180   T   T   T
 17.8026793971803841 12.7450056851527957 19.0285411601826198   T   T   T
 17.5388415335199319 18.0763879740882487 19.2021351075587425   T   T   T
 17.6761933318637752  6.9772109120362673 19.2022806390891887   T   T   T
 17.6977750612402431  1.4937946757797744 19.1722603012449859   T   T   T
  1.9896797746177119  6.9604976812432211 19.2121458917492269   T   T   T
 15.7780655760299009 19.5139228256509121 14.9661024678432621   T   T   T
  2.0377818341567253 12.5358505290947804 19.2743881208936614   T   T   T
  1.9763041843799924  1.3484658120900765 19.2435321124308452   T   T   T
  2.0616617414856617  9.7424053257061534 19.1901219527350904   T   T   T
  1.9800957822512004  4.1428724232163248 19.2291190432102503   T   T   T
  9.9064946119807988  4.1934345941364306 19.1958323474632913   T   T   T
  9.8278125435824464  9.3487041613568778 18.8988023002130525   T   T   T
  1.9976149919494832 20.8701888467334022 19.2267806627079736   T   T   T
  1.9520003044448533 15.3384788267490553 19.1983109742809930   T   T   T
 21.5999473253933090  9.7329032485947664 19.1913947875106388   T   T   T
 21.6989496269119826 15.3402623198330339 19.1970002935313389   T   T   T
 21.6325055490849145 20.9021279694550159 19.2254273308597803   T   T   T
  5.7054435244746999  9.8687646280164945 19.2486006709887718   T   T   T
  5.8868968618641659 15.1023509099304363 19.9633851875737953   T   T   T
 13.6974950361855434  4.2474514543746436 19.3267255882902589   T   T   T
  5.9658934370648389 20.7555605000664478 19.1205110513611061   T   T   T
  1.9836185719268884 18.1106815443027500 19.2626714660473333   T   T   T
 21.6982156369999721 18.1325837370000720 10.8156001569999933   F   F   F
  0.0156218791340084  2.7408301389680272 18.5669291511486740   T   T   T
 19.7256482699999580 13.9481413360000008 12.2103998060000407   F   F   F
 23.6614697349532364 11.1663164845457263 15.2152434758446127   T   T   T
  7.8393697888471747 11.1419674030630009 15.0306689173633572   T   T   T
  7.8153884219794172  5.5345536810271163 15.0845454722368864   T   T   T
  7.8846203861531681  0.0205960690028746 15.1697965696863601   T   T   T
  7.9002275002870759 16.7539421338117123 15.0519275656807690   T   T   T
 15.7614720950833451  0.0035596555085462 15.1673235281581178   T   T   T
 15.8265688797318766 11.1504716060323066 15.0235107389021412   T   T   T
 15.7909966308367409  5.5287948799616613 15.0921553543140394   T   T   T
 15.7548107393846486 16.7809165298890512 15.0625566593433664   T   T   T
  3.9284751892056127  0.0231221083317656 15.1951574125911097   T   T   T
  3.9393431159908077  5.5410467430230339 15.1858363228984139   T   T   T
  3.8676748771050322 11.1562587238138402 15.0697555460797830   T   T   T
 11.8393104286447013 22.2964860822157682 15.1648198962525189   T   T   T
  3.8865212736854269 16.7646689555131623 15.1048624343430866   T   T   T
 11.8562745703400001 16.7963188710534190 15.1173943662051187   T   T   T
 19.7462803095298121  0.0089087913362466 15.1921797806571810   T   T   T
 11.8651571547921773 11.1520883830848536 15.0114699529062019   T   T   T
 11.8620130027605910  5.5315892953586578 15.0612518294278637   T   T   T
 19.7747196263649982  5.5413000567531938 15.0985243871039359   T   T   T
 23.6589103926601751 16.7507356794220321 15.1971227755821019   T   T   T
  0.0211247171145987  5.5743464964482552 15.1772422192328449   T   T   T
  0.0010369476871174 22.3146399497403927 15.1944064369963137   T   T   T
 19.7256482699999580 19.5273965409999306 12.2103998060000407   F   F   F
  0.0000000000000000 13.9481413360000008 12.2103998060000407   F   F   F
  0.0000000000000000 19.5273965409999306 12.2103998060000407   F   F   F
  7.8902602960000570  2.7896282670000101 12.2103998060000407   F   F   F
  7.8902602960000570  8.3688848019999824 12.2103998060000407   F   F   F
  7.8902602960000570 13.9481413360000008 12.2103998060000407   F   F   F
  7.8902602960000570 19.5273965409999306 12.2103998060000407   F   F   F
 15.7805205919999434  2.7896282670000101 12.2103998060000407   F   F   F
 15.7805205919999434  8.3688848019999824 12.2103998060000407   F   F   F
 15.7805205919999434 13.9481413360000008 12.2103998060000407   F   F   F
 19.7892402279994926 11.1547182505853559 15.0929196023321133   T   T   T
 15.7805205919999434 19.5273965409999306 12.2103998060000407   F   F   F
  3.9451301480000271  8.3688848019999824 12.2103998060000407   F   F   F
  3.9451301480000271 13.9481413360000008 12.2103998060000407   F   F   F
  3.9451301480000271 19.5273965409999306 12.2103998060000407   F   F   F
 11.8353900909999528  2.7896282670000101 12.2103998060000407   F   F   F
 11.8353900909999528  8.3688848019999824 12.2103998060000407   F   F   F
 11.8353900909999528 13.9481413360000008 12.2103998060000407   F   F   F
 11.8353900909999528 19.5273965409999306 12.2103998060000407   F   F   F
 19.7256482699999580  2.7896282670000101 12.2103998060000407   F   F   F
 19.7256482699999580  8.3688848019999824 12.2103998060000407   F   F   F
  3.9451301480000271  2.7896282670000101 12.2103998060000407   F   F   F
  0.0000000000000000  8.3688848019999824 12.2103998060000407   F   F   F
 19.7826827280101085 16.7726681441203844 15.0772597617399366   T   T   T
 19.8140919973963747  8.3150088134738631 18.1290319795427166   T   T   T
 19.6937770964314041 19.5341557132781247 18.5527342651277642   T   T   T
 19.9059979186557143 13.9809907928641799 18.0891126975008909   T   T   T
 23.6460355564600633 19.5229828942658621 18.6701873346174203   T   T   T
  7.8463747927894536  2.6747595195344438 18.3981134785011626   T   T   T
  7.9225774752710461 13.9165633097979509 17.8616384197602862   T   T   T
  7.7172227621291523  8.3418241345838862 17.7871203997754677   T   T   T
 15.8849701116317981  8.2989622100555795 17.8301537300458115   T   T   T
 15.7514652749327322  2.7770701571523726 18.3521585698937315   T   T   T
  7.9202781824131572 19.6134480590938836 18.0858245214109523   T   T   T
  3.7482765112141294 13.9963096383452648 18.0722864759622901   T   T   T
  3.9388937157726973 19.4627549693700708 18.5873010215185523   T   T   T
 11.8788125255206314  8.2815975332894425 17.8488912202698131   T   T   T
 11.8425087398434101  2.7202710886458075 18.1797018538561517   T   T   T
  3.9652250944752656  2.7348771708774984 18.6391377622625640   T   T   T
  3.8716142016921831  8.2955537932533314 18.2333055458106372   T   T   T
 15.7462900857154668 19.6603050212604415 18.2072365768690894   T   T   T
 15.7729150151769115 13.9857810321790446 17.8057295422454054   T   T   T
  0.0050598905511631  8.3675100851617490 18.6759203414340256   T   T   T
 23.6613719048431719 13.8952066110701917 19.4092182960285626   T   T   T
 19.7351262707500332  2.7831164692210679 18.5780097197565155   T   T   T
 11.8439370570125764 19.5645766083736348 18.2962604286994974   T   T   T
  0.0000000000000000  2.7896282670000101 12.2103998060000407   F   F   F
 11.9310004377216572 13.9427382062440017 17.8180197645314244   T   T   T
 21.6876712258844968 22.3117021628293521 18.1104724559084147   T   T   T
 13.8347967267025691 16.7436030476625994 17.9802261819238183   T   T   T
 13.9869512749115543 11.1733723001251288 17.8130493502195719   T   T   T
  5.7337292081085796 11.1237580836618513 17.8192838638333733   T   T   T
  5.9046390545400413 16.7924129633071253 17.7653227630925201   T   T   T
 13.8320175718904768  5.5161179400325580 17.9166111054374646   T   T   T
 13.7892470158469553  0.0209335497233315 18.1282574499290590   T   T   T
  5.9043409622209770 22.2597673412192592 18.1238553745664390   T   T   T
  5.9001012166722138  5.4888048324753926 18.1114826215185971   T   T   T
  9.8723193772983091  0.0020656705038920 18.1386724325877466   T   T   T
  9.8183608750195184  5.5461645199760277 17.7305261309736366   T   T   T
  9.8509773118514232 16.7344525830799782 17.8404721910901607   T   T   T
 17.9068674959991370 11.2175727716669833 17.8719989036963050   T   T   T
 17.7948782076625776 16.7948672731607651 17.7178372102471897   T   T   T
 17.8497759656784751  5.5335193654308981 17.8316447852422293   T   T   T
 17.7444784242741349  0.0377760582167024 18.1242035201496350   T   T   T
  1.9846374623184269  5.5367645390245945 18.1104211821006480   T   T   T
  1.9190732598124955 11.1685147048380156 18.1108716030296826   T   T   T
  1.8929173181907526 16.7548031447631018 18.0921372364598625   T   T   T
  1.9705350762261418 22.2730841978704461 18.1044317951023537   T   T   T