Au C  H  O  Sr Ti                       
   1.00000000000000     
    23.6707801818999997    0.0000000000000000    0.0000000000000000
     0.0000000000000000   27.8962826732999716    0.0000000000000000
     0.0000000000000000    0.0000000000000000   30.0000000000000000
   Au   C    H    O    Sr   Ti
    50     6    13   330    90    90
Selective dynamics
Direct
  0.7118593425313335  0.6256453921249232  0.7549744426354152   F   F   F
  0.2943123136268753  0.7975827574047116  0.6964674306468339   F   F   F
  0.5077297300776493  0.6854400468574795  0.7785437121014738   F   F   F
  0.5775735559742898  0.7788210667364339  0.7943919464536364   F   F   F
  0.2404263521077610  0.5752169076328570  0.7092433824139874   F   F   F
  0.2857951448894056  0.7298194840278356  0.7642546065061637   F   F   F
  0.5137742437361936  0.5881326753264489  0.6783182913135519   F   F   F
  0.5669234045510336  0.6117404467768637  0.8587074297393400   F   F   F
  0.4857258850188231  0.4166456656010240  0.7744322543474169   F   F   F
  0.6190483787232779  0.4564190115671991  0.6977546102296301   F   F   F
  0.4608385346310513  0.7585102297058413  0.8329889713359648   F   F   F
  0.5525352128821766  0.5086610068042745  0.8272791210076065   F   F   F
  0.5620516232369326  0.5919498569031774  0.7633401462714815   F   F   F
  0.5540328675340476  0.3711944953825110  0.7095873103750563   F   F   F
  0.7374038780003289  0.3975296640410377  0.6940655568641816   T   T   T
  0.7608389586858877  0.5515742834615622  0.7045767341104963   F   F   F
  0.4858289365593578  0.8206707001103268  0.7554060990675495   F   F   F
  0.6201635243891417  0.6582179945510731  0.7037475084908138   F   F   F
  0.6293226302937356  0.6726577887453047  0.8012755492683965   F   F   F
  0.4303395218485022  0.4967231046829426  0.8152852349483268   F   F   F
  0.3491168739731023  0.5999936407379067  0.6979800029401417   F   F   F
  0.3700029012950665  0.4390855871702826  0.7558790975960079   F   F   F
  0.7323955692054511  0.6934013894654640  0.6932397426585339   F   F   F
  0.4369276585467716  0.3812787693188113  0.6982776327973710   F   F   F
  0.5201730330378780  0.5032817600572272  0.7333156984528415   F   F   F
  0.6016850743856352  0.4271985663396762  0.7846304481176531   F   F   F
  0.2571567693325463  0.6744017186267470  0.6945834363518415   F   F   F
  0.6640034334499418  0.3464840500684474  0.7416467839721577   T   T   T
  0.4715793132752779  0.5597739525487242  0.8775699874654279   F   F   F
  0.2823301579582633  0.4712633299825981  0.7023933197621446   F   F   F
  0.6697318805557018  0.7462890471361590  0.7485320064418346   F   F   F
  0.3921393204806094  0.8544625365336174  0.7065730327258990   F   F   F
  0.4512252272292514  0.6641313995651217  0.7037479877567137   F   F   F
  0.3750023023099516  0.5939242027676030  0.8332692040949894   F   F   F
  0.2892402904494134  0.6301703734432351  0.7778192518948899   F   F   F
  0.3677971185539235  0.6951797359544400  0.8202778517959999   F   F   F
  0.5964630699979239  0.8273529442456891  0.7134251837162893   F   F   F
  0.7748591151377795  0.5535190223868582  0.7947330727862152   F   F   F
  0.3978799031119777  0.5057849478881238  0.6907693412275435   F   F   F
  0.6456546276812460  0.5569283176896391  0.6955840299622196   F   F   F
  0.6943088152959191  0.4867846915822653  0.7640425975535265   T   T   T
  0.3253051736078092  0.5316981844198807  0.7693456571878983   F   F   F
  0.7070539614252525  0.8059496914613078  0.6877863188977926   F   F   F
  0.6557941737687827  0.5628086569852613  0.8173394745760518   F   F   F
  0.4600099273672811  0.6589419203233504  0.8655606978680410   F   F   F
  0.4152727578535220  0.7570468158037116  0.6998545702847636   F   F   F
  0.3737104929346131  0.7931954723880992  0.7791333930426916   F   F   F
  0.4436166242547515  0.5786450618693308  0.7566846215052436   F   F   F
  0.5389815904746982  0.7350766955991404  0.7024482032116879   F   F   F
  0.5602298234544989  0.7145912201107052  0.8649582314729258   F   F   F
  0.7560248231104296  0.4339549548371266  0.7504668605885385   T   T   T
  0.6515668163270192  0.2502496046533480  0.8052787407051483   T   T   T
  0.5803977660243689  0.2143385127597384  0.8590908937518122   T   T   T
  0.6130032598450441  0.2077361735247365  0.8155309409229048   T   T   T
  0.6841000082874942  0.2456519158316723  0.7612724407087654   T   T   T
  0.7206046152584946  0.2884947091563816  0.7503921143444785   T   T   T
  0.7482181508184738  0.2998901702959387  0.7775849477548462   T   T   T
  0.7131884038284326  0.2147584359695145  0.7630977823684830   T   T   T
  0.6091199696058425  0.2179459736032925  0.8874707808102329   T   T   T
  0.6255287133002270  0.2829748467627340  0.8043437170278338   T   T   T
  0.6555212045537004  0.2374690412072837  0.7335330390839943   T   T   T
  0.5832922661200612  0.2028323615112413  0.7878787287154552   T   T   T
  0.6383640982844483  0.1748958696357690  0.8171706858917958   T   T   T
  0.5541426032633865  0.2466288967689181  0.8578987499258872   T   T   T
  0.6817201388892187  0.2554688210486020  0.8326704909123421   T   T   T
  0.7433385140537609  0.2852815523910763  0.7189700700053123   T   T   T
  0.5526156385161158  0.1838617231010602  0.8655933309362425   T   T   T
  0.7550433271686998  0.4120355409297360  0.7806548976749994   T   T   T
  0.7957840874513809  0.4534741733318982  0.7465965492948025   T   T   T
  0.4164584696991582  0.4551679563342148  0.5526462802290126   F   F   F
  0.9166666865332829  0.4500000000005357  0.3605200052333331   F   F   F
  0.5000000000021103  0.6000000000007191  0.4070133268666680   F   F   F
  0.7493044166311336  0.4517411808989777  0.5503266184899189   F   F   F
  0.6666666865533486  0.4000000000243773  0.4070133268666680   F   F   F
  0.2516140265145381  0.7500939822702435  0.4561014658926794   F   F   F
  0.3333333432766779  0.8000000000129006  0.4070133268666680   F   F   F
  0.3337821221657151  0.3009933442376536  0.4988483452126076   F   F   F
  0.9998040753286332  0.7019939169895224  0.4972562026200649   F   F   F
  0.9160921514381926  0.6497822650743217  0.4542367405260777   F   F   F
  0.5833333134730552  0.9500000000130839  0.3605200052333331   F   F   F
  0.9163651959303465  0.9496190127183013  0.4537375356705482   F   F   F
  0.7499999404149307  0.4500000000005357  0.3605200052333331   F   F   F
  0.4166666269218169  0.8499999999890662  0.3605200052333331   F   F   F
  0.4166666269218169  0.4500000000005357  0.3605200052333331   F   F   F
  0.4166666269218169  0.6500000000127244  0.3605200052333331   F   F   F
  0.5000000000021103  0.8000000000129006  0.4070133268666680   F   F   F
  0.0833333358191695  0.3500000000123720  0.3605200052333331   F   F   F
  0.5000000000021103  0.4000000000243773  0.4070133268666680   F   F   F
  0.7499999404149307  0.6500000000127244  0.3605200052333331   F   F   F
  0.0000000000000000  0.2000000000121887  0.4070133268666680   F   F   F
  0.5833333134730552  0.8499999999890662  0.3605200052333331   F   F   F
  0.7499999404149307  0.1500000000001833  0.3605200052333331   F   F   F
  0.2519184523376552  0.4517750799707585  0.4538440420486580   F   F   F
  0.2499999999799343  0.1500000000001833  0.3605200052333331   F   F   F
  0.9166666865332829  0.1500000000001833  0.3605200052333331   F   F   F
  0.5835096568512768  0.0495492301671874  0.4542515035591776   F   F   F
  0.2501350655880543  0.0491033978854318  0.4542315214508577   F   F   F
  0.7499265721494126  0.0499696449254472  0.4536660431940263   F   F   F
  0.4163447185965694  0.0491351455265985  0.4543912964381605   F   F   F
  0.0832791871047007  0.0497585800169844  0.4538955775487210   F   F   F
  0.8333332538436267  0.0000000000000000  0.4070133268666680   F   F   F
  0.4999481149531064  0.1000740213788021  0.4989764329108723   F   F   F
  0.9995366203199438  0.5990662906034103  0.5941837116589426   F   F   F
  0.0836327686989620  0.1505931956763149  0.5462816941886643   F   F   F
  0.7499999404149307  0.2500000000242011  0.3605200052333331   F   F   F
  0.2499999999799343  0.2500000000242011  0.3605200052333331   F   F   F
  0.1666666716383389  0.2000000000121887  0.4070133268666680   F   F   F
  0.5833333134730552  0.6500000000127244  0.3605200052333331   F   F   F
  0.5832745421862100  0.0503797868682483  0.6418711636836676   F   F   F
  0.7472982321449422  0.8467934718487697  0.5457944038455338   F   F   F
  0.6666666865533486  0.8000000000129006  0.4070133268666680   F   F   F
  0.7499327194304897  0.8499363156611182  0.4536749863076039   F   F   F
  0.9166666865332829  0.2500000000242011  0.3605200052333331   F   F   F
  0.0833333358191695  0.6500000000127244  0.3605200052333331   F   F   F
  0.6661766217110241  0.3015381846763958  0.4996403454453144   F   F   F
  0.5833333134730552  0.4500000000005357  0.3605200052333331   F   F   F
  0.0000000000000000  0.0000000000000000  0.4070133268666680   F   F   F
  0.4166666269218169  0.2500000000242011  0.3605200052333331   F   F   F
  0.7489994573061551  0.5502864296867997  0.4556127549630560   F   F   F
  0.0837488408842617  0.0497651299206225  0.5465128910849586   F   F   F
  0.5828691683288412  0.1498356041571824  0.5476186734057791   F   F   F
  0.2501869957626397  0.1503845357657170  0.5464344002632444   F   F   F
  0.7499498378427703  0.1499601490254605  0.5467752725687376   F   F   F
  0.5829276596457476  0.8475294046708299  0.4557586960827038   F   F   F
  0.2524225098155668  0.6470885938697464  0.5440413876284680   F   F   F
  0.4994649529055479  0.4027882545785815  0.5914259743751558   F   F   F
  0.2499999999799343  0.6500000000127244  0.3605200052333331   F   F   F
  0.9163746834586703  0.1506436637132325  0.5463013720966501   F   F   F
  0.2503124515570718  0.2502633299610935  0.4544928337468974   F   F   F
  0.5828624540635587  0.3530626621413333  0.4561509835845641   F   F   F
  0.2519617934220264  0.6518903915484131  0.4537635346990641   F   F   F
  0.1666666716383389  0.4000000000243773  0.4070133268666680   F   F   F
  0.5844130593349419  0.4525032618408673  0.4538493843111766   F   F   F
  0.3333333432766779  0.4000000000243773  0.4070133268666680   F   F   F
  0.0833333358191695  0.4500000000005357  0.3605200052333331   F   F   F
  0.8333332538436267  0.4000000000243773  0.4070133268666680   F   F   F
  0.4172412729993553  0.2505666127814692  0.4550017232097403   F   F   F
  0.5000000000021103  0.2000000000121887  0.4070133268666680   F   F   F
  0.6666666865533486  0.6000000000007191  0.4070133268666680   F   F   F
  0.0840039914126081  0.6498971020531599  0.4542358352674114   F   F   F
  0.0838036202714463  0.8495954571905386  0.4541703559915149   F   F   F
  0.0835218073134101  0.4496017665517726  0.4541253648000989   F   F   F
  0.7499999404149307  0.8499999999890662  0.3605200052333331   F   F   F
  0.9151395732450709  0.4499434814114025  0.5467315129475239   F   F   F
  0.4169043286903005  0.3504698539502726  0.4542282575544689   F   F   F
  0.4166115811731288  0.1510176881478245  0.5464050803036855   F   F   F
  0.8333332538436267  0.2000000000121887  0.4070133268666680   F   F   F
  0.9999430450831071  0.4992405979020447  0.4983620255360748   F   F   F
  0.2505197232679990  0.8483668097181010  0.4554832908368880   F   F   F
  0.4158813050160859  0.6470170467064023  0.4582133227851912   F   F   F
  0.0833333358191695  0.9500000000130839  0.3605200052333331   F   F   F
  0.0841069815233411  0.2498182099135278  0.4543028017267332   F   F   F
  0.4166194558980081  0.1502983613593969  0.4538597498875916   F   F   F
  0.0833918152610238  0.1500002840128758  0.4537733596576032   F   F   F
  0.9166497862312823  0.0497634574943220  0.4538882607436605   F   F   F
  0.4166666269218169  0.1500000000001833  0.3605200052333331   F   F   F
  0.0833333358191695  0.1500000000001833  0.3605200052333331   F   F   F
  0.0833333358191695  0.7500000000008953  0.3605200052333331   F   F   F
  0.7497162860323385  0.0500777119805136  0.6409430464804728   F   F   F
  0.4144515031713070  0.8487220423364690  0.5479667298829298   F   F   F
  0.2515546594754099  0.2509965007420405  0.5477766018084580   F   F   F
  0.4174236709705355  0.0494046497221490  0.6426971162402424   F   F   F
  0.9159713829006506  0.0499949776119522  0.6402979795530612   F   F   F
  0.0837069848890408  0.0497510831603378  0.6403487976329316   F   F   F
  0.0833286236367243  0.1486526340252468  0.6404338080220313   F   F   F
  0.6664623156942895  0.1001117643261651  0.4990446498506316   F   F   F
  0.1667857028217128  0.0998889324766381  0.4987712895552932   F   F   F
  0.8333332538436267  0.6000000000007191  0.4070133268666680   F   F   F
  0.0833333358191695  0.8499999999890662  0.3605200052333331   F   F   F
  0.9163504576070238  0.0498847910392968  0.5465086360377853   F   F   F
  0.7499373904889097  0.1502654933596617  0.4538997543835066   F   F   F
  0.4997157514416202  0.0002006356523978  0.5916121104814209   F   F   F
  0.1666666716383389  0.8000000000129006  0.4070133268666680   F   F   F
  0.5820256253240501  0.3478650213998762  0.5508913319725295   F   F   F
  0.0001015970796701  0.8019839153975639  0.5926458551546148   F   F   F
  0.3339037562535125  0.2000899080478646  0.5921210630246421   F   F   F
  0.9998019621116114  0.2000190107294131  0.5923734851434403   F   F   F
  0.0006637806559766  0.3983954634573124  0.5923966617726109   F   F   F
  0.0841723598003270  0.9502875230729870  0.5461406539666527   F   F   F
  0.4197720635709032  0.6517720118961847  0.5557586686056766   F   F   F
  0.0839119064397238  0.3481468233477756  0.6421382486277736   F   F   F
  0.9177887162367639  0.6509956356031168  0.5470254417200451   F   F   F
  0.2530906846143068  0.8499144793940232  0.5506564903391507   F   F   F
  0.5855818923471787  0.8518248751789699  0.5508584700653572   F   F   F
  0.6660253901928428  0.0001969775455848  0.5919031778352988   F   F   F
  0.3340548265465912  0.9999317800044025  0.5919080506014396   F   F   F
  0.0000055879963270  0.9991464012730660  0.5920670455070152   F   F   F
  0.8325395445155763  0.9985550994634380  0.5920272826733068   F   F   F
  0.1674245975050681  0.9984783609336603  0.5921504420850070   F   F   F
  0.3335031770390984  0.0999733282129611  0.4989664420625317   F   F   F
  0.9161467277007205  0.2498237947096484  0.4541719511329276   F   F   F
  0.0000321569954380  0.1000455377997511  0.4991359521328533   F   F   F
  0.5833379704551405  0.1510229719034299  0.4545809683759359   F   F   F
  0.7476975634891190  0.9478879466325267  0.6393552269986031   F   F   F
  0.8325651693553837  0.2007070772418160  0.5919062615168542   F   F   F
  0.7491475651440567  0.3501855729734586  0.5470763038064703   F   F   F
  0.4229752917247325  0.7501165925866999  0.5467329836169412   F   F   F
  0.4230568650957665  0.5546657295098996  0.5461337953770240   F   F   F
  0.7520897241111939  0.5492539638917151  0.5487211399425220   F   F   F
  0.2499999999799343  0.8499999999890662  0.3605200052333331   F   F   F
  0.5833333134730552  0.1500000000001833  0.3605200052333331   F   F   F
  0.1666666716383389  0.6000000000007191  0.4070133268666680   F   F   F
  0.4170835637120263  0.0501807267969525  0.5472515986906998   F   F   F
  0.5809424715583873  0.6475727323855409  0.5488904739969129   F   F   F
  0.6666666865533486  0.0000000000000000  0.4070133268666680   F   F   F
  0.0833333358191695  0.5499999761504029  0.3605200052333331   F   F   F
  0.1666666716383389  0.0000000000000000  0.4070133268666680   F   F   F
  0.8333332538436267  0.8000000000129006  0.4070133268666680   F   F   F
  0.2499999999799343  0.4500000000005357  0.3605200052333331   F   F   F
  0.4172080371570033  0.5480015707009684  0.4540984861174024   F   F   F
  0.0833333358191695  0.0500000000120124  0.3605200052333331   F   F   F
  0.4166666269218169  0.0500000000120124  0.3605200052333331   F   F   F
  0.7499999404149307  0.0500000000120124  0.3605200052333331   F   F   F
  0.2500484532321963  0.1498688150556902  0.4536582276508554   F   F   F
  0.8332658422035450  0.1001108030060394  0.4988492199131258   F   F   F
  0.7499987053941553  0.0492614343083062  0.5462065724368301   F   F   F
  0.2500591172032500  0.0499545609063574  0.5468995419740708   F   F   F
  0.5827766704176653  0.0501711942043599  0.5472709081572731   F   F   F
  0.7498958351320155  0.1501145062368892  0.6417353399564618   F   F   F
  0.2509603898998662  0.1483834835210871  0.6410645536411508   F   F   F
  0.9160146337159105  0.1497057318248665  0.6407161642592101   F   F   F
  0.5827067611992547  0.1503240637705119  0.6428471705702918   F   F   F
  0.4165755498319044  0.1500262249854529  0.6414996512783375   F   F   F
  0.4166666269218169  0.3500000000123720  0.3605200052333331   F   F   F
  0.5000000000021103  0.0000000000000000  0.4070133268666680   F   F   F
  0.4155175624344594  0.4490155492805812  0.4573065427633267   F   F   F
  0.3333333432766779  0.0000000000000000  0.4070133268666680   F   F   F
  0.9166666865332829  0.0500000000120124  0.3605200052333331   F   F   F
  0.5833333134730552  0.0500000000120124  0.3605200052333331   F   F   F
  0.2499999999799343  0.0500000000120124  0.3605200052333331   F   F   F
  0.9165798627592281  0.1499849480524347  0.4537289870581986   F   F   F
  0.0002933445565176  0.2996515743268802  0.4985982603894641   F   F   F
  0.0845091823123454  0.7500303582733636  0.4536483360906658   F   F   F
  0.9162327903022316  0.8496962784331288  0.4540530783637422   F   F   F
  0.0858053225981905  0.7507893024479273  0.5459965890495155   F   F   F
  0.6661840011966902  0.1998180568908623  0.5921320857900696   F   F   F
  0.6650954119734820  0.3997071523457194  0.5898367629056622   F   F   F
  0.3353774977225825  0.7928033251211630  0.5906624557163909   F   F   F
  0.3331182137659567  0.5967646330166971  0.5914245906326556   F   F   F
  0.4971833613978021  0.6035283430436493  0.6091195812660288   F   F   F
  0.2517398319557529  0.9498912200974559  0.5450431323278337   F   F   F
  0.5792654476075256  0.7483337895636879  0.5477061400829797   F   F   F
  0.9157653812440927  0.5500479464238168  0.5458675104527515   F   F   F
  0.9173342985151436  0.3508034134857283  0.5452863699381112   F   F   F
  0.9143040599092558  0.7506902150912040  0.5459376033319430   F   F   F
  0.0835261867335220  0.4487299762110979  0.6406506096490503   F   F   F
  0.6662296820217932  0.8991153344959955  0.4988204020031972   F   F   F
  0.0866925546173150  0.6500226912989646  0.6402231143243426   F   F   F
  0.5830104344479565  0.4486968602817285  0.5456133462930950   F   F   F
  0.2483475306913974  0.5486344539928893  0.5491231351173269   F   F   F
  0.1683032540069789  0.3979489351624110  0.5933316636036849   F   F   F
  0.9143243743854157  0.8506456364280126  0.6413294170017423   F   F   F
  0.4127074314053232  0.8501566838224832  0.6395191712995612   F   F   F
  0.7490531056560030  0.7505758001418599  0.4570483980964966   F   F   F
  0.4172875002476033  0.9473408056558839  0.6392689711188808   F   F   F
  0.5899511945815377  0.8477408676612157  0.6465698521404377   F   F   F
  0.9123388680797504  0.5482239360040566  0.6398039713923609   F   F   F
  0.7538927098420984  0.5468863481296253  0.6380984313945106   F   F   F
  0.9166666865332829  0.8499999999890662  0.3605200052333331   F   F   F
  0.4159359688977844  0.3528553272792863  0.5474589935051313   F   F   F
  0.9139740221611845  0.6498808822731235  0.6410326831612068   F   F   F
  0.1676868874819348  0.6996170127426851  0.5002012508766427   F   F   F
  0.5000243755293070  0.8982077492328244  0.5007912050371743   F   F   F
  0.9146782424822959  0.3479927177439919  0.6399847515187034   F   F   F
  0.4166666269218169  0.7500000000008953  0.3605200052333331   F   F   F
  0.2500117837417832  0.3511150951032960  0.4544750630703902   F   F   F
  0.2499999999799343  0.7500000000008953  0.3605200052333331   F   F   F
  0.9166666865332829  0.9500000000130839  0.3605200052333331   F   F   F
  0.2499999999799343  0.9500000000130839  0.3605200052333331   F   F   F
  0.5833333134730552  0.3500000000123720  0.3605200052333331   F   F   F
  0.7486320200162169  0.2521273028946283  0.6395531919490622   F   F   F
  0.7536159469420909  0.4463401726670000  0.6446523283886094   F   F   F
  0.5832811320274232  0.2524243973775739  0.6386582974940680   F   F   F
  0.4274223753225641  0.4436758011057265  0.6572473376122474   F   F   F
  0.1672711720649147  0.1997305740162290  0.5923999075014521   F   F   F
  0.6651514384963519  0.7932084365849690  0.5909842109905696   F   F   F
  0.2494541257743421  0.7463640325325187  0.5521423559903909   F   F   F
  0.9157080869621268  0.8497031669357398  0.5463633926199591   F   F   F
  0.7466590154629031  0.6468562227725769  0.5451464046888930   F   F   F
  0.2395509298328165  0.5534411287969405  0.6417180860348637   F   F   F
  0.2504752621925235  0.0483931025455533  0.6416834510362719   F   F   F
  0.2521213027146771  0.9453414340818327  0.6373713916031960   F   F   F
  0.9166666865332829  0.5499999761504029  0.3605200052333331   F   F   F
  0.9166666865332829  0.3500000000123720  0.3605200052333331   F   F   F
  0.0857176654471559  0.4508925326494548  0.5471682058206255   F   F   F
  0.5833333134730552  0.7500000000008953  0.3605200052333331   F   F   F
  0.5833333134730552  0.5499999761504029  0.3605200052333331   F   F   F
  0.0853515952216881  0.8496029156746872  0.5468535927458049   F   F   F
  0.4161111902247683  0.9483155535061343  0.5468314852065106   F   F   F
  0.4998126974182142  0.3014846792771380  0.5002980575796343   F   F   F
  0.0000000000000000  0.8000000000129006  0.4070133268666680   F   F   F
  0.4165998313621131  0.2524442025659894  0.5472695136890309   F   F   F
  0.5766693857764977  0.5483436494895741  0.5522820489382312   F   F   F
  0.7481943506576343  0.9478034539753324  0.5470830582815154   F   F   F
  0.6665108619328208  0.5956177533948406  0.5915431070073041   F   F   F
  0.7511302627452636  0.7448792016884269  0.5526207319297782   F   F   F
  0.4182496128555400  0.2522024979648378  0.6391714059835678   F   F   F
  0.3352022735693865  0.4041088216248099  0.5933047286191879   F   F   F
  0.5826234935179926  0.9486480300233708  0.4539163539462194   F   F   F
  0.0868085661924667  0.5489066348669951  0.6395645523065667   F   F   F
  0.1709308724099969  0.7996324885618193  0.5945689121941840   F   F   F
  0.8331897805151911  0.6022023554001379  0.5895774539169807   F   F   F
  0.0839025361272974  0.2484240420363975  0.6421546373113429   F   F   F
  0.0840565641551763  0.7496303929135024  0.6396683312397684   F   F   F
  0.0844966237171860  0.9493870350638787  0.6409762204629956   F   F   F
  0.4156945174752451  0.5344370715962157  0.6301575941689848   F   F   F
  0.4183815626430771  0.3496296657461926  0.6398795799457986   F   F   F
  0.5007897443463634  0.8049431778977763  0.5927624363341124   F   F   F
  0.2491597284674612  0.4509649050404576  0.5460478680413132   F   F   F
  0.0812634656623956  0.6515913102357729  0.5466388069999439   F   F   F
  0.5834483524811489  0.2497418979205435  0.5458364562373106   F   F   F
  0.4173908704762610  0.9481096604360459  0.4542521985173806   F   F   F
  0.0828738908049900  0.2500120640553121  0.5473685269726118   F   F   F
  0.5837260213660329  0.9506507270782265  0.5457056304573840   F   F   F
  0.9160814404876447  0.9504814102796075  0.5462556998110486   F   F   F
  0.7486824060281307  0.2505328709051753  0.5464581862460989   F   F   F
  0.5844401750878419  0.6499125242950186  0.4548825819275493   F   F   F
  0.9158959618825051  0.5497612839180448  0.4537181416456946   F   F   F
  0.9152135938445980  0.2499863291257753  0.6407906143723210   F   F   F
  0.5878305451547590  0.4563272608909230  0.6345066545672893   F   F   F
  0.2473997052532937  0.6587472477168248  0.6290018911449664   F   F   F
  0.2617256480939787  0.8403153427557015  0.6460617853521597   F   F   F
  0.2514195464567379  0.2485375252946866  0.6417108687533570   F   F   F
  0.9166666865332829  0.6500000000127244  0.3605200052333331   F   F   F
  0.4997564654971214  0.4985819945895074  0.5001722617907944   F   F   F
  0.5002835079580592  0.6963374436237260  0.5000814410711598   F   F   F
  0.8323766239238637  0.6985363022245181  0.5005269490227562   F   F   F
  0.2528124530755136  0.3510359043606144  0.5474113639802596   F   F   F
  0.8327841398883322  0.4992566778819167  0.4995463977553456   F   F   F
  0.9151025520573128  0.4484180353034830  0.6396332570513579   F   F   F
  0.1665293788628190  0.5008785589161562  0.4978353593253857   F   F   F
  0.4166666269218169  0.9500000000130839  0.3605200052333331   F   F   F
  0.2506036266888287  0.9483195355100804  0.4536214252171789   F   F   F
  0.6653604639834612  0.7001604057634268  0.5030238770321134   F   F   F
  0.4166666269218169  0.5499999761504029  0.3605200052333331   F   F   F
  0.0828380105497715  0.5509842126976565  0.5452202065702849   F   F   F
  0.2499999999799343  0.3500000000123720  0.3605200052333331   F   F   F
  0.7543313038973167  0.7545177505467962  0.6555097103838960   F   F   F
  0.8328401386574740  0.3000818647885310  0.4998690629790445   F   F   F
  0.1673304514895406  0.3003363706060114  0.4999670876033093   F   F   F
  0.9166666865332829  0.7500000000008953  0.3605200052333331   F   F   F
  0.8324091130645570  0.8996030824661432  0.4996534964949646   F   F   F
  0.0000000000000000  0.4000000000243773  0.4070133268666680   F   F   F
  0.0000000000000000  0.6000000000007191  0.4070133268666680   F   F   F
  0.7484187909357445  0.6509938191943903  0.4541144949469071   F   F   F
  0.3333333432766779  0.2000000000121887  0.4070133268666680   F   F   F
  0.3333333432766779  0.6000000000007191  0.4070133268666680   F   F   F
  0.2510724229151506  0.5517983017954009  0.4552643918023520   F   F   F
  0.3336440230593709  0.8984339043296856  0.4993457623572652   F   F   F
  0.6666666865533486  0.2000000000121887  0.4070133268666680   F   F   F
  0.0001089250280799  0.8999310735464618  0.4991466993070262   F   F   F
  0.5902998123297962  0.6525500161399975  0.6387574665048206   F   F   F
  0.0838504308726300  0.9495342078323645  0.4536667649786068   F   F   F
  0.0829716845830788  0.5498189562104017  0.4531808413883454   F   F   F
  0.0836916608696612  0.3498008570357882  0.4536588052085619   F   F   F
  0.5001159513207227  0.2001291203922690  0.5916103056942390   F   F   F
  0.9160561805055139  0.4496316775171323  0.4540698133743817   F   F   F
  0.7499999404149307  0.9500000000130839  0.3605200052333331   F   F   F
  0.7500829356955876  0.3506347654206223  0.4541647086137175   F   F   F
  0.7499999404149307  0.5499999761504029  0.3605200052333331   F   F   F
  0.3972807344000913  0.6404268340433674  0.6523608846982683   F   F   F
  0.9158884801318905  0.9497884106933014  0.6410129619812466   F   F   F
  0.9156391560432198  0.7500801662629186  0.6393408730496120   F   F   F
  0.7414755370195323  0.8484690076730317  0.6396747623774317   F   F   F
  0.0853434501332231  0.8500355375433770  0.6418980404201449   F   F   F
  0.7527172704994527  0.6549852033666284  0.6357825828137678   F   F   F
  0.4171169312418073  0.8470848038531074  0.4554590497396021   F   F   F
  0.7496544766030766  0.2505833380568774  0.4542679513686565   F   F   F
  0.9161339733234186  0.3497035304045468  0.4534848932822939   F   F   F
  0.5829652719904246  0.2520119445386015  0.4538180970705383   F   F   F
  0.5829008740959623  0.7485714380120427  0.4547723787453961   F   F   F
  0.5833333134730552  0.2500000000242011  0.3605200052333331   F   F   F
  0.7424107694313236  0.3520189534674714  0.6412866839227576   F   F   F
  0.8320677940776875  0.3969764828196034  0.5904440239713651   F   F   F
  0.7499999404149307  0.7500000000008953  0.3605200052333331   F   F   F
  0.4202171175086775  0.7409201363016180  0.6339410757415820   F   F   F
  0.1677942554457061  0.8990104847602964  0.4994985874728997   F   F   F
  0.2554103645220636  0.7419215756267903  0.6629656245209574   F   F   F
  0.2540881784023981  0.3489909254656922  0.6408444706927412   F   F   F
  0.8302833493671287  0.8006443703856831  0.5923715235957232   F   F   F
  0.5817404710927292  0.9477148698508415  0.6379344919257477   F   F   F
  0.5809245470491433  0.3531826816181223  0.6448984075224331   F   F   F
  0.7499999404149307  0.3500000000123720  0.3605200052333331   F   F   F
  0.2499999999799343  0.5499999761504029  0.3605200052333331   F   F   F
  0.5827829168311638  0.5515217506374981  0.4565939323428481   F   F   F
  0.0833333358191695  0.2500000000242011  0.3605200052333331   F   F   F
  0.9146022937089313  0.7498466899313385  0.4536957700855311   F   F   F
  0.4171663632242186  0.7469945741994195  0.4544825729300683   F   F   F
  0.3343557168883393  0.5023346484335249  0.5030913546722360   F   F   F
  0.6657211313910807  0.5024226130227518  0.5036241435509368   F   F   F
  0.9163317230028980  0.2505297529941188  0.5469621102137623   F   F   F
  0.7495206489796615  0.9497316494709764  0.4547285104221785   F   F   F
  0.5795789310016772  0.5505402330920859  0.6459077289449482   F   F   F
  0.5772874403086732  0.7485066438915453  0.6399906755539178   F   F   F
  0.1654256267468170  0.6023071628794838  0.5873434178417511   F   F   F
  0.2488562157608953  0.4527853624799079  0.6413678867064334   F   F   F
  0.0836145043844283  0.3506694408865698  0.5463010874776160   F   F   F
  0.3355558282463349  0.7004035010845371  0.5039854279798277   F   F   F
  0.7482514231597577  0.4502416205239044  0.4559178194811153   F   F   F
  0.6662411028496464  0.7007869169083776  0.5931479359614968   F   F   F
  0.1666666716383389  0.5000000000125482  0.4070133268666680   F   F   F
  0.9996528193142638  0.0994603938798448  0.6191368875501908   F   F   F
  0.8338384805702646  0.0007236326465474  0.5060405333782185   F   F   F
  0.8362415625005397  0.5998934954036201  0.5030007479625311   F   F   F
  0.5000000000021103  0.6999999999888900  0.4070133268666680   F   F   F