Au C  H  O  Sr Ti
 1.0000000000000000
    23.6707801818999997    0.0000000000000000    0.0000000000000000
     0.0000000000000000   27.8962826732999716    0.0000000000000000
     0.0000000000000000    0.0000000000000000   30.0000000000000000
 Au  C   H   O   Sr  Ti 
  50   6  13 330  90  90
Selective dynamics
Cartesian
 16.8502660174910659 17.4531807119643823 22.6492332790624360   F   F   F
  6.9666020806882338 22.2495940559119632 20.8940229194049998   F   F   F
 12.0183588324833952 19.1212293027361966 23.3563113630442452   F   F   F
 13.6716166823457250 21.7262126296005746 23.8317583936090145   F   F   F
  5.6910793306788809 16.0464134537876291 21.2773014724196905   F   F   F
  6.7649940517313762 20.3592506269224920 22.9276381951848371   F   F   F
 12.1614371866013844 16.4067153603107663 20.3495487394066039   F   F   F
 13.4195192891018991 17.0652844259781951 25.7612228921801361   F   F   F
 11.4975106529393916 11.6228652622113433 23.2329676304224293   F   F   F
 14.6533580947203212 12.7323937641467193 20.9326383068889612   F   F   F
 10.9084076526005820 21.1596157784638237 24.9896691400789379   F   F   F
 13.0789395668933466 14.1897512306973272 24.8183736302281552   F   F   F
 13.3042004245215217 16.5132005365904604 22.9002043881443669   F   F   F
 13.1143902209461327 10.3549465699634631 21.2876193112516603   F   F   F
 17.4549251014263866 11.0895998791106667 20.8219667059254121   T   T   T
 18.0096517448792639 15.3868721267666100 21.1373020233148203   F   F   F
 11.4999499633028712 22.8936618319726257 22.6621829720264216   F   F   F
 14.6797544626477254 18.3618352366494157 21.1124252547244531   F   F   F
 14.8965576451781558 18.7646518172359826 24.0382664780518880   F   F   F
 10.1864722252598430 13.8567281385945034 24.4585570484498014   F   F   F
  8.2638687816093928 16.7375922042069440 20.9394000882043159   F   F   F
  8.7582573432207038 12.2488556574741558 22.6763729278801591   F   F   F
 17.3363745248597390 19.3433211665875966 20.7971922797560893   F   F   F
 10.3424185608529555 10.6362603262454840 20.9483289839210514   F   F   F
 12.3129015215917637 14.0396902428724317 21.9994709535851776   F   F   F
 14.2423551345124579 11.9172519642400960 23.5389134435295162   F   F   F
  6.0871013591582148 18.8133009781710179 20.8375030905551810   F   F   F
 15.7174793132203785  9.6656170024991592 22.2494035191647015   T   T   T
 11.1626502628704785 15.6156124134495471 26.3270996239627877   F   F   F
  6.6829751077511341 13.1464950667552518 21.0717995928642807   F   F   F
 15.8530761254445807 20.8186902148979591 22.4559601932549633   F   F   F
  9.2822436557761367 23.8363284528866615 21.1971909817769024   F   F   F
 10.6808531662715165 18.5267972544829504 21.1124396327014701   F   F   F
  8.8765970656851909 16.5682774469194349 24.9980761228497492   F   F   F
  6.8465433349769773 17.5794108699114737 23.3345775568465967   F   F   F
  8.7060447448260625 19.3929304229351338 24.6083355538799573   F   F   F
 14.1187462165421547 23.0800716032646989 21.4027555114887242   F   F   F
 18.3415197863679005 15.4411231135524023 23.8419921835863597   F   F   F
  9.4181277253593176 14.1095198781873741 20.7230802368263411   F   F   F
 15.2831487652692726 15.5362297790355797 20.8675208988665020   F   F   F
 16.4348313452251560 13.5794833574139258 22.9212779266058142   T   T   T
  7.7002272565053236 14.8324028494573366 23.0803697156369623   F   F   F
 16.7365188976386960 22.4830004134636177 20.6335895669338285   F   F   F
 15.5231597318516048 15.7002693862411675 24.5201842372816330   F   F   F
 10.8887938722026174 18.3820300746272700 25.9668209360412163   F   F   F
  9.8298301666821040 21.1187919705819489 20.9956371085428515   F   F   F
  8.8460189299247993 22.1272051129200484 23.3740017912807758   F   F   F
 10.5007515977707193 16.1420462134159663 22.7005386451573337   F   F   F
 12.7581147502174481 20.5059072869889896 21.0734460963505796   F   F   F
 13.2610770023361386 19.9344386720665021 25.9487469441877110   F   F   F
 17.8956973999068758 12.1057300876156120 22.5140058176561411   T   T   T
 15.4230948830973063  6.9810337102913147 24.1583622211545119   T   T   T
 13.7384679376286893  5.9792477397203170 25.7727268125542999   T   T   T
 14.5102654145802141  5.7950670181158017 24.4659282276871579   T   T   T
 16.1931809186092295  6.8527752832780928 22.8381732212630517   T   T   T
 17.0572734458463735  8.0479299563777911 22.5117634303344438   T   T   T
 17.7109073761317646  8.3658209615196260 23.3275484326454645   T   T   T
 16.8817259353029527  5.9909620362814078 22.8929334710544516   T   T   T
 14.4183449049454637  6.0798824871449240 26.6241234243070721   T   T   T
 14.8067526699963956  7.8939463147269677 24.1303115108349360   T   T   T
 15.5166983375649092  6.6245034996759840 22.0059911725198063   T   T   T
 13.8069830131303153  5.6582688920105593 23.6363618614636550   T   T   T
 15.1105762465079110  4.8789446177519498 24.5151205767538265   T   T   T
 13.1169877512734114  6.8800294196698797 25.7369624977766200   T   T   T
 16.1368475532210631  7.1266304461864740 24.9801147273703634   T   T   T
 17.5954025669068024  7.9582948269793228 21.5691021001593164   T   T   T
 13.0808433043953158  5.1290586004271992 25.9677999280873131   T   T   T
 17.8724646252207009 11.4942599212219481 23.4196469302499715   T   T   T
 18.8368302063154935 12.6502437243077370 22.4128964788441039   T   T   T
  9.8578968911391520 12.6974939737275356 16.5793884068704749   F   F   F
 21.6982156369999721 12.5533272029999310 10.8156001569999933   F   F   F
 11.8353900909999528 16.7377696040000430 12.2103998060000407   F   F   F
 17.7366201354023225 12.6018996775281593 16.5097985546975821   F   F   F
 15.7805205919999434 11.1585130700000246 12.2103998060000407   F   F   F
  5.9559003123083905 20.9248337609520227 13.6830439767803913   F   F   F
  7.8902602960000570 22.3170261389998572 12.2103998060000407   F   F   F
  7.9008832424327116  8.3965954136355094 14.9654503563781205   F   F   F
 23.6661424920719092 19.5830207432767480 14.9176860786018572   F   F   F
 21.6846159430572349 18.1265097426104234 13.6271022157823793   F   F   F
 13.8079546360000549 26.5014685399999657 10.8156001569999933   F   F   F
 21.6910791192109045 26.4908404107296782 13.6121260701165170   F   F   F
 17.7530837259999217 12.5533272029999310 10.8156001569999933   F   F   F
  9.8628241350000643 23.7118402719999644 10.8156001569999933   F   F   F
  9.8628241350000643 12.5533272029999310 10.8156001569999933   F   F   F
  9.8628241350000643 18.1325837379999442 10.8156001569999933   F   F   F
 11.8353900909999528 22.3170261389998572 12.2103998060000407   F   F   F
  1.9725650740000149  9.7636989360001234 10.8156001569999933   F   F   F
 11.8353900909999528 11.1585130700000246 12.2103998060000407   F   F   F
 17.7530837259999217 18.1325837379999442 10.8156001569999933   F   F   F
  0.0000000000000000  5.5792565350000141 12.2103998060000407   F   F   F
 13.8079546360000549 23.7118402719999644 10.8156001569999933   F   F   F
 17.7530837259999217  4.1844424010001093 10.8156001569999933   F   F   F
  5.9631063090491070 12.6028453356170491 13.6153212614597070   F   F   F
  5.9176950450000287  4.1844424010001093 10.8156001569999933   F   F   F
 21.6982156369999721  4.1844424010001093 10.8156001569999933   F   F   F
 13.8121288213425135  1.3822393309882484 13.6275451067753988   F   F   F
  5.9208921533199295  1.3698022676315005 13.6269456435257545   F   F   F
 17.7513470419144710  1.3939673399247632 13.6099812958207984   F   F   F
  9.8552043137944096  1.3706879088036721 13.6317388931447745   F   F   F
  1.9712833316827505  1.3880794135757228 13.6168673264617013   F   F   F
 19.7256482699999580  0.0000000000000000 12.2103998060000407   F   F   F
 11.8341619314103230  2.7916931886368808 14.9692929873262432   F   F   F
 23.6598116233525850 16.7117225827179503 17.8255113497682487   F   F   F
  1.9796528838768044  4.2009903552621140 16.3884508256599091   F   F   F
 17.7530837259999217  6.9740706690001133 10.8156001569999933   F   F   F
  5.9176950450000287  6.9740706690001133 10.8156001569999933   F   F   F
  3.9451301480000271  5.5792565350000141 12.2103998060000407   F   F   F
 13.8079546360000549 18.1325837379999442 10.8156001569999933   F   F   F
 13.8065634737880671  1.4054087754972076 19.2561349105099424   F   F   F
 17.6891321834253219 23.6223900565983485 16.3738321153659498   F   F   F
 15.7805205919999434 22.3170261389998572 12.2103998060000407   F   F   F
 17.7514925528536374 23.7100637159856156 13.6102495892281858   F   F   F
 21.6982156369999721  6.9740706690001133 10.8156001569999933   F   F   F
  1.9725650740000149 18.1325837379999442 10.8156001569999933   F   F   F
 15.7689203748423292  8.4117944365263941 14.9892103633594473   F   F   F
 13.8079546360000549 12.5533272029999310 10.8156001569999933   F   F   F
  0.0000000000000000  0.0000000000000000 12.2103998060000407   F   F   F
  9.8628241350000643  6.9740706690001133 10.8156001569999933   F   F   F
 17.7294015102563094 15.3509457938240299 13.6683826488917521   F   F   F
  1.9824004030602427  1.3882621315392532 16.3953867325486797   F   F   F
 13.7969679583187954  4.1798563680933878 16.4285602021733190   F   F   F
  5.9221213810674236  4.1951695194135059 16.3930320078973821   F   F   F
 17.7518977590277238  4.1833307069443597 16.4032581770621739   F   F   F
 13.7983524934239927 23.6429198466311981 13.6727608824812155   F   F   F
  5.9750377428077677 18.0513663292585775 16.3212416288540787   F   F   F
 11.8227251087903173 11.2362950072091685 17.7427792312547403   F   F   F
  5.9176950450000287 18.1325837379999442 10.8156001569999933   F   F   F
 21.6913036964084220  4.2023982258857773 16.3890411628994244   F   F   F
  5.9250910176000193  6.9814165953559382 13.6347850124068639   F   F   F
 13.7968090264213377  9.8491358244824294 13.6845295075368458   F   F   F
  5.9641322263301646 18.1853186346426554 13.6129060409719109   F   F   F
  3.9451301480000271 11.1585130700000246 12.2103998060000407   F   F   F
 13.8335130629490308 12.6231589029031213 13.6154815293353906   F   F   F
  7.8902602960000570 11.1585130700000246 12.2103998060000407   F   F   F
  1.9725650740000149 12.5533272029999310 10.8156001569999933   F   F   F
 19.7256482699999580 11.1585130700000246 12.2103998060000407   F   F   F
  9.8764264559838768  6.9898770586431871 13.6500516962921079   F   F   F
 11.8353900909999528  5.5792565350000141 12.2103998060000407   F   F   F
 15.7805205919999434 16.7377696040000430 12.2103998060000407   F   F   F
  1.9884400151299975 18.1297132674333419 13.6270750580224131   F   F   F
  1.9836970738928574 23.7005550317387055 13.6251106797453652   F   F   F
  1.9770263413106957 12.5422179701432359 13.6237609440030578   F   F   F
 17.7530837259999217 23.7118402719999644 10.8156001569999933   F   F   F
 21.6620676740418681 12.5517505444611004 16.4019453884256912   F   F   F
  9.8684507213106318  9.7768061142670426 13.6268477266341179   F   F   F
  9.8615211591828800  4.2128321172399499 16.3921524091105013   F   F   F
 19.7256482699999580  5.5792565350000141 12.2103998060000407   F   F   F
 23.6694320145818686 13.9269568410627258 14.9508607660822079   F   F   F
  5.9299973007072282 23.6662803345418560 13.6644987251065491   F   F   F
  9.8442349527975512 18.0493704293656023 13.7463996835557118   F   F   F
  1.9725650740000149 26.5014685399999657 10.8156001569999933   F   F   F
  1.9908778714021320  6.9689994006856386 13.6290840518020193   F   F   F
  9.8617075600645308  4.1927655738154916 13.6157924966277388   F   F   F
  1.9739493280132323  4.1844503238985347 13.6132007897280758   F   F   F
 21.6978155936663484  1.3882154770623460 13.6166478223099130   F   F   F
  9.8628241350000643  4.1844424010001093 10.8156001569999933   F   F   F
  1.9725650740000149  4.1844424010001093 10.8156001569999933   F   F   F
  1.9725650740000149 20.9222120049999525 10.8156001569999933   F   F   F
 17.7463694054619161  1.3969820090404939 19.2282913944141853   F   F   F
  9.8103904276260288 23.6761900040785704 16.4390018964879552   F   F   F
  5.9544950481750760  7.0018693347091387 16.4332980542538181   F   F   F
  9.8807439582652545  1.3782060740243780 19.2809134872073606   F   F   F
 21.6817572575522739  1.3946740277083418 19.2089393865917550   F   F   F
  1.9814096389981923  1.3878702791435564 19.2104639289879948   F   F   F
  1.9724535329651585  4.1468558988988127 19.2130142406609714   F   F   F
 15.7756829743195954  2.7927460765654395 14.9713394955189791   F   F   F
  3.9479477089764363  2.7865298963024898 14.9631386866588620   F   F   F
 19.7256482699999580 16.7377696040000430 12.2103998060000407   F   F   F
  1.9725650740000149 23.7118402719999644 10.8156001569999933   F   F   F
 21.6907302515993905  1.3916002319306804 16.3952590811336485   F   F   F
 17.7516031204506817  4.1918486788040363 13.6169926315051129   F   F   F
 11.8286617058075034  0.0055969888736310 17.7483633144426172   F   F   F
  3.9451301480000271 22.3170261389998572 12.2103998060000407   F   F   F
 13.7770006372783982  9.7041409691244844 16.5267399591759059   F   F   F
  0.0024048821399702 22.3723700033702961 17.7793756546383932   F   F   F
  7.9037624161876590  5.5817646349778691 17.7636318907393402   F   F   F
 23.6660924705761992  5.5797868633415142 17.7712045543031252   F   F   F
  0.0157122059966787 11.1137524643656249 17.7718998531783043   F   F   F
  1.9924254262252843 26.5094893645541383 16.3842196189996159   F   F   F
  9.9363322432894314 18.1820162824014737 16.6727600581702973   F   F   F
  1.9862602919787853  9.7120021959209524 19.2641474588331398   F   F   F
 21.7247749554685896 18.1603582698690431 16.4107632516012778   F   F   F
  5.9908539615918084 23.7094545653062490 16.5196947101745089   F   F   F
 13.8611802522510530 23.7627475061410038 16.5257541019607537   F   F   F
 15.7653406068189952  0.0054949412920213 17.7570953350589704   F   F   F
  7.9073383678871600 -0.0019030842811564 17.7572415180431413   F   F   F
  0.0001322722326711 27.8724704419238556 17.7620113652103555   F   F   F
 19.7068605509673205 27.8559753194973112 17.7608184801991378   F   F   F
  3.9630708445855167 27.8538345997785335 17.7645132625501496   F   F   F
  7.8942803936577759  2.7888842236193105 14.9689932618759638   F   F   F
 21.6859078057706789  6.9691551957367937 13.6251585339878254   F   F   F
  0.0007611811702522  2.7908986026641123 14.9740785639855929   F   F   F
 13.8080648703993774  4.2129795143798834 13.6374290512780831   F   F   F
 17.6985846678931686 26.4425501018747582 19.1806568099581014   F   F   F
 19.7074671109177082  5.5989813612695141 17.7571878455057117   F   F   F
 17.7329073383304952  9.7688757317791968 16.4122891141941061   F   F   F
 10.0121551527911521 20.9254645047312380 16.4019895085081444   F   F   F
 10.0140860581255904 15.4731119796002154 16.3840138613106916   F   F   F
 17.8025505365019150 15.3221438361538631 16.4616341982757284   F   F   F
  5.9176950450000287 23.7118402719999644 10.8156001569999933   F   F   F
 13.8079546360000549  4.1844424010001093 10.8156001569999933   F   F   F
  3.9451301480000271 16.7377696040000430 12.2103998060000407   F   F   F
  9.8726933541109272  1.3998557394794060 16.4175479607209525   F   F   F
 13.7513615425882527 18.0648719941483265 16.4667142199072956   F   F   F
 15.7805205919999434  0.0000000000000000 12.2103998060000407   F   F   F
  1.9725650740000149 15.3429548049998807 10.8156001569999933   F   F   F
  3.9451301480000271  0.0000000000000000 12.2103998060000407   F   F   F
 19.7256482699999580 22.3170261389998572 12.2103998060000407   F   F   F
  5.9176950450000287 12.5533272029999310 10.8156001569999933   F   F   F
  9.8756397376654625 15.2872067216865712 13.6229545835219934   F   F   F
  1.9725650740000149  1.3948141340000999 10.8156001569999933   F   F   F
  9.8628241350000643  1.3948141340000999 10.8156001569999933   F   F   F
 17.7530837259999217  1.3948141340000999 10.8156001569999933   F   F   F
  5.9188419712833662  4.1807828287061097 13.6097468295256760   F   F   F
 19.7240525838858822  2.7927192593074541 14.9654765973937529   F   F   F
 17.7530544920946554  1.3742108963567627 16.3861971731048754   F   F   F
  5.9190943957981279  1.3935465518644152 16.4069862592221511   F   F   F
 13.7947784605962056  1.3995898155819226 16.4181272447182742   F   F   F
 17.7506194727323354  4.1876366993470571 19.2520601986937905   F   F   F
  5.9404282236836616  4.1393476003532248 19.2319366092345589   F   F   F
 21.6827810380930224  4.1762334127997631 19.2214849277763982   F   F   F
 13.7931236548544032  4.1934825755413208 19.2854151171088439   F   F   F
  9.8606682692251404  4.1851739806022703 19.2449895383501435   F   F   F
  9.8628241350000643  9.7636989360001234 10.8156001569999933   F   F   F
 11.8353900909999528  0.0000000000000000 12.2103998060000407   F   F   F
  9.8356248821050301 12.5258646874382293 13.7191962828998335   F   F   F
  7.8902602960000570  0.0000000000000000 12.2103998060000407   F   F   F
 21.6982156369999721  1.3948141340000999 10.8156001569999933   F   F   F
 13.8079546360000549  1.3948141340000999 10.8156001569999933   F   F   F
  5.9176950450000287  1.3948141340000999 10.8156001569999933   F   F   F
 21.6961604505297920  4.1840225076108437 13.6118696117459539   F   F   F
  0.0069436945149395  8.3591650209219672 14.9579478116838445   F   F   F
  2.0003982778676561 20.9230588879502228 13.6094500827198779   F   F   F
 21.6879449746930071 23.7033675696215198 13.6215923509122518   F   F   F
  2.0310789296587979 20.9442306091771364 16.3798976714854092   F   F   F
 15.7690950530254650  5.5741809982569857 17.7639625737021554   F   F   F
 15.7433272968144422 11.1503437083759032 17.6951028871698099   F   F   F
  7.9386470265469891 22.1162656619120668 17.7198736714917864   F   F   F
  7.8851680126410617 16.6475148920619915 17.7427377189797042   F   F   F
 11.7687180577455948 16.8361972588939217 18.2735874379807903   F   F   F
  5.9588782252531454 26.4984339847243433 16.3512939698350799   F   F   F
 13.7116650772876341 20.8757309276503307 16.4311842024893338   F   F   F
 21.6768810376228203 15.3442929973069457 16.3760253135826268   F   F   F
 21.7140185334694742  9.7861111853564218 16.3585910981432292   F   F   F
 21.6422904215307810 20.9414664402646444 16.3781280999582819   F   F   F
  1.9771300056014911 12.5178982603680424 19.2195182894715018   F   F   F
 15.7701763537949340 25.0819755269988569 14.9646120600958472   F   F   F
  2.0520804037537594 18.1332167405352109 19.2066934297303611   F   F   F
 13.8003118375715701 12.5169744490413564 16.3684003887928746   F   F   F
  5.8785798077136722 15.3048618128972240 16.4736940535198393   F   F   F
  3.9838693294977134 11.1012959848292443 17.7999499081106194   F   F   F
 21.6427712810303952 23.7298511286049099 19.2398825100522011   F   F   F
  9.7691068882320593 23.7162111685072254 19.1855751389868594   F   F   F
 17.7306714085527233 20.9382746884956568 13.7114519428948132   F   F   F
  9.8775206910155102 26.4272869025282802 19.1780691335664635   F   F   F
 13.9646050449889110 23.6488188779857609 19.3970955642130285   F   F   F
 21.5957727977192349 15.2934098870382247 19.1941191417708694   F   F   F
 17.8452286154092725 15.2560961575928591 19.1429529418352651   F   F   F
 21.6982156369999721 23.7118402719999644 10.8156001569999933   F   F   F
  9.8455288895250970  9.8433519525627950 16.4237698051539560   F   F   F
 21.6344781705443268 18.1292607958645320 19.2309804948362384   F   F   F
  3.9692794529718749 19.5167139505197085 15.0060375262993499   F   F   F
 11.8359670787459823 25.0566572719473086 15.0237361511151999   F   F   F
 21.6511476149649980  9.7077032224362672 19.1995425455610587   F   F   F
  9.8628241350000643 20.9222120049999525 10.8156001569999933   F   F   F
  5.9179739758364605  9.7948059438642261 13.6342518921116795   F   F   F
  5.9176950450000287 20.9222120049999525 10.8156001569999933   F   F   F
 21.6982156369999721 26.5014685399999657 10.8156001569999933   F   F   F
  5.9176950450000287 26.5014685399999657 10.8156001569999933   F   F   F
 13.8079546360000549  9.7636989360001234 10.8156001569999933   F   F   F
 17.7207039829356461  7.0334145112052813 19.1865957584718387   F   F   F
 17.8386774216406536 12.4512316251680666 19.3395698516582613   F   F   F
 13.8067194604709691  7.0417023428822212 19.1597489248220967   F   F   F
 10.1174210910859959 12.3769055629482061 19.7174201283673796   F   F   F
  3.9594391447173392  5.5717405512571840 17.7719972250436271   F   F   F
 15.7446534883216511 22.1275667658206316 17.7295263297171140   F   F   F
  5.9047737766725410 20.8207820287112355 16.5642706797117576   F   F   F
 21.6755248372686680 23.7035597332376042 16.3909017785987352   F   F   F
 17.6740014258563072 18.0448840394469094 16.3543921406667039   F   F   F
  5.6703574024423169 15.4389501719495730 19.2515425810459107   F   F   F
  5.9289448723630649  1.3499876680487388 19.2505035310880821   F   F   F
  5.9679079357333347 26.3715118679295131 19.1211417480958197   F   F   F
 21.6982156369999721 15.3429548049998807 10.8156001569999933   F   F   F
 21.6982156369999721  9.7636989360001234 10.8156001569999933   F   F   F
  2.0290040165051964 12.5782255460692749 16.4150461746187766   F   F   F
 13.8079546360000549 20.9222120049999525 10.8156001569999933   F   F   F
 13.8079546360000549 15.3429548049998807 10.8156001569999933   F   F   F
  2.0203388486671350 23.7007630957208235 16.4056077823742328   F   F   F
  9.8496765150393326 26.4544787440939864 16.4049445561953817   F   F   F
 11.8309564927090811  8.4103018347841338 15.0089417273890966   F   F   F
  0.0000000000000000 22.3170261389998572 12.2103998060000407   F   F   F
  9.8612430319891295  7.0422548340166218 16.4180854106708942   F   F   F
 13.6502142683468488 15.2967494482700861 16.5684614681469284   F   F   F
 17.7103440077562730 26.4401930708259911 16.4124917484454507   F   F   F
 15.7768321016604940 16.6155212139382584 17.7462932102192248   F   F   F
 17.7798393374160071 20.7793607677623307 16.5786219578934038   F   F   F
  9.9002946470682520  7.0355121741395488 19.1751421795071195   F   F   F
  7.9344993341340935 11.2731339188198785 17.7991418585755881   F   F   F
 13.7911526438750389 26.4637536030010203 13.6174906183866185   F   F   F
  2.0548264882478446 15.3124546474994663 19.1869365691969840   F   F   F
  4.0460671071174916 22.3067739356748760 17.8370673658256216   F   F   F
 19.7222521443805974 16.7992071327693608 17.6873236175095130   F   F   F
  1.9860384893731089  6.9301072994911301 19.2646391193402735   F   F   F
  1.9896844529630144 20.9119013412119763 19.1900499371930309   F   F   F
  2.0001010061221614 26.4843690965081109 19.2292866138898937   F   F   F
  9.8398135459775062 14.9088076203386102 18.9047278250695570   F   F   F
  9.9034180014841251  9.7533679866272394 19.1963873983739788   F   F   F
 11.8540839557727029 22.4549224265807084 17.7828730900234042   F   F   F
  5.8978051627351826 12.5802444667465156 16.3814360412393718   F   F   F
  1.9235696325140206 18.1769753778030037 16.3991642099983643   F   F   F
 13.8106776990730555  6.9668705797578987 16.3750936871192181   F   F   F
  9.8799675449754005 26.4487350928104519 13.6275659555213853   F   F   F
  1.9616896520637113  6.9744072106221262 16.4210558091783838   F   F   F
 13.8172503382103873 26.5196214061523889 16.3711689137215473   F   F   F
 21.6843624065013323 26.5148980968767560 16.3876709943314900   F   F   F
 17.7218966591479123  6.9889357857241370 16.3937455873829734   F   F   F
 13.8341549139754783 18.1301434906517187 13.6464774578265100   F   F   F
 21.6799719832105993 15.3362961790141714 13.6115442493707750   F   F   F
 21.6638197993821429  6.9736893017531960 19.2237184311697149   F   F   F
 13.9144076185647485 12.7298342613459106 19.0351996370187280   F   F   F
  5.8561440401175231 18.3765994325668096 18.8700567343489780   F   F   F
  6.1952502839979049 23.4416743362240894 19.3818535605648314   F   F   F
  5.9512968176104852  6.9332730605430255 19.2513260626007643   F   F   F
 21.6982156369999721 18.1325837379999442 10.8156001569999933   F   F   F
 11.8296254392657332 13.9085842568866482 15.0051678537237407   F   F   F
 11.8421009455050097 19.4252261633306027 15.0024432321348939   F   F   F
 19.7030040934538810 19.4865661444168303 15.0158084706826820   F   F   F
  5.9842680039973368  9.7925968165211348 16.4223409194078087   F   F   F
 19.7126503142693181 13.9274054127266851 14.9863919326603270   F   F   F
 21.6611913536442735 12.5091962686317544 19.1889977115407540   F   F   F
  3.9418803208902107 13.9726498645201964 14.9350607797616277   F   F   F
  9.8628241350000643 26.5014685399999657 10.8156001569999933   F   F   F
  5.9319833601381591 26.4545898272018185 13.6086427565152768   F   F   F
 15.7496012846795299 19.5318725958289576 15.0907163109633213   F   F   F
  9.8628241350000643 15.3429548049998807 10.8156001569999933   F   F   F
  1.9608403384294906 15.3704113459394147 16.3566061971084977   F   F   F
  5.9176950450000287  9.7636989360001234 10.8156001569999933   F   F   F
 17.8556104788793704 21.0482404512758414 19.6652913115169170   F   F   F
 19.7139758488241164  8.3711685252718055 14.9960718893713612   F   F   F
  3.9608423349469968  8.3782682914982143 14.9990126280991767   F   F   F
 21.6982156369999721 20.9222120049999525 10.8156001569999933   F   F   F
 19.7037731367615230 25.0955818822475614 14.9896048948489522   F   F   F
  0.0000000000000000 11.1585130700000246 12.2103998060000407   F   F   F
  0.0000000000000000 16.7377696040000430 12.2103998060000407   F   F   F
 17.7156566842434486 18.1603075988178766 13.6234348484071628   F   F   F
  7.8902602960000570  5.5792565350000141 12.2103998060000407   F   F   F
  7.8902602960000570 16.7377696040000430 12.2103998060000407   F   F   F
  5.9430801325615930 15.3931214055313603 13.6579317540705638   F   F   F
  7.8976143288430753 25.0629661584573959 14.9803728707180301   F   F   F
 15.7805205919999434  5.5792565350000141 12.2103998060000407   F   F   F
  0.0025783403959322 25.1047316141383980 14.9744009792108344   F   F   F
 13.9728570990754797 18.2037197087078617 19.1627239951446207   F   F   F
  1.9848051173436119 26.4884746696596807 13.6100029493583019   F   F   F
  1.9640045070880516 15.3379050215840333 13.5954252416503820   F   F   F
  1.9810469075039454  9.7581435872329614 13.6097641562568228   F   F   F
 11.8381347491745910  5.5828585136216935 17.7483091708272269   F   F   F
 21.6837644830170007 12.5430523748878802 13.6220944012314007   F   F   F
 17.7530837259999217 26.5014685399999657 10.8156001569999933   F   F   F
 17.7550482890444918  9.7814065312598721 13.6249412584116065   F   F   F
 17.7530837259999217 15.3429548049998807 10.8156001569999933   F   F   F
  9.4039449344883845 17.8655279940403560 19.5708265409480724   F   F   F
 21.6797948843364701 26.4955659845247595 19.2303888594373191   F   F   F
 21.6738931886395392 20.9244483457061676 19.1802261914884369   F   F   F
 17.5513044470456592 23.6691312775811333 19.1902428713229902   F   F   F
  2.0201460480684799 23.7128316376605603 19.2569412126043460   F   F   F
 17.8174050491122742 18.2716523799443458 19.0734774844130825   F   F   F
  9.8734831895735269 23.6305171365432365 13.6637714921881290   F   F   F
 17.7449063280486925  6.9903436316536958 13.6280385410597020   F   F   F
 21.6856058997092340  9.7554285360161082 13.6045467984689186   F   F   F
 13.7992428069668200  7.0301964418968499 13.6145429121161889   F   F   F
 13.7977184585629118 20.8823604359426795 13.6431713623618922   F   F   F
 13.8079546360000549  6.9740706690001133 10.8156001569999933   F   F   F
 17.5734421278840607  9.8200202322878649 19.2386005176827162   F   F   F
 19.6956938500512919 11.0741681793881153 17.7133207191409028   F   F   F
 17.7530837259999217 20.9222120049999525 10.8156001569999933   F   F   F
  9.9468670172195477 20.6689175606098630 19.0182322722473671   F   F   F
  3.9718209364408619 25.0790506091336027 14.9849576241870182   F   F   F
  6.0457625947807010 20.6968539951051191 19.8889687356286942   F   F   F
  6.0144654177824926  9.7355495072076028 19.2253341207822928   F   F   F
 19.6534546515609279 22.3350016770652822 17.7711457078717778   F   F   F
 13.7702508141509465 26.4377219030487574 19.1380347577724343   F   F   F
 13.7509372554700615  9.8524839217332065 19.3469522256729292   F   F   F
 17.7530837259999217  9.7636989360001234 10.8156001569999933   F   F   F
  5.9176950450000287 15.3429548049998807 10.8156001569999933   F   F   F
 13.7949263180769748 15.3854066562569702 13.6978179702854188   F   F   F
  1.9725650740000149  6.9740706690001133 10.8156001569999933   F   F   F
 21.6493498482457234 20.9179352239629637 13.6108731025659360   F   F   F
  9.8746532831631999 20.8383717972884419 13.6344771879020072   F   F   F
  7.9144606770254597 14.0132693492943563 15.0927406401671593   F   F   F
 15.7581385636040512 14.0157232343406815 15.1087243065280230   F   F   F
 21.6902867889032365  6.9888488075958692 16.4088633064127727   F   F   F
 17.7417385237926375 26.4939825574218517 13.6418553126652764   F   F   F
 13.7190854738012149 15.3580259653612146 19.3772318683484599   F   F   F
 13.6648441013183124 20.8805529208416836 19.1997202666175468   F   F   F
  3.9157536471770156 16.8021308718394451 17.6203025352526303   F   F   F
  5.8906207801756754 12.6310284620721163 19.2410366011930805   F   F   F
  1.9792205533023965  9.7823738478597928 16.3890326243283795   F   F   F
  7.9428682491744285 19.5386540516231264 15.1195628393948578   F   F   F
 17.7116949584083905 12.5600675174194389 13.6775345844335234   F   F   F
 15.7704466937006611 19.5493499278265688 17.7944380788449976   F   F   F
  3.9451301480000271 13.9481413370000329 12.2103998060000407   F   F   F
 23.6625621442044505  2.7745752624698685 18.5741066265056212   F   F   F
 19.7376073807883081  0.0201866608597451 15.1812160013465718   F   F   F
 19.7944902049188514 16.7347985216533921 15.0900224388759501   F   F   F
 11.8353900909999528 19.5273978710000513 12.2103998060000407   F   F   F
  3.8727056394630424 16.7317214621934554 15.0624068139763558   F   F   F