Au  C  H  O Sr Ti                       
   1.00000000000000     
    23.6707801818999997    0.0000000000000000    0.0000000000000000
     0.0000000000000000   22.3170261383000010    0.0000000000000000
     0.0000000000000000    0.0000000000000000   30.0000000000000000
   Au   C    H    O    Sr   Ti
    50     2     2   265    72    72
Selective dynamics
Direct
  0.7160766759256632  0.5251457946490561  0.7534185653323604   F   F   F
  0.5482258246814666  0.2197663624036750  0.7071248562583179   F   F   F
  0.6224960191197226  0.5694818163503612  0.7039892457910000   F   F   F
  0.7514253754112943  0.2618108765606806  0.6950943804765544   T   T   T
  0.2935545899864849  0.7464428704992017  0.6969725660177275   F   F   F
  0.5782815682382392  0.7256442000689631  0.7939255194098038   F   F   F
  0.2407717430166301  0.4696609761362609  0.7092234579275072   F   F   F
  0.2853108382978533  0.6625378533572359  0.7646292511795707   F   F   F
  0.6013720621674992  0.2896547845246502  0.7837572132214277   F   F   F
  0.5146854962434801  0.4837672221687370  0.6779266507584936   F   F   F
  0.2895429885789440  0.5382706768697574  0.7775275220738678   F   F   F
  0.4857165856563839  0.7769789709213342  0.7556516670956697   F   F   F
  0.5118431480882393  0.6040305071510019  0.7769217721167649   F   F   F
  0.7330707512461814  0.6150421258433880  0.6940969616826109   F   F   F
  0.5628975066757462  0.4864996178805185  0.7623998630954247   F   F   F
  0.6348408574419580  0.5842143909945960  0.7999913386384989   F   F   F
  0.4271704854825416  0.3714426861579909  0.8170484492007546   F   F   F
  0.3499467856295979  0.4998258141641330  0.6980796966607414   F   F   F
  0.5959656655124803  0.7844033731006022  0.7129238041708135   F   F   F
  0.3689699876396233  0.2994120228453170  0.7564756217345874   F   F   F
  0.4314109315646917  0.2265321219874039  0.6985626160337617   F   F   F
  0.4636800924628801  0.6953960702656516  0.8307241485927861   F   F   F
  0.3916278040530869  0.8167977961640602  0.7065067070385567   F   F   F
  0.7639908236320849  0.4315364910726274  0.7045159961405218   F   F   F
  0.5475123292703756  0.3838768133262249  0.8275099666832020   F   F   F
  0.7048411505604548  0.3428140795821406  0.7574936785481725   F   F   F
  0.4838650706092409  0.2722845063542607  0.7741695947725731   F   F   F
  0.7064109591229908  0.7569345626868795  0.6883462289384710   F   F   F
  0.6555801288385155  0.4383363484921858  0.8110447515025498   F   F   F
  0.3684650237782492  0.6190130743393283  0.8203127371639809   F   F   F
  0.5706059804795629  0.5090464616077952  0.8561226025039446   F   F   F
  0.6513221411668582  0.1881134767196357  0.7433265953146986   T   T   T
  0.4713495628044910  0.4508249788046257  0.8786264459531523   F   F   F
  0.5255587439167897  0.3754954229562415  0.7310466137632829   F   F   F
  0.2821252231278990  0.3398179217624104  0.7024366199969307   F   F   F
  0.6693671146306173  0.6811587415924834  0.7487679905492186   F   F   F
  0.3978406524312561  0.3814820960694973  0.6904604252702597   F   F   F
  0.4629446919801694  0.5731908504019572  0.8642936563693553   F   F   F
  0.4526089934019808  0.5789605794505803  0.7031875370608560   F   F   F
  0.3251426234677695  0.4152116151385670  0.7695138206095820   F   F   F
  0.4184526957012125  0.6959502524229038  0.6998506207061581   F   F   F
  0.7749377845668448  0.4302817951595515  0.7946795289844744   F   F   F
  0.2569588602567805  0.5930298077335436  0.6946121890780077   F   F   F
  0.6483385142479676  0.4432276739976473  0.6948448524075914   F   F   F
  0.5645687230158529  0.6392609771624294  0.8610627721857895   F   F   F
  0.5415422191634889  0.6664055268589379  0.7013724472508400   F   F   F
  0.4450177068646539  0.4691697415303935  0.7550869179726050   F   F   F
  0.3743442207874779  0.7396763079350634  0.7788585946698063   F   F   F
  0.3762814254973392  0.4935348574959377  0.8320918987614050   F   F   F
  0.6265855096026982  0.3162494791654922  0.6946663328657152   F   F   F
  0.7181409852987031  0.1385760918139241  0.7599056613860071   T   T   T
  0.7724148883413307  0.1617540042485999  0.7602112961319136   T   T   T
  0.8071650077574262  0.1345689440860482  0.7733947759520277   T   T   T
  0.7126934554206983  0.0925757578802688  0.7709583612097717   T   T   T
  0.5767140562224853  0.4354266842907819  0.5522225404523269   F   F   F
  0.7507469676216161  0.1898346875040957  0.4556100331482185   F   F   F
  0.4172328530005842  0.9360340123569344  0.4540050052954996   F   F   F
  0.4171836681172820  0.6851980159274049  0.4550144127899785   F   F   F
  0.4173889380145184  0.4355473804815944  0.4541383624260220   F   F   F
  0.0845595094172893  0.6870395217521690  0.4531891496372253   F   F   F
  0.0841346130948395  0.9367685955193110  0.4535891206277043   F   F   F
  0.0827964802569383  0.4367993363663771  0.4528274426715768   F   F   F
  0.0838426259854117  0.1865219220045731  0.4529908726311191   F   F   F
  0.9166010844060395  0.8121452229300132  0.4540523399437078   F   F   F
  0.9161100986513659  0.0622235422142126  0.4541250827844010   F   F   F
  0.7494217935952960  0.8132034146392044  0.4530562664889288   F   F   F
  0.9161168170353449  0.3123308372016851  0.4537339717723583   F   F   F
  0.2521035962429607  0.6876600184943626  0.4561436777259189   F   F   F
  0.9163829148526759  0.9371495347527556  0.4536489697922477   F   F   F
  0.5828670856284859  0.1903811527605654  0.4556082625837092   F   F   F
  0.9999647804080070  0.1251153860506307  0.4985292628189555   F   F   F
  0.5832590570054705  0.8105216105322128  0.4553122176368944   F   F   F
  0.0000640735711102  0.3737496381262773  0.4981966818486256   F   F   F
  0.9999179001828225  0.6273341807609896  0.4976271740256095   F   F   F
  0.3337620483887278  0.1257537548771026  0.4984938804913597   F   F   F
  0.0000579115991002  0.8751791089237244  0.4995113317907709   F   F   F
  0.3335968551038917  0.8741760690636795  0.4991840868138055   F   F   F
  0.6661231486497243  0.1267110990249520  0.4990334173862507   F   F   F
  0.2513020115634674  0.4394986960296805  0.4550362973337201   F   F   F
  0.0833333358191695  0.5625000000092442  0.3605200052333331   F   F   F
  0.9166666865332829  0.0625000000159659  0.3605200052333331   F   F   F
  0.4170716642503507  0.1871349610725304  0.4534518934770304   F   F   F
  0.9158187865585319  0.3126670499901678  0.5463602971979000   F   F   F
  0.4232503035254283  0.6878244382602006  0.5468579086352463   F   F   F
  0.7497283583512555  0.4384198311070548  0.4556296901339891   F   F   F
  0.7465361098126380  0.5582859546820202  0.5446419980893396   F   F   F
  0.7490617284518919  0.6887195293589770  0.4573525516205308   F   F   F
  0.5845263811730206  0.5628191678893089  0.4548230377201961   F   F   F
  0.5833274116292060  0.0636094796470985  0.4538067747513139   F   F   F
  0.9166666865332829  0.6874999999963620  0.3605200052333331   F   F   F
  0.9166666865332829  0.4374999701794380  0.3605200052333331   F   F   F
  0.9166666865332829  0.1875000000030838  0.3605200052333331   F   F   F
  0.5833333134730552  0.9375000000154046  0.3605200052333331   F   F   F
  0.5833333134730552  0.6874999999963620  0.3605200052333331   F   F   F
  0.5833333134730552  0.4374999701794380  0.3605200052333331   F   F   F
  0.5833333134730552  0.1875000000030838  0.3605200052333331   F   F   F
  0.2499999999799343  0.9375000000154046  0.3605200052333331   F   F   F
  0.9166666865332829  0.9375000000154046  0.3605200052333331   F   F   F
  0.9175770319423080  0.0633434786731613  0.5474918624546490   F   F   F
  0.2499999999799343  0.6874999999963620  0.3605200052333331   F   F   F
  0.7499999404149307  0.9375000000154046  0.3605200052333331   F   F   F
  0.7883242974297459  0.2143855392561704  0.7462168442286008   T   T   T
  0.7499999404149307  0.6874999999963620  0.3605200052333331   F   F   F
  0.7499999404149307  0.1875000000030838  0.3605200052333331   F   F   F
  0.4166666269218169  0.9375000000154046  0.3605200052333331   F   F   F
  0.4166666269218169  0.6874999999963620  0.3605200052333331   F   F   F
  0.4166666269218169  0.4374999701794380  0.3605200052333331   F   F   F
  0.2499999999799343  0.4374999701794380  0.3605200052333331   F   F   F
  0.0833333358191695  0.0625000000159659  0.3605200052333331   F   F   F
  0.9153112649644726  0.6869052383617245  0.4533040496329619   F   F   F
  0.6653045705924470  0.3794070400302658  0.5026651118548457   F   F   F
  0.3344547275712202  0.3784737334521822  0.5029760552329563   F   F   F
  0.3356672586368745  0.6259853249171243  0.5038700529471853   F   F   F
  0.2500077748686920  0.1886858481423488  0.4543029941703907   F   F   F
  0.2499999999799343  0.1875000000030838  0.3605200052333331   F   F   F
  0.2505695199094617  0.0620555437019945  0.4542526516426193   F   F   F
  0.7495106517319101  0.9384186544515032  0.4553275529316068   F   F   F
  0.7499999404149307  0.4374999701794380  0.3605200052333331   F   F   F
  0.5833333134730552  0.0625000000159659  0.3605200052333331   F   F   F
  0.2515123812465418  0.0626279832486745  0.5473525968414492   F   F   F
  0.8333332538436267  0.0000000000000000  0.4070133268666680   F   F   F
  0.2499999999799343  0.8124999999834799  0.3605200052333331   F   F   F
  0.2499999999799343  0.3124999999901945  0.3605200052333331   F   F   F
  0.2499999999799343  0.0625000000159659  0.3605200052333331   F   F   F
  0.7499999404149307  0.5625000000092442  0.3605200052333331   F   F   F
  0.7499999404149307  0.3124999999901945  0.3605200052333331   F   F   F
  0.7499999404149307  0.0625000000159659  0.3605200052333331   F   F   F
  0.4166666269218169  0.8124999999834799  0.3605200052333331   F   F   F
  0.4166666269218169  0.3124999999901945  0.3605200052333331   F   F   F
  0.7499999404149307  0.8124999999834799  0.3605200052333331   F   F   F
  0.0835081548848322  0.3119595326858899  0.4540503694325650   F   F   F
  0.4166666269218169  0.0625000000159659  0.3605200052333331   F   F   F
  0.4169287686066880  0.0615507002775999  0.4553267532213567   F   F   F
  0.0834590860282276  0.8121741629766532  0.4541640186542395   F   F   F
  0.4166666269218169  0.5625000000092442  0.3605200052333331   F   F   F
  0.5833333134730552  0.3124999999901945  0.3605200052333331   F   F   F
  0.5833333134730552  0.8124999999834799  0.3605200052333331   F   F   F
  0.0839981571866275  0.5625348170747770  0.4539511982759166   F   F   F
  0.4145120562744395  0.8116366196675173  0.5477031940099337   F   F   F
  0.8333332538436267  0.4999999999932783  0.4070133268666680   F   F   F
  0.7495352595789839  0.0640715621414287  0.4533915342377171   F   F   F
  0.4166666269218169  0.1875000000030838  0.3605200052333331   F   F   F
  0.0833333358191695  0.9375000000154046  0.3605200052333331   F   F   F
  0.0833333358191695  0.8124999999834799  0.3605200052333331   F   F   F
  0.0833333358191695  0.4374999701794380  0.3605200052333331   F   F   F
  0.8333332538436267  0.7500000000123208  0.4070133268666680   F   F   F
  0.4155730452168100  0.3113465447665433  0.4573722746485416   F   F   F
  0.0837446415274883  0.0618664706478711  0.4541978482847355   F   F   F
  0.4159075749933336  0.5596643392291725  0.4578705813627408   F   F   F
  0.0833333358191695  0.6874999999963620  0.3605200052333331   F   F   F
  0.2519285856944293  0.5647083641193902  0.4538284443729097   F   F   F
  0.6653355251307858  0.6260539723378713  0.5029608173388951   F   F   F
  0.2499999999799343  0.5625000000092442  0.3605200052333331   F   F   F
  0.6666666865533486  0.7500000000123208  0.4070133268666680   F   F   F
  0.5000000000021103  0.4999999999932783  0.4070133268666680   F   F   F
  0.0833333358191695  0.1875000000030838  0.3605200052333331   F   F   F
  0.0000000000000000  0.2500000000190425  0.4070133268666680   F   F   F
  0.0000000000000000  0.4999999999932783  0.4070133268666680   F   F   F
  0.7481991217008073  0.5643217169824268  0.4537863352260345   F   F   F
  0.3333333432766779  0.0000000000000000  0.4070133268666680   F   F   F
  0.3333333432766779  0.4999999999932783  0.4070133268666680   F   F   F
  0.3333333432766779  0.7500000000123208  0.4070133268666680   F   F   F
  0.5827683060005242  0.6861442421926824  0.4545781362477470   F   F   F
  0.6666666865533486  0.0000000000000000  0.4070133268666680   F   F   F
  0.6666666865533486  0.4999999999932783  0.4070133268666680   F   F   F
  0.8333332538436267  0.2500000000190425  0.4070133268666680   F   F   F
  0.1666666716383389  0.0000000000000000  0.4070133268666680   F   F   F
  0.1666666716383389  0.4999999999932783  0.4070133268666680   F   F   F
  0.1666666716383389  0.7500000000123208  0.4070133268666680   F   F   F
  0.5000000000021103  0.0000000000000000  0.4070133268666680   F   F   F
  0.5000000000021103  0.2500000000190425  0.4070133268666680   F   F   F
  0.5000000000021103  0.7500000000123208  0.4070133268666680   F   F   F
  0.9166666865332829  0.3124999999901945  0.3605200052333331   F   F   F
  0.3333333432766779  0.2500000000190425  0.4070133268666680   F   F   F
  0.7472770644196487  0.3141219195946334  0.4546245487576428   F   F   F
  0.0000000000000000  0.7500000000123208  0.4070133268666680   F   F   F
  0.4169080189286305  0.8104264781767370  0.4549026847252335   F   F   F
  0.5843105254629037  0.3154155028181265  0.4536580185683405   F   F   F
  0.5827283958808778  0.9371302500046994  0.4542937559959768   F   F   F
  0.6666666865533486  0.2500000000190425  0.4070133268666680   F   F   F
  0.2522632429140472  0.3144170780834443  0.4539590313172042   F   F   F
  0.1666666716383389  0.2500000000190425  0.4070133268666680   F   F   F
  0.2506818810964049  0.8108553884198599  0.4553362039279989   F   F   F
  0.5833333134730552  0.5625000000092442  0.3605200052333331   F   F   F
  0.2500508604123084  0.9360917236662942  0.4539787937103341   F   F   F
  0.0000000000000000  0.0000000000000000  0.4070133268666680   F   F   F
  0.9156552122218500  0.4369945643638644  0.4535953171821987   F   F   F
  0.0858524628632367  0.6893248055593943  0.5454479275905513   F   F   F
  0.0830251696212656  0.4389628334520381  0.5447974829161737   F   F   F
  0.0833065634057348  0.1889792108857549  0.5455438669213493   F   F   F
  0.0833333358191695  0.3124999999901945  0.3605200052333331   F   F   F
  0.9997450374222581  0.4981852878760975  0.5938119633092782   F   F   F
  0.5792488645231515  0.1842639849700731  0.5502108024371424   F   F   F
  0.9998864682387207  0.7532308781785915  0.5924092487947092   F   F   F
  0.3340839327333640  0.9998414256381167  0.5919884044956518   F   F   F
  0.9998702353980917  0.9992035105050192  0.5932935655212148   F   F   F
  0.0005292108459258  0.2514068779563488  0.5924030068334574   F   F   F
  0.3333704189866751  0.4959758453527101  0.5910604328155173   F   F   F
  0.3355365439669313  0.7410655562658235  0.5903513297488487   F   F   F
  0.6642576984174298  0.2423960221574077  0.5900447723563076   F   F   F
  0.6660776091438265  0.0006322500688754  0.5920601565584320   F   F   F
  0.4161345487455677  0.1916231770512056  0.5463981156919573   F   F   F
  0.6657975433413554  0.7416831401302701  0.5901991817328565   F   F   F
  0.1675336930052325  0.9983418209896442  0.5922978120590656   F   F   F
  0.1684799521173375  0.2485058184609557  0.5932263489615863   F   F   F
  0.1708271686077509  0.7503624611587867  0.5950076772071782   F   F   F
  0.2484328556609370  0.4356875836645173  0.5492532251738993   F   F   F
  0.1657269961479955  0.5028170435338453  0.5874184109891161   F   F   F
  0.3347980402743644  0.2546108624960368  0.5926388376610845   F   F   F
  0.4997271213088297  0.0001250852918488  0.5910446619569711   F   F   F
  0.8327667770999128  0.8743318680405352  0.4986458173503436   F   F   F
  0.4232749841090637  0.4434996128223645  0.5459135936800621   F   F   F
  0.7521269270070619  0.4356242686007548  0.5488398468088889   F   F   F
  0.7518488032313044  0.6805375996038165  0.5531833304091478   F   F   F
  0.7482910824954629  0.8081820346662951  0.5456846300978455   F   F   F
  0.4176389016100543  0.0651510666940638  0.6400984751882319   F   F   F
  0.2491816756942526  0.3164558799401362  0.6412482750516659   F   F   F
  0.6666957273327938  0.4946945355362189  0.5910988776357300   F   F   F
  0.5910810722545321  0.8100973154291609  0.6460629345973032   F   F   F
  0.4990529829551988  0.2537302541984801  0.5909206359240358   F   F   F
  0.4994414363216464  0.1256215777601071  0.4990478130056744   F   F   F
  0.5818932958920868  0.4394088485730094  0.4565347265840600   F   F   F
  0.7483628562228617  0.9370392237943932  0.6401227817131669   F   F   F
  0.0849765322803222  0.8128951337603283  0.5473300640677436   F   F   F
  0.4166155615642353  0.0654994782696079  0.5473424597195162   F   F   F
  0.4159654125256154  0.3195977799353287  0.5527238397805547   F   F   F
  0.2533308838466368  0.8125790813493836  0.5506807324777370   F   F   F
  0.5811236508464575  0.5599968110147060  0.5489047340317086   F   F   F
  0.7461630679191771  0.3121313216859463  0.5479557575528204   F   F   F
  0.5858612809696169  0.8142901698513896  0.5503352075902512   F   F   F
  0.5825613288197502  0.0614601709306797  0.5452580483912186   F   F   F
  0.5844856418196898  0.3101283122640979  0.5451432687680722   F   F   F
  0.2526509944789197  0.5590672715466098  0.5439709291529056   F   F   F
  0.0823270609024433  0.0632113299200725  0.5475799050730430   F   F   F
  0.2490958162425798  0.6831895549632918  0.5521264904341479   F   F   F
  0.7492610749786266  0.9340251854226693  0.5476036034612193   F   F   F
  0.9142548780093023  0.6887291650409324  0.5455838130607589   F   F   F
  0.9162785681949401  0.1888392174302993  0.5457211507229118   F   F   F
  0.9153579244449404  0.4375158803368393  0.5455860189976462   F   F   F
  0.5794118533651798  0.6860811189169596  0.5473533872272114   F   F   F
  0.2516321090101528  0.9373862239722754  0.5452338986756544   F   F   F
  0.4976933859656754  0.5044601729122178  0.6089709796290634   F   F   F
  0.9181691236861198  0.5637460813549922  0.5466533327580407   F   F   F
  0.4200466014519080  0.5647456045105272  0.5554984450514198   F   F   F
  0.9155701016094753  0.8127224421218742  0.5468328783354508   F   F   F
  0.0836473125998509  0.9389005820413487  0.5459087625568770   F   F   F
  0.0866802380261404  0.3135106597012722  0.5471248011424734   F   F   F
  0.8323683886583382  0.0015328202227707  0.5920937792912113   F   F   F
  0.9157727844722885  0.1869461874300526  0.4533218359719342   F   F   F
  0.9158598623560650  0.9385903739570907  0.5463991637350958   F   F   F
  0.2493921571851203  0.3136480439794838  0.5458831507320809   F   F   F
  0.5838600474628208  0.9375972327437765  0.5461736132604500   F   F   F
  0.4265816078821771  0.3039982094982037  0.6559206012794476   F   F   F
  0.9161476205772203  0.5623817904223714  0.4538793421192580   F   F   F
  0.7530527194677887  0.5690666829784163  0.6354222535959906   F   F   F
  0.9139450733434344  0.8132009598359886  0.6419088760031926   F   F   F
  0.5825032875097449  0.0665381222891384  0.6391625389100568   F   F   F
  0.5882742995309300  0.3194248969994007  0.6333382761239292   F   F   F
  0.5912452554471059  0.5648490777374846  0.6391389664174980   F   F   F
  0.2477173502075658  0.5737146760913276  0.6288603463004847   F   F   F
  0.7538661969951974  0.6923847707207500  0.6570198149998063   F   F   F
  0.2621078133995525  0.7995046335122495  0.6463761808937676   F   F   F
  0.2509877410287160  0.0594592594619527  0.6423240423569965   F   F   F
  0.9166666865332829  0.5625000000092442  0.3605200052333331   F   F   F
  0.4175875167613441  0.9349418590887097  0.6396807641363011   F   F   F
  0.5000121284311732  0.8734550681225528  0.5008905014529290   F   F   F
  0.4205122128569130  0.6761966132146355  0.6337659140075829   F   F   F
  0.8324038090585262  0.6230837699298135  0.5000334134054611   F   F   F
  0.8322401596136970  0.3728933688839149  0.4999335195527763   F   F   F
  0.9131688011921497  0.3121995289630490  0.6398530068726700   F   F   F
  0.1667938557747135  0.3762021284405890  0.4977241436207009   F   F   F
  0.5814513577264364  0.4378727623979017  0.6458542153929514   F   F   F
  0.5796348320278000  0.6853883926090916  0.6393381681225705   F   F   F
  0.9160714052154475  0.1868394207657431  0.6397029015922655   F   F   F
  0.4159823920560299  0.9371626841416614  0.5460713667183867   F   F   F
  0.1671441758964605  0.1244533221674970  0.4995337741047052   F   F   F
  0.7484119078249236  0.0597911404754683  0.5445437546533682   F   F   F
  0.1678081002445779  0.8733108127432274  0.4999372961356769   F   F   F
  0.5010075659933264  0.7563563910478805  0.5930500454598544   F   F   F
  0.5002468451850390  0.6211056630653715  0.4999927700828124   F   F   F
  0.7553028978658674  0.4345291661383186  0.6378758373365869   F   F   F
  0.2520666002318563  0.1882394989578700  0.5472783066917799   F   F   F
  0.7498746742810027  0.1836920619983573  0.5506123730381418   F   F   F
  0.0813690850093067  0.5644558764677967  0.5463832684685528   F   F   F
  0.3976764916632121  0.5504219852568752  0.6520633585108442   F   F   F
  0.1677477410181254  0.6243372640388358  0.5002053496196837   F   F   F
  0.9142046607172745  0.5626916718359283  0.6401562785819621   F   F   F
  0.8328737435184479  0.1241642449843638  0.4998844283133508   F   F   F
  0.4998052130859065  0.3727427423537293  0.5007310492772206   F   F   F
  0.7403987063289179  0.3114644023813469  0.6404158692827053   F   F   F
  0.9158681149689158  0.0625603469880005  0.6414721402269166   F   F   F
  0.7411078715688575  0.8098978147177505  0.6399651749092925   F   F   F
  0.7491822991308865  0.0675022055485499  0.6389765137249981   F   F   F
  0.0844555568408794  0.3113908059726782  0.6412173477799215   F   F   F
  0.0860220105534921  0.5625704820553210  0.6397497185574537   F   F   F
  0.0841880687350240  0.0608776709782504  0.6419933158102253   F   F   F
  0.0873051644907576  0.4363270996942390  0.6398804913279577   F   F   F
  0.0834050768788899  0.1857610098634623  0.6409429225339522   F   F   F
  0.4158798706938356  0.4181782039528699  0.6300740982610762   F   F   F
  0.6665573741062971  0.8744275468289331  0.4988806883280716   F   F   F
  0.8311799538071440  0.2512347826024381  0.5902492654235587   F   F   F
  0.8305044396959502  0.7509150236486306  0.5928340956344371   F   F   F
  0.0845450843881324  0.9357825611298551  0.6408758072560374   F   F   F
  0.8332805114506812  0.5031935141014330  0.5887563390234689   F   F   F
  0.4175125850533519  0.1870049012270627  0.6392622747607533   F   F   F
  0.0833855271355333  0.6870379356117695  0.6388002623275000   F   F   F
  0.2521246959782459  0.9303128812089057  0.6374312103211750   F   F   F
  0.5783214497645446  0.1919468093892576  0.6453297830511602   F   F   F
  0.0843885985593786  0.8126134971639800  0.6424119596048570   F   F   F
  0.2405809946968702  0.4420967759018168  0.6418397818264623   F   F   F
  0.9142875582822256  0.9369605222027459  0.6412554876683387   F   F   F
  0.9164631895359818  0.6873436630289262  0.6387798999351304   F   F   F
  0.9122590160841924  0.4361174660955740  0.6398777273065406   F   F   F
  0.2535646226951158  0.1864707854779084  0.6412023366361765   F   F   F
  0.2548457245433724  0.6774012664692179  0.6630083441853074   F   F   F
  0.5821217322528085  0.9361473569660248  0.6391732911328134   F   F   F
  0.7530359135787634  0.1950866437507202  0.6464682682226481   F   F   F
  0.9166666865332829  0.8124999999834799  0.3605200052333331   F   F   F
  0.4123731352001911  0.8128526427091813  0.6394153599726735   F   F   F
  0.0000000000000000  0.3750000000061604  0.4070133268666680   F   F   F
  0.8333332538436267  0.6249999999803961  0.4070133268666680   F   F   F
  0.6672936601479336  0.2478281897131254  0.5023556806882397   F   F   F
  0.6654241206932028  0.7519657931708750  0.5021827853669762   F   F   F
  0.1662188180312825  0.0012553533012891  0.5065959660240864   F   F   F
  0.6661381585811483  0.9999832698723168  0.5057506890654579   F   F   F
  0.5011668936745082  0.7529423767561525  0.5039502820678976   F   F   F
  0.3333245332688648  0.0011954984750631  0.5056897638791114   F   F   F
  0.1666666716383389  0.3750000000061604  0.4070133268666680   F   F   F
  0.0003665261234715  0.1228752631943593  0.6198843603163340   F   F   F
  0.3314098252230835  0.4992028153482835  0.5010890122133560   F   F   F
  0.6666666865533486  0.3750000000061604  0.4070133268666680   F   F   F
  0.3303082390264365  0.2479572244013468  0.5027822711685275   F   F   F
  0.5010737310516404  0.4998283790050593  0.5004054030474165   F   F   F
  0.1645192760797585  0.7515494114687442  0.5034556751552159   F   F   F
  0.5013097429847591  0.2478202685449062  0.5020245633636264   F   F   F
  0.0000246725843382  0.0000636997554011  0.5067920608756111   F   F   F
  0.6686781600115950  0.5000476871283865  0.5005701714405788   F   F   F
  0.3333333432766779  0.3750000000061604  0.4070133268666680   F   F   F
  0.9997588731042697  0.5000219494267384  0.5066233894605077   F   F   F
  0.9999982651401069  0.7511808833665867  0.5066180237367135   F   F   F
  0.0007791579423682  0.2498623394912087  0.5062047716432048   F   F   F
  0.6666666865533486  0.6249999999803961  0.4070133268666680   F   F   F
  0.8333332538436267  0.8749999404036828  0.4070133268666680   F   F   F
  0.3333333432766779  0.6249999999803961  0.4070133268666680   F   F   F
  0.3333333432766779  0.1249999999871179  0.4070133268666680   F   F   F
  0.6666666865533486  0.1249999999871179  0.4070133268666680   F   F   F
  0.8342194418126425  0.0001252507768541  0.5063722900782324   F   F   F
  0.3333333432766779  0.8749999404036828  0.4070133268666680   F   F   F
  0.0000000000000000  0.6249999999803961  0.4070133268666680   F   F   F
  0.1664658186245163  0.2480276795010354  0.5063691688365282   F   F   F
  0.5009552446627765  0.8770163585430950  0.6095231387734756   F   F   F
  0.5003265340927143  0.9992613221153448  0.5054125111454439   F   F   F
  0.0000000000000000  0.8749999404036828  0.4070133268666680   F   F   F
  0.8358663376301507  0.5000280991647799  0.5026935521766305   F   F   F
  0.3340547293335163  0.7512858752027469  0.5014996940628436   F   F   F
  0.3263321783573048  0.3734161352919116  0.5928146339712868   F   F   F
  0.5036784991687639  0.6250597876641280  0.5941995701874347   F   F   F
  0.5000000000021103  0.1249999999871179  0.4070133268666680   F   F   F
  0.0000000000000000  0.1249999999871179  0.4070133268666680   F   F   F
  0.1666666716383389  0.1249999999871179  0.4070133268666680   F   F   F
  0.5000000000021103  0.6249999999803961  0.4070133268666680   F   F   F
  0.8395500615971159  0.6269617494450230  0.6037065424175907   F   F   F
  0.3315270651228346  0.1196507903936421  0.6125169771601193   F   F   F
  0.9992128343681017  0.8751002631739127  0.6231555616446656   F   F   F
  0.1638147588513377  0.4999149573009802  0.5021163228757217   F   F   F
  0.8318484441178100  0.8763037112971332  0.6184419424613523   F   F   F
  0.8367541372488319  0.3732399108561353  0.6023250376301590   F   F   F
  0.8359641888224090  0.7517477917970581  0.5026538316021103   F   F   F
  0.1666666716383389  0.8749999404036828  0.4070133268666680   F   F   F
  0.8333332538436267  0.3750000000061604  0.4070133268666680   F   F   F
  0.8353673365159722  0.2485571322947848  0.5027936258736148   F   F   F
  0.9998848200290524  0.6235839623479436  0.6234022915872970   F   F   F
  0.5000000000021103  0.3750000000061604  0.4070133268666680   F   F   F
  0.8333332538436267  0.1249999999871179  0.4070133268666680   F   F   F
  0.5003782902208798  0.1222410429665572  0.6064196829546162   F   F   F
  0.5000000000021103  0.8749999404036828  0.4070133268666680   F   F   F
  0.6661000320838397  0.1259281506107897  0.6161561208009303   F   F   F
  0.3343598321605157  0.6244511037113298  0.5952806799194761   F   F   F
  0.1677687420225098  0.1230818921703190  0.6219126884981350   F   F   F
  0.6666666865533486  0.8749999404036828  0.4070133268666680   F   F   F
  0.3346213859799931  0.8788256184396133  0.6028802419382018   F   F   F
  0.1664242913228620  0.8736349142169502  0.6183058136767201   F   F   F
  0.6707461254908580  0.3740490055874730  0.5926731220747712   F   F   F
  0.1596617176318347  0.6270999196228786  0.6015996826322905   F   F   F
  0.1635453105335500  0.3712082916214143  0.6078163256555484   F   F   F
  0.1666666716383389  0.6249999999803961  0.4070133268666680   F   F   F
  0.6653187137347203  0.8812166161926740  0.6072990409494565   F   F   F
  0.6664674490691027  0.6262324009087905  0.5935430206758738   F   F   F
  0.9997869263434112  0.3744625552689698  0.6261441936799628   F   F   F
  0.8344970825573554  0.1243453329434203  0.6149958440412888   F   F   F
  0.5027795756737561  0.3706706788780565  0.5954415097105397   F   F   F
  0.5829427686493460  0.0014701938577275  0.6040900852729720   F   F   F
  0.0813785027715568  0.6259350147092917  0.5054982701595208   F   F   F
  0.5848036134296422  0.7498613488014527  0.5997597161105261   F   F   F
  0.0834232386019025  0.2484343210347220  0.6037765290569510   F   F   F
  0.7496729912012228  0.0017812308778247  0.6043386632153656   F   F   F
  0.9164202381993505  0.9999000701349772  0.6039365915931825   F   F   F
  0.4173001656860791  0.0001016937480145  0.6046371380530715   F   F   F
  0.4149385300266530  0.2485886180386530  0.5911858637016678   F   F   F
  0.2497241637485033  0.7528954632102156  0.5920003055101333   F   F   F
  0.5848215000763730  0.2478917524882434  0.5960008504135672   F   F   F
  0.2498208523216263  0.9977823260816834  0.6042654138986663   F   F   F
  0.7529933295058413  0.2479572852051248  0.5934248023612483   F   F   F
  0.2492724411126517  0.2458881115439766  0.6037584288117586   F   F   F
  0.5902560732386348  0.5014956000504469  0.5935689441184380   F   F   F