Au  C  H  O Sr Ti 
 1.0000000000000000
    23.6707801818999997    0.0000000000000000    0.0000000000000000
     0.0000000000000000   22.3170261383000010    0.0000000000000000
     0.0000000000000000    0.0000000000000000   30.0000000000000000
 Au  C   H   O   Sr  Ti 
  50   2   2 265  72  72
Selective dynamics
Cartesian
 16.9500935892219466 11.7196924256012522 22.6025569599707836   F   F   F
 12.9769329860757789  4.9045316540818833 21.2137456877496255   F   F   F
 14.7349664326907508 12.7091405807775519 21.1196773737300596   F   F   F
 17.7868248844624439  5.8428401754959953 20.8528314142965705   T   T   T
  6.9486661709577833 16.6583850516782910 20.9091769805318535   F   F   F
 13.6883758850118369 16.1942205800448242 23.8177655822941929   F   F   F
  5.6992550029595348 10.4814362805724048 21.2767037378252830   F   F   F
  6.7535301368621132 14.7858745909866567 22.9388775353871850   F   F   F
 14.2349458911027789  6.4642333973202373 23.5127163966428192   F   F   F
 12.1830072443915682 10.7962457419924291 20.3377995227548496   F   F   F
  6.8537084358626181 12.0126007651828903 23.3258256622160367   F   F   F
 11.4972905297752988 17.3398600029608865 22.6695500128699940   F   F   F
 12.1157266460084010 13.4801646164194562 23.3076531635029198   F   F   F
 17.3523566105285738 13.7259111986024998 20.8229088504782567   F   F   F
 13.3242231454611666 10.8572246885125434 22.8719958928627527   F   F   F
 15.0271783869975533 13.0379278341973528 23.9997401591548964   F   F   F
 10.1114586620527565  8.2894961358682604 24.5114534760225844   F   F   F
  8.2835134380006838 11.1546257592980869 20.9423908998221862   F   F   F
 14.1069722643056163 17.5055505804569016 21.3877141251244893   F   F   F
  8.7338074711359628  6.6819859399602883 22.6942686520375219   F   F   F
 10.2118333291364820  5.0555232875573788 20.9568784810127973   F   F   F
 10.9756695434118932 15.5191722765896962 24.9217244577836468   F   F   F
  9.2701356628608735 18.2284977666992454 21.1952012111568031   F   F   F
 18.0842588471837651  9.6306111508980887 21.1354798842156377   F   F   F
 12.9600439930391964  8.5669888768886082 24.8252990004959671   F   F   F
 16.6841399380740718  7.6505907746119641 22.7248103564452713   F   F   F
 11.4534637240909305  6.0765804453621861 23.2250878431772598   F   F   F
 16.7212985314855125 16.8925284204658119 20.6503868681541007   F   F   F
 15.5180931213582252  9.7823637466671531 24.3313425450765379   F   F   F
  8.7218545825734122 13.8145309599801731 24.6093821149194092   F   F   F
 13.5066887344093036 11.3604031893103308 25.6836780751182445   F   F   F
 15.4173032311651195  4.1981333769186273 22.2997978594408863   T   T   T
 11.1572118899798500 10.0610728357813439 26.3587933785945374   F   F   F
 12.4403854999298549  8.3799411689264058 21.9313984128984245   F   F   F
  6.6781241404300609  7.5837254422345488 21.0730985999078797   F   F   F
 15.8444418314140272 15.2014374404509258 22.4630397164765832   F   F   F
  9.4171986311238740  8.5135459092764485 20.7138127581077534   F   F   F
 10.9582620402399709 12.7919151906548407 25.9288096910806303   F   F   F
 10.7136079911692725 12.9206783846438888 21.0956261118257267   F   F   F
  7.6963795678717881  9.2662884679731317 23.0854146182874125   F   F   F
  9.9051017764669389 15.5315399742784397 20.9955186211848535   F   F   F
 18.3433819531304110  9.6026100694103000 23.8403858695341775   F   F   F
  6.0824166969297471 13.2346617199805703 20.8383656723402737   F   F   F
 15.3466784542232055  9.8915235858234034 20.8453455722277319   F   F   F
 13.3637821400842789 14.2664039365291035 25.8318831655737959   F   F   F
 12.8187268290372138 14.8721895616184963 21.0411734175251190   F   F   F
 10.5339163162463922 10.4704733850332605 22.6526075391781312   F   F   F
  8.8610197626249718 16.5073754980680540 23.3657578400941048   F   F   F
  8.9068749094794573 11.0142303148990059 24.9627569628421959   F   F   F
 14.8317678629692402  7.0577478927601138 20.8399899859713962   F   F   F
 16.9989574026186467  3.0926062631547784 22.7971698415801889   T   T   T
 18.2836630311544859  3.6098683407906176 22.8063388839574586   T   T   T
 19.1062254691475815  3.0031786425717133 23.2018432785607871   T   T   T
 16.8700101203421546  2.0660156083868442 23.1287508362930829   T   T   T
 13.6512716526543976  9.7174286946306641 16.5666762135698704   F   F   F
 17.7707664427993315  4.2365456829848958 13.6683009944466480   F   F   F
  9.8762271480437924 20.8894955201075234 13.6201501588650924   F   F   F
  9.8750629034828439 15.2915820313631805 13.6504323836994335   F   F   F
  9.8799218020983570  9.7201222746758447 13.6241508727806906   F   F   F
  2.0015895597060291 15.3326789649883324 13.5956744891168544   F   F   F
  1.9915319322572245 20.9058892317431280 13.6076736188311394   F   F   F
  1.9598572839969695  9.7480622068805793 13.5848232801473703   F   F   F
  1.9846203695739300  4.1626146087420741 13.5897261789335193   F   F   F
 21.6966627834664720 18.1246661682245609 13.6215701983111739   F   F   F
 21.6850407675952077  1.3886444180121915 13.6237524835320976   F   F   F
 17.7393985397194527 18.1482818602579741 13.5916879946677867   F   F   F
 21.6851997969856214  6.9702954576270866 13.6120191531708201   F   F   F
  5.9674888097335934 15.3465266070024988 13.6843103317776009   F   F   F
 21.6914985399265490 20.9143906625728881 13.6094690937673981   F   F   F
 13.7969186591765336  4.2487411623972280 13.6682478775113303   F   F   F
 -0.0008336752201459  2.7922033407953828 14.9558778845686984   F   F   F
 13.8061969274788563 18.0884319679043450 13.6593665291068618   F   F   F
  0.0015166714172994  8.3409804432442982 14.9459004554587445   F   F   F
 23.6688368151746538 14.0002333094919926 14.9288152207682749   F   F   F
  7.9004080804702355  2.8064498345817217 14.9548164147407192   F   F   F
  0.0013708127322571 19.5313950495448196 14.9853399537232352   F   F   F
  7.8964978265372823 19.5090101827705595 14.9755226044142553   F   F   F
 15.7676546257627965  2.8278149089524973 14.9710025215874740   F   F   F
  5.9485146749881119  9.8083038870430705 13.6510889200115084   F   F   F
  1.9725650740000149 12.5533272030000536 10.8156001569999933   F   F   F
 21.6982156369999721  1.3948141340000613 10.8156001569999933   F   F   F
  9.8724116845691867  4.1762958176454124 13.6035568043109425   F   F   F
 21.6781451830813587  6.9777987272156832 16.3908089159370078   F   F   F
 10.0186648966728971 15.3501959672144412 16.4057372590573962   F   F   F
 17.7466551666694023  9.7842268303652631 13.6688907040197503   F   F   F
 17.6710921532257146 12.4592822432844930 16.3392599426802647   F   F   F
 17.7308755168587915 15.3701717386618917 13.7205765486159841   F   F   F
 13.8361954792679978 12.5604500809219122 13.6446911316059492   F   F   F
 13.8078149347517112  1.4195744199278943 13.6142032425395225   F   F   F
 21.6982156369999721 15.3429554700000619 10.8156001569999933   F   F   F
 21.6982156369999721  9.7636982699999884 10.8156001569999933   F   F   F
 21.6982156369999721  4.1844424010000720 10.8156001569999933   F   F   F
 13.8079546360000549 20.9222120050000342 10.8156001569999933   F   F   F
 13.8079546360000549 15.3429554700000619 10.8156001569999933   F   F   F
 13.8079546360000549  9.7636982699999884 10.8156001569999933   F   F   F
 13.8079546360000549  4.1844424010000720 10.8156001569999933   F   F   F
  5.9176950450000287 20.9222120050000342 10.8156001569999933   F   F   F
 21.6982156369999721 20.9222120050000342 10.8156001569999933   F   F   F
 21.7197642230666688  1.4136380692398229 16.4247558736394517   F   F   F
  5.9176950450000287 15.3429554700000619 10.8156001569999933   F   F   F
 17.7530837259999217 20.9222120050000342 10.8156001569999933   F   F   F
 18.6602511565102915  4.7844476832535197 22.4015053268581248   T   T   T
 17.7530837259999217 15.3429554700000619 10.8156001569999933   F   F   F
 17.7530837259999217  4.1844424010000720 10.8156001569999933   F   F   F
  9.8628241350000643 20.9222120050000342 10.8156001569999933   F   F   F
  9.8628241350000643 15.3429554700000619 10.8156001569999933   F   F   F
  9.8628241350000643  9.7636982699999884 10.8156001569999933   F   F   F
  5.9176950450000287  9.7636982699999884 10.8156001569999933   F   F   F
  1.9725650740000149  1.3948141340000613 10.8156001569999933   F   F   F
 21.6661317509908038 15.3296821590538563 13.5991214889888568   F   F   F
 15.7482782445071496  8.4672368294104103 15.0799533556452854   F   F   F
  7.9168043371356696  8.4464082021122966 15.0892816569886214   F   F   F
  7.9455058934543494 13.9701308583677033 15.1161015884154679   F   F   F
  5.9178790826826821  4.2109070049201023 13.6290898251117714   F   F   F
  5.9176950450000287  4.1844424010000720 10.8156001569999933   F   F   F
  5.9311760260610740  1.3848951908237557 13.6275795492786767   F   F   F
 17.7415018811386496 20.9427136400625464 13.6598265879482721   F   F   F
 17.7530837259999217  9.7636982699999884 10.8156001569999933   F   F   F
 13.8079546360000549  1.3948141340000613 10.8156001569999933   F   F   F
  5.9534942895130900  1.3976703391497214 16.4205779052435190   F   F   F
 19.7256482699999580  0.0000000000000000 12.2103998060000407   F   F   F
  5.9176950450000287 18.1325837370000720 10.8156001569999933   F   F   F
  5.9176950450000287  6.9740706679999214 10.8156001569999933   F   F   F
  5.9176950450000287  1.3948141340000613 10.8156001569999933   F   F   F
 17.7530837259999217 12.5533272030000536 10.8156001569999933   F   F   F
 17.7530837259999217  6.9740706679999214 10.8156001569999933   F   F   F
 17.7530837259999217  1.3948141340000613 10.8156001569999933   F   F   F
  9.8628241350000643 18.1325837370000720 10.8156001569999933   F   F   F
  9.8628241350000643  6.9740706679999214 10.8156001569999933   F   F   F
 17.7530837259999217 18.1325837370000720 10.8156001569999933   F   F   F
  1.9767031776749333  6.9620090450428300 13.6215110829769834   F   F   F
  9.8628241350000643  1.3948141340000613 10.8156001569999933   F   F   F
  9.8690292331991234  1.3736285869258549 13.6598025966406169   F   F   F
  1.9755416795564948 18.1253120240019747 13.6249205596272063   F   F   F
  9.8628241350000643 12.5533272030000536 10.8156001569999933   F   F   F
 13.8079546360000549  6.9740706679999214 10.8156001569999933   F   F   F
 13.8079546360000549 18.1325837370000720 10.8156001569999933   F   F   F
  1.9883019144494050 12.5541042163615995 13.6185359482774988   F   F   F
  9.8118237668196748 18.1133156559214186 16.4310958202979265   F   F   F
 19.7256482699999580 11.1585130689999925 12.2103998060000407   F   F   F
 17.7420843680774105  1.4298867270319324 13.6017460271314565   F   F   F
  9.8628241350000643  4.1844424010000720 10.8156001569999933   F   F   F
  1.9725650740000149 20.9222120050000342 10.8156001569999933   F   F   F
  1.9725650740000149 18.1325837370000720 10.8156001569999933   F   F   F
  1.9725650740000149  9.7636982699999884 10.8156001569999933   F   F   F
 19.7256482699999580 16.7377696039999648 12.2103998060000407   F   F   F
  9.8369382028498951  6.9483289776244046 13.7211682394562615   F   F   F
  1.9823010010092135  1.3806756425329649 13.6259354485420854   F   F   F
  9.8448567836543557 12.4900436872518874 13.7361174408821221   F   F   F
  1.9725650740000149 15.3429554700000619 10.8156001569999933   F   F   F
  5.9633461735098381 12.6026113225690235 13.6148533311872981   F   F   F
 15.7490109625798542 13.9716628646508472 15.0888245201668330   F   F   F
  5.9176950450000287 12.5533272030000536 10.8156001569999933   F   F   F
 15.7805205919999434 16.7377696039999648 12.2103998060000407   F   F   F
 11.8353900909999528 11.1585130689999925 12.2103998060000407   F   F   F
  1.9725650740000149  4.1844424010000720 10.8156001569999933   F   F   F
  0.0000000000000000  5.5792565349999723 12.2103998060000407   F   F   F
  0.0000000000000000 11.1585130689999925 12.2103998060000407   F   F   F
 17.7104569420704863 12.5939825083071870 13.6135900567811259   F   F   F
  7.8902602960000570  0.0000000000000000 12.2103998060000407   F   F   F
  7.8902602960000570 11.1585130689999925 12.2103998060000407   F   F   F
  7.8902602960000570 16.7377696039999648 12.2103998060000407   F   F   F
 13.7945804683165925 15.3126989876580950 13.6373440874323197   F   F   F
 15.7805205919999434  0.0000000000000000 12.2103998060000407   F   F   F
 15.7805205919999434 11.1585130689999925 12.2103998060000407   F   F   F
 19.7256482699999580  5.5792565349999723 12.2103998060000407   F   F   F
  3.9451301480000271  0.0000000000000000 12.2103998060000407   F   F   F
  3.9451301480000271 11.1585130689999925 12.2103998060000407   F   F   F
  3.9451301480000271 16.7377696039999648 12.2103998060000407   F   F   F
 11.8353900909999528  0.0000000000000000 12.2103998060000407   F   F   F
 11.8353900909999528  5.5792565349999723 12.2103998060000407   F   F   F
 11.8353900909999528 16.7377696039999648 12.2103998060000407   F   F   F
 21.6982156369999721  6.9740706679999214 10.8156001569999933   F   F   F
  7.8902602960000570  5.5792565349999723 12.2103998060000407   F   F   F
 17.6886311268530072  7.0102670902064590 13.6387364627292129   F   F   F
  0.0000000000000000 16.7377696039999648 12.2103998060000407   F   F   F
  9.8685380721310096 18.0863088966405883 13.6470805417569743   F   F   F
 13.8310860062028080  7.0391360208171756 13.6097405570503138   F   F   F
 13.7936357646474672 20.9139602843464232 13.6288126798792444   F   F   F
 15.7805205919999434  5.5792565349999723 12.2103998060000407   F   F   F
  5.9712677709917292  7.0168541499161368 13.6187709395162067   F   F   F
  3.9451301480000271  5.5792565349999723 12.2103998060000407   F   F   F
  5.9338357030182278 18.0958808977473780 13.6600861178400077   F   F   F
 13.8079546360000549 12.5533272030000536 10.8156001569999933   F   F   F
  5.9188989511147421 20.8907834649069315 13.6193638113100093   F   F   F
  0.0000000000000000  0.0000000000000000 12.2103998060000407   F   F   F
 21.6742732509144140  9.7524191152033239 13.6078595154658970   F   F   F
  2.0321947765103614 15.3836797034475605 16.3634378277164387   F   F   F
  1.9652705396698971  9.7963450278913928 16.3439244874851823   F   F   F
  1.9719313500866607  4.2174539889326734 16.3663160076405525   F   F   F
  1.9725650740000149  6.9740706679999214 10.8156001569999933   F   F   F
 23.6647450187676647 11.1180140912473817 17.8143588992783712   F   F   F
 13.7112725427427637  4.1122241689243708 16.5063240731143672   F   F   F
 23.6680927965350811 16.8098731964862864 17.7722774638413057   F   F   F
  7.9080273340360492 22.3134872301209377 17.7596521348694800   F   F   F
 23.6677085525328081 22.2992508614217115 17.7988069656365333   F   F   F
  0.0125268336038461  5.6106538667003099 17.7720902050038099   F   F   F
  7.8911379069815704 11.0687059047018437 17.7318129844654315   F   F   F
  7.9424117752355743 16.5383793893781856 17.7105398924654942   F   F   F
 15.7234979633737399  5.4095583623068535 17.7013431706892419   F   F   F
 15.7665766701290497  0.0141099413130410 17.7618046967529786   F   F   F
  9.8502294294504757  4.2764594509558735 16.3919434707588216   F   F   F
 15.7599472940822700 16.5521620246237369 17.7059754519856583   F   F   F
  3.9656532201887096 22.2800205139839385 17.7689343617720645   F   F   F
  3.9880519116266093  5.5459108461127071 17.7967904688476928   F   F   F
  4.0436123572103950 16.7458586588797118 17.8502303162154519   F   F   F
  5.8805995163116647  9.7232511927737750 16.4775967552170854   F   F   F
  3.9228872960257846 11.2213811033275004 17.6225523296735851   F   F   F
  7.9249308166653307  5.6821572734190839 17.7791651298325704   F   F   F
 11.8289308394349124  0.0027915317277043 17.7313398587091520   F   F   F
 19.7122393235213771 19.5124871526092782 14.9593745205102238   F   F   F
 10.0192491053428689  9.8975924516826641 16.3774078104018841   F   F   F
 17.8034311580721472  9.7218381888407883 16.4651954042666340   F   F   F
 17.7968477513127681 15.1875753984543334 16.5954999122744624   F   F   F
 17.7126337258260946 18.0362195921521717 16.3705389029353015   F   F   F
  9.8858386354217664  1.4539780583495931 19.2029542556469792   F   F   F
  5.8983246707162085  7.0623541442427911 19.2374482515498855   F   F   F
 15.7812080099065124 11.0401108800359911 17.7329663290718607   F   F   F
 13.9913501310187325 18.0789629629993023 19.3818880379191931   F   F   F
 11.8129734586539179  5.6625047150249097 17.7276190777210196   F   F   F
 11.8221684529021189  2.8035000344067518 14.9714343901702467   F   F   F
 13.7738682963828385  9.8062987590041235 13.6960417975218878   F   F   F
 17.7143326659502023 20.9119288500318596 19.2036834513950829   F   F   F
  2.0114608162277148 18.1414019478261039 16.4199019220322739   F   F   F
  9.8616153781458724  1.4617535685878054 16.4202737915855188   F   F   F
  9.8462258431672538  7.1324720085593336 16.5817151934165707   F   F   F
  5.9965396648202001 18.1343485979100087 16.5204219743320735   F   F   F
 13.7556501976896861 12.4974634687797810 16.4671420209512434   F   F   F
 17.6622619605670188  6.9658428646473958 16.4386727265845458   F   F   F
 13.8677935989180732 18.1725350047341756 16.5100562277074587   F   F   F
 13.7896811569679034  1.3716082411244161 16.3577414517364836   F   F   F
 13.8352311469906581  6.9211416510246835 16.3542980630422115   F   F   F
  5.9804461530488702 12.4767189121737534 16.3191278745870747   F   F   F
  1.9487457616435604  1.4106889020630275 16.4273971521913111   F   F   F
  5.8962923105089793 15.2467591555292881 16.5637947130244534   F   F   F
 17.7355942046731698 20.8446644769082177 16.4281081038366352   F   F   F
 21.6411262475879553 15.3703867784280117 16.3675143918227484   F   F   F
 21.6890285731284393  4.2143297513280951 16.3716345216872554   F   F   F
 21.6672362172963631  9.7640533373986500 16.3675805699294550   F   F   F
 13.7151306157945196 15.3112902638638708 16.4206016168162705   F   F   F
  5.9563283390872845 20.9196728620715788 16.3570169602695756   F   F   F
 11.7807907371790730 11.2580508646133364 18.2691293888719279   F   F   F
 21.7337794965818958 12.5811360329635917 16.3995999827413037   F   F   F
  9.9428307691222706 12.6034424173514594 16.6649533515425468   F   F   F
 21.6722586163177589 18.1375479840168055 16.4049863500634920   F   F   F
  1.9799971493578110 20.9534688306818389 16.3772628767062187   F   F   F
  2.0517888604315271  6.9966255871889107 16.4137440342742309   F   F   F
 19.7028091582938210  0.0342079889768394 17.7628133787362934   F   F   F
 21.6770562778100668  4.1720829513319924 13.5996550791581008   F   F   F
 21.6791174792556056 20.9465459087572441 16.3919749120528238   F   F   F
  5.9033069318188653  6.9996915957167971 16.3764945219625346   F   F   F
 13.8204228404861880 20.9243819503405710 16.3852083978134999   F   F   F
 10.0975194698204618  6.7843359873678830 19.6776180383834109   F   F   F
 21.6859289408541436 12.5506891165600223 13.6163802635776552   F   F   F
 17.8253453879040613 12.6998760384650691 19.0626676078798276   F   F   F
 21.6337929294429046 18.1482270763504090 19.2572662800956778   F   F   F
 13.7883072738773294  1.4849330143201482 19.1748761673018109   F   F   F
 13.9249116308578351  7.1286137755593550 19.0001482837179054   F   F   F
 13.9952364752797607 12.6057516320621410 19.1741689925250434   F   F   F
  5.8636629440059593 12.8036054222565099 18.8658103890146371   F   F   F
 17.8446010356382310 15.4519690259358686 19.7105944499941010   F   F   F
  6.2042964349392751 17.8425658037848187 19.3912854268130737   F   F   F
  5.9410756462422976  1.3269538475763154 19.2697212707099403   F   F   F
 21.6982156369999721 12.5533272030000536 10.8156001569999933   F   F   F
  9.8846223159631901 20.8651219070735614 19.1904229240889421   F   F   F
 11.8356771803783118 19.4929195859216584 15.0267150435879167   F   F   F
  9.9538521543403178 15.0906974917409578 19.0129774202274184   F   F   F
 19.7036475868006384 13.9053767798740786 15.0010024021637971   F   F   F
 19.6997738767651818  8.3218710601810368 14.9980055865832895   F   F   F
 21.6154179619885589  6.9673650482332841 19.1955902061800323   F   F   F
  3.9481406957347653  8.3957127336927400 14.9317243086210070   F   F   F
 13.7634072752096976  9.7720178836835760 19.3756264617886202   F   F   F
 13.7204086947025719 15.2958306727444509 19.1801450436772107   F   F   F
 21.6841248637790471  4.1697002368939158 19.1910870477678976   F   F   F
  9.8466277618992990 20.9146841178288412 16.3821410015515241   F   F   F
  3.9564330463299968  2.7774280438102279 14.9860132231411836   F   F   F
 17.7154937556400967  1.3343604448298489 16.3363126396011360   F   F   F
  3.9721486536316783 19.4897002348506767 14.9981188840703776   F   F   F
 11.8592399640968207 16.8796253488858738 17.7915013637956640   F   F   F
 11.8412331090640777 13.8612313172761166 14.9997831024843791   F   F   F
 17.8786088661350249  9.6973987585626222 19.1362751200976078   F   F   F
  5.9666130852872161  4.2009458185032154 16.4183492007533864   F   F   F
 17.7501185788794125  4.0994605490156042 16.5183711911441939   F   F   F
  1.9260697248575906 12.5969765490489305 16.3914980540566155   F   F   F
  9.4133128176690501 12.2837818320727195 19.5619007553253752   F   F   F
  3.9707199036503882 13.9333510406694181 15.0061604885905133   F   F   F
 21.6399375651071040 12.5576047481661401 19.2046883574587781   F   F   F
 19.7147713021013224  2.7709767007583230 14.9965328494005927   F   F   F
 11.8307793327242265  8.3185095239697411 15.0219314783167004   F   F   F
 17.5258150244749409  6.9509592090944814 19.2124760784812061   F   F   F
 21.6793128250403200  1.3961608989523648 19.2441642068074863   F   F   F
 17.5426015189822166 18.0745107004081582 19.1989552472786826   F   F   F
 17.7337295188976789  1.5064484856199254 19.1692954117500349   F   F   F
  1.9991289211204832  6.9493167561185922 19.2365204333977253   F   F   F
  2.0362081026167793 12.5549001526647093 19.1924915567235814   F   F   F
  1.9927972689653772  1.3586085744604506 19.2597994743067495   F   F   F
  2.0665813574054015  9.7375232887249865 19.1964147398386551   F   F   F
  1.9742632408547012  4.1456333125999567 19.2282876760186063   F   F   F
  9.8442010012707062  9.3324939080836167 18.9022229478323958   F   F   F
 15.7779330810947052 19.5146224186308324 14.9664206498422327   F   F   F
 19.6746779781707346  5.6068132101887542 17.7074779627068004   F   F   F
 19.6586880321348367 16.7581902104087170 17.7850228690330212   F   F   F
  2.0012481080117315 20.8838838765003096 19.2262742176810235   F   F   F
 19.7243998164102017 11.2297828068246712 17.6626901707040282   F   F   F
  9.8828486239747271  4.1733932686745030 19.1778682428226510   F   F   F
  1.9738004831770475 15.3326435670515160 19.1640078698249106   F   F   F
  5.9679882569293516 20.7618168867364012 19.1229363096353389   F   F   F
 13.6893199118543052  4.2836819623034055 19.3598934915348018   F   F   F
  1.9975439663575709 18.1351166565439641 19.2723587881456382   F   F   F
  5.6947398414124830  9.8662853034589766 19.2551934547938579   F   F   F
 21.6418998151446971 20.9101724645539342 19.2376646300502507   F   F   F
 21.6933987043091783 15.3394664938114129 19.1633969980538907   F   F   F
 21.5938826386852298  9.7328448902241202 19.1963318191961783   F   F   F
  6.0020724457225132  4.1614733935398407 19.2360700990852678   F   F   F
  6.0323971259632554 15.1175817699110393 19.8902503255592471   F   F   F
 13.7792755632630932 20.8920250347112670 19.1751987339844625   F   F   F
 17.8249475793991579  4.3537537278180105 19.3940480466794973   F   F   F
 21.6982156369999721 18.1325837370000720 10.8156001569999933   F   F   F
  9.7611938362446313 18.1404536739270554 19.1824607991803049   F   F   F
  0.0000000000000000  8.3688848019999824 12.2103998060000407   F   F   F
 19.7256482699999580 13.9481413360000008 12.2103998060000407   F   F   F
 15.7953615461372081  5.5307881876353910 15.0706704206472857   F   F   F
 15.7511080886629795 16.7816402613019804 15.0654835610092501   F   F   F
  3.9345291037137122  0.0280157524376500 15.1978789807225656   F   F   F
 15.7680099225499415 -0.0003733666968611 15.1725206719637988   F   F   F
 11.8630113746149632 16.8034347027007591 15.1185084620369352   F   F   F
  7.8900517562417498  0.0266799707163234 15.1706929163733300   F   F   F
  3.9451301480000271  8.3688848019999824 12.2103998060000407   F   F   F
  0.0086759592996320  2.7422104604590154 18.5965308094899946   F   F   F
  7.8447291229775624 11.1407222784406503 15.0326703664006196   F   F   F
 15.7805205919999434  8.3688848019999824 12.2103998060000407   F   F   F
  7.8186537182652067  5.5336678581451570 15.0834681350558473   F   F   F
 11.8608061426479168 11.1546829989200855 15.0121620914225495   F   F   F
  3.8942996197693085 16.7723478599719122 15.1036702546564179   F   F   F
 11.8663927292370097  5.5306114107171522 15.0607369009088927   F   F   F
  0.0005840193204292  0.0014215891062584 15.2037618262682948   F   F   F
 15.8281337380717542 11.1595773040407433 15.0171051432173339   F   F   F
  7.8902602960000570  8.3688848019999824 12.2103998060000407   F   F   F
 23.6650725201551886 11.1590029150802987 15.1987016838152940   F   F   F
 -0.0000410654871973 16.7641234086833251 15.1985407121013516   F   F   F
  0.0184432763807744  5.5761843614020439 15.1861431492961891   F   F   F
 15.7805205919999434 13.9481413360000008 12.2103998060000407   F   F   F
 19.7256482699999580 19.5273965409999306 12.2103998060000407   F   F   F
  7.8902602960000570 13.9481413360000008 12.2103998060000407   F   F   F
  7.8902602960000570  2.7896282670000101 12.2103998060000407   F   F   F
 15.7805205919999434  2.7896282670000101 12.2103998060000407   F   F   F
 19.7466250306144033  0.0027952248608708 15.1911687023468804   F   F   F
  7.8902602960000570 19.5273965409999306 12.2103998060000407   F   F   F
  0.0000000000000000 13.9481413360000008 12.2103998060000407   F   F   F
  3.9403758004608753  5.5352402064464448 15.1910750650958306   F   F   F
 11.8580014773824427 19.5723969973228833 18.2856941632043153   F   F   F
 11.8431194076804811 22.3005410446403260 15.1623753343633609   F   F   F
  0.0000000000000000 19.5273965409999306 12.2103998060000407   F   F   F
 19.7856083394931161 11.1591401589448171 15.0808065652990173   F   F   F
  7.9073360667776900 16.7664665142353577 15.0449908218853174   F   F   F
  7.7245372601763584  8.3335376517725930 17.7844390191387127   F   F   F
 11.9224630361730757 13.9494756193005998 17.8259871056230352   F   F   F
 11.8353900909999528  2.7896282670000101 12.2103998060000407   F   F   F
  0.0000000000000000  2.7896282670000101 12.2103998060000407   F   F   F
  3.9451301480000271  2.7896282670000101 12.2103998060000407   F   F   F
 11.8353900909999528 13.9481413360000008 12.2103998060000407   F   F   F
 19.8728049597658725 13.9919217500788946 18.1111962725277600   F   F   F
  7.8475042828730572  2.6702498166831385 18.3755093148035336   F   F   F
 23.6521473572605814 19.5296354468854219 18.6946668493398676   F   F   F
  3.8776231473210476 11.1566151690130884 15.0634896862715912   F   F   F
 19.6905016653681919 19.5564928301074694 18.5532582738405729   F   F   F
 19.8066232491124019  8.3296048464332060 18.0697511289048478   F   F   F
 19.7879245535555910 16.7767751189442755 15.0796149480633623   F   F   F
  3.9451301480000271 19.5273965409999306 12.2103998060000407   F   F   F
 19.7256482699999580  8.3688848019999824 12.2103998060000407   F   F   F
 19.7737965938087896  5.5470560182836595 15.0838087762085387   F   F   F
 23.6680537821262860 13.9165395871437578 18.7020687476189877   F   F   F
 11.8353900909999528  8.3688848019999824 12.2103998060000407   F   F   F
 19.7256482699999580  2.7896282670000101 12.2103998060000407   F   F   F
 11.8443445156134022  2.7280565510577151 18.1925904886385652   F   F   F
 11.8353900909999528 19.5273965409999306 12.2103998060000407   F   F   F
 15.7671074386130972  2.8103418287287059 18.4846836240278449   F   F   F
  7.9145580887285529 13.9358916036160601 17.8584203975843110   F   F   F
  3.9712170138086429  2.7468218047164066 18.6573806549440881   F   F   F
 15.7805205919999434 19.5273965409999306 12.2103998060000407   F   F   F
  7.9207492716951382 19.6127742977244601 18.0864072581460533   F   F   F
  3.9393928168319374 19.4969332159111488 18.5491744103015890   F   F   F
 15.8770840943551459  8.3476614347007061 17.7801936622432137   F   F   F
  3.7793174215277086 13.9950052975496639 18.0479904789686572   F   F   F
  3.8712450954201842  8.2842651468688260 18.2344897696665349   F   F   F
  3.9451301480000271 13.9481413360000008 12.2103998060000407   F   F   F
 15.7486130237190842 19.6661342570762017 18.2189712284836283   F   F   F
 15.7758044853063506 13.9756448597317977 17.8062906202761688   F   F   F
 23.6657365622124090  8.3568906337521565 18.7843258103988617   F   F   F
 19.7531970036520192  2.7750180454738715 18.4498753212386042   F   F   F
 11.9011848157224946  8.2722672292230452 17.8632452913161082   F   F   F
 13.7987101353269033  0.0328103547513062 18.1227025581890580   F   F   F
  1.9262926506376916 13.9690080841444484 15.1649481047856867   F   F   F
 13.8427577830738695 16.7346753213029622 17.9927914833158624   F   F   F
  1.9746931430077554  5.5443152361827561 18.1132958717085728   F   F   F
 17.7453445830316561  0.0397517760587810 18.1301598964608708   F   F   F
 21.6923820126612128 22.3147960008903361 18.1180977477953924   F   F   F
  9.8778204918256840  0.0022695020325056 18.1391141415921453   F   F   F
  9.8219187332616684  5.5477586864524202 17.7355759110499740   F   F   F
  5.9111657861995655 16.8023877318697998 17.7600091653039804   F   F   F
 13.8431811739568182  5.5322067197490554 17.8800255124070020   F   F   F
  5.9134544801601514 22.2675342514987094 18.1279624169600488   F   F   F
 17.8239395811697641  5.5336692151047098 17.8027440708373845   F   F   F
  5.9004731589832495  5.4874914124241254 18.1127528643528457   F   F   F
 13.9718217606632518 11.1918904145681903 17.8070683235532101   F   F   F
  1.9669741430269292  2.7855831823029855 15.2048623279672430   F   F   F