Au  C  H  O Sr Ti                       
   1.00000000000000     
    23.6707801818999997    0.0000000000000000    0.0000000000000000
     0.0000000000000000   22.3170261383000010    0.0000000000000000
     0.0000000000000000    0.0000000000000000   30.0000000000000000
   Au   C    H    O    Sr   Ti
    50     1     3   264    72    72
Selective dynamics
Direct
  0.7171634333039236  0.5259837736035777  0.7531684089493567   F   F   F
  0.6228428269105564  0.5702016525961469  0.7041318049993706   F   F   F
  0.7209811507209096  0.2584249890853982  0.6910234857377375   F   F   F
  0.2934100815462912  0.7463452592434692  0.6976624056951408   F   F   F
  0.5123444504919377  0.6035476266473623  0.7765122895435397   F   F   F
  0.5782649009627221  0.7252652710876788  0.7936575359449165   F   F   F
  0.2405433179161989  0.4689774613635791  0.7089219724948208   F   F   F
  0.2843908340479473  0.6616946478444063  0.7650655770296879   F   F   F
  0.6007222471476794  0.2884864872851338  0.7844478877279428   F   F   F
  0.5144949840916837  0.4842189811093007  0.6780698288490896   F   F   F
  0.5631949812847026  0.4858842434181767  0.7623073143030581   F   F   F
  0.5547188185275829  0.2133036899280896  0.7103522868821130   F   F   F
  0.5496467304327837  0.3848543551017514  0.8285668176548455   F   F   F
  0.3913876719354903  0.8170405305113704  0.7065631712710427   F   F   F
  0.4635319560753501  0.6949640798240111  0.8301346856983756   F   F   F
  0.4383048675655630  0.2278557290888443  0.6973844361924932   F   F   F
  0.3704583451916221  0.2984559393811068  0.7554305068866540   F   F   F
  0.3493878796442971  0.4999550473805385  0.6979213109816413   F   F   F
  0.4297279170641986  0.3711992637088812  0.8152683070093190   F   F   F
  0.5959955284143348  0.7845712257458715  0.7130397465569729   F   F   F
  0.6351246304532836  0.5840332408442279  0.8000533079039656   F   F   F
  0.7336960625924789  0.6155609591345410  0.6937094944158488   F   F   F
  0.4854735667968484  0.7774002608330051  0.7560562178801646   F   F   F
  0.7641795373484115  0.4317283852125939  0.7044819772866759   F   F   F
  0.4855153485728962  0.2695813407254164  0.7749570357398028   F   F   F
  0.2890090309339755  0.5372849631931302  0.7776192141087037   F   F   F
  0.6162043462421778  0.3211123584657258  0.6960823315696487   F   F   F
  0.3683337469844972  0.6183045340507860  0.8201122748592553   F   F   F
  0.5698100876016525  0.5100264606567890  0.8567242998843483   F   F   F
  0.6667345965823444  0.1919526227312005  0.7499836055504048   T   T   T
  0.4710948216396318  0.4502175641198747  0.8787542985424110   F   F   F
  0.5171483277199940  0.3772492984995139  0.7326238950062915   F   F   F
  0.2825997119845027  0.3392728101132576  0.7022726721937218   F   F   F
  0.6696268076522358  0.6812045577574466  0.7486992458184432   F   F   F
  0.3976956322873022  0.3815770119296786  0.6902231792902001   F   F   F
  0.4525327045913272  0.5797983506514868  0.7026172255019318   F   F   F
  0.3755400289253572  0.4924633523206552  0.8326332960085594   F   F   F
  0.3258599348455533  0.4143316479996599  0.7691065556527334   F   F   F
  0.4204148462553619  0.6970611077816784  0.6992975433163053   F   F   F
  0.6998832799473291  0.3458099963906065  0.7569311765901432   F   F   F
  0.7744466583490777  0.4289547144615042  0.7944957291183172   F   F   F
  0.2566299228308395  0.5926883491483039  0.6945687665021367   F   F   F
  0.6488693617517711  0.4451507036773847  0.6946314834967779   F   F   F
  0.5644317349293928  0.6393319931579029  0.8610404617671321   F   F   F
  0.5423340991339529  0.6663626290020304  0.7011643276227844   F   F   F
  0.4439649870181768  0.4740825703197871  0.7562634103113766   F   F   F
  0.3740157144340444  0.7387401126885536  0.7784255674131657   F   F   F
  0.4625921142101177  0.5729737194475604  0.8639220735626338   F   F   F
  0.6563366702309139  0.4423568336660395  0.8126287014785802   F   F   F
  0.7061475136242663  0.7572713180128972  0.6882560271771681   F   F   F
  0.7294185319589630  0.1265695516527074  0.7512802435697239   T   T   T
  0.7606749202442700  0.1403076053192294  0.7758673250537171   T   T   T
  0.7468085483835409  0.1225781899405831  0.7178674287609326   T   T   T
  0.7068580144949053  0.0860076140542318  0.7605801165986699   T   T   T
  0.2494150868908847  0.3137682806875759  0.5459448354168615   F   F   F
  0.7507875196568037  0.1898399620719573  0.4556804857881929   F   F   F
  0.4171788047846690  0.9358378221454586  0.4540067469162565   F   F   F
  0.4169982077744550  0.6846822348722768  0.4547319930411575   F   F   F
  0.4164630563500253  0.4354722644200493  0.4538044165942239   F   F   F
  0.0845697969386592  0.6868781548362790  0.4530202482996373   F   F   F
  0.0838749184419285  0.9366654253670106  0.4534788623054524   F   F   F
  0.0828101006317752  0.4367951192395552  0.4528783958882769   F   F   F
  0.0838389898232990  0.1866006281421946  0.4529769794064862   F   F   F
  0.9165787579712514  0.8121400621249819  0.4540735574533699   F   F   F
  0.7464480848845483  0.5579536075016662  0.5445821396403261   F   F   F
  0.9161814703644211  0.5623255724551584  0.4539109447635141   F   F   F
  0.9161064311567628  0.0622695729050733  0.4540878138143754   F   F   F
  0.9162194575307367  0.3121667506910271  0.4538720231004731   F   F   F
  0.4171505626219840  0.1871593489534149  0.4535402532827320   F   F   F
  0.2522140399091697  0.6875958582269917  0.4561873547811004   F   F   F
  0.9164782726752989  0.9371493733041234  0.4536446831030503   F   F   F
  0.5825779513292133  0.1902523311684661  0.4554793307057423   F   F   F
  0.0000713670379682  0.1251131625049808  0.4984245810472885   F   F   F
  0.5832550602227613  0.8105023890246486  0.4553578312707245   F   F   F
  0.0000044914131294  0.3734908658186527  0.4983695718718266   F   F   F
  0.9999616565079421  0.6271443199953239  0.4976861804463937   F   F   F
  0.3336188750669891  0.1256641170154111  0.4985060593469655   F   F   F
  0.0000424837058972  0.8751399468849783  0.4995236378842947   F   F   F
  0.3334555222952318  0.8738367943070600  0.4994108569173363   F   F   F
  0.6661206677909135  0.1266228643637106  0.4990043775055142   F   F   F
  0.2511580947864331  0.4392497261469330  0.4548974824736760   F   F   F
  0.0833333358191695  0.5625000000092442  0.3605200052333331   F   F   F
  0.9166666865332829  0.0625000000159659  0.3605200052333331   F   F   F
  0.7492336873195384  0.8132477634927326  0.4530309331961462   F   F   F
  0.7496403163949594  0.4383777333902188  0.4557161228095907   F   F   F
  0.2505265944476491  0.0620340301537325  0.4542489513668571   F   F   F
  0.7490879124742946  0.6886832070571955  0.4573808141120637   F   F   F
  0.2498700247011456  0.1884816532135503  0.4540902467847658   F   F   F
  0.2500814819395245  0.9360430482791244  0.4541053289146575   F   F   F
  0.6654135042753282  0.6260763997833720  0.5029871094103839   F   F   F
  0.5844779435699721  0.5627552189422573  0.4548828223114825   F   F   F
  0.5832388043605192  0.0637032752943512  0.4538530931017917   F   F   F
  0.9166666865332829  0.6874999999963620  0.3605200052333331   F   F   F
  0.9166666865332829  0.4374999701794380  0.3605200052333331   F   F   F
  0.9166666865332829  0.1875000000030838  0.3605200052333331   F   F   F
  0.5833333134730552  0.9375000000154046  0.3605200052333331   F   F   F
  0.5833333134730552  0.6874999999963620  0.3605200052333331   F   F   F
  0.5833333134730552  0.4374999701794380  0.3605200052333331   F   F   F
  0.5833333134730552  0.1875000000030838  0.3605200052333331   F   F   F
  0.2499999999799343  0.9375000000154046  0.3605200052333331   F   F   F
  0.9166666865332829  0.9375000000154046  0.3605200052333331   F   F   F
  0.2499999999799343  0.6874999999963620  0.3605200052333331   F   F   F
  0.2499999999799343  0.1875000000030838  0.3605200052333331   F   F   F
  0.7499999404149307  0.9375000000154046  0.3605200052333331   F   F   F
  0.7499999404149307  0.6874999999963620  0.3605200052333331   F   F   F
  0.7499999404149307  0.4374999701794380  0.3605200052333331   F   F   F
  0.7499999404149307  0.1875000000030838  0.3605200052333331   F   F   F
  0.4166666269218169  0.9375000000154046  0.3605200052333331   F   F   F
  0.4166666269218169  0.6874999999963620  0.3605200052333331   F   F   F
  0.4166666269218169  0.4374999701794380  0.3605200052333331   F   F   F
  0.2499999999799343  0.4374999701794380  0.3605200052333331   F   F   F
  0.0833333358191695  0.0625000000159659  0.3605200052333331   F   F   F
  0.9153979760723487  0.6867727602967406  0.4531114043769975   F   F   F
  0.6654081595885728  0.3785561676605198  0.5029950143287110   F   F   F
  0.3343282480912464  0.3784860414969060  0.5029501452370084   F   F   F
  0.3356902610131272  0.6255180145150803  0.5041366310318480   F   F   F
  0.9175599176494345  0.0633724950298600  0.5474230873228478   F   F   F
  0.7494621198819331  0.9384794188930172  0.4553263343932912   F   F   F
  0.5826848831065945  0.4394927370434445  0.4562721633164557   F   F   F
  0.9155176039658244  0.3128697070970645  0.5467412370091012   F   F   F
  0.2519674301813595  0.5646053234751491  0.4538436659262359   F   F   F
  0.5833333134730552  0.0625000000159659  0.3605200052333331   F   F   F
  0.2499999999799343  0.8124999999834799  0.3605200052333331   F   F   F
  0.2499999999799343  0.5625000000092442  0.3605200052333331   F   F   F
  0.2499999999799343  0.3124999999901945  0.3605200052333331   F   F   F
  0.2499999999799343  0.0625000000159659  0.3605200052333331   F   F   F
  0.7499999404149307  0.5625000000092442  0.3605200052333331   F   F   F
  0.7499999404149307  0.3124999999901945  0.3605200052333331   F   F   F
  0.7499999404149307  0.0625000000159659  0.3605200052333331   F   F   F
  0.4166666269218169  0.8124999999834799  0.3605200052333331   F   F   F
  0.4166666269218169  0.5625000000092442  0.3605200052333331   F   F   F
  0.4166666269218169  0.3124999999901945  0.3605200052333331   F   F   F
  0.7499999404149307  0.8124999999834799  0.3605200052333331   F   F   F
  0.0835580975381873  0.3120506428335830  0.4539622899366478   F   F   F
  0.4166666269218169  0.0625000000159659  0.3605200052333331   F   F   F
  0.4168934881716240  0.0615746299003135  0.4553576175250598   F   F   F
  0.0834980215784711  0.8121038966099263  0.4541883310843957   F   F   F
  0.0839302362282339  0.5625052415689495  0.4538837759601648   F   F   F
  0.4160587075294515  0.5594951344958261  0.4578563430713700   F   F   F
  0.0836861025730755  0.0618770182425550  0.4542149675442531   F   F   F
  0.4155228224823091  0.3113852689110885  0.4573473751259129   F   F   F
  0.8333332538436267  0.7500000000123208  0.4070133268666680   F   F   F
  0.0833333358191695  0.4374999701794380  0.3605200052333331   F   F   F
  0.0833333358191695  0.6874999999963620  0.3605200052333331   F   F   F
  0.0833333358191695  0.9375000000154046  0.3605200052333331   F   F   F
  0.4166666269218169  0.1875000000030838  0.3605200052333331   F   F   F
  0.0833333358191695  0.8124999999834799  0.3605200052333331   F   F   F
  0.8333332538436267  0.4999999999932783  0.4070133268666680   F   F   F
  0.2510761856986221  0.0625919505292316  0.5472548011579192   F   F   F
  0.4146889155586706  0.8118907252105245  0.5479784366195162   F   F   F
  0.5833333134730552  0.3124999999901945  0.3605200052333331   F   F   F
  0.2522565328253066  0.3141435775128798  0.4541614191940511   F   F   F
  0.5833333134730552  0.8124999999834799  0.3605200052333331   F   F   F
  0.5833333134730552  0.5625000000092442  0.3605200052333331   F   F   F
  0.2505530678868482  0.8107757412233667  0.4553674051169025   F   F   F
  0.8333332538436267  0.2500000000190425  0.4070133268666680   F   F   F
  0.5843056443724706  0.3154061441651308  0.4535716462204959   F   F   F
  0.7484857887273506  0.8082550401682767  0.5456219701277831   F   F   F
  0.5000000000021103  0.4999999999932783  0.4070133268666680   F   F   F
  0.0833333358191695  0.1875000000030838  0.3605200052333331   F   F   F
  0.0000000000000000  0.0000000000000000  0.4070133268666680   F   F   F
  0.0000000000000000  0.2500000000190425  0.4070133268666680   F   F   F
  0.0000000000000000  0.4999999999932783  0.4070133268666680   F   F   F
  0.7481826815787329  0.5642787330758452  0.4537702633802780   F   F   F
  0.3333333432766779  0.0000000000000000  0.4070133268666680   F   F   F
  0.3333333432766779  0.4999999999932783  0.4070133268666680   F   F   F
  0.3333333432766779  0.7500000000123208  0.4070133268666680   F   F   F
  0.6666666865533486  0.0000000000000000  0.4070133268666680   F   F   F
  0.6666666865533486  0.2500000000190425  0.4070133268666680   F   F   F
  0.6666666865533486  0.4999999999932783  0.4070133268666680   F   F   F
  0.6666666865533486  0.7500000000123208  0.4070133268666680   F   F   F
  0.1666666716383389  0.0000000000000000  0.4070133268666680   F   F   F
  0.1666666716383389  0.2500000000190425  0.4070133268666680   F   F   F
  0.1666666716383389  0.4999999999932783  0.4070133268666680   F   F   F
  0.1666666716383389  0.7500000000123208  0.4070133268666680   F   F   F
  0.5000000000021103  0.0000000000000000  0.4070133268666680   F   F   F
  0.5000000000021103  0.2500000000190425  0.4070133268666680   F   F   F
  0.5000000000021103  0.7500000000123208  0.4070133268666680   F   F   F
  0.9166666865332829  0.3124999999901945  0.3605200052333331   F   F   F
  0.3333333432766779  0.2500000000190425  0.4070133268666680   F   F   F
  0.7473975141841080  0.3141821828639237  0.4546594458941939   F   F   F
  0.0000000000000000  0.7500000000123208  0.4070133268666680   F   F   F
  0.4166482853377644  0.8099487011524076  0.4551494587180969   F   F   F
  0.7496271792385087  0.0642073408475454  0.4533279832511070   F   F   F
  0.5827727963399951  0.6861168187959592  0.4545593593504336   F   F   F
  0.8333332538436267  0.0000000000000000  0.4070133268666680   F   F   F
  0.9157991233277869  0.1869030028736489  0.4532157655293716   F   F   F
  0.4159139190794647  0.9372140380264185  0.5460501152012185   F   F   F
  0.4986378286789233  0.2527936207764583  0.5904952145969915   F   F   F
  0.4156979088622421  0.1914807368888773  0.5464669242889713   F   F   F
  0.0865326761634009  0.6896567499638877  0.5451542410750250   F   F   F
  0.0825273829440505  0.4386190113494592  0.5450777496399510   F   F   F
  0.0835679796068760  0.1888937281525926  0.5455893722363783   F   F   F
  0.4994745738995903  0.1256275636975488  0.4995733439166301   F   F   F
  0.9996726981446002  0.5006813286216030  0.5944011589585827   F   F   F
  0.5807188698485746  0.1852927318523925  0.5498275634298011   F   F   F
  0.9995992110572516  0.7533136062733163  0.5923101974905691   F   F   F
  0.3340258562640770  0.9998338272227940  0.5920210906249892   F   F   F
  0.9998395127261830  0.9992488713774819  0.5932159292564094   F   F   F
  0.0007995468768485  0.2499279435269699  0.5918912560076848   F   F   F
  0.3333139039443935  0.4964369286933419  0.5908785677614716   F   F   F
  0.3359294800665751  0.7411534758937890  0.5905122621486143   F   F   F
  0.6635260285532780  0.2479595104026373  0.5901702003151712   F   F   F
  0.6659917843963257  0.0004903135231800  0.5919120809083296   F   F   F
  0.6660130723969218  0.7418604203149215  0.5899414312857516   F   F   F
  0.6668461634279055  0.4941886025675828  0.5912968227629918   F   F   F
  0.1674579884233864  0.9983754262876374  0.5922986071371241   F   F   F
  0.1683455936565537  0.2489411015836609  0.5930168917802234   F   F   F
  0.1707509908567175  0.7500388740349422  0.5950761916990430   F   F   F
  0.2485099373216144  0.4359981027178748  0.5489766352067420   F   F   F
  0.1655159033958427  0.5026727056347298  0.5874254480875294   F   F   F
  0.3346904596285682  0.2546162329809150  0.5927273518432727   F   F   F
  0.4996590826114442  0.0000682473783726  0.5910188322309153   F   F   F
  0.8328064073534733  0.8744462361099323  0.4985187819280270   F   F   F
  0.7485813642724750  0.9372702240284028  0.6402485337609036   F   F   F
  0.8322400974278494  0.0020579629790163  0.5922589303340899   F   F   F
  0.7485276978351507  0.1837152643606146  0.5508639904873007   F   F   F
  0.4232226664229941  0.6880945541519523  0.5466228156774946   F   F   F
  0.4231321903957550  0.4439474269167221  0.5455816625311058   F   F   F
  0.7519952715786573  0.4352700893431845  0.5488575810214158   F   F   F
  0.5827267886284986  0.3111374885645191  0.5448549274785748   F   F   F
  0.2531174687075648  0.8126231438731892  0.5510799061505764   F   F   F
  0.5827196781000907  0.9371623458962191  0.4543092292155251   F   F   F
  0.5830870133266473  0.0621686615653161  0.5455165493299319   F   F   F
  0.5861147467489047  0.8146142087941755  0.5503712593540087   F   F   F
  0.7479490099515758  0.3117141560433438  0.5480780749433407   F   F   F
  0.5812839760421298  0.5601301182648299  0.5491721265415990   F   F   F
  0.2523390254118212  0.5590597698922934  0.5439678340399681   F   F   F
  0.4159886629377780  0.3197331687109113  0.5525675707120286   F   F   F
  0.5766992512545457  0.4358162804843246  0.5521287733128517   F   F   F
  0.4165196580768011  0.0654433570861954  0.5473619748003884   F   F   F
  0.0848699761628353  0.8129285074758599  0.5473322661596001   F   F   F
  0.0824530418825447  0.5643232395955096  0.5462801033095133   F   F   F
  0.0863542631385386  0.3134610228817607  0.5468721866519672   F   F   F
  0.5013945191970706  0.7564272075509351  0.5930210556285758   F   F   F
  0.0823222954964820  0.0632511763644530  0.5475954633722750   F   F   F
  0.9137510299822580  0.6892346267655967  0.5452320669949913   F   F   F
  0.5837280561194191  0.9378120678663393  0.5461642175133079   F   F   F
  0.9166241555814238  0.1888999296457285  0.5454528761751760   F   F   F
  0.9159690592457892  0.4376228386561252  0.5457723530965595   F   F   F
  0.5795304077950050  0.6863386451387612  0.5472030371880621   F   F   F
  0.2515135890987068  0.9373324623104153  0.5452841761938529   F   F   F
  0.4976595019871866  0.5044558260883250  0.6089953266334049   F   F   F
  0.9171843524418648  0.5637407317554377  0.5467507982354576   F   F   F
  0.4201853123088028  0.5651119937451199  0.5554384293562435   F   F   F
  0.9154597571971479  0.8129779491308256  0.5469246667807468   F   F   F
  0.0836199493710623  0.9389149492033937  0.5457941040161174   F   F   F
  0.2492783916443884  0.6832524865687617  0.5521322177590875   F   F   F
  0.7494754914512285  0.9341457430052955  0.5476083255121011   F   F   F
  0.7519912859467155  0.6803003200126412  0.5532043573146197   F   F   F
  0.9157622849073093  0.9386280800962155  0.5464036730193982   F   F   F
  0.4177548733661212  0.0651403302152929  0.6400805150902826   F   F   F
  0.0833333358191695  0.3124999999901945  0.3605200052333331   F   F   F
  0.4128874474723006  0.8127974477566937  0.6396826481075593   F   F   F
  0.9157920050709762  0.0628024508350435  0.6413318511486068   F   F   F
  0.9125694600472514  0.5617201932255682  0.6419290696101001   F   F   F
  0.9150397518675817  0.3118398420504747  0.6396604206612864   F   F   F
  0.9141333711071908  0.8132599850023112  0.6415410730541851   F   F   F
  0.5826253095269465  0.0665829791281141  0.6387459843402965   F   F   F
  0.5833780871443039  0.3207608579440233  0.6333314695481178   F   F   F
  0.5913119325168239  0.5648062636075366  0.6394172961086397   F   F   F
  0.2475593131013909  0.5739343257448937  0.6287264197455258   F   F   F
  0.7540264183015779  0.6931463145844390  0.6567727944492745   F   F   F
  0.2621258595268401  0.7989185535468621  0.6466819894456961   F   F   F
  0.2510098947863071  0.0594441861834625  0.6423147400075919   F   F   F
  0.9166666865332829  0.5625000000092442  0.3605200052333331   F   F   F
  0.4995237637305863  0.3742783954783135  0.4997458404238984   F   F   F
  0.5003448873671914  0.6210744662779604  0.5000824131752495   F   F   F
  0.8324157553738303  0.6230494988809667  0.5000134180592113   F   F   F
  0.2518166159334925  0.1883526925142007  0.5470798744759620   F   F   F
  0.8324884299938020  0.3731661770362251  0.4997502480597120   F   F   F
  0.8328854225053206  0.1245241378598863  0.5001200626880333   F   F   F
  0.1667339253311795  0.3762213877476839  0.4978391068919166   F   F   F
  0.1677866820261258  0.6243080717512939  0.5000028312999021   F   F   F
  0.5815755449193389  0.4385384761242790  0.6463485058709395   F   F   F
  0.5804020857386405  0.6853239799219537  0.6391050208308258   F   F   F
  0.9162440111388079  0.1862673897766598  0.6398834866561884   F   F   F
  0.2490966044291909  0.3162779308603660  0.6412225283588953   F   F   F
  0.1677301625336938  0.8733004624038045  0.4998848164096756   F   F   F
  0.9157701497488944  0.4369633914565156  0.4536546417949125   F   F   F
  0.1670471500592896  0.1243046204481075  0.4993375380375511   F   F   F
  0.7481705464381605  0.0598697860188580  0.5443961472835142   F   F   F
  0.4280945529098474  0.3046031936768969  0.6549652331124847   F   F   F
  0.5911369799923492  0.8101677734364898  0.6460919857300524   F   F   F
  0.4211613491934614  0.6759219429916143  0.6334227951376619   F   F   F
  0.5000036867275952  0.8734147206572587  0.5008647317146711   F   F   F
  0.7553128919707390  0.4340463762357771  0.6378666103884072   F   F   F
  0.7530719963577965  0.5693058777510558  0.6350305086853183   F   F   F
  0.3972187389643977  0.5506170527464036  0.6520175454180190   F   F   F
  0.4174690829688075  0.9349313840154494  0.6397812297778032   F   F   F
  0.7410617322730602  0.8100113221733167  0.6399106049627719   F   F   F
  0.7460880943812995  0.3123213442386685  0.6410375914923208   F   F   F
  0.7481852329111405  0.0682291300452036  0.6385368061839145   F   F   F
  0.0837545234888140  0.3118107462122239  0.6404281119771937   F   F   F
  0.6666087649797561  0.8746927659976578  0.4989895017929484   F   F   F
  0.0874346553026228  0.5620524196698256  0.6411940392295321   F   F   F
  0.0867109002671569  0.4364688319453123  0.6394028974424302   F   F   F
  0.0835107987665609  0.1858235743486389  0.6410308162378584   F   F   F
  0.4179691082618362  0.1873807449874576  0.6395947979694654   F   F   F
  0.4150816644722326  0.4188356438534058  0.6299492355723331   F   F   F
  0.0842840147630852  0.9355586239934723  0.6407276194429770   F   F   F
  0.0830602170849346  0.6870113677235068  0.6393192404275609   F   F   F
  0.0842400782112662  0.0606544081139830  0.6421354757151150   F   F   F
  0.8332741570409823  0.5030309129803996  0.5887554464171600   F   F   F
  0.9125371925998493  0.4360909235795134  0.6397069817968912   F   F   F
  0.8305893501944794  0.7508831577231376  0.5928454306793469   F   F   F
  0.8315597703723796  0.2491611268514404  0.5908000270721985   F   F   F
  0.7462264555066938  0.1950099805973622  0.6460974066307301   F   F   F
  0.9166666865332829  0.8124999999834799  0.3605200052333331   F   F   F
  0.5820694959804200  0.9360014419591423  0.6394978474284585   F   F   F
  0.0841602761178848  0.8121239612115119  0.6420299434136112   F   F   F
  0.5800102869020165  0.1918281151606251  0.6448107594824322   F   F   F
  0.2545558881634022  0.6774464452346365  0.6635143537206361   F   F   F
  0.2405914184458595  0.4419643462271097  0.6414402195653466   F   F   F
  0.9143988038787896  0.9371529090819450  0.6410606642130716   F   F   F
  0.9162250095784472  0.6875301583327342  0.6393931736051499   F   F   F
  0.2519547642767748  0.9301706889896622  0.6373691270556634   F   F   F
  0.2533236991062608  0.1865176475143073  0.6410359122030513   F   F   F
  0.0006805598661828  0.1227689115612804  0.6197821901057310   F   F   F
  0.1666666716383389  0.3750000000061604  0.4070133268666680   F   F   F
  0.6654491964236300  0.7520067449908652  0.5021759282978948   F   F   F
  0.5011531867925072  0.7528818045463552  0.5039419834909893   F   F   F
  0.6658888544473527  0.9999120970575888  0.5054985288436029   F   F   F
  0.1644054026755342  0.7515629144903357  0.5033534987314425   F   F   F
  0.8333332538436267  0.6249999999803961  0.4070133268666680   F   F   F
  0.6685814154679903  0.4998307677641947  0.5006745460256070   F   F   F
  0.3311681124560408  0.4992528173175401  0.5009548383190889   F   F   F
  0.3300688172116821  0.2481260234765728  0.5027876131029956   F   F   F
  0.3331035923909624  0.0010726827942236  0.5058240451275680   F   F   F
  0.6668577246050305  0.2480790974166780  0.5025301351901987   F   F   F
  0.5012885095106938  0.4998748925840104  0.5002869493403708   F   F   F
  0.9997248196691260  0.5007056264506176  0.5070527641764571   F   F   F
  0.8361730499199354  0.5000798247499105  0.5027373078008921   F   F   F
  0.8358001726840740  0.2486717349553729  0.5026873913411407   F   F   F
  0.6666666865533486  0.3750000000061604  0.4070133268666680   F   F   F
  0.1659863346668971  0.0011438876053447  0.5065777570515309   F   F   F
  0.0000000000000000  0.8749999404036828  0.4070133268666680   F   F   F
  0.5009424803914371  0.2479824431723756  0.5020019124018660   F   F   F
  0.9998476722336065  0.7508422266992838  0.5066267633955803   F   F   F
  0.0008189734557220  0.2498644111745065  0.5059251350341896   F   F   F
  0.0000511744511229  0.0000509390096255  0.5066564244428591   F   F   F
  0.6666666865533486  0.6249999999803961  0.4070133268666680   F   F   F
  0.8333332538436267  0.8749999404036828  0.4070133268666680   F   F   F
  0.3333333432766779  0.6249999999803961  0.4070133268666680   F   F   F
  0.3333333432766779  0.1249999999871179  0.4070133268666680   F   F   F
  0.3333333432766779  0.3750000000061604  0.4070133268666680   F   F   F
  0.8342485895223533  0.0001874379574645  0.5063938481316725   F   F   F
  0.3333333432766779  0.8749999404036828  0.4070133268666680   F   F   F
  0.6666666865533486  0.1249999999871179  0.4070133268666680   F   F   F
  0.0000000000000000  0.6249999999803961  0.4070133268666680   F   F   F
  0.1662883447419787  0.2482663846476001  0.5061546432079780   F   F   F
  0.3338710835079794  0.7511094023056373  0.5016202692160121   F   F   F
  0.5001931923433176  0.9993358395337779  0.5055015581100264   F   F   F
  0.5008114778810224  0.8768308059655752  0.6096240981948213   F   F   F
  0.3258752356785450  0.3737116106167875  0.5927284490614184   F   F   F
  0.0000000000000000  0.3750000000061604  0.4070133268666680   F   F   F
  0.3342620396111897  0.6244276245274278  0.5952821293314585   F   F   F
  0.5000000000021103  0.8749999404036828  0.4070133268666680   F   F   F
  0.8333332538436267  0.1249999999871179  0.4070133268666680   F   F   F
  0.1666666716383389  0.1249999999871179  0.4070133268666680   F   F   F
  0.6653049731168466  0.1247068699472536  0.6097813049369378   F   F   F
  0.5000000000021103  0.6249999999803961  0.4070133268666680   F   F   F
  0.8399749422353366  0.6268990697266261  0.6032477287304090   F   F   F
  0.3315454756819278  0.1198913031183793  0.6132996200259697   F   F   F
  0.9991367089520367  0.8750271097212234  0.6221367414624339   F   F   F
  0.5000000000021103  0.1249999999871179  0.4070133268666680   F   F   F
  0.1635148283907597  0.4998559493196453  0.5020425423130632   F   F   F
  0.8320363974387419  0.8762719649534816  0.6181682132426332   F   F   F
  0.8376359951038168  0.3726398528757855  0.6034175072562320   F   F   F
  0.8360284826897910  0.7517918707433466  0.5025990007395009   F   F   F
  0.1666666716383389  0.8749999404036828  0.4070133268666680   F   F   F
  0.8333332538436267  0.3750000000061604  0.4070133268666680   F   F   F
  0.0000000000000000  0.1249999999871179  0.4070133268666680   F   F   F
  0.5040500098704683  0.6251154016742078  0.5939030980380053   F   F   F
  0.1666666716383389  0.6249999999803961  0.4070133268666680   F   F   F
  0.5000000000021103  0.3750000000061604  0.4070133268666680   F   F   F
  0.6666666865533486  0.8749999404036828  0.4070133268666680   F   F   F
  0.6707224450244524  0.3724577860290452  0.5932009079263239   F   F   F
  0.3345143467441076  0.8785118666426470  0.6030756713533663   F   F   F
  0.1660764720913193  0.8733427638741276  0.6178722062707322   F   F   F
  0.5015976744770896  0.3714011825911498  0.5948453153958226   F   F   F
  0.1591476274793564  0.6272154704074993  0.6014292220068427   F   F   F
  0.1676590669933091  0.1228812501510888  0.6217916571234241   F   F   F
  0.1631859906169240  0.3714344078883585  0.6075804689170710   F   F   F
  0.6653682768898221  0.8812854212038275  0.6072624007783176   F   F   F
  0.6664339250652205  0.6263964841659231  0.5934489390176125   F   F   F
  0.9999620340996387  0.3747383208633153  0.6232662448998241   F   F   F
  0.9996084159838219  0.6219571057984723  0.6341884109106246   F   F   F
  0.8343990255801756  0.1242769677915518  0.6148391574051857   F   F   F
  0.5002437734043284  0.1223681735490842  0.6062977279464192   F   F   F
  0.5847392725312304  0.7500585284347920  0.5997318988594316   F   F   F
  0.0833726232677563  0.2481591406277133  0.6036029127564149   F   F   F
  0.7495728348707971  0.0019626595825741  0.6043151228493002   F   F   F
  0.5825286733390840  0.0010264807949838  0.6042037610092095   F   F   F
  0.9165275792191139  0.0000793227543738  0.6038105398842859   F   F   F
  0.5904682926963289  0.5012158316013497  0.5936324602532039   F   F   F
  0.4147157492380629  0.2486259405586821  0.5911902529969240   F   F   F
  0.2492515452031725  0.7526550261053870  0.5921660959658226   F   F   F
  0.5845645523310239  0.2477638098620289  0.5966379234586796   F   F   F
  0.2496740480508493  0.9976806274498102  0.6042462119154592   F   F   F
  0.7539505561640922  0.2481965111420266  0.5927794404569440   F   F   F
  0.2489703303807218  0.2459128775719179  0.6035453816828991   F   F   F
  0.4170877515536162  0.0000379090588112  0.6046751502108592   F   F   F
  0.2423387035695654  0.4979561071077825  0.5939306942430846   F   F   F
  0.0814437825118333  0.5001353727537889  0.6032134320141012   F   F   F