Au  C  H  O Sr Ti                       
   1.00000000000000     
    23.6707801818999997    0.0000000000000000    0.0000000000000000
     0.0000000000000000   22.3170261383000010    0.0000000000000000
     0.0000000000000000    0.0000000000000000   30.0000000000000000
   Au   C    H    O    Sr   Ti
    50     1     3   264    72    72
Selective dynamics
Direct
  0.7171634333039262  0.5259837736035751  0.7531684089493554   F   F   F 
  0.6228428269105535  0.5702016525961494  0.7041318049993686   F   F   F
  0.7209811507209083  0.2584249890853961  0.6910234857377363   F   F   F
  0.2934100815462877  0.7463452592434682  0.6976624056951437   F   F   F
  0.5123444504919380  0.6035476266473602  0.7765122895435371   F   F   F
  0.5782649009627199  0.7252652710876758  0.7936575359449186   F   F   F
  0.2405433179161963  0.4689774613635815  0.7089219724948235   F   F   F
  0.2843908340479446  0.6616946478444061  0.7650655770296857   F   F   F
  0.6007222471476801  0.2884864872851365  0.7844478877279408   F   F   F
  0.5144949840916848  0.4842189811093011  0.6780698288490874   F   F   F
  0.5631949812847034  0.4858842434181765  0.7623073143030600   F   F   F
  0.5547188185275839  0.2133036899280891  0.7103522868821112   F   F   F
  0.5496467304327820  0.3848543551017522  0.8285668176548425   F   F   F
  0.3913876719354883  0.8170405305113706  0.7065631712710451   F   F   F
  0.4635319560753531  0.6949640798240129  0.8301346856983776   F   F   F
  0.4383048675655604  0.2278557290888457  0.6973844361924941   F   F   F
  0.3704583451916244  0.2984559393811047  0.7554305068866541   F   F   F
  0.3493878796442960  0.4999550473805369  0.6979213109816408   F   F   F
  0.4297279170642009  0.3711992637088840  0.8152683070093220   F   F   F
  0.5959955284143350  0.7845712257458697  0.7130397465569754   F   F   F
  0.6351246304532827  0.5840332408442288  0.8000533079039650   F   F   F
  0.7336960625924809  0.6155609591345391  0.6937094944158463   F   F   F
  0.4854735667968512  0.7774002608330041  0.7560562178801655   F   F   F
  0.7641795373484127  0.4317283852125960  0.7044819772866735   F   F   F
  0.4855153485728970  0.2695813407254196  0.7749570357397998   F   F   F
  0.2890090309339781  0.5372849631931311  0.7776192141087043   F   F   F
  0.6162043462421808  0.3211123584657294  0.6960823315696513   F   F   F
  0.3683337469845003  0.6183045340507880  0.8201122748592560   F   F   F
  0.5698100876016561  0.5100264606567860  0.8567242998843457   F   F   F
  0.6667345965823465  0.1919526227311993  0.7499836055504018   T   T   T
  0.4710948216396288  0.4502175641198776  0.8787542985424124   F   F   F
  0.5171483277199974  0.3772492984995142  0.7326238950062935   F   F   F
  0.2825997119845038  0.3392728101132565  0.7022726721937200   F   F   F
  0.6696268076522381  0.6812045577574470  0.7486992458184445   F   F   F
  0.3976956322873028  0.3815770119296769  0.6902231792901973   F   F   F
  0.4525327045913299  0.5797983506514859  0.7026172255019314   F   F   F
  0.3755400289253578  0.4924633523206583  0.8326332960085601   F   F   F
  0.3258599348455526  0.4143316479996592  0.7691065556527328   F   F   F
  0.4204148462553652  0.6970611077816783  0.6992975433163067   F   F   F
  0.6998832799473300  0.3458099963906083  0.7569311765901410   F   F   F
  0.7744466583490763  0.4289547144615060  0.7944957291183200   F   F   F
  0.2566299228308380  0.5926883491483032  0.6945687665021334   F   F   F
  0.6488693617517685  0.4451507036773854  0.6946314834967786   F   F   F
  0.5644317349293922  0.6393319931579050  0.8610404617671346   F   F   F
  0.5423340991339517  0.6663626290020311  0.7011643276227834   F   F   F
  0.4439649870181793  0.4740825703197846  0.7562634103113773   F   F   F
  0.3740157144340439  0.7387401126885516  0.7784255674131655   F   F   F
  0.4625921142101156  0.5729737194475588  0.8639220735626306   F   F   F
  0.6563366702309118  0.4423568336660423  0.8126287014785827   F   F   F
  0.7061475136242658  0.7572713180128959  0.6882560271771665   F   F   F
  0.7294185319589624  0.1265695516527086  0.7512802435697222   T   T   T
  0.7606749202442683  0.1403076053192290  0.7758673250537145   T   T   T
  0.7468085483835440  0.1225781899405801  0.7178674287609320   T   T   T
  0.7068580144949035  0.0860076140542285  0.7610801165986728   T   T   T
  0.2494150868908850  0.3137682806875780  0.5459448354168588   F   F   F
  0.7507875196568002  0.1898399620719544  0.4556804857881912   F   F   F
  0.4171788047846698  0.9358378221454573  0.4540067469162568   F   F   F
  0.4169982077744577  0.6846822348722752  0.4547319930411544   F   F   F
  0.4164630563500271  0.4354722644200505  0.4538044165942258   F   F   F
  0.0845697969386569  0.6868781548362786  0.4530202482996364   F   F   F
  0.0838749184419285  0.9366654253670081  0.4534788623054520   F   F   F
  0.0828101006317768  0.4367951192395562  0.4528783958882792   F   F   F
  0.0838389898233019  0.1866006281421934  0.4529769794064827   F   F   F
  0.9165787579712483  0.8121400621249850  0.4540735574533730   F   F   F
  0.7464480848845479  0.5579536075016689  0.5445821396403241   F   F   F
  0.9161814703644201  0.5623255724551569  0.4539109447635111   F   F   F
  0.9161064311567648  0.0622695729050733  0.4540878138143730   F   F   F
  0.9162194575307385  0.3121667506910276  0.4538720231004715   F   F   F
  0.4171505626219848  0.1871593489534135  0.4535402532827327   F   F   F
  0.2522140399091680  0.6875958582269911  0.4561873547810996   F   F   F
  0.9164782726752971  0.9371493733041256  0.4536446831030497   F   F   F
  0.5825779513292126  0.1902523311684669  0.4554793307057430   F   F   F
  0.0000713670379703  0.1251131625049824  0.4984245810472863   F   F   F
  0.5832550602227595  0.8105023890246510  0.4553578312707259   F   F   F
  0.0000044914131268  0.3734908658186499  0.4983695718718245   F   F   F
  0.9999616565079427  0.6271443199953209  0.4976861804463966   F   F   F
  0.3336188750669921  0.1256641170154082  0.4985060593469663   F   F   F
  0.0000424837058988  0.8751399468849798  0.4995236378842929   F   F   F
  0.3334555222952332  0.8738367943070591  0.4994108569173381   F   F   F
  0.6661206677909127  0.1266228643637078  0.4990043775055118   F   F   F
  0.2511580947864349  0.4392497261469340  0.4548974824736788   F   F   F
  0.0833333358191695  0.5625000000092442  0.3605200052333331   F   F   F
  0.9166666865332829  0.0625000000159659  0.3605200052333331   F   F   F
  0.7492336873195408  0.8132477634927338  0.4530309331961490   F   F   F
  0.7496403163949623  0.4383777333902196  0.4557161228095891   F   F   F
  0.2505265944476519  0.0620340301537314  0.4542489513668577   F   F   F
  0.7490879124742919  0.6886832070571937  0.4573808141120602   F   F   F
  0.2498700247011479  0.1884816532135524  0.4540902467847657   F   F   F
  0.2500814819395227  0.9360430482791213  0.4541053289146585   F   F   F
  0.6654135042753265  0.6260763997833754  0.5029871094103856   F   F   F
  0.5844779435699755  0.5627552189422560  0.4548828223114804   F   F   F
  0.5832388043605160  0.0637032752943489  0.4538530931017903   F   F   F
  0.9166666865332829  0.6874999999963620  0.3605200052333331   F   F   F
  0.9166666865332829  0.4374999701794380  0.3605200052333331   F   F   F
  0.9166666865332829  0.1875000000030838  0.3605200052333331   F   F   F
  0.5833333134730552  0.9375000000154046  0.3605200052333331   F   F   F
  0.5833333134730552  0.6874999999963620  0.3605200052333331   F   F   F
  0.5833333134730552  0.4374999701794380  0.3605200052333331   F   F   F
  0.5833333134730552  0.1875000000030838  0.3605200052333331   F   F   F
  0.2499999999799343  0.9375000000154046  0.3605200052333331   F   F   F
  0.9166666865332829  0.9375000000154046  0.3605200052333331   F   F   F
  0.2499999999799343  0.6874999999963620  0.3605200052333331   F   F   F
  0.2499999999799343  0.1875000000030838  0.3605200052333331   F   F   F
  0.7499999404149307  0.9375000000154046  0.3605200052333331   F   F   F
  0.7499999404149307  0.6874999999963620  0.3605200052333331   F   F   F
  0.7499999404149307  0.4374999701794380  0.3605200052333331   F   F   F
  0.7499999404149307  0.1875000000030838  0.3605200052333331   F   F   F
  0.4166666269218169  0.9375000000154046  0.3605200052333331   F   F   F
  0.4166666269218169  0.6874999999963620  0.3605200052333331   F   F   F
  0.4166666269218169  0.4374999701794380  0.3605200052333331   F   F   F
  0.2499999999799343  0.4374999701794380  0.3605200052333331   F   F   F
  0.0833333358191695  0.0625000000159659  0.3605200052333331   F   F   F
  0.9153979760723476  0.6867727602967394  0.4531114043769986   F   F   F
  0.6654081595885758  0.3785561676605216  0.5029950143287110   F   F   F
  0.3343282480912463  0.3784860414969034  0.5029501452370069   F   F   F
  0.3356902610131305  0.6255180145150794  0.5041366310318505   F   F   F
  0.9175599176494320  0.0633724950298594  0.5474230873228513   F   F   F
  0.7494621198819363  0.9384794188930191  0.4553263343932914   F   F   F
  0.5826848831065953  0.4394927370434451  0.4562721633164527   F   F   F
  0.9155176039658249  0.3128697070970653  0.5467412370091005   F   F   F
  0.2519674301813596  0.5646053234751479  0.4538436659262325   F   F   F
  0.5833333134730552  0.0625000000159659  0.3605200052333331   F   F   F
  0.2499999999799343  0.8124999999834799  0.3605200052333331   F   F   F
  0.2499999999799343  0.5625000000092442  0.3605200052333331   F   F   F
  0.2499999999799343  0.3124999999901945  0.3605200052333331   F   F   F
  0.2499999999799343  0.0625000000159659  0.3605200052333331   F   F   F
  0.7499999404149307  0.5625000000092442  0.3605200052333331   F   F   F
  0.7499999404149307  0.3124999999901945  0.3605200052333331   F   F   F
  0.7499999404149307  0.0625000000159659  0.3605200052333331   F   F   F
  0.4166666269218169  0.8124999999834799  0.3605200052333331   F   F   F
  0.4166666269218169  0.5625000000092442  0.3605200052333331   F   F   F
  0.4166666269218169  0.3124999999901945  0.3605200052333331   F   F   F
  0.7499999404149307  0.8124999999834799  0.3605200052333331   F   F   F
  0.0835580975381866  0.3120506428335835  0.4539622899366501   F   F   F
  0.4166666269218169  0.0625000000159659  0.3605200052333331   F   F   F
  0.4168934881716225  0.0615746299003157  0.4553576175250587   F   F   F
  0.0834980215784701  0.8121038966099261  0.4541883310843955   F   F   F
  0.0839302362282304  0.5625052415689500  0.4538837759601666   F   F   F
  0.4160587075294503  0.5594951344958283  0.4578563430713714   F   F   F
  0.0836861025730783  0.0618770182425544  0.4542149675442537   F   F   F
  0.4155228224823116  0.3113852689110908  0.4573473751259103   F   F   F
  0.8333332538436267  0.7500000000123208  0.4070133268666680   F   F   F
  0.0833333358191695  0.4374999701794380  0.3605200052333331   F   F   F
  0.0833333358191695  0.6874999999963620  0.3605200052333331   F   F   F
  0.0833333358191695  0.9375000000154046  0.3605200052333331   F   F   F
  0.4166666269218169  0.1875000000030838  0.3605200052333331   F   F   F
  0.0833333358191695  0.8124999999834799  0.3605200052333331   F   F   F
  0.8333332538436267  0.4999999999932783  0.4070133268666680   F   F   F
  0.2510761856986215  0.0625919505292337  0.5472548011579180   F   F   F
  0.4146889155586704  0.8118907252105259  0.5479784366195142   F   F   F
  0.5833333134730552  0.3124999999901945  0.3605200052333331   F   F   F
  0.2522565328253096  0.3141435775128789  0.4541614191940513   F   F   F
  0.5833333134730552  0.8124999999834799  0.3605200052333331   F   F   F
  0.5833333134730552  0.5625000000092442  0.3605200052333331   F   F   F
  0.2505530678868481  0.8107757412233689  0.4553674051169055   F   F   F
  0.8333332538436267  0.2500000000190425  0.4070133268666680   F   F   F
  0.5843056443724722  0.3154061441651292  0.4535716462204954   F   F   F
  0.7484857887273537  0.8082550401682743  0.5456219701277848   F   F   F
  0.5000000000021103  0.4999999999932783  0.4070133268666680   F   F   F
  0.0833333358191695  0.1875000000030838  0.3605200052333331   F   F   F
  0.0000000000000000  0.0000000000000000  0.4070133268666680   F   F   F
  0.0000000000000000  0.2500000000190425  0.4070133268666680   F   F   F
  0.0000000000000000  0.4999999999932783  0.4070133268666680   F   F   F
  0.7481826815787296  0.5642787330758480  0.4537702633802806   F   F   F
  0.3333333432766779  0.0000000000000000  0.4070133268666680   F   F   F
  0.3333333432766779  0.4999999999932783  0.4070133268666680   F   F   F
  0.3333333432766779  0.7500000000123208  0.4070133268666680   F   F   F
  0.6666666865533486  0.0000000000000000  0.4070133268666680   F   F   F
  0.6666666865533486  0.2500000000190425  0.4070133268666680   F   F   F
  0.6666666865533486  0.4999999999932783  0.4070133268666680   F   F   F
  0.6666666865533486  0.7500000000123208  0.4070133268666680   F   F   F
  0.1666666716383389  0.0000000000000000  0.4070133268666680   F   F   F
  0.1666666716383389  0.2500000000190425  0.4070133268666680   F   F   F
  0.1666666716383389  0.4999999999932783  0.4070133268666680   F   F   F
  0.1666666716383389  0.7500000000123208  0.4070133268666680   F   F   F
  0.5000000000021103  0.0000000000000000  0.4070133268666680   F   F   F
  0.5000000000021103  0.2500000000190425  0.4070133268666680   F   F   F
  0.5000000000021103  0.7500000000123208  0.4070133268666680   F   F   F
  0.9166666865332829  0.3124999999901945  0.3605200052333331   F   F   F
  0.3333333432766779  0.2500000000190425  0.4070133268666680   F   F   F
  0.7473975141841069  0.3141821828639252  0.4546594458941912   F   F   F
  0.0000000000000000  0.7500000000123208  0.4070133268666680   F   F   F
  0.4166482853377622  0.8099487011524111  0.4551494587180976   F   F   F
  0.7496271792385093  0.0642073408475426  0.4533279832511051   F   F   F
  0.5827727963399972  0.6861168187959625  0.4545593593504322   F   F   F
  0.8333332538436267  0.0000000000000000  0.4070133268666680   F   F   F
  0.9157991233277885  0.1869030028736457  0.4532157655293687   F   F   F
  0.4159139190794622  0.9372140380264188  0.5460501152012215   F   F   F
  0.4986378286789257  0.2527936207764608  0.5904952145969949   F   F   F
  0.4156979088622408  0.1914807368888753  0.5464669242889747   F   F   F
  0.0865326761634027  0.6896567499638843  0.5451542410750243   F   F   F
  0.0825273829440515  0.4386190113494616  0.5450777496399528   F   F   F
  0.0835679796068787  0.1888937281525962  0.5455893722363755   F   F   F
  0.4994745738995883  0.1256275636975478  0.4995733439166286   F   F   F
  0.9996726981446016  0.5006813286216009  0.5944011589585820   F   F   F
  0.5807188698485727  0.1852927318523911  0.5498275634298042   F   F   F
  0.9995992110572511  0.7533136062733169  0.5923101974905682   F   F   F
  0.3340258562640760  0.9998338272227929  0.5920210906249922   F   F   F
  0.9998395127261795  0.9992488713774818  0.5932159292564111   F   F   F
  0.0007995468768489  0.2499279435269701  0.5918912560076858   F   F   F
  0.3333139039443925  0.4964369286933448  0.5908785677614725   F   F   F
  0.3359294800665725  0.7411534758937912  0.5905122621486136   F   F   F
  0.6635260285532816  0.2479595104026366  0.5901702003151679   F   F   F
  0.6659917843963286  0.0004903135231812  0.5919120809083269   F   F   F
  0.6660130723969192  0.7418604203149232  0.5899414312857494   F   F   F
  0.6668461634279081  0.4941886025675809  0.5912968227629950   F   F   F
  0.1674579884233838  0.9983754262876383  0.5922986071371213   F   F   F
  0.1683455936565537  0.2489411015836590  0.5930168917802250   F   F   F
  0.1707509908567187  0.7500388740349451  0.5950761916990458   F   F   F
  0.2485099373216151  0.4359981027178740  0.5489766352067396   F   F   F
  0.1655159033958427  0.5026727056347303  0.5874254480875277   F   F   F
  0.3346904596285696  0.2546162329809127  0.5927273518432729   F   F   F
  0.4996590826114428  0.0000682473783753  0.5910188322309170   F   F   F
  0.8328064073534756  0.8744462361099347  0.4985187819280291   F   F   F
  0.7485813642724722  0.9372702240284040  0.6402485337609070   F   F   F
  0.8322400974278467  0.0020579629790149  0.5922589303340913   F   F   F
  0.7485276978351534  0.1837152643606169  0.5508639904873018   F   F   F
  0.4232226664229921  0.6880945541519502  0.5466228156774923   F   F   F
  0.4231321903957515  0.4439474269167195  0.5455816625311062   F   F   F
  0.7519952715786553  0.4352700893431849  0.5488575810214155   F   F   F
  0.5827267886284964  0.3111374885645176  0.5448549274785716   F   F   F
  0.2531174687075613  0.8126231438731876  0.5510799061505778   F   F   F
  0.5827196781000904  0.9371623458962192  0.4543092292155256   F   F   F
  0.5830870133266500  0.0621686615653159  0.5455165493299302   F   F   F
  0.5861147467489044  0.8146142087941733  0.5503712593540069   F   F   F
  0.7479490099515761  0.3117141560433409  0.5480780749433383   F   F   F
  0.5812839760421327  0.5601301182648268  0.5491721265416020   F   F   F
  0.2523390254118225  0.5590597698922958  0.5439678340399650   F   F   F
  0.4159886629377757  0.3197331687109086  0.5525675707120287   F   F   F
  0.5766992512545467  0.4358162804843239  0.5521287733128508   F   F   F
  0.4165196580768014  0.0654433570861943  0.5473619748003914   F   F   F
  0.0848699761628341  0.8129285074758580  0.5473322661596003   F   F   F
  0.0824530418825421  0.5643232395955089  0.5462801033095128   F   F   F
  0.0863542631385392  0.3134610228817615  0.5468721866519699   F   F   F
  0.5013945191970719  0.7564272075509366  0.5930210556285774   F   F   F
  0.0823222954964806  0.0632511763644504  0.5475954633722733   F   F   F
  0.9137510299822613  0.6892346267655974  0.5452320669949889   F   F   F
  0.5837280561194205  0.9378120678663363  0.5461642175133115   F   F   F
  0.9166241555814235  0.1888999296457258  0.5454528761751777   F   F   F
  0.9159690592457884  0.4376228386561283  0.5457723530965598   F   F   F
  0.5795304077950059  0.6863386451387599  0.5472030371880602   F   F   F
  0.2515135890987069  0.9373324623104142  0.5452841761938536   F   F   F
  0.4976595019871873  0.5044558260883220  0.6089953266334036   F   F   F
  0.9171843524418679  0.5637407317554343  0.5467507982354609   F   F   F
  0.4201853123087994  0.5651119937451171  0.5554384293562423   F   F   F
  0.9154597571971492  0.8129779491308277  0.5469246667807435   F   F   F
  0.0836199493710656  0.9389149492033907  0.5457941040161198   F   F   F
  0.2492783916443888  0.6832524865687597  0.5521322177590895   F   F   F
  0.7494754914512305  0.9341457430052930  0.5476083255121003   F   F   F
  0.7519912859467128  0.6803003200126444  0.5532043573146210   F   F   F
  0.9157622849073092  0.9386280800962138  0.5464036730193993   F   F   F
  0.4177548733661199  0.0651403302152894  0.6400805150902801   F   F   F
  0.0833333358191695  0.3124999999901945  0.3605200052333331   F   F   F
  0.4128874474723020  0.8127974477566966  0.6396826481075625   F   F   F
  0.9157920050709770  0.0628024508350418  0.6413318511486082   F   F   F
  0.9125694600472525  0.5617201932255680  0.6419290696101028   F   F   F
  0.9150397518675797  0.3118398420504726  0.6396604206612868   F   F   F
  0.9141333711071901  0.8132599850023113  0.6415410730541871   F   F   F
  0.5826253095269497  0.0665829791281128  0.6387459843402977   F   F   F
  0.5833780871443069  0.3207608579440230  0.6333314695481155   F   F   F
  0.5913119325168222  0.5648062636075363  0.6394172961086375   F   F   F
  0.2475593131013934  0.5739343257448948  0.6287264197455279   F   F   F
  0.7540264183015754  0.6931463145844354  0.6567727944492739   F   F   F
  0.2621258595268396  0.7989185535468654  0.6466819894456941   F   F   F
  0.2510098947863102  0.0594441861834628  0.6423147400075949   F   F   F
  0.9166666865332829  0.5625000000092442  0.3605200052333331   F   F   F
  0.4995237637305865  0.3742783954783145  0.4997458404239017   F   F   F
  0.5003448873671933  0.6210744662779590  0.5000824131752462   F   F   F
  0.8324157553738329  0.6230494988809649  0.5000134180592108   F   F   F
  0.2518166159334895  0.1883526925142015  0.5470798744759624   F   F   F
  0.8324884299938056  0.3731661770362255  0.4997502480597086   F   F   F
  0.8328854225053183  0.1245241378598878  0.5001200626880333   F   F   F
  0.1667339253311790  0.3762213877476804  0.4978391068919170   F   F   F
  0.1677866820261266  0.6243080717512939  0.5000028312999013   F   F   F
  0.5815755449193378  0.4385384761242807  0.6463485058709362   F   F   F
  0.5804020857386430  0.6853239799219504  0.6391050208308267   F   F   F
  0.9162440111388093  0.1862673897766625  0.6398834866561871   F   F   F
  0.2490966044291888  0.3162779308603673  0.6412225283588943   F   F   F
  0.1677301625336912  0.8733004624038041  0.4998848164096785   F   F   F
  0.9157701497488921  0.4369633914565139  0.4536546417949099   F   F   F
  0.1670471500592891  0.1243046204481047  0.4993375380375512   F   F   F
  0.7481705464381597  0.0598697860188587  0.5443961472835127   F   F   F
  0.4280945529098498  0.3046031936768975  0.6549652331124828   F   F   F
  0.5911369799923506  0.8101677734364886  0.6460919857300544   F   F   F
  0.4211613491934618  0.6759219429916129  0.6334227951376596   F   F   F
  0.5000036867275944  0.8734147206572609  0.5008647317146729   F   F   F
  0.7553128919707386  0.4340463762357748  0.6378666103884089   F   F   F
  0.7530719963577991  0.5693058777510566  0.6350305086853211   F   F   F
  0.3972187389644009  0.5506170527464063  0.6520175454180182   F   F   F
  0.4174690829688080  0.9349313840154498  0.6397812297778054   F   F   F
  0.7410617322730629  0.8100113221733179  0.6399106049627692   F   F   F
  0.7460880943812973  0.3123213442386700  0.6410375914923221   F   F   F
  0.7481852329111438  0.0682291300452060  0.6385368061839167   F   F   F
  0.0837545234888142  0.3118107462122227  0.6404281119771947   F   F   F
  0.6666087649797527  0.8746927659976562  0.4989895017929477   F   F   F
  0.0874346553026218  0.5620524196698288  0.6411940392295301   F   F   F
  0.0867109002671567  0.4364688319453150  0.6394028974424301   F   F   F
  0.0835107987665591  0.1858235743486402  0.6410308162378549   F   F   F
  0.4179691082618353  0.1873807449874565  0.6395947979694632   F   F   F
  0.4150816644722350  0.4188356438534042  0.6299492355723363   F   F   F
  0.0842840147630859  0.9355586239934720  0.6407276194429770   F   F   F
  0.0830602170849380  0.6870113677235100  0.6393192404275607   F   F   F
  0.0842400782112654  0.0606544081139821  0.6421354757151184   F   F   F
  0.8332741570409813  0.5030309129803985  0.5887554464171582   F   F   F
  0.9125371925998470  0.4360909235795122  0.6397069817968943   F   F   F
  0.8305893501944783  0.7508831577231357  0.5928454306793486   F   F   F
  0.8315597703723798  0.2491611268514383  0.5908000270721996   F   F   F
  0.7462264555066960  0.1950099805973627  0.6460974066307309   F   F   F
  0.9166666865332829  0.8124999999834799  0.3605200052333331   F   F   F
  0.5820694959804231  0.9360014419591444  0.6394978474284566   F   F   F
  0.0841602761178877  0.8121239612115091  0.6420299434136095   F   F   F
  0.5800102869020175  0.1918281151606281  0.6448107594824344   F   F   F
  0.2545558881634050  0.6774464452346363  0.6635143537206366   F   F   F
  0.2405914184458591  0.4419643462271112  0.6414402195653451   F   F   F
  0.9143988038787930  0.9371529090819466  0.6410606642130700   F   F   F
  0.9162250095784492  0.6875301583327330  0.6393931736051517   F   F   F
  0.2519547642767713  0.9301706889896592  0.6373691270556655   F   F   F
  0.2533236991062626  0.1865176475143070  0.6410359122030539   F   F   F
  0.0006805598661829  0.1227689115612798  0.6197821901057312   F   F   F
  0.1666666716383389  0.3750000000061604  0.4070133268666680   F   F   F
  0.6654491964236322  0.7520067449908671  0.5021759282978980   F   F   F
  0.5011531867925079  0.7528818045463567  0.5039419834909876   F   F   F
  0.6658888544473499  0.9999120970575912  0.5054985288436025   F   F   F
  0.1644054026755318  0.7515629144903376  0.5033534987314431   F   F   F
  0.8333332538436267  0.6249999999803961  0.4070133268666680   F   F   F
  0.6685814154679925  0.4998307677641941  0.5006745460256091   F   F   F
  0.3311681124560404  0.4992528173175430  0.5009548383190916   F   F   F
  0.3300688172116801  0.2481260234765734  0.5027876131029991   F   F   F
  0.3331035923909632  0.0010726827942209  0.5058240451275677   F   F   F
  0.6668577246050291  0.2480790974166809  0.5025301351901978   F   F   F
  0.5012885095106918  0.4998748925840084  0.5002869493403711   F   F   F
  0.9997248196691294  0.5007056264506166  0.5070527641764597   F   F   F
  0.8361730499199328  0.5000798247499098  0.5027373078008893   F   F   F
  0.8358001726840730  0.2486717349553695  0.5026873913411440   F   F   F
  0.6666666865533486  0.3750000000061604  0.4070133268666680   F   F   F
  0.1659863346668963  0.0011438876053434  0.5065777570515303   F   F   F
  0.0000000000000000  0.8749999404036828  0.4070133268666680   F   F   F
  0.5009424803914353  0.2479824431723780  0.5020019124018645   F   F   F
  0.9998476722336043  0.7508422266992816  0.5066267633955777   F   F   F
  0.0008189734557231  0.2498644111745049  0.5059251350341867   F   F   F
  0.0000511744511220  0.0000509390096232  0.5066564244428616   F   F   F
  0.6666666865533486  0.6249999999803961  0.4070133268666680   F   F   F
  0.8333332538436267  0.8749999404036828  0.4070133268666680   F   F   F
  0.3333333432766779  0.6249999999803961  0.4070133268666680   F   F   F
  0.3333333432766779  0.1249999999871179  0.4070133268666680   F   F   F
  0.3333333432766779  0.3750000000061604  0.4070133268666680   F   F   F
  0.8342485895223560  0.0001874379574634  0.5063938481316742   F   F   F
  0.3333333432766779  0.8749999404036828  0.4070133268666680   F   F   F
  0.6666666865533486  0.1249999999871179  0.4070133268666680   F   F   F
  0.0000000000000000  0.6249999999803961  0.4070133268666680   F   F   F
  0.1662883447419768  0.2482663846475985  0.5061546432079799   F   F   F
  0.3338710835079768  0.7511094023056393  0.5016202692160118   F   F   F
  0.5001931923433172  0.9993358395337764  0.5055015581100274   F   F   F
  0.5008114778810191  0.8768308059655737  0.6096240981948192   F   F   F
  0.3258752356785430  0.3737116106167910  0.5927284490614172   F   F   F
  0.0000000000000000  0.3750000000061604  0.4070133268666680   F   F   F
  0.3342620396111883  0.6244276245274268  0.5952821293314607   F   F   F
  0.5000000000021103  0.8749999404036828  0.4070133268666680   F   F   F
  0.8333332538436267  0.1249999999871179  0.4070133268666680   F   F   F
  0.1666666716383389  0.1249999999871179  0.4070133268666680   F   F   F
  0.6653049731168452  0.1247068699472565  0.6097813049369356   F   F   F
  0.5000000000021103  0.6249999999803961  0.4070133268666680   F   F   F
  0.8399749422353349  0.6268990697266282  0.6032477287304057   F   F   F
  0.3315454756819277  0.1198913031183816  0.6132996200259693   F   F   F
  0.9991367089520337  0.8750271097212255  0.6221367414624350   F   F   F
  0.5000000000021103  0.1249999999871179  0.4070133268666680   F   F   F
  0.1635148283907616  0.4998559493196469  0.5020425423130646   F   F   F
  0.8320363974387442  0.8762719649534798  0.6181682132426333   F   F   F
  0.8376359951038171  0.3726398528757865  0.6034175072562300   F   F   F
  0.8360284826897880  0.7517918707433461  0.5025990007395027   F   F   F
  0.1666666716383389  0.8749999404036828  0.4070133268666680   F   F   F
  0.8333332538436267  0.3750000000061604  0.4070133268666680   F   F   F
  0.0000000000000000  0.1249999999871179  0.4070133268666680   F   F   F
  0.5040500098704684  0.6251154016742102  0.5939030980380060   F   F   F
  0.1666666716383389  0.6249999999803961  0.4070133268666680   F   F   F
  0.5000000000021103  0.3750000000061604  0.4070133268666680   F   F   F
  0.6666666865533486  0.8749999404036828  0.4070133268666680   F   F   F
  0.6707224450244513  0.3724577860290430  0.5932009079263213   F   F   F
  0.3345143467441049  0.8785118666426438  0.6030756713533629   F   F   F
  0.1660764720913172  0.8733427638741242  0.6178722062707350   F   F   F
  0.5015976744770864  0.3714011825911480  0.5948453153958201   F   F   F
  0.1591476274793562  0.6272154704074963  0.6014292220068415   F   F   F
  0.1676590669933105  0.1228812501510886  0.6217916571234264   F   F   F
  0.1631859906169217  0.3714344078883590  0.6075804689170706   F   F   F
  0.6653682768898197  0.8812854212038280  0.6072624007783175   F   F   F
  0.6664339250652175  0.6263964841659204  0.5934489390176130   F   F   F
  0.9999620340996362  0.3747383208633122  0.6232662448998250   F   F   F
  0.9996084159838234  0.6219571057984744  0.6341884109106234   F   F   F
  0.8343990255801724  0.1242769677915516  0.6148391574051869   F   F   F
  0.5002437734043261  0.1223681735490843  0.6062977279464198   F   F   F
  0.5847392725312314  0.7500585284347885  0.5997318988594325   F   F   F
  0.0833726232677562  0.2481591406277144  0.6036029127564156   F   F   F
  0.7495728348707963  0.0019626595825769  0.6043151228493003   F   F   F
  0.5825286733390845  0.0010264807949856  0.6042037610092110   F   F   F
  0.9165275792191140  0.0000793227543704  0.6038105398842848   F   F   F
  0.5904682926963312  0.5012158316013524  0.5936324602532070   F   F   F
  0.4147157492380647  0.2486259405586854  0.5911902529969236   F   F   F
  0.2492515452031701  0.7526550261053851  0.5921660959658216   F   F   F
  0.5845645523310240  0.2477638098620316  0.5966379234586813   F   F   F
  0.2496740480508487  0.9976806274498081  0.6042462119154565   F   F   F
  0.7539505561640916  0.2481965111420298  0.5927794404569471   F   F   F
  0.2489703303807244  0.2459128775719169  0.6035453816828972   F   F   F
  0.4170877515536174  0.0000379090588115  0.6046751502108609   F   F   F
  0.2423387035695673  0.4979561071077813  0.5939306942430853   F   F   F
  0.0814437825118354  0.5001353727537865  0.6032134320141024   F   F   F