Au  C  H  O Sr Ti                       
   1.00000000000000     
    23.6707801818999997    0.0000000000000000    0.0000000000000000
     0.0000000000000000   22.3170261383000010    0.0000000000000000
     0.0000000000000000    0.0000000000000000   30.0000000000000000
   Au   C    H    O    Sr   Ti
    50     3     7   265    72    72
Selective dynamics
Direct
  0.7156401665348269  0.5235698741845378  0.7520724250893465   T   T   T
  0.6551068169977745  0.4398548620232879  0.8120456066645174   T   T   T
  0.3692326962321857  0.6187754216573700  0.8207031032926718   T   T   T
  0.5703478931860906  0.5089374696581332  0.8560802469752843   T   T   T
  0.6630719508004241  0.1870196348800522  0.7473919459403601   T   T   T
  0.4714957827345964  0.4496361629642696  0.8775782809541277   T   T   T
  0.5172766808294044  0.3771391868019313  0.7317563935671048   T   T   T
  0.2812616847706860  0.3406281160139820  0.7023063498017591   T   T   T
  0.4521353080550082  0.5794893614103461  0.7027858161066320   T   T   T
  0.3974760793221779  0.3815993344149164  0.6904780903587086   T   T   T
  0.6206360831463762  0.5709969568102660  0.7040237826008093   T   T   T
  0.3246758191479004  0.4151204368023289  0.7695133561825722   T   T   T
  0.4633856108447916  0.5725545402301266  0.8644581516779574   T   T   T
  0.3757699753338513  0.7409790661156832  0.7797642198242550   T   T   T
  0.6480574121838863  0.4450277637319107  0.6945493070695574   T   T   T
  0.6695021445627731  0.6811404107017636  0.7486908886501626   T   T   T
  0.6989761292625440  0.3429857563336328  0.7570436673820351   T   T   T
  0.7731304596648263  0.4271083770308672  0.7938172466517319   T   T   T
  0.4434590833452402  0.4731541818910009  0.7563150910209419   T   T   T
  0.5651897276719634  0.6388814639320288  0.8607330247462389   T   T   T
  0.5396186858441900  0.6679965273353324  0.7018190938302158   T   T   T
  0.3752592783699927  0.4931517848027980  0.8329089014435052   T   T   T
  0.2573106022870177  0.5929325369721336  0.6941852945995015   T   T   T
  0.6158736939307187  0.3201881411469463  0.6957955036064329   T   T   T
  0.5518589986122099  0.2130274555657291  0.7097931997197232   T   T   T
  0.4146916336841411  0.6949796603930567  0.7000110683242223   T   T   T
  0.3928435205150374  0.8172167569892647  0.7066810548853434   T   T   T
  0.7193300947097958  0.2561145822692601  0.6911774489919131   T   T   T
  0.2952125911835973  0.7464979391105757  0.6956461036823696   T   T   T
  0.5117778475914023  0.6034843684370569  0.7768378446201903   T   T   T
  0.5788873779512190  0.7256987180991601  0.7940397396987375   T   T   T
  0.2403244463252631  0.4695366900728286  0.7091719647496929   T   T   T
  0.2888309398347186  0.6623568548422561  0.7630846074634401   T   T   T
  0.5998708381113290  0.2856822215363701  0.7840343570803040   T   T   T
  0.5142526570613239  0.4845910791709582  0.6777747090986135   T   T   T
  0.7066656751174029  0.7568210925954815  0.6883236417563369   T   T   T
  0.2896273611892335  0.5384930410849211  0.7772995926762812   T   T   T
  0.7630162991829056  0.4287647215942184  0.7039004726187207   T   T   T
  0.4836814317972259  0.2707161679298276  0.7748443090863454   T   T   T
  0.4645198804712931  0.6951846320825423  0.8309542248191162   T   T   T
  0.5473852580942583  0.3822181747068076  0.8268198479584453   T   T   T
  0.4867637448030709  0.7761496870249462  0.7547538063294543   T   T   T
  0.5625170853281618  0.4857938428222201  0.7621489595942191   T   T   T
  0.6352919691685266  0.5835258020091073  0.7995413572296856   T   T   T
  0.5968132818223769  0.7845270820771945  0.7129415389620212   T   T   T
  0.7325409790604656  0.6144485602741617  0.6939687025295667   T   T   T
  0.4266946665015782  0.3709375195691601  0.8159535516950865   T   T   T
  0.3493422884895254  0.4995115259900115  0.6977009542143907   T   T   T
  0.3685780748813203  0.2985980679852022  0.7555530777035114   T   T   T
  0.4357822047043655  0.2274211202445738  0.6978771555493948   T   T   T
  0.6467326341339046  0.0508890652379992  0.7935527833862671   T   T   T
  0.7224829467219769  0.1123303151059244  0.7511443445716000   T   T   T
  0.6875531676904935  0.0554545851440203  0.7539269490569542   T   T   T
  0.7454124940735239  0.1179017143323484  0.7199260057137105   T   T   T
  0.7418486034292788  0.1099280584520958  0.8138201530069561   T   T   T
  0.7189100112594909  0.0190412603987047  0.7554866325145088   T   T   T
  0.6649781564928263  0.0493195518812849  0.7224711287596518   T   T   T
  0.6305523016395368  0.0052206558668893  0.7962854089813053   T   T   T
  0.6667422045147962  0.0615953767344591  0.8255637534501694   T   T   T
  0.6104922831354536  0.0807560404477012  0.7893003881362166   T   T   T
  0.9144080597939082  0.6889071749751779  0.5455098734317920   T   T   T
  0.9156296189304277  0.9385212364698654  0.5464467070145819   T   T   T
  0.0823654225946227  0.0632031849372560  0.5476132985089320   T   T   T
  0.0867090157454743  0.3135017248304314  0.5471924662117381   T   T   T
  0.0848999391062938  0.8129353036914911  0.5473069149175396   T   T   T
  0.4165123906121350  0.0652424662038557  0.5472929390615593   T   T   T
  0.9156258682101299  0.4375574369917837  0.5456290142598237   T   T   T
  0.4123644168152449  0.8128644038060345  0.6394586849736895   T   T   T
  0.4158388625024379  0.3194584064391338  0.5524200091112879   T   T   T
  0.2523540917230521  0.5590192133333348  0.5436951232964482   T   T   T
  0.5811729087519233  0.5602491225978125  0.5488468238377285   T   T   T
  0.5838741071687189  0.9378634004550910  0.5461154039217389   T   T   T
  0.7488403904368518  0.1843170625149094  0.5506372226459286   T   T   T
  0.5766376948757964  0.4361916534576468  0.5517493227292887   T   T   T
  0.2515254957867174  0.9372842052110163  0.5452584977765830   T   T   T
  0.9179969438185870  0.5638414700657162  0.5471127886988404   T   T   T
  0.4199005091765413  0.5648904927902160  0.5553389213934448   T   T   T
  0.9155044030965193  0.8127828253330520  0.5468275022965623   T   T   T
  0.0835842094183280  0.9389505234705134  0.5457372281069666   T   T   T
  0.2489163458062308  0.6832962749542818  0.5517885987437553   T   T   T
  0.7493546961688866  0.9339881348057765  0.5477109727879589   T   T   T
  0.7518290079813588  0.6803812823689666  0.5532034515419275   T   T   T
  0.7519958796579991  0.4356517976440372  0.5487225123853087   T   T   T
  0.4231285125600185  0.4436220935297199  0.5458348288551400   T   T   T
  0.4229092527992259  0.6877442109368916  0.5468585900208340   T   T   T
  0.9167374226612596  0.1889067893101250  0.5455269241851579   T   T   T
  0.7478154552294574  0.3121548465722641  0.5485935398982704   T   T   T
  0.5795182921134254  0.6862152859603390  0.5473997522575353   T   T   T
  0.4974626204629022  0.5043619414915813  0.6088648152963856   T   T   T
  0.6654255094080477  0.6261017646770132  0.5029723563018457   T   T   T
  0.9998564734571753  0.7532270701536008  0.5924102680340541   T   T   T
  0.4160797363235814  0.9371714951015411  0.5461294212913189   T   T   T
  0.9998883187001271  0.4989050185744690  0.5938963451824997   T   T   T
  0.5807575944048893  0.1857599308347417  0.5494738488958150   T   T   T
  0.7411673046951777  0.8098532493080878  0.6399726626044785   T   T   T
  0.3340552089486369  0.9998576171690259  0.5920054658242148   T   T   T
  0.9997995014480389  0.9991607542353071  0.5932493906996144   T   T   T
  0.0011498148689243  0.2493936784689677  0.5922801841578237   T   T   T
  0.3331892262932474  0.4962384122560274  0.5908935602182570   T   T   T
  0.3353769387178962  0.7411114477638665  0.5902561550959425   T   T   T
  0.6633809279812757  0.2477927300627657  0.5904703987618369   T   T   T
  0.6660799765244108  0.0004519451182460  0.5921678514994499   T   T   T
  0.6657312245230784  0.7412766596321086  0.5906029183500369   T   T   T
  0.3972372425143968  0.5504671755305960  0.6518865348095825   T   T   T
  0.0829179977608002  0.4387743911152915  0.5448331389843251   T   T   T
  0.6666659901947631  0.4947880989719252  0.5912069974068407   T   T   T
  0.5860105378758060  0.8144578536176984  0.5504629034920058   T   T   T
  0.1708170007925698  0.7505195258770962  0.5949000828949862   T   T   T
  0.1656243658690847  0.5025877572671349  0.5870787986736883   T   T   T
  0.3345610858847741  0.2545468626161658  0.5926540351392978   T   T   T
  0.4999438289771611  0.0001567670374997  0.5911673761286234   T   T   T
  0.8326807287864048  0.8742265194787548  0.4986446065836673   T   T   T
  0.7485261934745061  0.9372837439245717  0.6406737642544891   T   T   T
  0.8321372455420348  0.0021049412288390  0.5922777799044316   T   T   T
  0.5006240891875889  0.7565466056338349  0.5924950109168858   T   T   T
  0.4178128836399419  0.0651830596658059  0.6400643564899414   T   T   T
  0.4265532702573220  0.3044063247315389  0.6554100074203498   T   T   T
  0.4156237350905064  0.1912627202332355  0.5464643271955446   T   T   T
  0.4982588978961020  0.2530635993968398  0.5904840880716128   T   T   T
  0.1674888550216695  0.9983448092379542  0.5922994764168753   T   T   T
  0.1685113956891252  0.2481525654861994  0.5931396147794464   T   T   T
  0.9161023013186291  0.0623056895964287  0.4541097812531256   T   T   T
  0.2484631956001283  0.4356640952063369  0.5490532013271643   T   T   T
  0.0833333358191695  0.3124999999901945  0.3605200052333331   F   F   F
  0.5911503661994878  0.8101469086561972  0.6460174433873446   T   T   T
  0.5831844826844763  0.3208311983650904  0.6331840146704568   T   T   T
  0.7479453198314687  0.0678327893644520  0.6397146858507771   T   T   T
  0.0843480778364701  0.3112054176089732  0.6409261567605758   T   T   T
  0.0867862336426112  0.5629511849656911  0.6398550565168051   T   T   T
  0.0841978573501873  0.0603459436404842  0.6422101822523463   T   T   T
  0.0874015110118155  0.4366361549172442  0.6396816416903133   T   T   T
  0.0840249635565877  0.1852851900082654  0.6414334883396987   T   T   T
  0.4177478815374274  0.1872409598652454  0.6395370858091631   T   T   T
  0.0842816413841709  0.9355745352292897  0.6407097359491986   T   T   T
  0.9125183958548335  0.4360815465709325  0.6397829985817189   T   T   T
  0.9164999167886640  0.6873398797041675  0.6388475036450039   T   T   T
  0.9142553570220570  0.9370302565681835  0.6411750904639217   T   T   T
  0.4150869806735076  0.4186941068870051  0.6301276216017417   T   T   T
  0.7549718824038801  0.4332689543024091  0.6373009606530078   T   T   T
  0.4176315436425310  0.9349447867195172  0.6397681626757407   T   T   T
  0.0833791683135213  0.6871294961206099  0.6388454479976950   T   T   T
  0.2520192870370984  0.9303042265850822  0.6374609262796445   T   T   T
  0.7457200320976063  0.1934643879309285  0.6460171161064227   T   T   T
  0.2536013521736969  0.1864964314837808  0.6415210166982442   T   T   T
  0.8304501722725250  0.7507118909129528  0.5927616067422433   T   T   T
  0.8314563135767260  0.2493704522972418  0.5912661498952931   T   T   T
  0.5823133697802787  0.9359106087018507  0.6396272161605095   T   T   T
  0.9166666865332829  0.8124999999834799  0.3605200052333331   F   F   F
  0.0842752976662295  0.8126158012521619  0.6423396057971925   T   T   T
  0.7461962068017250  0.3115547230468712  0.6418744222511192   T   T   T
  0.5784911366860769  0.1915217818485996  0.6442749035621285   T   T   T
  0.2554795111601660  0.6774001367207747  0.6623125270167934   T   T   T
  0.8334026212630006  0.5031276536686051  0.5888313850795168   T   T   T
  0.2403751577196735  0.4419776586757696  0.6415848012318333   T   T   T
  0.4204010014077718  0.6761949797557241  0.6338876530359413   T   T   T
  0.6665374802046461  0.8743836588347490  0.4989402417657431   T   T   T
  0.0858316080105265  0.6893184971827665  0.5453995463414011   T   T   T
  0.5812997422288543  0.4390752338027182  0.6459130701656316   T   T   T
  0.2519253953621958  0.1879623681672025  0.5473761116076177   T   T   T
  0.2474274225420628  0.5734101500183170  0.6285193798585994   T   T   T
  0.7539928368096174  0.6917514340773230  0.6571744942525100   T   T   T
  0.2624271753752383  0.8002704272856078  0.6459975810943295   T   T   T
  0.2510332847470680  0.0593522927179381  0.6423033367132431   T   T   T
  0.9166666865332829  0.5625000000092442  0.3605200052333331   F   F   F
  0.4994024583267308  0.3742596335382078  0.4997260255809136   T   T   T
  0.5000414384005758  0.8734213981251985  0.5008992875035020   T   T   T
  0.5002602531350665  0.6211331426479325  0.5000332186903085   T   T   T
  0.8325239071882431  0.6230847016265941  0.5002160475206014   T   T   T
  0.8324219183591615  0.3730817603327195  0.4997830437017850   T   T   T
  0.8328853559058292  0.1244916751047745  0.5003266286079634   T   T   T
  0.1667410764750133  0.3761981414974223  0.4977058137391991   T   T   T
  0.1676369381219078  0.6243280453410851  0.5000351783628285   T   T   T
  0.5830730383026961  0.0662120580932853  0.6398103618768389   T   T   T
  0.9157482802156032  0.0626786016972387  0.6414521043344441   T   T   T
  0.5770233675226331  0.6862981570754569  0.6395484395738412   T   T   T
  0.1677105312692043  0.8733197648368677  0.4998577346801861   T   T   T
  0.5827710558778588  0.6861499361585659  0.4545871558547885   T   T   T
  0.5827640345331190  0.9371159666923913  0.4543086689074241   T   T   T
  0.9157575867534183  0.1867927280642138  0.4532070127961356   T   T   T
  0.9159186183106566  0.4368647724809344  0.4536032572739610   T   T   T
  0.1670818334330255  0.1243095478869553  0.4993156891973465   T   T   T
  0.7478908571966125  0.0604376525670278  0.5449391812449856   T   T   T
  0.7533861866548569  0.5681310845436321  0.6357875236648972   T   T   T
  0.9153869443655764  0.3118719788221511  0.6398488191058375   T   T   T
  0.9141751914175900  0.5626041816214015  0.6408430935546389   T   T   T
  0.4996071473306116  0.1253882505589822  0.4996984838938468   T   T   T
  0.5826139689234289  0.4394780339458641  0.4561734353620239   T   T   T
  0.9138580084894709  0.8132178290725360  0.6416366083310067   T   T   T
  0.9160465702204814  0.1862302073905001  0.6399002857278969   T   T   T
  0.2490223518974672  0.3163514799994332  0.6411340993079917   T   T   T
  0.0836953214691879  0.1888116211170945  0.5456834724920221   T   T   T
  0.2500213512963826  0.9360927606289541  0.4540123462471242   T   T   T
  0.2532680224644314  0.8126058939163318  0.5505041612028418   T   T   T
  0.9166666865332829  0.1875000000030838  0.3605200052333331   F   F   F
  0.5833333134730552  0.9375000000154046  0.3605200052333331   F   F   F
  0.5833333134730552  0.6874999999963620  0.3605200052333331   F   F   F
  0.5833333134730552  0.4374999701794380  0.3605200052333331   F   F   F
  0.5833333134730552  0.1875000000030838  0.3605200052333331   F   F   F
  0.2499999999799343  0.9375000000154046  0.3605200052333331   F   F   F
  0.9166666865332829  0.9375000000154046  0.3605200052333331   F   F   F
  0.2499999999799343  0.6874999999963620  0.3605200052333331   F   F   F
  0.2499999999799343  0.1875000000030838  0.3605200052333331   F   F   F
  0.7499999404149307  0.9375000000154046  0.3605200052333331   F   F   F
  0.7499999404149307  0.6874999999963620  0.3605200052333331   F   F   F
  0.7496330685185943  0.4383614321399924  0.4557191724963043   T   T   T
  0.7499999404149307  0.4374999701794380  0.3605200052333331   F   F   F
  0.2505307477371320  0.8108226489957469  0.4553245167555757   T   T   T
  0.4166666269218169  0.9375000000154046  0.3605200052333331   F   F   F
  0.4166666269218169  0.4374999701794380  0.3605200052333331   F   F   F
  0.2499999999799343  0.4374999701794380  0.3605200052333331   F   F   F
  0.0833333358191695  0.0625000000159659  0.3605200052333331   F   F   F
  0.9153104714747029  0.6868656561736838  0.4533200067648715   T   T   T
  0.6653754302033912  0.3785521437809966  0.5030742669506638   T   T   T
  0.3342705750492100  0.3784138231015269  0.5029224154170927   T   T   T
  0.3355708884716408  0.6257792994280792  0.5037630661790947   T   T   T
  0.9175818817957736  0.0633510683406627  0.5474604351340872   T   T   T
  0.2499934740950028  0.1887414604015131  0.4543230486926800   T   T   T
  0.7494795615051095  0.9384259990739747  0.4553607279472852   T   T   T
  0.7491907834396337  0.6886598900201758  0.4573906722966732   T   T   T
  0.7507708175438188  0.1898032558171182  0.4556417099651885   T   T   T
  0.7499999404149307  0.1875000000030838  0.3605200052333331   F   F   F
  0.2518824010637545  0.5647875088973746  0.4535940725069205   T   T   T
  0.9166666865332829  0.4374999701794380  0.3605200052333331   F   F   F
  0.4172385936071611  0.9360524014684436  0.4540280649671408   T   T   T
  0.4171887076011587  0.6851598403280335  0.4550039656634436   T   T   T
  0.0000000000000000  0.0000000000000000  0.4070133268666680   F   F   F
  0.5906633807782675  0.5660250835959260  0.6387112603095730   T   T   T
  0.2522174229590224  0.3144118650214542  0.4538970674594833   T   T   T
  0.2521623169556882  0.6876033887381198  0.4559841694615528   T   T   T
  0.4173105473858307  0.1870915482598288  0.4535506915648342   T   T   T
  0.9161409998518084  0.3121306733382118  0.4539034863799939   T   T   T
  0.5825112395120461  0.3113725940638768  0.5449206517117738   T   T   T
  0.9161190635286282  0.5621828214439477  0.4540825417425491   T   T   T
  0.9165617738066580  0.8121224745038610  0.4540661302339832   T   T   T
  0.0838543964951882  0.1865729550268037  0.4529770026250371   T   T   T
  0.0827192358108135  0.4367434205084114  0.4527968449194274   T   T   T
  0.0838814771961663  0.9367025082130715  0.4534808008427705   T   T   T
  0.0844010842688625  0.6869599434505641  0.4531452703351281   T   T   T
  0.4164263528206447  0.4354641468543813  0.4538408903330488   T   T   T
  0.9164292399787154  0.9371888758513616  0.4536730739251280   T   T   T
  0.4166666269218169  0.6874999999963620  0.3605200052333331   F   F   F
  0.0001296552216709  0.1251143071807602  0.4984485213330896   T   T   T
  0.0000176559339048  0.3734361223734635  0.4984112695832915   T   T   T
  0.9998553245589812  0.6271213837023818  0.4976637911993184   T   T   T
  0.3336389676093115  0.1256379718041671  0.4984970178128864   T   T   T
  0.0000309535563416  0.8751253183199850  0.4995521215504435   T   T   T
  0.3335634241556089  0.8742391155367232  0.4991642780406015   T   T   T
  0.6661917941251516  0.1267003058820219  0.4991672592100811   T   T   T
  0.2512178301378934  0.4395416566608374  0.4549897273746978   T   T   T
  0.0833333358191695  0.5625000000092442  0.3605200052333331   F   F   F
  0.9166666865332829  0.0625000000159659  0.3605200052333331   F   F   F
  0.7494224763174111  0.8131688370355313  0.4530587853914054   T   T   T
  0.2505041405360411  0.0620641211580756  0.4542409648253820   T   T   T
  0.9155477790787602  0.3126447479124350  0.5468057343686993   T   T   T
  0.5826627061528173  0.1897869725196722  0.4553151160915412   T   T   T
  0.5835421586497658  0.0627283604419196  0.5462258242736326   T   T   T
  0.5832678846921924  0.8104787109820957  0.4553743791657193   T   T   T
  0.0816954450867628  0.5644357111428945  0.5463242407298498   T   T   T
  0.7583082207108264  0.1242671830336095  0.7861912034782047   T   T   T
  0.8333332538436267  0.0000000000000000  0.4070133268666680   F   F   F
  0.0833333358191695  0.1875000000030838  0.3605200052333331   F   F   F
  0.0000000000000000  0.2500000000190425  0.4070133268666680   F   F   F
  0.0000000000000000  0.4999999999932783  0.4070133268666680   F   F   F
  0.7482478874995520  0.5643038905953059  0.4538008016123687   T   T   T
  0.3333333432766779  0.0000000000000000  0.4070133268666680   F   F   F
  0.3333333432766779  0.4999999999932783  0.4070133268666680   F   F   F
  0.3333333432766779  0.7500000000123208  0.4070133268666680   F   F   F
  0.6666666865533486  0.0000000000000000  0.4070133268666680   F   F   F
  0.6666666865533486  0.2500000000190425  0.4070133268666680   F   F   F
  0.6666666865533486  0.4999999999932783  0.4070133268666680   F   F   F
  0.5844892646805808  0.5628212027672835  0.4548592217940063   T   T   T
  0.5841829572708378  0.3152313340420659  0.4536374614344150   T   T   T
  0.1666666716383389  0.2500000000190425  0.4070133268666680   F   F   F
  0.1666666716383389  0.7500000000123208  0.4070133268666680   F   F   F
  0.5000000000021103  0.4999999999932783  0.4070133268666680   F   F   F
  0.5000000000021103  0.2500000000190425  0.4070133268666680   F   F   F
  0.9166666865332829  0.3124999999901945  0.3605200052333331   F   F   F
  0.3333333432766779  0.2500000000190425  0.4070133268666680   F   F   F
  0.7472868613149704  0.3141065976238757  0.4548437343598153   T   T   T
  0.0000000000000000  0.7500000000123208  0.4070133268666680   F   F   F
  0.4168717608829242  0.8104002226873714  0.4549573899370071   T   T   T
  0.5833333134730552  0.5625000000092442  0.3605200052333331   F   F   F
  0.7496991872662525  0.0640087043548524  0.4535600015212797   T   T   T
  0.5833333134730552  0.8124999999834799  0.3605200052333331   F   F   F
  0.1666666716383389  0.0000000000000000  0.4070133268666680   F   F   F
  0.8333332538436267  0.2500000000190425  0.4070133268666680   F   F   F
  0.1666666716383389  0.4999999999932783  0.4070133268666680   F   F   F
  0.6666666865533486  0.7500000000123208  0.4070133268666680   F   F   F
  0.5833450472982604  0.0634412267480683  0.4541637905847799   T   T   T
  0.2499999999799343  0.3124999999901945  0.3605200052333331   F   F   F
  0.5000000000021103  0.7500000000123208  0.4070133268666680   F   F   F
  0.5833333134730552  0.3124999999901945  0.3605200052333331   F   F   F
  0.5000000000021103  0.0000000000000000  0.4070133268666680   F   F   F
  0.9166666865332829  0.6874999999963620  0.3605200052333331   F   F   F
  0.2499999999799343  0.0625000000159659  0.3605200052333331   F   F   F
  0.2499999999799343  0.8124999999834799  0.3605200052333331   F   F   F
  0.5833333134730552  0.0625000000159659  0.3605200052333331   F   F   F
  0.7499999404149307  0.3124999999901945  0.3605200052333331   F   F   F
  0.7499999404149307  0.0625000000159659  0.3605200052333331   F   F   F
  0.4166666269218169  0.8124999999834799  0.3605200052333331   F   F   F
  0.4166666269218169  0.5625000000092442  0.3605200052333331   F   F   F
  0.4166666269218169  0.3124999999901945  0.3605200052333331   F   F   F
  0.7499999404149307  0.8124999999834799  0.3605200052333331   F   F   F
  0.4169080060909136  0.0616089923148153  0.4553441540767453   T   T   T
  0.0834577106085777  0.8121725234071668  0.4541750928512893   T   T   T
  0.0839534672826344  0.5624941914988741  0.4538883134349366   T   T   T
  0.4160189580244397  0.5595824758029504  0.4578613207868358   T   T   T
  0.0837065753413495  0.0618555986984190  0.4542339522166093   T   T   T
  0.0834948342107592  0.3119611311242813  0.4540437040293517   T   T   T
  0.4166666269218169  0.0625000000159659  0.3605200052333331   F   F   F
  0.7480785653333806  0.8080104727558194  0.5456684564656552   T   T   T
  0.2492263624029186  0.3135579358734346  0.5458189409034012   T   T   T
  0.4154954425862614  0.3112842256419121  0.4573515534207938   T   T   T
  0.2512023384999874  0.0623423152760640  0.5471558897817651   T   T   T
  0.7465379421217169  0.5581954071070223  0.5446728894205757   T   T   T
  0.7499999404149307  0.5625000000092442  0.3605200052333331   F   F   F
  0.2499999999799343  0.5625000000092442  0.3605200052333331   F   F   F
  0.4142639486042330  0.8117242068756861  0.5477638819120858   T   T   T
  0.8333332538436267  0.4999999999932783  0.4070133268666680   F   F   F
  0.4166666269218169  0.1875000000030838  0.3605200052333331   F   F   F
  0.0833333358191695  0.9375000000154046  0.3605200052333331   F   F   F
  0.0833333358191695  0.6874999999963620  0.3605200052333331   F   F   F
  0.0833333358191695  0.4374999701794380  0.3605200052333331   F   F   F
  0.8333332538436267  0.7500000000123208  0.4070133268666680   F   F   F
  0.0833333358191695  0.8124999999834799  0.3605200052333331   F   F   F
  0.8333332538436267  0.3750000000061604  0.4070133268666680   F   F   F
  0.8379193564265786  0.3723605447113028  0.6034427278835741   T   T   T
  0.8333332538436267  0.1249999999871179  0.4070133268666680   F   F   F
  0.1666666716383389  0.1249999999871179  0.4070133268666680   F   F   F
  0.3345966530595446  0.8788124853127953  0.6029923017843719   T   T   T
  0.8319087963692734  0.8764638237674682  0.6177876780902327   T   T   T
  0.1666666716383389  0.8749999404036828  0.4070133268666680   F   F   F
  0.8395224581174746  0.6269006370058009  0.6040544179504742   T   T   T
  0.8360917669337197  0.7516691167556788  0.5026170648573406   T   T   T
  0.6654900697247174  0.1244361249701500  0.6082847000534659   T   T   T
  0.3315561113173903  0.1196598564514249  0.6129258282966389   T   T   T
  0.1663800074854750  0.2481070564067181  0.5062593118030951   T   T   T
  0.0004669614285543  0.3750807711231716  0.6249212357774184   T   T   T
  0.3340067161335500  0.6245842318673203  0.5950101059879406   T   T   T
  0.5000000000021103  0.1249999999871179  0.4070133268666680   F   F   F
  0.9999907739175206  0.6233868913402855  0.6242398255437024   T   T   T
  0.1666666716383389  0.6249999999803961  0.4070133268666680   F   F   F
  0.0000000000000000  0.1249999999871179  0.4070133268666680   F   F   F
  0.5004422611324060  0.1220770600953455  0.6064303200243019   T   T   T
  0.5000000000021103  0.8749999404036828  0.4070133268666680   F   F   F
  0.8342682923905508  0.1241825648260402  0.6145847034875065   T   T   T
  0.6666276450632466  0.6260388034795233  0.5933563549526037   T   T   T
  0.6655135026003054  0.8811691843132562  0.6070893395049769   T   T   T
  0.1632853751719700  0.3712568384203253  0.6074649540135140   T   T   T
  0.1679001667026391  0.1226264152310757  0.6219713235407576   T   T   T
  0.1598164346624333  0.6275031730577508  0.6013463054239536   T   T   T
  0.6710295989210322  0.3724889723760234  0.5935250587953584   T   T   T
  0.1663033409179780  0.8736155562783829  0.6180684752701769   T   T   T
  0.5003811756224912  0.9993685340159365  0.5056622479736809   T   T   T
  0.6666666865533486  0.8749999404036828  0.4070133268666680   F   F   F
  0.5000000000021103  0.3750000000061604  0.4070133268666680   F   F   F
  0.5035869399104367  0.6250538071722075  0.5940560606910652   T   T   T
  0.5015252813852352  0.3715184525120661  0.5946323647719878   T   T   T
  0.9990388650080044  0.8750031169328700  0.6226683727798439   T   T   T
  0.5000000000021103  0.6249999999803961  0.4070133268666680   F   F   F
  0.5011954214491424  0.4998499996029754  0.5002170190307292   T   T   T
  0.1666666716383389  0.3750000000061604  0.4070133268666680   F   F   F
  0.6654324251257845  0.7518964982199431  0.5022232572345755   T   T   T
  0.8361679448200691  0.5000080650071280  0.5027892581424709   T   T   T
  0.3339307467045110  0.7511967902390327  0.5014766638820282   T   T   T
  0.3331262797762252  0.0010450743967246  0.5057592651280534   T   T   T
  0.3300573350794341  0.2480232796168553  0.5028253719283494   T   T   T
  0.0006776945912557  0.1227726669245573  0.6203033353005492   T   T   T
  0.1643911173478829  0.7515363698050368  0.5033783616989730   T   T   T
  0.6660572070295674 -0.0000659720060603  0.5056600223582897   T   T   T
  0.6666666865533486  0.3750000000061604  0.4070133268666680   F   F   F
  0.3260759753670638  0.3733194423445533  0.5926703584729485   T   T   T
  0.9997670407145911  0.4999800683164216  0.5067110547429703   T   T   T
  0.8333332538436267  0.6249999999803961  0.4070133268666680   F   F   F
  0.5010902364196164  0.7528542589507410  0.5038518810541216   T   T   T
  0.0000000000000000  0.3750000000061604  0.4070133268666680   F   F   F
  0.6669885819599267  0.2481053277332373  0.5026582162289467   T   T   T
  0.0000057093706157  0.0000238828513215  0.5067155874153614   T   T   T
  0.6687019314335154  0.4998651884268120  0.5006612641354748   T   T   T
  0.3333333432766779  0.3750000000061604  0.4070133268666680   F   F   F
  0.5009549217696477  0.8769893810638096  0.6094305397982315   T   T   T
  0.8356480510339942  0.2485479196636561  0.5029594881319783   T   T   T
  0.1636018249490221  0.4998029974935231  0.5019518391968197   T   T   T
  0.3311662839648196  0.4991908501787605  0.5009045326410758   T   T   T
  0.1660017696267191  0.0011371732430419  0.5065502876678118   T   T   T
  0.0000000000000000  0.8749999404036828  0.4070133268666680   F   F   F
  0.3333333432766779  0.8749999404036828  0.4070133268666680   F   F   F
  0.8341125945259927  0.0002538122508465  0.5065174475865146   T   T   T
  0.0000000000000000  0.6249999999803961  0.4070133268666680   F   F   F
  0.3333333432766779  0.1249999999871179  0.4070133268666680   F   F   F
  0.3333333432766779  0.6249999999803961  0.4070133268666680   F   F   F
  0.8333332538436267  0.8749999404036828  0.4070133268666680   F   F   F
  0.6666666865533486  0.6249999999803961  0.4070133268666680   F   F   F
  0.0009777835934348  0.2497952276740513  0.5061505196918681   T   T   T
 -0.0000640970231303  0.7510992222163805  0.5065461705001831   T   T   T
  0.5010687952603154  0.2478832835521096  0.5019073331025115   T   T   T
  0.6666666865533486  0.1249999999871179  0.4070133268666680   F   F   F
  0.7499999404149307  0.4999999999932783  0.4070133268666680   F   F   F
  0.0833333358191695  0.0000000000000000  0.4070133268666680   F   F   F
  0.0811602505363983  0.7518743316304038  0.6035095578837697   T   T   T
  0.0833333358191695  0.2500000000190425  0.4070133268666680   F   F   F
  0.4167326727485013  0.7505116074889401  0.5942835327514372   T   T   T
  0.7524990554002069  0.6247047281859709  0.5024249296905011   T   T   T
  0.4166666269218169  0.4999999999932783  0.4070133268666680   F   F   F
  0.0833333358191695  0.4999999999932783  0.4070133268666680   F   F   F