Au  C  H  O Sr Ti                       
   1.00000000000000     
    23.6707801818999997    0.0000000000000000    0.0000000000000000
     0.0000000000000000   22.3170261383000010    0.0000000000000000
     0.0000000000000000    0.0000000000000000   30.0000000000000000
   Au   C    H    O    Sr   Ti
    50     3     7   265    72    72
Selective dynamics
Direct
  0.7159360545795674  0.5235295344288311  0.7523390979286125   T   T   T
  0.6555851500665231  0.4394867072310974  0.8121260931361630   T   T   T
  0.3690165638279780  0.6187183210092352  0.8206291157205192   T   T   T
  0.5712769555866835  0.5085864240917363  0.8560365072441410   T   T   T
  0.6645964021378262  0.1806729244643818  0.7461869798390171   T   T   T
  0.4728045796389240  0.4491930317696847  0.8765801067169345   T   T   T
  0.5173849469343076  0.3770197142027270  0.7314263843453279   T   T   T
  0.2819494215787463  0.3399292596232019  0.7023289436736379   T   T   T
  0.4522696965576700  0.5796373740469554  0.7027997274078684   T   T   T
  0.3976235268174135  0.3816912948552847  0.6904031182337754   T   T   T
  0.6209743180893574  0.5706702166247118  0.7041881186176846   T   T   T
  0.3251561048794994  0.4147622664207010  0.7693305937034464   T   T   T
  0.4636093452651676  0.5723368442786978  0.8642336044333917   T   T   T
  0.3748590474918756  0.7395436577361211  0.7791696320316915   T   T   T
  0.6482231539637555  0.4449639791329650  0.6945267253103709   T   T   T
  0.6694755178081591  0.6811871418239612  0.7487516412618133   T   T   T
  0.6999001102697153  0.3419469283475546  0.7572310293067303   T   T   T
  0.7734414535209641  0.4268962389822232  0.7938861366563194   T   T   T
  0.4439542044761969  0.4733803350732492  0.7564835694542447   T   T   T
  0.5651576305262277  0.6388175904982939  0.8607005748212379   T   T   T
  0.5404535775455731  0.6675730459774643  0.7017486963401198   T   T   T
  0.3756494743799832  0.4928755279986032  0.8328640050054801   T   T   T
  0.2569205325924608  0.5929994340792361  0.6946598096285521   T   T   T
  0.6165580375031490  0.3202791094262944  0.6960468184070798   T   T   T
  0.5543366473920693  0.2118900548933587  0.7100443278223186   T   T   T
  0.4168671539707887  0.6957641034673561  0.6996454905953410   T   T   T
  0.3918239270887601  0.8170217111720393  0.7066554824563490   T   T   T
  0.7194076662485086  0.2537791480390998  0.6916605971529886   T   T   T
  0.2944501521591636  0.7461354035487038  0.6965850274538301   T   T   T
  0.5119731960872780  0.6032791047797664  0.7767942178601769   T   T   T
  0.5785060569664607  0.7256805802666206  0.7939986139614635   T   T   T
  0.2404954802799845  0.4694663010971408  0.7092124960680127   T   T   T
  0.2859929180347276  0.6622640912938346  0.7646406001089228   T   T   T
  0.6024103366783586  0.2818177545816014  0.7835013922416425   T   T   T
  0.5142691565334472  0.4843479229549187  0.6780522627191432   T   T   T
  0.7064915264849499  0.7568534212377263  0.6883752742981055   T   T   T
  0.2895754818836458  0.5380649906897571  0.7775529411319106   T   T   T
  0.7629737058216508  0.4284437430915853  0.7039732767923416   T   T   T
  0.4856956753704595  0.2703265459010579  0.7749285943858258   T   T   T
  0.4642379100940611  0.6950234161443785  0.8308871213008252   T   T   T
  0.5489555577554981  0.3799484647459388  0.8259976487402899   T   T   T
  0.4859772534839120  0.7763061220379373  0.7551824635395958   T   T   T
  0.5629507256369709  0.4853440754329910  0.7624415004964239   T   T   T
  0.6356241674825415  0.5837074218609136  0.7996514326727534   T   T   T
  0.5964429675686307  0.7845187181498675  0.7130508763384810   T   T   T
  0.7326318186849162  0.6144327165719785  0.6940277187584436   T   T   T
  0.4277246956494165  0.3706188257451103  0.8154296991247344   T   T   T
  0.3495414603042654  0.4995225683961205  0.6977834773336919   T   T   T
  0.3699254939318074  0.2985495388197670  0.7553404387345061   T   T   T
  0.4384447870559009  0.2282367827591235  0.6975073102426581   T   T   T
  0.6442255353314368  0.0550140291724182  0.7968916258724319   T   T   T
  0.7261360502287815  0.1080453052538008  0.7548793808990349   T   T   T
  0.6927787377569760  0.0507637827360372  0.7630745672543084   T   T   T
  0.7478592767431855  0.1097537863368135  0.7227799341153645   T   T   T
  0.7488449218425662  0.1140906496575281  0.8170051256518075   T   T   T
  0.7240776581205395  0.0178640270354233  0.7747566851249450   T   T   T
  0.6773152165531527  0.0344873034297310  0.7310756313964735   T   T   T
  0.6303129827855203  0.0102158391973154  0.8068352792409909   T   T   T
  0.6561380935522156  0.0790739065790626  0.8273027009278983   T   T   T
  0.6076914294440608  0.0778182002499184  0.7822155557198961   T   T   T
  0.9140198042005055  0.6889899649228804  0.5453828404277713   T   T   T
  0.9156164887037691  0.9385118629568606  0.5464086329909278   T   T   T
  0.0823150810358210  0.0632419324044469  0.5475839236502426   T   T   T
  0.0864416307334449  0.3133779029400100  0.5469158089894762   T   T   T
  0.0849197892766486  0.8128469600756012  0.5473339349118899   T   T   T
  0.4164574221555742  0.0652453831516844  0.5473490992989354   T   T   T
  0.9156687187936128  0.4374538504348616  0.5456801087232105   T   T   T
  0.4123425710122461  0.8128195992020468  0.6394642051036838   T   T   T
  0.4159431615682817  0.3194273528222246  0.5523871993357159   T   T   T
  0.2524139627640401  0.5590014816767850  0.5439398673166931   T   T   T
  0.5812322789529754  0.5600484806734870  0.5489450650256958   T   T   T
  0.5837917958102189  0.9377417471987929  0.5461074726675339   T   T   T
  0.7486180302838814  0.1843803915094946  0.5504197178944138   T   T   T
  0.5765573458585627  0.4357042077336263  0.5521345774975802   T   T   T
  0.2515140187170515  0.9372617529172943  0.5452442558014927   T   T   T
  0.9174846446568399  0.5637236211410341  0.5469984995673771   T   T   T
  0.4200112544595879  0.5648149745450958  0.5553924157273191   T   T   T
  0.9155732233242456  0.8128487286258487  0.5468454088263942   T   T   T
  0.0837761111736011  0.9387508005520341  0.5458786285078983   T   T   T
  0.2491007130373674  0.6830998346765667  0.5520238624229781   T   T   T
  0.7493711843200944  0.9339837088192203  0.5476090180813252   T   T   T
  0.7517983788281997  0.6801133192925324  0.5533667477004767   T   T   T
  0.7518819440392546  0.4355317842737790  0.5487897602140206   T   T   T
  0.4231716337646133  0.4436873601324576  0.5457555462932229   T   T   T
  0.4230858968232123  0.6878423990257866  0.5467670245469392   T   T   T
  0.9165772190284808  0.1888709538074269  0.5454584445709589   T   T   T
  0.7478423351230845  0.3124520968563019  0.5491701640343928   T   T   T
  0.5794895468871569  0.6860769983532986  0.5473783718195441   T   T   T
  0.4974505655076565  0.5043292108898595  0.6089474080840416   T   T   T
  0.6653816795333314  0.6258876167656409  0.5029953363564689   T   T   T
  0.9997098197870449  0.7529503453670465  0.5923893229743670   T   T   T
  0.4159508523690501  0.9370478916796822  0.5460942571407237   T   T   T
  0.9997272136716516  0.4996504488890863  0.5940425982416212   T   T   T
  0.5807923097653871  0.1855515427304323  0.5495592739464304   T   T   T
  0.7411944695455012  0.8097745168343436  0.6399930407725202   T   T   T
  0.3340134852507962  0.9997786588245687  0.5920347875750011   T   T   T
  0.9998443955407029  0.9992104841446474  0.5932996457382385   T   T   T
  0.0007947593165741  0.2497440835870409  0.5917961127225294   T   T   T
  0.3331911464193018  0.4962483602350757  0.5909411994262666   T   T   T
  0.3355482150968399  0.7411046534561614  0.5903255722836110   T   T   T
  0.6634256843607804  0.2475842153669481  0.5905702720339275   T   T   T
  0.6660721292246223  0.0003557478384577  0.5921300516260344   T   T   T
  0.6657999808530587  0.7414890215853216  0.5903725080659280   T   T   T
  0.3972374064172201  0.5505278932802589  0.6519880224882805   T   T   T
  0.0826690837940677  0.4385312962137976  0.5449596277971820   T   T   T
  0.6666624631215587  0.4943591776242414  0.5913661214534944   T   T   T
  0.5859095040615891  0.8142859365731184  0.5503960024437665   T   T   T
  0.1706129820838522  0.7500042045985078  0.5949109049723180   T   T   T
  0.1655911541822364  0.5026430756268198  0.5873450604650708   T   T   T
  0.3346592070615370  0.2544798026652288  0.5926661178742972   T   T   T
  0.4997768551727959  0.0001397811892026  0.5910922277881738   T   T   T
  0.8326940025300986  0.8742173568720805  0.4986625960200831   T   T   T
  0.7485767494872767  0.9368782689561604  0.6404179610075822   T   T   T
  0.8321723979339095  0.0021312667932892  0.5922571486580526   T   T   T
  0.5009159429796006  0.7561837850274510  0.5929023386965508   T   T   T
  0.4176651136175031  0.0651372862368371  0.6400730279130019   T   T   T
  0.4272166881191324  0.3048274720827374  0.6551764029562211   T   T   T
  0.4156446576200109  0.1912151288929840  0.5464442233032712   T   T   T
  0.4985132350331800  0.2529013111432509  0.5903974386871080   T   T   T
  0.1675077745969681  0.9983136328957658  0.5923165503429912   T   T   T
  0.1684452812836361  0.2482365679350585  0.5930831907545491   T   T   T
  0.9160959224636471  0.0622234929560377  0.4541603682988415   T   T   T
  0.2484087245136939  0.4357608603930865  0.5491655794955796   T   T   T
  0.0833333358191695  0.3124999999901945  0.3605200052333331   F   F   F
  0.5911306607900511  0.8100470161890849  0.6460380067134885   T   T   T
  0.5833034604208779  0.3204132848881846  0.6335877225067540   T   T   T
  0.7477032960252294  0.0669947962751520  0.6404322286812190   T   T   T
  0.0839405856762463  0.3114278019793627  0.6403463027716768   T   T   T
  0.0869542852380072  0.5627238534233053  0.6402487076369903   T   T   T
  0.0842960778526649  0.0603546649100183  0.6422181678363557   T   T   T
  0.0869935482440131  0.4365100820752261  0.6395833186818005   T   T   T
  0.0835845825240691  0.1853780661610927  0.6410413102081411   T   T   T
  0.4180525178957498  0.1874776768196228  0.6396773233569192   T   T   T
  0.0843155992344361  0.9355314208942791  0.6407732776820003   T   T   T
  0.9125432620331404  0.4359288998035308  0.6396736319503513   T   T   T
  0.9162258943406976  0.6874377844086108  0.6392442492586512   T   T   T
  0.9143162748884381  0.9369034157796674  0.6411695091857561   T   T   T
  0.4151103109270838  0.4187010985801979  0.6300292024846520   T   T   T
  0.7550202905062890  0.4327066783862506  0.6373347845253451   T   T   T
  0.4175717340172763  0.9349847647262430  0.6397601679021793   T   T   T
  0.0831318090882334  0.6870350929844375  0.6391169126818862   T   T   T
  0.2519524634085051  0.9301549081535958  0.6373795107762740   T   T   T
  0.7460720245185001  0.1922849992125783  0.6459094566677754   T   T   T
  0.2535918547530564  0.1864428313859221  0.6412726911066540   T   T   T
  0.8304663575762752  0.7507113421154767  0.5928025293511111   T   T   T
  0.8314763160638478  0.2486319480834472  0.5912642628216611   T   T   T
  0.5821979622934071  0.9354714429862658  0.6394884718983406   T   T   T
  0.9166666865332829  0.8124999999834799  0.3605200052333331   F   F   F
  0.0842708232245304  0.8124269929280065  0.6421655147715487   T   T   T
  0.7461795230754850  0.3098607712585676  0.6427859010440659   T   T   T
  0.5786151585415351  0.1910012375840012  0.6442337048512679   T   T   T
  0.2548143820465205  0.6773037700903217  0.6629071311504815   T   T   T
  0.8332369006338609  0.5028206179956948  0.5888195961067569   T   T   T
  0.2404061195801339  0.4418925235364339  0.6417262664863981   T   T   T
  0.4204230725877615  0.6757346979606210  0.6336326534810944   T   T   T
  0.6665477050721329  0.8743017860465618  0.4989757715221834   T   T   T
  0.0860689885365882  0.6893081440384440  0.5453159501316330   T   T   T
  0.5811528282846269  0.4385537803240234  0.6461553821472052   T   T   T
  0.2520087679965633  0.1882079104491175  0.5471911643419298   T   T   T
  0.2473818567485346  0.5735506963696276  0.6289201384054245   T   T   T
  0.7537765512047171  0.6919193966370222  0.6572354698187415   T   T   T
  0.2619988595303321  0.7993766924927340  0.6463921597520510   T   T   T
  0.2510116561937541  0.0593601789745825  0.6423305443436131   T   T   T
  0.9166666865332829  0.5625000000092442  0.3605200052333331   F   F   F
  0.4995124123265745  0.3741778001193953  0.4996745139062542   T   T   T
  0.4999882847430043  0.8734421939676863  0.5008985808947006   T   T   T
  0.5003011418645221  0.6210393896330259  0.5000721844208763   T   T   T
  0.8323321495436492  0.6230204407454017  0.5000171448371566   T   T   T
  0.8323718339586434  0.3730686632530578  0.4998722947294088   T   T   T
  0.8328883536012716  0.1243209467713830  0.5003709700085966   T   T   T
  0.1667030244801244  0.3762105842087765  0.4977479974526088   T   T   T
  0.1677335531985984  0.6243307392282493  0.5000148569503404   T   T   T
  0.5828458852399772  0.0656942865543213  0.6397550018789953   T   T   T
  0.9156295553747372  0.0623779054780559  0.6417401051826614   T   T   T
  0.5788035403688343  0.6856780411040426  0.6396204769694174   T   T   T
  0.1677097467479797  0.8733182348241126  0.4998566914154096   T   T   T
  0.5827682286960573  0.6861073482697375  0.4546194827437255   T   T   T
  0.5827344911635775  0.9370673460831672  0.4543031217618767   T   T   T
  0.9157214650305588  0.1867705747599556  0.4532044445941733   T   T   T
  0.9157745519625436  0.4369308590129792  0.4536697868238634   T   T   T
  0.1670691412081080  0.1243591214783347  0.4993270983657197   T   T   T
  0.7478710950919673  0.0605709034438283  0.5452407072895716   T   T   T
  0.7533078919895622  0.5680746235295052  0.6357944543693312   T   T   T
  0.9151611088337757  0.3117227645852560  0.6396090990774822   T   T   T
  0.9131077320650219  0.5621771570889388  0.6412837010465215   T   T   T
  0.4995348942026582  0.1253141888837733  0.4997304616323817   T   T   T
  0.5827314251634460  0.4394484220524523  0.4562259187025230   T   T   T
  0.9139416491903389  0.8132029935037212  0.6415435769929343   T   T   T
  0.9164817377238260  0.1858734956502830  0.6398661767447616   T   T   T
  0.2490692722477745  0.3162262721387135  0.6411925186866925   T   T   T
  0.0835736589087723  0.1889095994040526  0.5454693561202315   T   T   T
  0.2500827780400427  0.9360074198554947  0.4540618595731240   T   T   T
  0.2529846280531497  0.8124860861429737  0.5507182050621681   T   T   T
  0.9166666865332829  0.1875000000030838  0.3605200052333331   F   F   F
  0.5833333134730552  0.9375000000154046  0.3605200052333331   F   F   F
  0.5833333134730552  0.6874999999963620  0.3605200052333331   F   F   F
  0.5833333134730552  0.4374999701794380  0.3605200052333331   F   F   F
  0.5833333134730552  0.1875000000030838  0.3605200052333331   F   F   F
  0.2499999999799343  0.9375000000154046  0.3605200052333331   F   F   F
  0.9166666865332829  0.9375000000154046  0.3605200052333331   F   F   F
  0.2499999999799343  0.6874999999963620  0.3605200052333331   F   F   F
  0.2499999999799343  0.1875000000030838  0.3605200052333331   F   F   F
  0.7499999404149307  0.9375000000154046  0.3605200052333331   F   F   F
  0.7499999404149307  0.6874999999963620  0.3605200052333331   F   F   F
  0.7495461602080472  0.4382015762438577  0.4557351687493888   T   T   T
  0.7499999404149307  0.4374999701794380  0.3605200052333331   F   F   F
  0.2504704834784519  0.8108290661222626  0.4553108580081206   T   T   T
  0.4166666269218169  0.9375000000154046  0.3605200052333331   F   F   F
  0.4166666269218169  0.4374999701794380  0.3605200052333331   F   F   F
  0.2499999999799343  0.4374999701794380  0.3605200052333331   F   F   F
  0.0833333358191695  0.0625000000159659  0.3605200052333331   F   F   F
  0.9153583024151081  0.6866996093203223  0.4531795985807040   T   T   T
  0.6654114170663654  0.3785454473308545  0.5031105395597856   T   T   T
  0.3343493777630128  0.3784480291358424  0.5030264465614567   T   T   T
  0.3356097594450827  0.6256815275021282  0.5037649550264117   T   T   T
  0.9177200595253848  0.0633526863676167  0.5476006897713979   T   T   T
  0.2498709186845334  0.1884798248920505  0.4540874411473319   T   T   T
  0.7494914080778072  0.9383668848124742  0.4553381687892139   T   T   T
  0.7490657559760352  0.6886499102644443  0.4574697451249395   T   T   T
  0.7507489193880151  0.1893736797084928  0.4554509926682531   T   T   T
  0.7499999404149307  0.1875000000030838  0.3605200052333331   F   F   F
  0.2518653648321498  0.5645942635804807  0.4538010484876657   T   T   T
  0.9166666865332829  0.4374999701794380  0.3605200052333331   F   F   F
  0.4170990799810652  0.9359562395393721  0.4540750549397618   T   T   T
  0.4171206447607945  0.6848983503064274  0.4547998682211564   T   T   T
  0.0000000000000000  0.0000000000000000  0.4070133268666680   F   F   F
  0.5906834289287880  0.5653100747275607  0.6390272163453317   T   T   T
  0.2522672936269202  0.3141317044748835  0.4541613525308897   T   T   T
  0.2520684526116473  0.6875921351350917  0.4561231055739174   T   T   T
  0.4172641880978332  0.1870875180262062  0.4535770561032501   T   T   T
  0.9160545102444649  0.3121689444775667  0.4538556708896173   T   T   T
  0.5826900373966422  0.3110778564171768  0.5449321602187321   T   T   T
  0.9160670804680557  0.5622005844411346  0.4540570655179813   T   T   T
  0.9165984420537794  0.8121058957601696  0.4540667619340603   T   T   T
  0.0838403025622463  0.1865661921704493  0.4529639566630644   T   T   T
  0.0827553620013973  0.4367624630136528  0.4528316772099454   T   T   T
  0.0838979908368439  0.9366656999325506  0.4534957780168672   T   T   T
  0.0844506353092282  0.6868727849394131  0.4531136701780039   T   T   T
  0.4164400853641759  0.4354415017300721  0.4538516113528360   T   T   T
  0.9164502333242353  0.9371326012004040  0.4536685036723480   T   T   T
  0.4166666269218169  0.6874999999963620  0.3605200052333331   F   F   F
  0.0000388937209611  0.1251130401347818  0.4984245658301575   T   T   T
  0.9999299277624283  0.3733611597689191  0.4983927992044261   T   T   T
  0.9998080293847497  0.6270598698090371  0.4976885267640547   T   T   T
  0.3335532930250932  0.1255565303352560  0.4984873297449000   T   T   T
  0.0000542797607882  0.8751356528074155  0.4995353474472318   T   T   T
  0.3334274530438850  0.8737430850259005  0.4993159555459901   T   T   T
  0.6660975708611203  0.1264500410405961  0.4991113679726790   T   T   T
  0.2511555618301756  0.4393156870671296  0.4549428130848913   T   T   T
  0.0833333358191695  0.5625000000092442  0.3605200052333331   F   F   F
  0.9166666865332829  0.0625000000159659  0.3605200052333331   F   F   F
  0.7494076113678223  0.8131799268487737  0.4530517186861485   T   T   T
  0.2504355647153671  0.0619814235805690  0.4542307418815721   T   T   T
  0.9154412493559093  0.3125986991064232  0.5466462149813656   T   T   T
  0.5826834470531096  0.1898057615556221  0.4553653201244104   T   T   T
  0.5835597153712649  0.0625112912220926  0.5462009221319921   T   T   T
  0.5832813996726267  0.8104748829027472  0.4553195397073854   T   T   T
  0.0819552387342846  0.5643204410681198  0.5462522325030655   T   T   T
  0.7629294622691909  0.1260402281306275  0.7878941146184276   T   T   T
  0.8333332538436267  0.0000000000000000  0.4070133268666680   F   F   F
  0.0833333358191695  0.1875000000030838  0.3605200052333331   F   F   F
  0.0000000000000000  0.2500000000190425  0.4070133268666680   F   F   F
  0.0000000000000000  0.4999999999932783  0.4070133268666680   F   F   F
  0.7481787930714615  0.5642259002299758  0.4538068870465746   T   T   T
  0.3333333432766779  0.0000000000000000  0.4070133268666680   F   F   F
  0.3333333432766779  0.4999999999932783  0.4070133268666680   F   F   F
  0.3333333432766779  0.7500000000123208  0.4070133268666680   F   F   F
  0.6666666865533486  0.0000000000000000  0.4070133268666680   F   F   F
  0.6666666865533486  0.2500000000190425  0.4070133268666680   F   F   F
  0.6666666865533486  0.4999999999932783  0.4070133268666680   F   F   F
  0.5844341321010595  0.5627690690224559  0.4548674770542013   T   T   T
  0.5842586251972663  0.3152801344817824  0.4536930480150962   T   T   T
  0.1666666716383389  0.2500000000190425  0.4070133268666680   F   F   F
  0.1666666716383389  0.7500000000123208  0.4070133268666680   F   F   F
  0.5000000000021103  0.4999999999932783  0.4070133268666680   F   F   F
  0.5000000000021103  0.2500000000190425  0.4070133268666680   F   F   F
  0.9166666865332829  0.3124999999901945  0.3605200052333331   F   F   F
  0.3333333432766779  0.2500000000190425  0.4070133268666680   F   F   F
  0.7473925184106364  0.3138504462342271  0.4551671839043626   T   T   T
  0.0000000000000000  0.7500000000123208  0.4070133268666680   F   F   F
  0.4168594407948534  0.8103381785308432  0.4549707256803742   T   T   T
  0.5833333134730552  0.5625000000092442  0.3605200052333331   F   F   F
  0.7497318599750643  0.0636547855444404  0.4537983192822823   T   T   T
  0.5833333134730552  0.8124999999834799  0.3605200052333331   F   F   F
  0.1666666716383389  0.0000000000000000  0.4070133268666680   F   F   F
  0.8333332538436267  0.2500000000190425  0.4070133268666680   F   F   F
  0.1666666716383389  0.4999999999932783  0.4070133268666680   F   F   F
  0.6666666865533486  0.7500000000123208  0.4070133268666680   F   F   F
  0.5831885609720506  0.0633688171799931  0.4541592098053601   T   T   T
  0.2499999999799343  0.3124999999901945  0.3605200052333331   F   F   F
  0.5000000000021103  0.7500000000123208  0.4070133268666680   F   F   F
  0.5833333134730552  0.3124999999901945  0.3605200052333331   F   F   F
  0.5000000000021103  0.0000000000000000  0.4070133268666680   F   F   F
  0.9166666865332829  0.6874999999963620  0.3605200052333331   F   F   F
  0.2499999999799343  0.0625000000159659  0.3605200052333331   F   F   F
  0.2499999999799343  0.8124999999834799  0.3605200052333331   F   F   F
  0.5833333134730552  0.0625000000159659  0.3605200052333331   F   F   F
  0.7499999404149307  0.3124999999901945  0.3605200052333331   F   F   F
  0.7499999404149307  0.0625000000159659  0.3605200052333331   F   F   F
  0.4166666269218169  0.8124999999834799  0.3605200052333331   F   F   F
  0.4166666269218169  0.5625000000092442  0.3605200052333331   F   F   F
  0.4166666269218169  0.3124999999901945  0.3605200052333331   F   F   F
  0.7499999404149307  0.8124999999834799  0.3605200052333331   F   F   F
  0.4168978938206283  0.0615347905231252  0.4553706857254266   T   T   T
  0.0834988523019001  0.8120431245063842  0.4541972060679807   T   T   T
  0.0839342123418937  0.5624974780676903  0.4538844500012847   T   T   T
  0.4160514665444411  0.5595286140149908  0.4578884716191235   T   T   T
  0.0836435847276245  0.0618983950672365  0.4541978917279006   T   T   T
  0.0835384450259105  0.3119857639009244  0.4539879328154337   T   T   T
  0.4166666269218169  0.0625000000159659  0.3605200052333331   F   F   F
  0.7482965665602723  0.8080587007051186  0.5456884804865286   T   T   T
  0.2492611656957226  0.3137237301459833  0.5458970131234373   T   T   T
  0.4154770805303428  0.3113466341608100  0.4573391039272031   T   T   T
  0.2510896767315686  0.0625085899462878  0.5472890952497657   T   T   T
  0.7464375947503005  0.5577185855305040  0.5446246367234758   T   T   T
  0.7499999404149307  0.5625000000092442  0.3605200052333331   F   F   F
  0.2499999999799343  0.5625000000092442  0.3605200052333331   F   F   F
  0.4145473845569472  0.8115968971713069  0.5478143468032725   T   T   T
  0.8333332538436267  0.4999999999932783  0.4070133268666680   F   F   F
  0.4166666269218169  0.1875000000030838  0.3605200052333331   F   F   F
  0.0833333358191695  0.9375000000154046  0.3605200052333331   F   F   F
  0.0833333358191695  0.6874999999963620  0.3605200052333331   F   F   F
  0.0833333358191695  0.4374999701794380  0.3605200052333331   F   F   F
  0.8333332538436267  0.7500000000123208  0.4070133268666680   F   F   F
  0.0833333358191695  0.8124999999834799  0.3605200052333331   F   F   F
  0.8333332538436267  0.3750000000061604  0.4070133268666680   F   F   F
  0.8377891502483931  0.3721618400272261  0.6033166225154735   T   T   T
  0.8333332538436267  0.1249999999871179  0.4070133268666680   F   F   F
  0.1666666716383389  0.1249999999871179  0.4070133268666680   F   F   F
  0.3345066489812173  0.8786416333309142  0.6029513575508568   T   T   T
  0.8320071714743938  0.8762231129926579  0.6174702761851104   T   T   T
  0.1666666716383389  0.8749999404036828  0.4070133268666680   F   F   F
  0.8395094606730152  0.6268847985315964  0.6039733197657774   T   T   T
  0.8360343535655204  0.7516033366334807  0.5025957392266653   T   T   T
  0.6653339553406783  0.1238596032200677  0.6089706508360362   T   T   T
  0.3316456472801306  0.1197467078177803  0.6132340760475610   T   T   T
  0.1663211817227110  0.2481545328744261  0.5061605944396743   T   T   T
  0.0001109166613900  0.3746868751781047  0.6234329280296423   T   T   T
  0.3339576880673287  0.6243001814373019  0.5951514987838242   T   T   T
  0.5000000000021103  0.1249999999871179  0.4070133268666680   F   F   F
  0.9996121335612598  0.6226741086175068  0.6276733183325340   T   T   T
  0.1666666716383389  0.6249999999803961  0.4070133268666680   F   F   F
  0.0000000000000000  0.1249999999871179  0.4070133268666680   F   F   F
  0.5003538537823694  0.1218905893838948  0.6064519278926894   T   T   T
  0.5000000000021103  0.8749999404036828  0.4070133268666680   F   F   F
  0.8340711035609909  0.1237748331541405  0.6154452793217936   T   T   T
  0.6664581862571715  0.6260837537289702  0.5935708782149887   T   T   T
  0.6654779789159819  0.8809170773675713  0.6068965326919521   T   T   T
  0.1632403371112713  0.3712067475505764  0.6075540085764191   T   T   T
  0.1677675651055176  0.1227368944182221  0.6218462574671838   T   T   T
  0.1595442719593622  0.6272121766021322  0.6014855559891520   T   T   T
  0.6710211836026222  0.3721541368025784  0.5937530021494924   T   T   T
  0.1661872306082362  0.8734593535525478  0.6178627746270239   T   T   T
  0.5002884880289008  0.9992466378556125  0.5056169423249469   T   T   T
  0.6666666865533486  0.8749999404036828  0.4070133268666680   F   F   F
  0.5000000000021103  0.3750000000061604  0.4070133268666680   F   F   F
  0.5037296767679758  0.6250021802998484  0.5941255647832592   T   T   T
  0.5015694243097700  0.3711723172502230  0.5948474100395053   T   T   T
  0.9991048640426050  0.8749098842367116  0.6223103864962720   T   T   T
  0.5000000000021103  0.6249999999803961  0.4070133268666680   F   F   F
  0.5012214840777035  0.4997587421011134  0.5002436344979325   T   T   T
  0.1666666716383389  0.3750000000061604  0.4070133268666680   F   F   F
  0.6654057448948973  0.7518535909093850  0.5022289949531685   T   T   T
  0.8361150576288487  0.4999641253409956  0.5027791395036981   T   T   T
  0.3338465392792323  0.7511139357467679  0.5015200888833684   T   T   T
  0.3331161767479623  0.0010120214005904  0.5058191650917123   T   T   T
  0.3300770384483748  0.2480024870900755  0.5028222220215893   T   T   T
  0.0006301282825228  0.1222431872302835  0.6199359134639741   T   T   T
  0.1643536065732918  0.7514422906093307  0.5033514188191323   T   T   T
  0.6661285325185947 -0.0001361868033074  0.5056818234769366   T   T   T
  0.6666666865533486  0.3750000000061604  0.4070133268666680   F   F   F
  0.3260294415043433  0.3733620927195864  0.5927246947901170   T   T   T
  0.9996303361517492  0.5002240653398856  0.5067971738219645   T   T   T
  0.8333332538436267  0.6249999999803961  0.4070133268666680   F   F   F
  0.5011438847192350  0.7528191730609677  0.5039651960573683   T   T   T
  0.0000000000000000  0.3750000000061604  0.4070133268666680   F   F   F
  0.6669783248625841  0.2479504284852601  0.5027175341959920   T   T   T
  0.0000057647960090 -0.0000315125221897  0.5067239414646748   T   T   T
  0.6685681932530002  0.4997659671618129  0.5006954504622092   T   T   T
  0.3333333432766779  0.3750000000061604  0.4070133268666680   F   F   F
  0.5007851480966106  0.8766969286691990  0.6094555676827635   T   T   T
  0.8355322763938829  0.2484841533061128  0.5028907197858999   T   T   T
  0.1635397790395563  0.4997297058991808  0.5020872587894701   T   T   T
  0.3311781941015739  0.4991824103587258  0.5009624565277297   T   T   T
  0.1659683963937804  0.0011175610830497  0.5065619916408318   T   T   T
  0.0000000000000000  0.8749999404036828  0.4070133268666680   F   F   F
  0.3333333432766779  0.8749999404036828  0.4070133268666680   F   F   F
  0.8340538660269963  0.0002196451657705  0.5065601665733345   T   T   T
  0.0000000000000000  0.6249999999803961  0.4070133268666680   F   F   F
  0.3333333432766779  0.1249999999871179  0.4070133268666680   F   F   F
  0.3333333432766779  0.6249999999803961  0.4070133268666680   F   F   F
  0.8333332538436267  0.8749999404036828  0.4070133268666680   F   F   F
  0.6666666865533486  0.6249999999803961  0.4070133268666680   F   F   F
  0.0007242167612044  0.2496873125552433  0.5058850873826224   T   T   T
  0.9998949685868440  0.7508849127001824  0.5065998539804286   T   T   T
  0.5009974150599420  0.2478311536613156  0.5019966310339001   T   T   T
  0.6666666865533486  0.1249999999871179  0.4070133268666680   F   F   F
  0.7499999404149307  0.4999999999932783  0.4070133268666680   F   F   F
  0.0833333358191695  0.0000000000000000  0.4070133268666680   F   F   F
  0.0809422087060929  0.7514479217584339  0.6034897799757402   T   T   T
  0.0833333358191695  0.2500000000190425  0.4070133268666680   F   F   F
  0.4164515958438552  0.7503164470728008  0.5943956283725307   T   T   T
  0.7523173245502197  0.6244782899942677  0.5024638464784681   T   T   T
  0.4166666269218169  0.4999999999932783  0.4070133268666680   F   F   F
  0.0833333358191695  0.4999999999932783  0.4070133268666680   F   F   F