Au  C  H  O Sr Ti                       
   1.00000000000000     
    23.6707801818999997    0.0000000000000000    0.0000000000000000
     0.0000000000000000   22.3170261383000010    0.0000000000000000
     0.0000000000000000    0.0000000000000000   30.0000000000000000
   Au   C    H    O    Sr   Ti
    50     2     1   265    72    72
Selective dynamics
Direct
  0.7145739297175808  0.5246937784830550  0.7530237724549096   T   T   T
  0.3681496712961874  0.6196264842893342  0.8200556960200629   T   T   T
  0.5685792695263743  0.5113939512312271  0.8572664290383969   T   T   T
  0.6774013915345307  0.2132409721009765  0.7629809168017445   T   T   T
  0.4684456434406812  0.4534404692831018  0.8816724440572941   T   T   T
  0.5178822204209865  0.3769975761936095  0.7333859605074409   T   T   T
  0.2811332599713410  0.3405220623637391  0.7024071421615545   T   T   T
  0.6693863115061944  0.6811923883166671  0.7487714522744753   T   T   T
  0.3969011395621678  0.3825628282972318  0.6908699801249014   T   T   T
  0.4521903766360609  0.5798980835017531  0.7029067903231692   T   T   T
  0.3745884359074765  0.4940256040478275  0.8327960961155583   T   T   T
  0.6182403616772731  0.3186744625094278  0.6967404160280353   T   T   T
  0.3239738508425773  0.4157617265808895  0.7695762146576612   T   T   T
  0.7004943754270272  0.3427516487047910  0.7591035584484729   T   T   T
  0.7729315486006954  0.4285781394006420  0.7946357313171859   T   T   T
  0.6479483841137750  0.4448712623797491  0.6944229690671335   T   T   T
  0.5646343474833699  0.6406159253149823  0.8616613873170635   T   T   T
  0.5403564570973884  0.6676733021372598  0.7019222502804681   T   T   T
  0.4432982168604696  0.4736288157486541  0.7561891969634402   T   T   T
  0.3741523055692184  0.7399344249856767  0.7786873380256409   T   T   T
  0.4621380512130102  0.5750767099323895  0.8644290529071057   T   T   T
  0.6543118275844222  0.4407793368950195  0.8132011485599264   T   T   T
  0.7065388083411506  0.7568797427374179  0.6883625945565583   T   T   T
  0.4176661792997436  0.6967383080981477  0.6994438190854027   T   T   T
  0.2885193442112950  0.5387508479103360  0.7775217935742091   T   T   T
  0.2567234189243592  0.5934876382921459  0.6945156302881585   T   T   T
  0.7624710355911333  0.4300823554245738  0.7046509462104567   T   T   T
  0.4817181832516013  0.2706616704251061  0.7754612815018760   T   T   T
  0.6206907219105418  0.5708342625549463  0.7040471339661281   T   T   T
  0.7272766986937214  0.2597745986464943  0.6917861173206177   T   T   T
  0.2936230011896370  0.7468422680666933  0.6968244231808001   T   T   T
  0.5118559076207347  0.6034927882201231  0.7770251535589452   T   T   T
  0.2399985027840401  0.4696140462579734  0.7090916905121531   T   T   T
  0.2847369891318863  0.6628831097808998  0.7646261458109436   T   T   T
  0.5955546887439880  0.2948580214540115  0.7864394789709550   T   T   T
  0.5140133956129418  0.4842158932393943  0.6781947773467891   T   T   T
  0.5626910396627594  0.4862051282762323  0.7624062437507817   T   T   T
  0.5524106409695406  0.2149706169390697  0.7113659656670208   T   T   T
  0.5782747017060643  0.7257991799914834  0.7937829615056273   T   T   T
  0.3913274747919004  0.8177051794579526  0.7064602712006121   T   T   T
  0.4857219431413853  0.7770601644616875  0.7549282480941173   T   T   T
  0.5449599220219667  0.3887894964852379  0.8306568608695102   T   T   T
  0.7325681347758035  0.6145209659811073  0.6940873352692591   T   T   T
  0.5964408514627166  0.7845796644919005  0.7129669688147473   T   T   T
  0.4266876598483478  0.3737563914454611  0.8171251116109488   T   T   T
  0.6341439689498927  0.5844600227569785  0.8002071245307505   T   T   T
  0.3487765602380577  0.5006977143149953  0.6979040311515092   T   T   T
  0.3682634448565381  0.3001068256263650  0.7563499474506656   T   T   T
  0.4356669198802905  0.2276591951831364  0.6981894723607169   T   T   T
  0.4639435271078653  0.6958380278236049  0.8298891661372352   T   T   T
  0.7478765565480927  0.1203645835058182  0.7976631931821103   T   T   T
  0.7154511448616248  0.1323605830260988  0.7631098894963131   T   T   T
  0.7129206056630366  0.1032197758812785  0.7342905987226089   T   T   T
  0.5765843803262243  0.4358034412939347  0.5522981790248949   T   T   T
  0.0850950489574060  0.8126074154832850  0.5473225289265713   T   T   T
  0.4165778018658273  0.0654455549035688  0.5473416236345230   T   T   T
  0.0809426739703554  0.5644919148267249  0.5464647347121101   T   T   T
  0.4159639779514848  0.3195553295532534  0.5526892427978467   T   T   T
  0.5825201515480245  0.0617478017023316  0.5454289587981478   T   T   T
  0.5811308786767668  0.5600138252024749  0.5489396317928055   T   T   T
  0.7471412570446816  0.3106418741301127  0.5476644817473968   T   T   T
  0.5860584112463769  0.8142684294233007  0.5503810206086754   T   T   T
  0.5005424743025344  0.7568199225727525  0.5925317570604705   T   T   T
  0.5825363471576779  0.9372069693954046  0.4544122237917350   T   T   T
  0.2525762386174293  0.5591450831978406  0.5438997346464447   T   T   T
  0.0823854347185957  0.0631223159262859  0.5475603484812908   T   T   T
  0.7493349204819282  0.9338815733511865  0.5476977396051694   T   T   T
  0.5837341090943511  0.9375859544561607  0.5462254205422425   T   T   T
  0.9174532543060820  0.1890940728862773  0.5450804567198801   T   T   T
  0.9154416124178013  0.4373954827276592  0.5456726774463974   T   T   T
  0.5795361954876839  0.6861227697528776  0.5474299603388673   T   T   T
  0.2515094715658677  0.9372895416651303  0.5452655855735813   T   T   T
  0.4974019976056070  0.5044286480841507  0.6091447059946944   T   T   T
  0.9177129038743956  0.5637292708589072  0.5470641914185776   T   T   T
  0.4199660529262346  0.5648057862441789  0.5554130490630342   T   T   T
  0.9155518040052115  0.8126890842110939  0.5468118016872126   T   T   T
  0.0840834131992239  0.9383841498010383  0.5461153862290757   T   T   T
  0.2490134084203177  0.6833388297243843  0.5519032389480856   T   T   T
  0.7517320147470059  0.6800144252207687  0.5534353690648715   T   T   T
  0.9156213706882994  0.9385170393877900  0.5463919920774813   T   T   T
  0.2532728821817471  0.8125833641723617  0.5506755058621309   T   T   T
  0.9143014619701688  0.6887496784770164  0.5456669594113066   T   T   T
  0.5833353031419719  0.3112060354824564  0.5455919306092483   T   T   T
  0.9995549136600062  0.4987188691035342  0.5941568727194877   T   T   T
  0.4230680447622746  0.4435863523794765  0.5459636344163172   T   T   T
  0.4160117131422112  0.1914064721400592  0.5467072869718379   T   T   T
  0.0856694417863579  0.6893071460192033  0.5454329754076994   T   T   T
  0.0829037446076129  0.4389770557496391  0.5448496813567303   T   T   T
  0.0835735653654481  0.1888772736733273  0.5456017297409090   T   T   T
  0.4993798482900047  0.1257038924659355  0.4990641626721484   T   T   T
  0.4176372891146443  0.0651510639692603  0.6401149957113859   T   T   T
  0.5796509215774535  0.1848482453624314  0.5505943769121444   T   T   T
  0.9996911304383502  0.7535631253917288  0.5926544408365899   T   T   T
  0.3340529259534648  0.9998602988350314  0.5919768746651641   T   T   T
  0.9999081369062139  0.9988374104643185  0.5930534122002342   T   T   T
  0.0012396177220211  0.2502244384102497  0.5919971573792466   T   T   T
  0.3331458821019453  0.4962912732609368  0.5910602026511782   T   T   T
  0.3353265437867918  0.7411162908611786  0.5904676859343141   T   T   T
  0.6633991669191843  0.2465055840596264  0.5909322114798385   T   T   T
  0.6659176713742880  0.0006701423994215  0.5918633195506331   T   T   T
  0.6656325805771317  0.7412252431760393  0.5908374909265746   T   T   T
  0.6666228316709208  0.4945057239041262  0.5912931608296859   T   T   T
  0.1675118391996122  0.9983221358592829  0.5923293474032150   T   T   T
  0.1684832425475378  0.2482759446598948  0.5931220258411045   T   T   T
  0.1707416474761416  0.7503035376522931  0.5949790262016847   T   T   T
  0.2483269837529747  0.4359469498191615  0.5491104614400300   T   T   T
  0.1654659844448361  0.5033756923272534  0.5872635992493969   T   T   T
  0.3345716585105336  0.2546098018260281  0.5926410368163246   T   T   T
  0.4996258985690716  0.0001848084246063  0.5911413535962708   T   T   T
  0.8326728214399637  0.8742006067320176  0.4986308914814401   T   T   T
  0.7484101576986646  0.9374793026183426  0.6402130665164947   T   T   T
  0.8321663788399221  0.0021086145072076  0.5922708247146744   T   T   T
  0.7484245242614449  0.1830709162231798  0.5509089832428344   T   T   T
  0.4229666606004656  0.6878905188974755  0.5467493282839868   T   T   T
  0.7521792368560440  0.4344020915902433  0.5492838513800606   T   T   T
  0.0833333358191695  0.3124999999901945  0.3605200052333331   F   F   F
  0.1677661057038620  0.8732528025239077  0.4998933783005128   T   T   T
  0.9160679187485599  0.0624631625955772  0.6414104523584356   T   T   T
  0.4174851299585782  0.9349113631041988  0.6397830622493075   T   T   T
  0.7411062261741748  0.8098437464431711  0.6399543153024396   T   T   T
  0.7471706615520901  0.3119774211507220  0.6398225294079722   T   T   T
  0.7475988371205204  0.0681567865236943  0.6391271709497772   T   T   T
  0.0843583086787021  0.3112472921810649  0.6409172880752791   T   T   T
  0.6664937295130073  0.8745000855860852  0.4988504889833862   T   T   T
  0.0864763419877264  0.5628607288398797  0.6400807275506324   T   T   T
  0.0873815323341702  0.4366431544511897  0.6396970094231449   T   T   T
  0.0836276580485773  0.1854028979956936  0.6411723058954522   T   T   T
  0.4174168581718760  0.1876533884313432  0.6398726711997043   T   T   T
  0.4151266786662475  0.4187241514533042  0.6302999465143699   T   T   T
  0.0844608295663463  0.9355979995328525  0.6410289976668011   T   T   T
  0.0831388851492605  0.6870667134121859  0.6388927605616317   T   T   T
  0.0841344685784478  0.0602456543219816  0.6421558746159164   T   T   T
  0.8330933189351128  0.5022861706350383  0.5890919092674807   T   T   T
  0.9124646771862999  0.4361136855910459  0.6399950900063658   T   T   T
  0.8303574955162318  0.7508100125808994  0.5927142164713928   T   T   T
  0.8319879449072687  0.2487613794912846  0.5902029609338868   T   T   T
  0.7472627717087050  0.1950990555005632  0.6465755921699596   T   T   T
  0.9166666865332829  0.8124999999834799  0.3605200052333331   F   F   F
  0.5820910993326791  0.9361192623288304  0.6393954020360297   T   T   T
  0.0843801858725186  0.8126128230996343  0.6424061727207899   T   T   T
  0.5796200829487859  0.1925509039483941  0.6462843387709896   T   T   T
  0.2545108419407995  0.6779638398952841  0.6628439285072076   T   T   T
  0.2400723298276972  0.4423143951048516  0.6415879710377013   T   T   T
  0.9142788945934726  0.9370341384157115  0.6411722833403246   T   T   T
  0.9163196418373616  0.6876569550400546  0.6390117432928690   T   T   T
  0.2520856110291518  0.9302302316325921  0.6373846521895103   T   T   T
  0.2535766034488489  0.1865060792756239  0.6412073870639290   T   T   T
  0.3972254017268568  0.5506674741657918  0.6520386206050830   T   T   T
  0.7533745451437568  0.5680889649223815  0.6357960453128371   T   T   T
  0.7539300238070368  0.4330202836388963  0.6380468775955919   T   T   T
  0.4999942681187548  0.8730171322488687  0.5009225426179924   T   T   T
  0.9135536518787362  0.5628349136261690  0.6405938311525219   T   T   T
  0.9149433105749694  0.3117888833262938  0.6395883532348918   T   T   T
  0.9133540035784264  0.8133382051357998  0.6419123388287105   T   T   T
  0.5826496596119597  0.0667658804535378  0.6387583670874903   T   T   T
  0.5846366601011610  0.3207989992999885  0.6343427638745567   T   T   T
  0.5907282778266207  0.5659933314857213  0.6387792276750019   T   T   T
  0.2476311815149757  0.5740112723022008  0.6287651179445817   T   T   T
  0.7538862647262192  0.6918759750668571  0.6572927991114312   T   T   T
  0.2619990883668066  0.7998622406723328  0.6462954576725792   T   T   T
  0.2510194003014448  0.0594076201116067  0.6423173690917707   T   T   T
  0.9166666865332829  0.5625000000092442  0.3605200052333331   F   F   F
  0.4996156784513346  0.3740261283875697  0.5002372307373406   T   T   T
  0.5002893640544031  0.6210779996849567  0.5001009049139356   T   T   T
  0.8323935222521754  0.6230775455925439  0.5001661872523897   T   T   T
  0.4123556214298389  0.8128504271510621  0.6394566161512785   T   T   T
  0.2519900617552437  0.1882814197816387  0.5471601333687843   T   T   T
  0.8328834517271204  0.1245666069721736  0.5000341025208641   T   T   T
  0.1667516657849788  0.3762552672079948  0.4977405494124270   T   T   T
  0.1675677968495606  0.6242796823161001  0.5002400276821177   T   T   T
  0.5809713314640135  0.4386888361165759  0.6463399243605821   T   T   T
  0.5771718414149234  0.6862292468053468  0.6394683483838861   T   T   T
  0.9167451465362504  0.1862026451628935  0.6395772004276239   T   T   T
  0.2489727816262928  0.3165845042343847  0.6410841240053387   T   T   T
  0.4984265118460982  0.2536233248837902  0.5915201661277649   T   T   T
  0.9157777098598672  0.4369635171896320  0.4536137977372761   T   T   T
  0.1670676871834829  0.1243101722074087  0.4993288282167185   T   T   T
  0.7483143473779563  0.0596521783418922  0.5444425074636570   T   T   T
  0.4258239871006779  0.3048854751365440  0.6566712998239836   T   T   T
  0.5909941390541604  0.8103616879532964  0.6460675971835244   T   T   T
  0.4204842055725848  0.6761676453873164  0.6335846415235125   T   T   T
  0.8323680234641984  0.3729238693662467  0.4997770649629416   T   T   T
  0.4160270969198336  0.9371617806694346  0.5460087884456470   T   T   T
  0.0866893404056839  0.3135413163343799  0.5470946128695573   T   T   T
  0.8333332538436267  0.0000000000000000  0.4070133268666680   F   F   F
  0.2498703969871556  0.1884924085893047  0.4540957618282633   T   T   T
  0.2499814894705352  0.9360973904205139  0.4540240244893496   T   T   T
  0.6653944871979363  0.6258472815085483  0.5030050065817306   T   T   T
  0.5844584664461365  0.5627703453062267  0.4548747285455619   T   T   T
  0.5832592541084693  0.0636858122626904  0.4538669437579941   T   T   T
  0.9166666865332829  0.6874999999963620  0.3605200052333331   F   F   F
  0.9166666865332829  0.4374999701794380  0.3605200052333331   F   F   F
  0.9166666865332829  0.1875000000030838  0.3605200052333331   F   F   F
  0.5833333134730552  0.9375000000154046  0.3605200052333331   F   F   F
  0.5833333134730552  0.6874999999963620  0.3605200052333331   F   F   F
  0.5833333134730552  0.4374999701794380  0.3605200052333331   F   F   F
  0.5833333134730552  0.1875000000030838  0.3605200052333331   F   F   F
  0.2499999999799343  0.9375000000154046  0.3605200052333331   F   F   F
  0.9166666865332829  0.9375000000154046  0.3605200052333331   F   F   F
  0.7490869556414808  0.6886482142071344  0.4575430600445998   T   T   T
  0.2499999999799343  0.6874999999963620  0.3605200052333331   F   F   F
  0.7499999404149307  0.9375000000154046  0.3605200052333331   F   F   F
  0.7499999404149307  0.6874999999963620  0.3605200052333331   F   F   F
  0.7499999404149307  0.4374999701794380  0.3605200052333331   F   F   F
  0.7499999404149307  0.1875000000030838  0.3605200052333331   F   F   F
  0.4166666269218169  0.9375000000154046  0.3605200052333331   F   F   F
  0.4166666269218169  0.6874999999963620  0.3605200052333331   F   F   F
  0.4166666269218169  0.4374999701794380  0.3605200052333331   F   F   F
  0.2499999999799343  0.4374999701794380  0.3605200052333331   F   F   F
  0.0833333358191695  0.0625000000159659  0.3605200052333331   F   F   F
  0.9153034911005875  0.6868660593070004  0.4533246657892178   T   T   T
  0.6653880971309079  0.3786352409570455  0.5030060836692201   T   T   T
  0.3343587210115757  0.3784717088854848  0.5030043494183758   T   T   T
  0.3355813004466768  0.6258021973275518  0.5037620958340838   T   T   T
  0.9176362879472890  0.0633847090565141  0.5474693240292225   T   T   T
  0.2499999999799343  0.1875000000030838  0.3605200052333331   F   F   F
  0.7495017040176037  0.9384366297697184  0.4553597826705271   T   T   T
  0.2505220900818799  0.0620345970985809  0.4542494444489478   T   T   T
  0.7493368531888223  0.8131882560385719  0.4530004146304591   T   T   T
  0.2492705007324858  0.3137680491935484  0.5459120302415457   T   T   T
  0.9158113452331449  0.1868145738789053  0.4531417615091016   T   T   T
  0.7503654671280273  0.1896645993986681  0.4557535986018166   T   T   T
  0.4174765423255309  0.9357470617691064  0.4539053331136245   T   T   T
  0.4171783044926016  0.6847491795756540  0.4547407573754612   T   T   T
  0.4169398491001033  0.4355323039828676  0.4540532871543874   T   T   T
  0.0843758898035460  0.6869665280901742  0.4531737270574041   T   T   T
  0.0840712729439943  0.9368557443439087  0.4536762171607620   T   T   T
  0.0828070443779652  0.4368122142048634  0.4528367114972625   T   T   T
  0.0838671603976593  0.1865870965781724  0.4529821919759485   T   T   T
  0.9165873481355504  0.8121430919808859  0.4540630161363737   T   T   T
  0.7464846313705422  0.5575661406330212  0.5446745740512000   T   T   T
  0.9161029608761098  0.5622247176122031  0.4540602023411893   T   T   T
  0.9161269473735487  0.0622093947111040  0.4541072130371973   T   T   T
  0.7496532671309950  0.4383359510689928  0.4558742932019655   T   T   T
  0.9161838622228302  0.3122133367896964  0.4537674310819497   T   T   T
  0.2520728634195990  0.6876198814955004  0.4561198303566272   T   T   T
  0.9164665249459105  0.9371174619623233  0.4536645363218881   T   T   T
  0.5829792333082793  0.1902575955920796  0.4556814941712304   T   T   T
  0.0002047763115698  0.1250123027161436  0.4982892060553397   T   T   T
  0.5832781702944558  0.8104936149967301  0.4553371507387780   T   T   T
  0.0000727036044452  0.3737382724672074  0.4981990868161645   T   T   T
  0.9997194070373396  0.6271191659026911  0.4976773782685413   T   T   T
  0.3336568196180565  0.1256914359483048  0.4985644464653376   T   T   T
  0.0001070817662523  0.8751916008748850  0.4995643293978063   T   T   T
  0.3335536406528163  0.8743005342302297  0.4992331571543858   T   T   T
  0.6658159064375226  0.1262880526082810  0.4997148581700230   T   T   T
  0.2511686102216899  0.4392822209745120  0.4549225214375383   T   T   T
  0.0833333358191695  0.5625000000092442  0.3605200052333331   F   F   F
  0.9166666865332829  0.0625000000159659  0.3605200052333331   F   F   F
  0.4169102825693969  0.1872808085168600  0.4536532509902429   T   T   T
  0.5826310106826753  0.4393546866957152  0.4563876426356543   T   T   T
  0.7747751365439584  0.1110417017583387  0.8299044152491959   T   T   T
  0.2518293964292369  0.5646117962999213  0.4538332761860602   T   T   T
  0.8333332538436267  0.2500000000190425  0.4070133268666680   F   F   F
  0.5841234208502115  0.3151183400029538  0.4539290476377928   T   T   T
  0.7478020810628720  0.8076596351788581  0.5454127876319959   T   T   T
  0.5000000000021103  0.4999999999932783  0.4070133268666680   F   F   F
  0.0833333358191695  0.1875000000030838  0.3605200052333331   F   F   F
  0.0000000000000000  0.0000000000000000  0.4070133268666680   F   F   F
  0.0000000000000000  0.2500000000190425  0.4070133268666680   F   F   F
  0.0000000000000000  0.4999999999932783  0.4070133268666680   F   F   F
  0.7482481119087296  0.5642881832442583  0.4538040187708106   T   T   T
  0.3333333432766779  0.0000000000000000  0.4070133268666680   F   F   F
  0.3333333432766779  0.4999999999932783  0.4070133268666680   F   F   F
  0.3333333432766779  0.7500000000123208  0.4070133268666680   F   F   F
  0.6666666865533486  0.0000000000000000  0.4070133268666680   F   F   F
  0.6666666865533486  0.2500000000190425  0.4070133268666680   F   F   F
  0.2506439582981628  0.8108447295330876  0.4553311781193585   T   T   T
  0.6666666865533486  0.7500000000123208  0.4070133268666680   F   F   F
  0.1666666716383389  0.2500000000190425  0.4070133268666680   F   F   F
  0.1666666716383389  0.4999999999932783  0.4070133268666680   F   F   F
  0.1666666716383389  0.7500000000123208  0.4070133268666680   F   F   F
  0.5000000000021103  0.0000000000000000  0.4070133268666680   F   F   F
  0.5000000000021103  0.2500000000190425  0.4070133268666680   F   F   F
  0.5000000000021103  0.7500000000123208  0.4070133268666680   F   F   F
  0.9166666865332829  0.3124999999901945  0.3605200052333331   F   F   F
  0.3333333432766779  0.2500000000190425  0.4070133268666680   F   F   F
  0.7473397549360143  0.3141299117513086  0.4546128105924367   T   T   T
  0.0000000000000000  0.7500000000123208  0.4070133268666680   F   F   F
  0.4165641732157042  0.8099806669567400  0.4550688828843903   T   T   T
  0.5827696628388637  0.6861125535743753  0.4546147357905141   T   T   T
  0.7493078368958592  0.0642382125170826  0.4533397919675792   T   T   T
  0.9157318648742390  0.3126339551053263  0.5464583532698484   T   T   T
  0.1666666716383389  0.0000000000000000  0.4070133268666680   F   F   F
  0.5833333134730552  0.5625000000092442  0.3605200052333331   F   F   F
  0.6666666865533486  0.4999999999932783  0.4070133268666680   F   F   F
  0.2522643807788327  0.3141411996038457  0.4541614095012392   T   T   T
  0.2499999999799343  0.8124999999834799  0.3605200052333331   F   F   F
  0.5833333134730552  0.8124999999834799  0.3605200052333331   F   F   F
  0.5833333134730552  0.0625000000159659  0.3605200052333331   F   F   F
  0.2499999999799343  0.5625000000092442  0.3605200052333331   F   F   F
  0.2499999999799343  0.3124999999901945  0.3605200052333331   F   F   F
  0.2499999999799343  0.0625000000159659  0.3605200052333331   F   F   F
  0.7499999404149307  0.5625000000092442  0.3605200052333331   F   F   F
  0.7499999404149307  0.3124999999901945  0.3605200052333331   F   F   F
  0.7499999404149307  0.0625000000159659  0.3605200052333331   F   F   F
  0.4166666269218169  0.5625000000092442  0.3605200052333331   F   F   F
  0.4166666269218169  0.3124999999901945  0.3605200052333331   F   F   F
  0.7499999404149307  0.8124999999834799  0.3605200052333331   F   F   F
  0.0834931371107643  0.3119605612556100  0.4540395947948852   T   T   T
  0.4166666269218169  0.0625000000159659  0.3605200052333331   F   F   F
  0.4168267140175246  0.0615327220987183  0.4553573453930966   T   T   T
  0.4166666269218169  0.8124999999834799  0.3605200052333331   F   F   F
  0.2510891041697718  0.0625857988252960  0.5472587780923703   T   T   T
  0.4140235394051288  0.8117698726077194  0.5477340138628080   T   T   T
  0.0834596222734589  0.8121703707923729  0.4541505821583556   T   T   T
  0.8333332538436267  0.4999999999932783  0.4070133268666680   F   F   F
  0.0833333358191695  0.8124999999834799  0.3605200052333331   F   F   F
  0.5833333134730552  0.3124999999901945  0.3605200052333331   F   F   F
  0.0833333358191695  0.9375000000154046  0.3605200052333331   F   F   F
  0.0833333358191695  0.6874999999963620  0.3605200052333331   F   F   F
  0.4166666269218169  0.1875000000030838  0.3605200052333331   F   F   F
  0.8333332538436267  0.7500000000123208  0.4070133268666680   F   F   F
  0.4155558983539791  0.3114175770162433  0.4573941080617132   T   T   T
  0.0837745296589603  0.0618817537475138  0.4541659358293444   T   T   T
  0.4160485879142115  0.5595233301650140  0.4578739999012313   T   T   T
  0.0839600458094338  0.5625056956810326  0.4539918769732552   T   T   T
  0.0833333358191695  0.4374999701794380  0.3605200052333331   F   F   F
  0.1666666716383389  0.8749999404036828  0.4070133268666680   F   F   F
  0.8361017555823906  0.7517340550524381  0.5026420495977959   T   T   T
  0.8379610868729372  0.3729387844605014  0.6030599205518499   T   T   T
  0.8316812233470259  0.8765978132510170  0.6183904379625105   T   T   T
  0.1635388076977549  0.4998854249905023  0.5019884960436443   T   T   T
  0.5000000000021103  0.1249999999871179  0.4070133268666680   F   F   F
  0.5000000000021103  0.8749999404036828  0.4070133268666680   F   F   F
  0.3315839175373654  0.1198245560732332  0.6130497669567916   T   T   T
  0.8393820661913267  0.6271922005379054  0.6040040180071387   T   T   T
  0.5000000000021103  0.6249999999803961  0.4070133268666680   F   F   F
  0.6652594268216347  0.1251275112286692  0.6105452125149640   T   T   T
  0.8333332538436267  0.1249999999871179  0.4070133268666680   F   F   F
  0.8333332538436267  0.3750000000061604  0.4070133268666680   F   F   F
  0.9990458018427049  0.8749110072103292  0.6236079256167883   T   T   T
  0.0000000000000000  0.1249999999871179  0.4070133268666680   F   F   F
  0.9996724442668139  0.6234458848716073  0.6243084180853629   T   T   T
  0.1666666716383389  0.6249999999803961  0.4070133268666680   F   F   F
  0.3341676421202635  0.6245759149617598  0.5950522982718311   T   T   T
  0.5002298846741269  0.1226344393545347  0.6071567468670693   T   T   T
  0.8344181680389013  0.1241177111919214  0.6164432408568530   T   T   T
  0.0003293255968515  0.3749858104036790  0.6252039308234032   T   T   T
  0.6663952543514924  0.6260622052086191  0.5933984182715193   T   T   T
  0.6653403259418411  0.8813991346389969  0.6074575106515852   T   T   T
  0.1632485685472318  0.3713138605960538  0.6074487504714909   T   T   T
  0.1677815797646005  0.1227584109133559  0.6221645440602046   T   T   T
  0.1595831739835845  0.6274571765238264  0.6015374151402995   T   T   T
  0.5018705926683040  0.3711863597582692  0.5952921798553703   T   T   T
  0.1663512331784673  0.8735695395758469  0.6180216132966621   T   T   T
  0.3345945435614226  0.8787272321488686  0.6027769180036273   T   T   T
  0.6705592705938557  0.3721837067537166  0.5931234403598822   T   T   T
  0.6666666865533486  0.8749999404036828  0.4070133268666680   F   F   F
  0.5000000000021103  0.3750000000061604  0.4070133268666680   F   F   F
  0.5036253114996612  0.6249759538197210  0.5940269393066586   T   T   T
  0.0000000000000000  0.3750000000061604  0.4070133268666680   F   F   F
  0.1666666716383389  0.1249999999871179  0.4070133268666680   F   F   F
  0.5008598642664808  0.8769514055534131  0.6097157661967572   T   T   T
  0.8360984925060038  0.5000570364453267  0.5028653234839666   T   T   T
  0.9996086334097498  0.5000243419420443  0.5067875050663275   T   T   T
  0.5011532061569923  0.4996527031654878  0.5003109847325433   T   T   T
  0.6666799911877987  0.2477968951492855  0.5027125186300623   T   T   T
  0.3331280675013062  0.0011234855668434  0.5057642606609534   T   T   T
  0.3301606781207482  0.2480709814643589  0.5028547780747346   T   T   T
  0.3312190253147733  0.4992153083056934  0.5009876296452518   T   T   T
  0.8333332538436267  0.6249999999803961  0.4070133268666680   F   F   F
  0.1644336084241900  0.7514254175935733  0.5034435573206224   T   T   T
  0.6658114773467005  0.9999214437781205  0.5055611584951052   T   T   T
  0.5011085404755917  0.7528054309024910  0.5038560017299645   T   T   T
  0.6652785246702919  0.7518615050839088  0.5022366396124553   T   T   T
  0.1666666716383389  0.3750000000061604  0.4070133268666680   F   F   F
  0.3260138695600716  0.3734982717676161  0.5927970748921680   T   T   T
  0.0008033701383994  0.1225314128353432  0.6196645331196109   T   T   T
  0.8361206672728230  0.2484584950539670  0.5023229942557634   T   T   T
  0.6666666865533486  0.3750000000061604  0.4070133268666680   F   F   F
  0.6683728091767236  0.4998433723852074  0.5006384678370779   T   T   T
  0.0000000000000000  0.8749999404036828  0.4070133268666680   F   F   F
  0.1660178647344779  0.0011350230883309  0.5065510474053383   T   T   T
  0.3338736207515325  0.7511542366961379  0.5015096277996989   T   T   T
  0.5001896623233577  0.9993109311965043  0.5055241279731177   T   T   T
  0.1664033593602667  0.2482148420188039  0.5062176631327304   T   T   T
  0.0000000000000000  0.6249999999803961  0.4070133268666680   F   F   F
  0.6666666865533486  0.1249999999871179  0.4070133268666680   F   F   F
  0.8343327702888104  0.0001054433343839  0.5065203453424871   T   T   T
  0.3333333432766779  0.3750000000061604  0.4070133268666680   F   F   F
  0.3333333432766779  0.8749999404036828  0.4070133268666680   F   F   F
  0.3333333432766779  0.6249999999803961  0.4070133268666680   F   F   F
  0.8333332538436267  0.8749999404036828  0.4070133268666680   F   F   F
  0.6666666865533486  0.6249999999803961  0.4070133268666680   F   F   F
  0.0001713734552595  0.9998649232034680  0.5066796390768005   T   T   T
  0.0011387704648698  0.2499148827715061  0.5059519236085634   T   T   T
  0.9998925260324683  0.7510809803633123  0.5066797127936624   T   T   T
  0.5012318198190400  0.2479215956523078  0.5024405673624059   T   T   T
  0.3333333432766779  0.1249999999871179  0.4070133268666680   F   F   F
  0.0833333358191695  0.2500000000190425  0.4070133268666680   F   F   F
  0.7517946013699515  0.7525372724052986  0.5904978984015514   T   T   T
  0.2499999999799343  0.2500000000190425  0.4070133268666680   F   F   F
  0.0833333358191695  0.7500000000123208  0.4070133268666680   F   F   F
  0.0833333358191695  0.4999999999932783  0.4070133268666680   F   F   F
  0.0833333358191695  0.0000000000000000  0.4070133268666680   F   F   F
  0.9187059958828598  0.3743585799895044  0.5057423087526232   T   T   T
  0.9166666865332829  0.7500000000123208  0.4070133268666680   F   F   F
  0.5832097008961767  0.1234683311250464  0.5046909611720949   T   T   T
  0.7524421625133542  0.6246840787454175  0.5023696637330843   T   T   T
  0.5838189313314075  0.8757772866087592  0.5057671216622310   T   T   T
  0.9178503505367885  0.1248802947873742  0.5062919201437666   T   T   T
  0.4166666269218169  0.4999999999932783  0.4070133268666680   F   F   F
  0.9166666865332829  0.4999999999932783  0.4070133268666680   F   F   F
  0.9182239312428919  0.4998687941770399  0.6037984602211921   T   T   T