Au O  Sr Ti H                           
   1.00000000000000     
    23.6707801818999997    0.0000000000000000    0.0000000000000000
     0.0000000000000000   22.3170261383000010    0.0000000000000000
     0.0000000000000000    0.0000000000000000   30.0000000000000000
   Au   O    Sr   Ti   H 
    50   264    72    72     1
Selective dynamics
Direct
  0.7175881531469770  0.5261793574208014  0.7540209713436568   F   F   F
  0.6240770335978780  0.5681660423374737  0.7039311830338875   F   F   F
  0.7186539820978197  0.2593113406874039  0.6915774720817254   F   F   F
  0.2933635985257936  0.7456498927036606  0.6977184780761050   F   F   F
  0.5117529702541859  0.6034275547718764  0.7768068795561049   F   F   F
  0.5769525399791320  0.7243261081699615  0.7927415468559289   F   F   F
  0.5501069810490833  0.3839754501588075  0.8289315253331111   F   F   F
  0.2405592374862096  0.4684050080705049  0.7090802376203840   F   F   F
  0.2839983468290441  0.6606810361957542  0.7652068108242531   F   F   F
  0.6026083591394809  0.2880450802821954  0.7873294304298213   F   F   F
  0.5145516426311971  0.4838185429706243  0.6780342612945915   F   F   F
  0.5624229623187418  0.4861111081866412  0.7626026202126326   F   F   F
  0.4633123323154962  0.6951911149386305  0.8303436113544151   F   F   F
  0.7645206707779337  0.4320003448318062  0.7058414705675560   F   F   F
  0.7334328208730767  0.6158035994742477  0.6939187359415868   F   F   F
  0.6350552044972986  0.5840837173514544  0.8000064247650371   F   F   F
  0.5947226406765935  0.7845312191716260  0.7127611880965148   F   F   F
  0.4842060621790552  0.7788721493635293  0.7572043283411958   F   F   F
  0.3490326790764868  0.5002060334713931  0.6974057498241706   F   F   F
  0.4308164210501388  0.3722919261691260  0.8154274407024147   F   F   F
  0.3725959779157364  0.2987867960678656  0.7553408678488509   F   F   F
  0.4415899006998956  0.2284432847841700  0.6969917116170450   F   F   F
  0.3910389793194611  0.8169181548372251  0.7065386960896873   F   F   F
  0.2897591893655402  0.5365584751025310  0.7775908205932538   F   F   F
  0.5561249500177823  0.2086507737498877  0.7119669457902518   F   F   F
  0.4527720847470889  0.5798184666721795  0.7023242915553425   F   F   F
  0.6137036379240186  0.3198197986075613  0.6975070749986898   F   F   F
  0.7054243363324773  0.7575980904772663  0.6883489703939674   F   F   F
  0.6561369957207219  0.4413183398959717  0.8124270416067318   F   F   F
  0.3683003034502192  0.6184062269372319  0.8203089248951372   F   F   F
  0.5712491632847829  0.5099990242093426  0.8570258975276630   F   F   F
  0.6652468784557897  0.1933025793778782  0.7518202753620429   F   F   F
  0.4725916265625827  0.4508427469173881  0.8792857237642266   F   F   F
  0.5160216849659491  0.3773759445183984  0.7338713037216706   F   F   F
  0.2832857529538444  0.3378756840577921  0.7026384303361084   F   F   F
  0.6694240897551751  0.6812227536272957  0.7488021911176688   F   F   F
  0.3977024774884370  0.3819910851850139  0.6900472328857248   F   F   F
  0.3759859369215803  0.4925604418800447  0.8333317676198106   F   F   F
  0.4627476078224362  0.5732801623402466  0.8640834489011766   F   F   F
  0.3264777862052952  0.4140982127028394  0.7692615904465825   F   F   F
  0.4872301134242463  0.2686655450552067  0.7753505292716412   F   F   F
  0.4225814418633433  0.6977175581847845  0.6993771188659750   F   F   F
  0.6998595101353473  0.3464851800167139  0.7564341103103942   F   F   F
  0.7740686834956279  0.4296419612498070  0.7961065240661540   F   F   F
  0.2562196395476661  0.5922057540005099  0.6946425584160139   F   F   F
  0.6476352934324936  0.4420000699515114  0.6969178328007430   F   F   F
  0.5645458284765112  0.6393998877684481  0.8610227509963266   F   F   F
  0.5436967789591662  0.6651699082134996  0.7015152322104399   F   F   F
  0.4429112699322175  0.4746649298580152  0.7559760906050670   F   F   F
  0.3732386980400690  0.7380578840029344  0.7781017986150403   F   F   F
  0.2501189368393355  0.1884812594777401  0.4540892757744359   F   F   F
  0.7494562976136194  0.9384798910121859  0.4554044723188966   F   F   F
  0.7489720117116150  0.6887430065883038  0.4573194002516203   F   F   F
  0.7494736424719477  0.4385651682890952  0.4558603524937297   F   F   F
  0.7500188316888767  0.1898604525632663  0.4557289187454572   F   F   F
  0.4173443175516951  0.9357071989557895  0.4539496565462287   F   F   F
  0.4168659771984267  0.6846668279056871  0.4547301436063549   F   F   F
  0.4168702621539069  0.4353882198583534  0.4538166154847829   F   F   F
  0.0845795247166450  0.6868096564449360  0.4529931287333611   F   F   F
  0.0839595279048666  0.9368182264565164  0.4535541916495447   F   F   F
  0.0829021309578053  0.4368854811689999  0.4530206085348070   F   F   F
  0.0832636238060473  0.1872355104454542  0.4537030139017659   F   F   F
  0.9164664782151135  0.8124139456171164  0.4537393685102558   F   F   F
  0.9161143981149422  0.5624847462034310  0.4535954436995269   F   F   F
  0.2510079229020477  0.4391873315532422  0.4549663560776409   F   F   F
  0.9165917405418327  0.0633421292177800  0.4531750527795424   F   F   F
  0.9157856388869590  0.3133411368281713  0.4527250445328193   F   F   F
  0.4169841423140213  0.1871998836960316  0.4535615847430918   F   F   F
  0.2522517790866985  0.6874605434097560  0.4560331438037153   F   F   F
  0.9163729132267164  0.9376351619150114  0.4539102612217221   F   F   F
  0.5828499705893790  0.1894899530297778  0.4551381749753531   F   F   F
  0.9999563142909409  0.1250679223015823  0.4994462258124059   F   F   F
  0.5834526140567036  0.8101192217545758  0.4554680796703821   F   F   F
  0.9995222460696311  0.3732883948014418  0.4982194691359680   F   F   F
  0.9999211922537228  0.6271867491266292  0.4976724802324881   F   F   F
  0.3335369822130190  0.1256193946577042  0.4985678888939518   F   F   F
  0.0001930787913551  0.8746282187465582  0.4991873262288138   F   F   F
  0.3334542596735446  0.8737191518294694  0.4990147993137128   F   F   F
  0.6661495736191299  0.1258147888266308  0.4995944582873477   F   F   F
  0.3355893434754904  0.6254589739425001  0.5041698516400288   F   F   F
  0.3343673968638683  0.3784632957329919  0.5029581388835922   F   F   F
  0.6653823449110021  0.3791735659311897  0.5030178167387902   F   F   F
  0.9153238940714701  0.6868787467652666  0.4533542510545061   F   F   F
  0.9157059854433527  0.4370877756891076  0.4543499826400534   F   F   F
  0.9166629816856542  0.1884456745385918  0.4546619443801703   F   F   F
  0.5829099715613566  0.9367980990088682  0.4541201186956911   F   F   F
  0.5827954725809619  0.6860183465462555  0.4545409804766649   F   F   F
  0.5823372691690238  0.4388540095367759  0.4558213967603493   F   F   F
  0.2500272472676670  0.9359869648109438  0.4540571668354616   F   F   F
  0.6653185170218379  0.6260582600040792  0.5029644649648333   F   F   F
  0.5846161062041659  0.5624518883626024  0.4550675619981561   F   F   F
  0.5832695304498756  0.0632166955651314  0.4541817667628649   F   F   F
  0.9166666865332829  0.6874999999963620  0.3605200052333331   F   F   F
  0.9166666865332829  0.4374999701794380  0.3605200052333331   F   F   F
  0.9166666865332829  0.1875000000030838  0.3605200052333331   F   F   F
  0.5833333134730552  0.9375000000154046  0.3605200052333331   F   F   F
  0.5833333134730552  0.6874999999963620  0.3605200052333331   F   F   F
  0.5833333134730552  0.4374999701794380  0.3605200052333331   F   F   F
  0.5833333134730552  0.1875000000030838  0.3605200052333331   F   F   F
  0.2499999999799343  0.9375000000154046  0.3605200052333331   F   F   F
  0.9166666865332829  0.9375000000154046  0.3605200052333331   F   F   F
  0.2499999999799343  0.6874999999963620  0.3605200052333331   F   F   F
  0.2499999999799343  0.1875000000030838  0.3605200052333331   F   F   F
  0.7499999404149307  0.9375000000154046  0.3605200052333331   F   F   F
  0.7499999404149307  0.6874999999963620  0.3605200052333331   F   F   F
  0.7499999404149307  0.4374999701794380  0.3605200052333331   F   F   F
  0.7499999404149307  0.1875000000030838  0.3605200052333331   F   F   F
  0.4166666269218169  0.9375000000154046  0.3605200052333331   F   F   F
  0.4166666269218169  0.6874999999963620  0.3605200052333331   F   F   F
  0.4166666269218169  0.4374999701794380  0.3605200052333331   F   F   F
  0.2499999999799343  0.4374999701794380  0.3605200052333331   F   F   F
  0.0833333358191695  0.0625000000159659  0.3605200052333331   F   F   F
  0.0833333358191695  0.3124999999901945  0.3605200052333331   F   F   F
  0.0833333358191695  0.5625000000092442  0.3605200052333331   F   F   F
  0.9166666865332829  0.3124999999901945  0.3605200052333331   F   F   F
  0.9166666865332829  0.0625000000159659  0.3605200052333331   F   F   F
  0.5833333134730552  0.8124999999834799  0.3605200052333331   F   F   F
  0.5833333134730552  0.5625000000092442  0.3605200052333331   F   F   F
  0.5833333134730552  0.3124999999901945  0.3605200052333331   F   F   F
  0.5833333134730552  0.0625000000159659  0.3605200052333331   F   F   F
  0.2499999999799343  0.8124999999834799  0.3605200052333331   F   F   F
  0.2499999999799343  0.5625000000092442  0.3605200052333331   F   F   F
  0.2499999999799343  0.3124999999901945  0.3605200052333331   F   F   F
  0.2499999999799343  0.0625000000159659  0.3605200052333331   F   F   F
  0.7499999404149307  0.8124999999834799  0.3605200052333331   F   F   F
  0.7499999404149307  0.5625000000092442  0.3605200052333331   F   F   F
  0.7499999404149307  0.3124999999901945  0.3605200052333331   F   F   F
  0.7499999404149307  0.0625000000159659  0.3605200052333331   F   F   F
  0.4166666269218169  0.8124999999834799  0.3605200052333331   F   F   F
  0.4166666269218169  0.5625000000092442  0.3605200052333331   F   F   F
  0.4166666269218169  0.3124999999901945  0.3605200052333331   F   F   F
  0.4166666269218169  0.0625000000159659  0.3605200052333331   F   F   F
  0.0833333358191695  0.8124999999834799  0.3605200052333331   F   F   F
  0.4166666269218169  0.1875000000030838  0.3605200052333331   F   F   F
  0.0833333358191695  0.9375000000154046  0.3605200052333331   F   F   F
  0.0833333358191695  0.6874999999963620  0.3605200052333331   F   F   F
  0.0833333358191695  0.4374999701794380  0.3605200052333331   F   F   F
  0.8333332538436267  0.4999999999932783  0.4070133268666680   F   F   F
  0.8333332538436267  0.7500000000123208  0.4070133268666680   F   F   F
  0.0835495718829691  0.0622511796094756  0.4540104235568094   F   F   F
  0.0833001534423161  0.3124360491594800  0.4537333416696612   F   F   F
  0.0839163319032608  0.5624708108325436  0.4538573390084935   F   F   F
  0.0835634431080052  0.8120215163325355  0.4542022078202663   F   F   F
  0.4168064808589094  0.0615238252683810  0.4553325129762413   F   F   F
  0.4155507822500866  0.3113922852677291  0.4573626167847635   F   F   F
  0.4159238718934972  0.5594874141127946  0.4578833493330094   F   F   F
  0.4167732229573673  0.8098480135862189  0.4551494351258754   F   F   F
  0.7495582977629454  0.0644872806135055  0.4530844850070395   F   F   F
  0.7473868200811751  0.3141372558000199  0.4546012055838204   F   F   F
  0.7481336807427326  0.5643930969464677  0.4536454991455159   F   F   F
  0.7491779374785779  0.8132885081747361  0.4530193654659342   F   F   F
  0.2505215010570510  0.0619425066273322  0.4541979240917868   F   F   F
  0.9154551137044393  0.3092531103961420  0.5449033845871512   F   F   F
  0.2522685568593346  0.3141274853447982  0.4541716818080417   F   F   F
  0.2519180917719623  0.5645479101936601  0.4537985119119483   F   F   F
  0.2502537786469503  0.8106603235064611  0.4554201297754332   F   F   F
  0.8333332538436267  0.2500000000190425  0.4070133268666680   F   F   F
  0.5840090793314516  0.3146192142322235  0.4541844884677246   F   F   F
  0.8333332538436267  0.0000000000000000  0.4070133268666680   F   F   F
  0.5000000000021103  0.4999999999932783  0.4070133268666680   F   F   F
  0.0833333358191695  0.1875000000030838  0.3605200052333331   F   F   F
  0.0000000000000000  0.0000000000000000  0.4070133268666680   F   F   F
  0.0000000000000000  0.2500000000190425  0.4070133268666680   F   F   F
  0.0000000000000000  0.4999999999932783  0.4070133268666680   F   F   F
  0.0000000000000000  0.7500000000123208  0.4070133268666680   F   F   F
  0.3333333432766779  0.0000000000000000  0.4070133268666680   F   F   F
  0.3333333432766779  0.2500000000190425  0.4070133268666680   F   F   F
  0.3333333432766779  0.4999999999932783  0.4070133268666680   F   F   F
  0.3333333432766779  0.7500000000123208  0.4070133268666680   F   F   F
  0.6666666865533486  0.0000000000000000  0.4070133268666680   F   F   F
  0.6666666865533486  0.2500000000190425  0.4070133268666680   F   F   F
  0.6666666865533486  0.4999999999932783  0.4070133268666680   F   F   F
  0.6666666865533486  0.7500000000123208  0.4070133268666680   F   F   F
  0.1666666716383389  0.0000000000000000  0.4070133268666680   F   F   F
  0.1666666716383389  0.2500000000190425  0.4070133268666680   F   F   F
  0.1666666716383389  0.4999999999932783  0.4070133268666680   F   F   F
  0.1666666716383389  0.7500000000123208  0.4070133268666680   F   F   F
  0.5000000000021103  0.0000000000000000  0.4070133268666680   F   F   F
  0.5000000000021103  0.2500000000190425  0.4070133268666680   F   F   F
  0.5000000000021103  0.7500000000123208  0.4070133268666680   F   F   F
  0.1670742523494795  0.1244372076508640  0.4989295023458524   F   F   F
  0.9167002703317877  0.0600110081256062  0.5454011847150966   F   F   F
  0.1677865274307564  0.8732329006571078  0.4999115964647842   F   F   F
  0.2515429593299316  0.1883912407772854  0.5471058617668305   F   F   F
  0.7484082907365845  0.9335704163604603  0.5478603235524915   F   F   F
  0.7518578091043864  0.6805063834951071  0.5531883069159917   F   F   F
  0.7524742460488412  0.4345283547696184  0.5496151052012479   F   F   F
  0.4230288897762193  0.4439927406620825  0.5455077596182676   F   F   F
  0.4231621790735076  0.6880929741728536  0.5466104834260435   F   F   F
  0.7492455049392603  0.1832131446919334  0.5510818603545431   F   F   F
  0.4157856263213944  0.9370417700777409  0.5460281065512476   F   F   F
  0.0839096076561532  0.9384386559040081  0.5458730981893112   F   F   F
  0.4156904518081177  0.1914319652636607  0.5465069776252065   F   F   F
  0.0869010104014478  0.6896547750130608  0.5450514730930038   F   F   F
  0.0823843848867583  0.4380258995207527  0.5451873831549676   F   F   F
  0.0836420646122562  0.1880856967598490  0.5463961429953770   F   F   F
  0.4993824176367383  0.1255220611173726  0.4991867547709674   F   F   F
  0.9996002552916039  0.4993493905044630  0.5943392764706275   F   F   F
  0.9996704851119773  0.7519006723818222  0.5924020121293836   F   F   F
  0.3345962395832771  0.2543614260955991  0.5927171763418713   F   F   F
  0.3339629971528169  0.0000024298819099  0.5920563558020149   F   F   F
  0.9997690832713744  0.9976279352322379  0.5921704369794654   F   F   F
  0.9989111856590895  0.2478455742690926  0.5919765292835066   F   F   F
  0.3332159985692940  0.4963979708429562  0.5908478851230043   F   F   F
  0.3355175548785212  0.7403514587365194  0.5905366866550281   F   F   F
  0.6634209064282004  0.2467900967455350  0.5909347213547775   F   F   F
  0.6661856216584710  0.0012179263634735  0.5919431299058502   F   F   F
  0.6656627557631225  0.7420220330391629  0.5902783409828487   F   F   F
  0.6668058834318202  0.4943886314126402  0.5910344822281672   F   F   F
  0.1672488254112210  0.9989973484383796  0.5924206157459224   F   F   F
  0.1678038292169433  0.2494473042617855  0.5935071986877674   F   F   F
  0.1707506096811144  0.7499567343072115  0.5950607619179209   F   F   F
  0.2481415548097914  0.4358422591029338  0.5490797865622596   F   F   F
  0.1654021477316405  0.5031935952050972  0.5875441704013795   F   F   F
  0.2489374665556667  0.6833352428469652  0.5518883244773178   F   F   F
  0.5803363239185018  0.1860522839829670  0.5491011653143900   F   F   F
  0.9158557118401518  0.8112432107347516  0.5461328406650452   F   F   F
  0.9169924983595905  0.5619089870783895  0.5453092060937337   F   F   F
  0.5809776059939225  0.5605603435795814  0.5493682662917863   F   F   F
  0.5859887118635427  0.8148641418892026  0.5505393248753094   F   F   F
  0.5834582823136358  0.3119911469308434  0.5457171218492007   F   F   F
  0.5822846337912537  0.0625941165891604  0.5461059442620240   F   F   F
  0.2531884737657322  0.8128308032299074  0.5512190009398097   F   F   F
  0.2523190169336047  0.5589721223771491  0.5438673115414474   F   F   F
  0.2495539493005552  0.3136547509588823  0.5460389495305904   F   F   F
  0.2510221807659434  0.0626486366719803  0.5472443267817297   F   F   F
  0.7480283379620332  0.8079232390199209  0.5453693048049644   F   F   F
  0.7464167869193759  0.5578880626961720  0.5444134362581821   F   F   F
  0.4143075834005927  0.8117190023396006  0.5479338744054942   F   F   F
  0.7502697466136183  0.0593316983542991  0.5438183647960955   F   F   F
  0.7472732445835319  0.3110103005334892  0.5476354676351960   F   F   F
  0.4158968548646556  0.3196479918474182  0.5526081542108443   F   F   F
  0.4202157206366479  0.5650746006725100  0.5554035558231831   F   F   F
  0.4165282929184073  0.0654119479894462  0.5473095432738972   F   F   F
  0.0848247739311887  0.8128636808560046  0.5473809517868418   F   F   F
  0.0825001353281252  0.5640691207472912  0.5462580823266165   F   F   F
  0.0846990638710494  0.3126554406247095  0.5467058960321651   F   F   F
  0.0828267536013669  0.0627729717242786  0.5471118588266748   F   F   F
  0.9163145282603509  0.9365730075065031  0.5466218551844051   F   F   F
  0.9129884320171513  0.6877614674631758  0.5459273816189807   F   F   F
  0.5838418731930304  0.9381268676898955  0.5459303246446794   F   F   F
  0.9154176914725554  0.1836641165074653  0.5494042946649103   F   F   F
  0.9156114876415131  0.4353249868588733  0.5467923549464260   F   F   F
  0.5764973250551009  0.4364678684006833  0.5516547622055228   F   F   F
  0.5795184673967029  0.6865146663126040  0.5471290896443364   F   F   F
  0.2515414107234690  0.9373688574952652  0.5452252808203610   F   F   F
  0.4976189463468614  0.5044867376001605  0.6090040590853150   F   F   F
  0.4985982601668937  0.2531094326771210  0.5903883734256326   F   F   F
  0.4995857862451132  0.0000117970864508  0.5910433116312390   F   F   F
  0.7537464799062406  0.6935334381121763  0.6573675309720315   F   F   F
  0.7478931920059111  0.9369316964608672  0.6407809284255066   F   F   F
  0.2530650876939902  0.1864455374240137  0.6410083707264675   F   F   F
  0.7457430432640493  0.1948313638665269  0.6466764063947252   F   F   F
  0.7555825415658006  0.4368662734427389  0.6393081808170393   F   F   F
  0.4173236095613646  0.9349763470310890  0.6397710095195990   F   F   F
  0.4209292164795357  0.6759615488834001  0.6336300695321668   F   F   F
  0.5900710346829996  0.8105397781283372  0.6460443191606231   F   F   F
  0.9156946935968762  0.0630343241000730  0.6382741725594485   F   F   F
  0.9129103421830109  0.5637416070936609  0.6411903175131073   F   F   F
  0.9155468688818260  0.3137689592661985  0.6380481331196606   F   F   F
  0.9147846702286984  0.8127865705254251  0.6414068596482778   F   F   F
  0.5823601171189168  0.0658355887714350  0.6395952541434866   F   F   F
  0.5830951205384238  0.3197687441732739  0.6340909599377511   F   F   F
  0.5914312763079366  0.5648398096329501  0.6395710707887048   F   F   F
  0.2474625825526715  0.5736815043087375  0.6286636099556375   F   F   F
  0.2620950693774304  0.7984438060978221  0.6469176729532364   F   F   F
  0.2490407672068145  0.3161355365235679  0.6415665728443827   F   F   F
  0.2509374151252288  0.0595230313652877  0.6423566389076285   F   F   F
  0.9166666865332829  0.5625000000092442  0.3605200052333331   F   F   F
  0.4995494701763050  0.3740319764135478  0.5002692195075795   F   F   F
  0.5000396114260539  0.8732949598267936  0.5008646847731129   F   F   F
  0.5003074727780401  0.6211300599877845  0.4999511184542058   F   F   F
  0.8322125327736885  0.6230119249726869  0.4999452548419683   F   F   F
  0.8326607204215506  0.8742243788368071  0.4986370588890594   F   F   F
  0.8323118783204322  0.3729122467155435  0.4998937130002119   F   F   F
  0.8330105012761990  0.1250380070558634  0.4996151504306852   F   F   F
  0.1664980817050150  0.3756005767186252  0.4980102860240834   F   F   F
  0.1677469990654643  0.6242034168837520  0.4999341896668312   F   F   F
  0.5816237287703458  0.4388334475957265  0.6458925408856047   F   F   F
  0.5798583764146201  0.6853317824655747  0.6389462496199485   F   F   F
  0.9135183003318232  0.1884877370949951  0.6446947621974672   F   F   F
  0.5819928407798329  0.9358647213434494  0.6391772900659518   F   F   F
  0.8303606671843653  0.7512352946567518  0.5928288731602862   F   F   F
  0.8316067059531917  0.2495964972170626  0.5911312754673617   F   F   F
  0.8329410302432834  0.5038696067619171  0.5889171156925599   F   F   F
  0.8326785838297752  0.9972818936616861  0.5915857182980346   F   F   F
  0.5009772158762189  0.7562894209749800  0.5928942828036199   F   F   F
  0.4177386054567052  0.0652550478245857  0.6400431360516023   F   F   F
  0.4269438662550797  0.3049811115965326  0.6548317616336732   F   F   F
  0.4120590590685893  0.8127498142323475  0.6394716993201186   F   F   F
  0.3972669519148582  0.5507580150420281  0.6518121190254149   F   F   F
  0.7518420315890779  0.5712290253728654  0.6342775300495163   F   F   F
  0.7410374186151003  0.8100540175502076  0.6399572967512057   F   F   F
  0.7465376301464417  0.3129630283195937  0.6400600867272530   F   F   F
  0.7513016376222836  0.0675786915723862  0.6369933747759617   F   F   F
  0.0819917831826800  0.3125682878804454  0.6397664340870648   F   F   F
  0.6664660759469925  0.8744079437289543  0.4988450135996345   F   F   F
  0.0867951690759483  0.5627400700700207  0.6415686437316452   F   F   F
  0.0819562451151157  0.0619420050379773  0.6404475163636221   F   F   F
  0.0872338903854200  0.4374022381093567  0.6394781764103996   F   F   F
  0.0823832816868588  0.1860783279475342  0.6411781811547996   F   F   F
  0.4185520382192962  0.1879641839526585  0.6398652142910777   F   F   F
  0.4150842017119203  0.4191615823125616  0.6297928064738443   F   F   F
  0.0845571907099938  0.9358681386405863  0.6406625060101163   F   F   F
  0.0838617214968806  0.6873151132532485  0.6401989495721594   F   F   F
  0.9117412678955432  0.4385134355548672  0.6399934711106496   F   F   F
  0.9150913702330143  0.6882482542184150  0.6402490913756935   F   F   F
  0.9155826355967847  0.9360543633028726  0.6415854987529315   F   F   F
  0.2404064166549631  0.4419298571676791  0.6415017418265805   F   F   F
  0.2544928333892216  0.6769442354698185  0.6635676730801805   F   F   F
  0.5785357311911810  0.1907078740269910  0.6443111296698660   F   F   F
  0.2516795114958725  0.9302173428317602  0.6372493589286776   F   F   F
  0.0840500776877562  0.8119269657550987  0.6417646337565515   F   F   F
  0.9166666865332829  0.8124999999834799  0.3605200052333331   F   F   F
  0.9993398356195442  0.1243606469634884  0.6151340605177893   F   F   F
  0.8333332538436267  0.6249999999803961  0.4070133268666680   F   F   F
  0.9999086422229908  0.5003952955669746  0.5069932928060865   F   F   F
  0.3311095140170082  0.4991954485657644  0.5009805433378389   F   F   F
  0.3300257329880907  0.2481130615301339  0.5028383612512002   F   F   F
  0.3330943484428559  0.0011467640434546  0.5058352849224903   F   F   F
  0.3338327865282054  0.7510139936379190  0.5015718502861972   F   F   F
  0.6659940277254393  0.0003872199528701  0.5056542859020396   F   F   F
  0.6684007724906138  0.4998826610116751  0.5007276860321426   F   F   F
  0.6669117003718981  0.2477968022704289  0.5031469884108546   F   F   F
  0.6653772111816423  0.7518022496889287  0.5021978382581054   F   F   F
  0.1661116123643254  0.0011609438006772  0.5064892834040862   F   F   F
  0.1661542268100931  0.2482576887007681  0.5064235562618293   F   F   F
  0.1633696336477115  0.4995843612819968  0.5021186550234376   F   F   F
  0.5001197836923268  0.9993797241610736  0.5054923408781633   F   F   F
  0.1645450980301320  0.7514361471009394  0.5033569295679357   F   F   F
  0.5010179003774766  0.7528352340612727  0.5039347912213330   F   F   F
  0.8343971606594636  0.9992335947334041  0.5057666829889484   F   F   F
  0.5012069827791166  0.4998688057803591  0.5003024959251832   F   F   F
  0.5010935391478526  0.2480109930142262  0.5020320909134028   F   F   F
  0.8350611790225742  0.2482706083824056  0.5028266225471754   F   F   F
  0.0001940087703645  0.7502190390018342  0.5066220241152308   F   F   F
  0.0006871134185928  0.2491157386087153  0.5053917149286562   F   F   F
  0.0001330614338855  0.9995668810195255  0.5059559055286869   F   F   F
  0.8333332538436267  0.8749999404036828  0.4070133268666680   F   F   F
  0.0000000000000000  0.6249999999803961  0.4070133268666680   F   F   F
  0.0000000000000000  0.8749999404036828  0.4070133268666680   F   F   F
  0.3333333432766779  0.1249999999871179  0.4070133268666680   F   F   F
  0.3333333432766779  0.3750000000061604  0.4070133268666680   F   F   F
  0.3333333432766779  0.6249999999803961  0.4070133268666680   F   F   F
  0.3333333432766779  0.8749999404036828  0.4070133268666680   F   F   F
  0.6666666865533486  0.1249999999871179  0.4070133268666680   F   F   F
  0.6666666865533486  0.3750000000061604  0.4070133268666680   F   F   F
  0.6666666865533486  0.6249999999803961  0.4070133268666680   F   F   F
  0.8357561808008924  0.4999001586986367  0.5029300349943284   F   F   F
  0.6666666865533486  0.8749999404036828  0.4070133268666680   F   F   F
  0.1666666716383389  0.3750000000061604  0.4070133268666680   F   F   F
  0.1666666716383389  0.6249999999803961  0.4070133268666680   F   F   F
  0.1666666716383389  0.8749999404036828  0.4070133268666680   F   F   F
  0.5000000000021103  0.1249999999871179  0.4070133268666680   F   F   F
  0.5000000000021103  0.3750000000061604  0.4070133268666680   F   F   F
  0.5000000000021103  0.6249999999803961  0.4070133268666680   F   F   F
  0.5000000000021103  0.8749999404036828  0.4070133268666680   F   F   F
  0.8333332538436267  0.1249999999871179  0.4070133268666680   F   F   F
  0.8333332538436267  0.3750000000061604  0.4070133268666680   F   F   F
  0.1666666716383389  0.1249999999871179  0.4070133268666680   F   F   F
  0.0000000000000000  0.3750000000061604  0.4070133268666680   F   F   F
  0.8357660168382637  0.7513478711034338  0.5025740597172188   F   F   F
  0.8363071944830978  0.3752224026446882  0.6038345229128765   F   F   F
  0.8320169259688797  0.8763556425110508  0.6197591498212560   F   F   F
  0.8394007863518098  0.6275285641260169  0.6028148259132422   F   F   F
  0.9998874882813880  0.8749976155511590  0.6215129225237632   F   F   F
  0.3315060233705296  0.1200388178099345  0.6135377919979774   F   F   F
  0.3341469710388907  0.6241672973095831  0.5953785411751866   F   F   F
  0.3257864673331596  0.3736543236454963  0.5928512675394515   F   F   F
  0.6707514983096914  0.3723680440055901  0.5941849854014976   F   F   F
  0.6663159280372781  0.1244979979662375  0.6124775358472263   F   F   F
  0.3343015741130415  0.8788733739364929  0.6030073735896195   F   F   F
  0.1591642978640806  0.6273241724713827  0.6014879500329258   F   F   F
  0.1659042395957968  0.8733371909010472  0.6175043184842508   F   F   F
  0.5017749488576868  0.3713801074431231  0.5950552404374889   F   F   F
  0.5002598837980372  0.1220219191167189  0.6061792032806892   F   F   F
  0.1669737328401268  0.1230069378424616  0.6220130364563872   F   F   F
  0.1628583761637401  0.3715665764439109  0.6079205808177832   F   F   F
  0.6650835484111823  0.8809043313657270  0.6071874767671659   F   F   F
  0.6660080156191910  0.6266840788191601  0.5934515070426158   F   F   F
  0.9999393607299609  0.3786289381405368  0.6218103398143455   F   F   F
  0.9998013287277701  0.6239497482884815  0.6400980184200620   F   F   F
  0.8348403850760633  0.1240921187697879  0.6097963439892098   F   F   F
  0.5005169847420277  0.8767715034105947  0.6096021879767974   F   F   F
  0.0000000000000000  0.1249999999871179  0.4070133268666680   F   F   F
  0.5037601113478942  0.6251731003731820  0.5939608476166640   F   F   F
  0.9166275650610771  0.9980856123981283  0.6031540073056405   F   F   F
  0.5844856220998622  0.7500838367436558  0.5996955349864876   F   F   F
  0.5904429846676891  0.5012621877385044  0.5937371346415290   F   F   F
  0.2422687107802091  0.4979676993820803  0.5939681276184885   F   F   F
  0.2494501516780190  0.7526429307224305  0.5921793198822556   F   F   F
  0.5841770346598238  0.2472015419404698  0.5972968766026838   F   F   F
  0.5826049526263333  0.0011306821736170  0.6042163375182810   F   F   F
  0.2494638073149318  0.9978954536976090  0.6042320249389377   F   F   F
  0.2487392102136354  0.2459765536928131  0.6036630642136487   F   F   F
  0.4170251321228449  0.0001427939670648  0.6046969139616678   F   F   F
  0.4146247356495678  0.2487821589449339  0.5911766676766916   F   F   F
  0.4161624644959474  0.7502236560409798  0.5944441683276835   F   F   F
  0.7560501318765418  0.5030296415322226  0.5955133631332359   F   F   F
  0.7518400232496703  0.7527820260969520  0.5905297794645534   F   F   F
  0.7536805185301318  0.2484798745543415  0.5943402072314612   F   F   F
  0.7498003413858498  0.0004296448133232  0.6039094285800886   F   F   F
  0.0832183307036942  0.2482512613810712  0.6037270918726918   F   F   F
  0.0814700854040495  0.5012169903247212  0.6033118018290082   F   F   F
  0.0807733408174443  0.7506628211493336  0.6033103156063646   F   F   F
  0.0832614154820916  0.9987400739795831  0.6033127178800939   F   F   F