Au O  Sr Ti H 
 1.0000000000000000
    23.6707801818999997    0.0000000000000000    0.0000000000000000
     0.0000000000000000   22.3170261383000010    0.0000000000000000
     0.0000000000000000    0.0000000000000000   30.0000000000000000
 Au  O   Sr  Ti  H  
  50 264  72  72   1
Selective dynamics
Cartesian
 16.9858714342777191 11.7427584729939625 22.6206291403096884   F   F   F
 14.7723902788676380 12.6797764177397969 21.1179354910167021   F   F   F
 17.0111004370845471  5.7870579680784804 20.7473241624517826   F   F   F
  6.9441452540751447 16.6406881454882054 20.9315543422831851   F   F   F
 12.1135920663212193 13.4667085124144350 23.3042063866831626   F   F   F
 13.6569167492349806 16.1648046886820858 23.7822464056779452   F   F   F
 13.0214614249414637  8.5691901576595804 24.8679457599933187   F   F   F
  5.6942248312615407 10.4534068084201230 21.2724071286114871   F   F   F
  6.7224624398133690 14.7444359538597425 22.9562043247275085   F   F   F
 14.2642100049661007  6.4283095856664483 23.6198829128946493   F   F   F
 12.1798388249587077 10.7973910696695903 20.3410278388377641   F   F   F
 13.3129903102999219 10.8485543075191853 22.8780786063789918   F   F   F
 10.9669643738035330 15.5145982831993301 24.9103083406324011   F   F   F
 18.0968007425032305  9.6409629873660609 21.1752441170266970   F   F   F
 17.3609270810773566 13.7429050255260350 20.8175620782476649   F   F   F
 15.0322521490270322 13.0350115870877659 24.0001927429511817   F   F   F
 14.0775488966547151 17.5084037245655502 21.3828356428955111   F   F   F
 11.4615352605837710 17.3821101157397386 22.7161298502359656   F   F   F
  8.2618758227191975 11.1631111235164155 20.9221724947250571   F   F   F
 10.1977608014307943  8.3084486473944494 24.4628232210724335   F   F   F
  8.8196374899034566  6.6680327376253947 22.6602260354654383   F   F   F
 10.4527774700142615  5.0981747576475085 20.9097513485114384   F   F   F
  9.2561977220254867 18.2311838143541962 21.1961608826907195   F   F   F
  6.8588260771572784 11.9743895135895073 23.3277246177976032   F   F   F
 13.1639114455410411  4.6564647715526943 21.3590083737076561   F   F   F
 10.7174684905489510 12.9398238761920599 21.0697287466603278   F   F   F
 14.5268439101318236  7.1374268050707190 20.9252122499607403   F   F   F
 16.6979444002887369 16.9073363875072609 20.6504691118189250   F   F   F
 15.5312745949174911  9.8489129267696196 24.3728112482020052   F   F   F
  8.7179555238971300 13.8009879306457464 24.6092677468540266   F   F   F
 13.5219133732084575 11.3816615537873922 25.7107769258299683   F   F   F
 15.7469126266221195  4.3139387165769723 22.5546082608612259   F   F   F
 11.1866125081694641 10.0614693672182458 26.3785717129268349   F   F   F
 12.2146358739225978  8.4219088177828016 22.0161391116501797   F   F   F
  6.7055947868344150  7.5403804726137622 21.0791529100832129   F   F   F
 15.8457904770632130 15.2028659987050769 22.4640657335300276   F   F   F
  9.4139279224258772  8.5249050326715086 20.7014169865716973   F   F   F
  8.8998804643564302 10.9924842561295932 24.9999530285943301   F   F   F
 10.9535969044649200 12.7939083675161953 25.9225034670353480   F   F   F
  7.7279839115389670  9.2414406367125839 23.0778477133974675   F   F   F
 11.5331169128675981  5.9958159914576310 23.2605158781493131   F   F   F
 10.0028324192975298 15.5709809831606343 20.9813135659791854   F   F   F
 16.5662206226259556  7.7325188189666436 22.6930233093118048   F   F   F
 18.3228096527176731  9.5883308793224735 23.8831957219845741   F   F   F
  6.0649187660184189 13.2162712912809663 20.8392767524803411   F   F   F
 15.3300326688809427  9.8641271142382951 20.9075349840221953   F   F   F
 13.3632402084761637 14.2695040081546161 25.8306825298898133   F   F   F
 12.8697269403494712 14.8446142280113627 21.0454569663132247   F   F   F
 10.4840553106517440 10.5931096465756145 22.6792827181519421   F   F   F
  8.8348511766850191 16.4712570888718943 23.3430539584512431   F   F   F
  5.9205103732544853  4.2063411943444198 13.6226782732331699   F   F   F
 17.7402152767525862 20.9440802579879382 13.6621341695669223   F   F   F
 17.7287518516210483 15.3706956806024451 13.7195820075486594   F   F   F
 17.7406258430814674  9.7874703240556151 13.6758105748119050   F   F   F
 17.7535308971927854  4.2371206824838259 13.6718675623636177   F   F   F
  9.8788656009312330 20.8822020168918243 13.6184896963868400   F   F   F
  9.8675429115768143 15.2797274943981076 13.6419043081907017   F   F   F
  9.8676443398161950  9.7165702828867531 13.6144984645434430   F   F   F
  2.0020633374572108 15.3275490549185101 13.5897938620008052   F   F   F
  1.9873875292121610 20.9069968466659297 13.6066257494863780   F   F   F
  1.9623581185132819  9.7499847026923998 13.5906182560441700   F   F   F
  1.9709149362613876  4.1785397806291593 13.6110904170530045   F   F   F
 21.6934765499100166 18.1306632594565684 13.6121810553076035   F   F   F
 21.6851425392524533 12.5529867834169675 13.6078633109858220   F   F   F
  5.9415533669295950  9.8013551578838598 13.6489906823293019   F   F   F
 21.6964416069108168  1.4136079534088526 13.5952515833863643   F   F   F
 21.6773605518341093  6.9928423407989353 13.5817513359845119   F   F   F
  9.8703399720532818  4.1777446975310593 13.6068475422927264   F   F   F
  5.9709964132543858 15.3420749163254797 13.6809943141114996   F   F   F
 21.6912617936369365 20.9252284166465330 13.6173078366515607   F   F   F
 13.7965135328479995  4.2288522347107147 13.6541452492605782   F   F   F
 -0.0010340748162213  2.7911440910673257 14.9833867743721534   F   F   F
 13.8107785738911435 18.0794518470360828 13.6640423901114261   F   F   F
 23.6594713736332665  8.3306868639077578 14.9465840740790767   F   F   F
 23.6689147410612506 13.9969430738543590 14.9301744069745865   F   F   F
  7.8950805884987121  2.8034513140533392 14.9570366668185741   F   F   F
  0.0045703256279275 19.5191008190616913 14.9756197868643959   F   F   F
  7.8931224814506482 19.4988131489115801 14.9704439794112911   F   F   F
 15.7682801254049068  2.8078119308285676 14.9878337486203925   F   F   F
  7.9436615807965296 13.9583842699091392 15.1250955492009673   F   F   F
  7.9147371511588052  8.4461752632603329 15.0887441665078192   F   F   F
 15.7501192233054894  8.4620263818387667 15.0905345021637221   F   F   F
 21.6664306918064931 15.3290909454031770 13.6006275316351619   F   F   F
 21.6754750926796476  9.7544993147852530 13.6304994792015517   F   F   F
 21.6981279403660992  4.2055470443272682 13.6398583314050814   F   F   F
 13.7979338026664173 20.9065476618907269 13.6236035608708068   F   F   F
 13.7952235224705184 15.3098893712261290 13.6362294142999652   F   F   F
 13.7843774902279055  9.7939164017299500 13.6746419028104160   F   F   F
  5.9183400095585172 20.8884455587939755 13.6217150050637841   F   F   F
 15.7486083673715491 13.9717585526096357 15.0889339489449181   F   F   F
 13.8383193407571330 12.5522534941244661 13.6520268599446055   F   F   F
 13.8064448420789603  1.4108086473039330 13.6254530028858731   F   F   F
 21.6982156369999721 15.3429554700000619 10.8156001569999933   F   F   F
 21.6982156369999721  9.7636982699999884 10.8156001569999933   F   F   F
 21.6982156369999721  4.1844424010000720 10.8156001569999933   F   F   F
 13.8079546360000549 20.9222120050000342 10.8156001569999933   F   F   F
 13.8079546360000549 15.3429554700000619 10.8156001569999933   F   F   F
 13.8079546360000549  9.7636982699999884 10.8156001569999933   F   F   F
 13.8079546360000549  4.1844424010000720 10.8156001569999933   F   F   F
  5.9176950450000287 20.9222120050000342 10.8156001569999933   F   F   F
 21.6982156369999721 20.9222120050000342 10.8156001569999933   F   F   F
  5.9176950450000287 15.3429554700000619 10.8156001569999933   F   F   F
  5.9176950450000287  4.1844424010000720 10.8156001569999933   F   F   F
 17.7530837259999217 20.9222120050000342 10.8156001569999933   F   F   F
 17.7530837259999217 15.3429554700000619 10.8156001569999933   F   F   F
 17.7530837259999217  9.7636982699999884 10.8156001569999933   F   F   F
 17.7530837259999217  4.1844424010000720 10.8156001569999933   F   F   F
  9.8628241350000643 20.9222120050000342 10.8156001569999933   F   F   F
  9.8628241350000643 15.3429554700000619 10.8156001569999933   F   F   F
  9.8628241350000643  9.7636982699999884 10.8156001569999933   F   F   F
  5.9176950450000287  9.7636982699999884 10.8156001569999933   F   F   F
  1.9725650740000149  1.3948141340000613 10.8156001569999933   F   F   F
  1.9725650740000149  6.9740706679999214 10.8156001569999933   F   F   F
  1.9725650740000149 12.5533272030000536 10.8156001569999933   F   F   F
 21.6982156369999721  6.9740706679999214 10.8156001569999933   F   F   F
 21.6982156369999721  1.3948141340000613 10.8156001569999933   F   F   F
 13.8079546360000549 18.1325837370000720 10.8156001569999933   F   F   F
 13.8079546360000549 12.5533272030000536 10.8156001569999933   F   F   F
 13.8079546360000549  6.9740706679999214 10.8156001569999933   F   F   F
 13.8079546360000549  1.3948141340000613 10.8156001569999933   F   F   F
  5.9176950450000287 18.1325837370000720 10.8156001569999933   F   F   F
  5.9176950450000287 12.5533272030000536 10.8156001569999933   F   F   F
  5.9176950450000287  6.9740706679999214 10.8156001569999933   F   F   F
  5.9176950450000287  1.3948141340000613 10.8156001569999933   F   F   F
 17.7530837259999217 18.1325837370000720 10.8156001569999933   F   F   F
 17.7530837259999217 12.5533272030000536 10.8156001569999933   F   F   F
 17.7530837259999217  6.9740706679999214 10.8156001569999933   F   F   F
 17.7530837259999217  1.3948141340000613 10.8156001569999933   F   F   F
  9.8628241350000643 18.1325837370000720 10.8156001569999933   F   F   F
  9.8628241350000643 12.5533272030000536 10.8156001569999933   F   F   F
  9.8628241350000643  6.9740706679999214 10.8156001569999933   F   F   F
  9.8628241350000643  1.3948141340000613 10.8156001569999933   F   F   F
  1.9725650740000149 18.1325837370000720 10.8156001569999933   F   F   F
  9.8628241350000643  4.1844424010000720 10.8156001569999933   F   F   F
  1.9725650740000149 20.9222120050000342 10.8156001569999933   F   F   F
  1.9725650740000149 15.3429554700000619 10.8156001569999933   F   F   F
  1.9725650740000149  9.7636982699999884 10.8156001569999933   F   F   F
 19.7256482699999580 11.1585130689999925 12.2103998060000407   F   F   F
 19.7256482699999580 16.7377696039999648 12.2103998060000407   F   F   F
  1.9776835503336569  1.3892612024846638 13.6203127067043024   F   F   F
  1.9717796212516736  6.9726434756393543 13.6120002500897943   F   F   F
  1.9863650461535194 12.5526757873806751 13.6157201702548321   F   F   F
  1.9780118930522881 18.1219054048551804 13.6260662346080874   F   F   F
  9.8661345868025112  1.3730288166427076 13.6599753892873199   F   F   F
  9.8364112210584640  6.9493497695848676 13.7208785035428100   F   F   F
  9.8452425439956386 12.4860952448050693 13.7365004799903261   F   F   F
  9.8653473463257750 18.0733992872540625 13.6544830537763264   F   F   F
 17.7426296998658728  1.4391643270394421 13.5925345502112691   F   F   F
 17.6912291289907984  7.0106093487028973 13.6380361675145210   F   F   F
 17.7089079035369323 12.5955754968304099 13.6093649743654126   F   F   F
 17.7336262751846618 18.1501808949145946 13.5905809639779331   F   F   F
  5.9300393823611062  1.3823725394740272 13.6259377227536316   F   F   F
 21.6695367628940367  6.9016097480613015 16.3471015376145061   F   F   F
  5.9713935562225240  7.0103913011983030 13.6251504542411528   F   F   F
  5.9630977741778501 12.5990304681146341 13.6139553573585399   F   F   F
  5.9237021840417974 18.0915276289765004 13.6626038932629079   F   F   F
 19.7256482699999580  5.5792565349999723 12.2103998060000407   F   F   F
 13.8239505410885339  7.0213652276319118 13.6255346540318314   F   F   F
 19.7256482699999580  0.0000000000000000 12.2103998060000407   F   F   F
 11.8353900909999528 11.1585130689999925 12.2103998060000407   F   F   F
  1.9725650740000149  4.1844424010000720 10.8156001569999933   F   F   F
  0.0000000000000000  0.0000000000000000 12.2103998060000407   F   F   F
  0.0000000000000000  5.5792565349999723 12.2103998060000407   F   F   F
  0.0000000000000000 11.1585130689999925 12.2103998060000407   F   F   F
  0.0000000000000000 16.7377696039999648 12.2103998060000407   F   F   F
  7.8902602960000570  0.0000000000000000 12.2103998060000407   F   F   F
  7.8902602960000570  5.5792565349999723 12.2103998060000407   F   F   F
  7.8902602960000570 11.1585130689999925 12.2103998060000407   F   F   F
  7.8902602960000570 16.7377696039999648 12.2103998060000407   F   F   F
 15.7805205919999434  0.0000000000000000 12.2103998060000407   F   F   F
 15.7805205919999434  5.5792565349999723 12.2103998060000407   F   F   F
 15.7805205919999434 11.1585130689999925 12.2103998060000407   F   F   F
 15.7805205919999434 16.7377696039999648 12.2103998060000407   F   F   F
  3.9451301480000271  0.0000000000000000 12.2103998060000407   F   F   F
  3.9451301480000271  5.5792565349999723 12.2103998060000407   F   F   F
  3.9451301480000271 11.1585130689999925 12.2103998060000407   F   F   F
  3.9451301480000271 16.7377696039999648 12.2103998060000407   F   F   F
 11.8353900909999528  0.0000000000000000 12.2103998060000407   F   F   F
 11.8353900909999528  5.5792565349999723 12.2103998060000407   F   F   F
 11.8353900909999528 16.7377696039999648 12.2103998060000407   F   F   F
  3.9547779014198499  2.7770684157214660 14.9678850703755550   F   F   F
 21.6990105917119962  1.3392672369248249 16.3620355414528937   F   F   F
  3.9716380082977789 19.4879614687882814 14.9973478939435569   F   F   F
  5.9542180966035012  4.2043322446534246 16.4131758530048906   F   F   F
 17.7154081363371283 20.8345153838600119 16.4358097065746875   F   F   F
 17.7970609273548597 15.1868787477402449 16.5956492074798447   F   F   F
 17.8116524707630646  9.6973806512259983 16.4884531560374832   F   F   F
 10.0134238604860872  9.9085975985712267 16.3652327885480879   F   F   F
 10.0165789221427453 15.3561888901961403 16.3983145027812434   F   F   F
 17.7352256496939020  4.0887725389699661 16.5324558106362574   F   F   F
  9.8419701634473729 20.9119856755038107 16.3808431965375334   F   F   F
  1.9862058779782379 20.9431600130009024 16.3761929456793212   F   F   F
  9.8397173084645839  4.2721921724952336 16.3952093287561134   F   F   F
  2.0570147147977402 15.3910436403698423 16.3515441927901932   F   F   F
  1.9501026650755406  9.7754354488569852 16.3556214946490357   F   F   F
  1.9798729253970595  4.1975134108298908 16.3918842898613235   F   F   F
 11.8207714345850405  2.8012791188897030 14.9756026431290401   F   F   F
 23.6613179127786779 11.1439934000323326 17.8301782941188556   F   F   F
 23.6629803074189340 16.7801869589504911 17.7720603638814296   F   F   F
  7.9201540368660526  5.6765905947508184 17.7815152902562126   F   F   F
  7.9051646944928393  0.0000542277380650 17.7616906740604144   F   F   F
 23.6653142027763082 22.2640887068760804 17.7651131093839894   F   F   F
 23.6450070969774124  5.5311761592253790 17.7592958785052311   F   F   F
  7.8874826552260897 11.0781264903013810 17.7254365536901126   F   F   F
  7.9419622886981243 16.5224428561514820 17.7161005996508152   F   F   F
 15.7036904441388039  5.5076210397437508 17.7280416406433510   F   F   F
 15.7691334106201513  0.0271804944882342 17.7582938971755091   F   F   F
 15.7567567669466069 16.5597251065295659 17.7083502294855109   F   F   F
 15.7838154907123069 11.0332840097143130 17.7310344668451165   F   F   F
  3.9589101819900612 22.2946499371917284 17.7726184723777187   F   F   F
  3.9720475550753132  5.5669220093387288 17.8052159606329852   F   F   F
  4.0418001476870389 16.7368040421281776 17.8518228575375879   F   F   F
  5.8737041978975313  9.7267030885758299 16.4723935968677999   F   F   F
  3.9151978805697385 11.2297846168173638 17.6263251120413749   F   F   F
  5.8925440498782171 15.2500104758372395 16.5566497343195032   F   F   F
 13.7370135550467989  4.1521336847383337 16.4730349594317858   F   F   F
 21.6790192333058265 18.1045359384859417 16.3839852199513061   F   F   F
 21.7059278571212282 12.5401375519741194 16.3592761828120885   F   F   F
 13.7521932020887192 12.5100398397599424 16.4810479887536552   F   F   F
 13.8708099875967008 18.1853443537046857 16.5161797462593718   F   F   F
 13.8109127459550631  6.9627145809738149 16.3715136554760150   F   F   F
 13.7831315697709478  1.3969145360240793 16.3831783278606409   F   F   F
  5.9931687070993735 18.1399662816972409 16.5365700281942765   F   F   F
  5.9725879855484543 12.4745954656718165 16.3160193462434684   F   F   F
  5.9071366774185163  6.9998412755513426 16.3811684859176800   F   F   F
  5.9418908616918422  1.3981312621374689 16.4173298034519206   F   F   F
 17.7064143577313651 18.0304440429476109 16.3610791441489596   F   F   F
 17.6682676872486084 12.4504024774360040 16.3324030877454405   F   F   F
  9.8069837343696111 18.1151541921677293 16.4380162321648342   F   F   F
 17.7594702492207439  1.3241070630025729 16.3145509438829031   F   F   F
 17.6885407083519048  6.9408250062864019 16.4290640290558514   F   F   F
  9.8446030298448566  7.1335925891139738 16.5782446263252297   F   F   F
  9.9468339521687721 12.6107846332978237 16.6621066746954121   F   F   F
  9.8595496612136060  1.4598001530375910 16.4192862982168215   F   F   F
  2.0078685777045862 18.1407000125381686 16.4214285536052031   F   F   F
  1.9528425683290849 12.5883453115251651 16.3877424697985887   F   F   F
  2.0048929225042684  6.9775396407032968 16.4011768809650107   F   F   F
  1.9605738776782933  1.4009060507495616 16.4133557648003041   F   F   F
 21.6898797759321553 20.9015242889489024 16.3986556555321634   F   F   F
 21.6111484828955689 15.3487906462912349 16.3778214485694171   F   F   F
 13.8199926413409724 20.9362018272769781 16.3779097393402928   F   F   F
 21.6686509494692530  4.0988368887648754 16.4821288399472721   F   F   F
 21.6732382559846819  9.7151591103846044 16.4037706483927224   F   F   F
 13.6461414568327104  9.7406648276261052 16.5496428661657013   F   F   F
 13.7176542530989600 15.3209657524246587 16.4138726893301232   F   F   F
  5.9541814398802009 20.9192852939501890 16.3567584246108133   F   F   F
 11.7790286933251984 11.2586437094484886 18.2701217725593601   F   F   F
 11.8022098154883821  5.6486498249056458 17.7116512027690050   F   F   F
 11.8255853282097902  0.0002632758867118 17.7312993489370960   F   F   F
 17.8417672387415109 15.4776038661345190 19.7210259291609731   F   F   F
 17.7032153475113887 20.9095291597188933 19.2234278527652798   F   F   F
  5.9902480625176340  4.1609099320611138 19.2302511217941117   F   F   F
 17.6523196492845038  4.3480566399698795 19.4002921918418600   F   F   F
 17.8852282506854294  9.7495560433633326 19.1792454245112225   F   F   F
  9.8783754266441530 20.8658915753850849 19.1931302855880119   F   F   F
  9.9637229554265385 15.0854515549166734 19.0089020859649231   F   F   F
 13.9674417536875506 18.0888374146219100 19.3813295748186754   F   F   F
 21.6752078058638986  1.4067386585514052 19.1482251767835585   F   F   F
 21.6093000355971121 12.5810361807565521 19.2357095253933181   F   F   F
 21.6717086795285532  7.0023900653309195 19.1414439935897747   F   F   F
 21.6536668427554098 18.1389791392751718 19.2422057894484340   F   F   F
 13.7849183190273461  1.4692545554424781 19.1878576243045309   F   F   F
 13.8023164234034859  7.1362874219263954 19.0227287981326043   F   F   F
 13.9996397341858021 12.6055447955308999 19.1871321236610832   F   F   F
  5.8576323948495430 12.8028651267173998 18.8599082986690867   F   F   F
  6.2039947739929477 17.8188912906488071 19.4075301885971605   F   F   F
  5.8949892568842479  7.0552050318419877 19.2469971853315478   F   F   F
  5.9398843928434006  1.3283770468099318 19.2706991672287522   F   F   F
 21.6982156369999721 12.5533272030000536 10.8156001569999933   F   F   F
 11.8247256985279581  8.3472813941811861 15.0080765852273021   F   F   F
 11.8363277243087985 19.4893464449002387 15.0259405431933963   F   F   F
 11.8426682114908797 13.8617757840312912 14.9985335536262578   F   F   F
 19.6991199279082352 13.9037734140880911 14.9983576452589773   F   F   F
 19.7097288792010943 19.5100883132401677 14.9591117666717857   F   F   F
 19.7014715145072543  8.3222923572429188 14.9968113900062896   F   F   F
 19.7180084649232654  2.7904764717466413 14.9884545129204625   F   F   F
  3.9411394927474528  8.3822878881900671 14.9403085807224407   F   F   F
  3.9707023410519402 13.9303639702109034 14.9980256900049191   F   F   F
 13.7674874322998377  9.7934575203541137 19.3767762265682144   F   F   F
 13.7257001647439214 15.2945673026919167 19.1683874885984480   F   F   F
 21.6236908792975449  4.2064857554979973 19.3408428659240847   F   F   F
 13.7762246015389245 20.8857174481345886 19.1753187019784548   F   F   F
 19.6552848246169205 16.7653377068683049 17.7848661948085578   F   F   F
 19.6847795344119980  5.5702515524213432 17.7339382640207468   F   F   F
 19.7163640313740522 11.2448711844006191 17.6675134707767612   F   F   F
 19.7101517200104475 22.2563660881011813 17.7475715489409609   F   F   F
 11.8585215531462715 16.8781307760183275 17.7868284841086854   F   F   F
  9.8881987032591940  1.4562986079572533 19.2012940815480704   F   F   F
 10.1060944081344353  6.8062714391876167 19.6449528490102239   F   F   F
  9.7537594091731652 18.1381588481218365 19.1841509796036398   F   F   F
  9.4036186923100153 12.2912810175711034 19.5543635707624581   F   F   F
 17.7966874612582231 12.7481330902018808 19.0283259014854451   F   F   F
 17.5409338426006620 18.0779966831029633 19.1987189025362355   F   F   F
 17.6711281407129093  6.9844040833298964 19.2018026018176684   F   F   F
 17.7838959144585367  1.5081554262131081 19.1098012432788202   F   F   F
  1.9408094764392920  6.9755946506316198 19.1929930226118977   F   F   F
 15.7757719824347138 19.5141849357363100 14.9653504079891029   F   F   F
  2.0545093680475861 12.5586848528213935 19.2470593119492612   F   F   F
  1.9399682626538433  1.3823613454912944 19.2134254909085911   F   F   F
  2.0648942437251967  9.7615171808374388 19.1843452923120168   F   F   F
  1.9500765514731446  4.1527149085762138 19.2353454346440955   F   F   F
  9.9074532913751323  4.1948016063356937 19.1959564287324049   F   F   F
  9.8253668957023166  9.3544399886405927 18.8937841942153071   F   F   F
  2.0015346740951889 20.8857937120441228 19.2198751803034575   F   F   F
  1.9850723752284141 15.3388293477213171 19.2059684871647214   F   F   F
 21.5816271351222646  9.7863158032737747 19.1998041333194429   F   F   F
 21.6609266711393609 15.3596542790317248 19.2074727412708413   F   F   F
 21.6725553055761395 20.8899496926999362 19.2475649625879335   F   F   F
  5.6906074429579752  9.8625601737062016 19.2450522547973897   F   F   F
  6.0240439170251037 15.1073821971514448 19.9070301924054149   F   F   F
 13.6943921204012238  4.2560326094400471 19.3293338900960059   F   F   F
  5.9574503929067149 20.7596847542764138 19.1174807678603216   F   F   F
  1.9895309132184427 18.1197953171471120 19.2529390126966398   F   F   F
 21.6982156369999721 18.1325837370000720 10.8156001569999933   F   F   F
 23.6551535759663807  2.7753598088600224 18.4540218155337499   F   F   F
 19.7256482699999580 13.9481413360000008 12.2103998060000407   F   F   F
 23.6686176720424406 11.1673348906504799 15.2097987841825617   F   F   F
  7.8376205224323519 11.1405578737624893 15.0294163001351144   F   F   F
  7.8119665799315205  5.5371456794215899 15.0851508375359593   F   F   F
  7.8846031018240534  0.0255923631321653 15.1750585476746096   F   F   F
  7.9020825074203396 16.7603989262465269 15.0471555085858473   F   F   F
 15.7645982327470886  0.0086415978095090 15.1696285770611627   F   F   F
 15.8215677590374906 11.1558944118805012 15.0218305809642576   F   F   F
 15.7863202602404336  5.5300877132563748 15.0944096523256803   F   F   F
 15.7499977039262831 16.7779904571405183 15.0659351477431649   F   F   F
  3.9319914619369976  0.0259088131448327 15.1946785021225423   F   F   F
  3.9330001791152673  5.5403733277689264 15.1927066878548764   F   F   F
  3.8670866864724465 11.1492372490162079 15.0635596507032172   F   F   F
 11.8382254644005176 22.3031834261897401 15.1647702263448885   F   F   F
  3.8949108454804460 16.7698201361151327 15.1007078870381264   F   F   F
 11.8594845870323820 16.8010435963786584 15.1180437366399136   F   F   F
 19.7508317743717434 22.2999222519328484 15.1730004896685458   F   F   F
 11.8639603149977972 11.1555852043210475 15.0090748777555341   F   F   F
 11.8612750157390447  5.5348678136842917 15.0609627274020248   F   F   F
 19.7665496070815401  5.5406616566417117 15.0847986764152378   F   F   F
  0.0045923389566044 16.7426579028543188 15.1986607234568218   F   F   F
  0.0162645106915440  5.5595224499925502 15.1617514478596291   F   F   F
  0.0031496679522371 22.3073602106916908 15.1786771658607051   F   F   F
 19.7256482699999580 19.5273965409999306 12.2103998060000407   F   F   F
  0.0000000000000000 13.9481413360000008 12.2103998060000407   F   F   F
  0.0000000000000000 19.5273965409999306 12.2103998060000407   F   F   F
  7.8902602960000570  2.7896282670000101 12.2103998060000407   F   F   F
  7.8902602960000570  8.3688848019999824 12.2103998060000407   F   F   F
  7.8902602960000570 13.9481413360000008 12.2103998060000407   F   F   F
  7.8902602960000570 19.5273965409999306 12.2103998060000407   F   F   F
 15.7805205919999434  2.7896282670000101 12.2103998060000407   F   F   F
 15.7805205919999434  8.3688848019999824 12.2103998060000407   F   F   F
 15.7805205919999434 13.9481413360000008 12.2103998060000407   F   F   F
 19.7830008414022771 11.1562849082177848 15.0879010498298456   F   F   F
 15.7805205919999434 19.5273965409999306 12.2103998060000407   F   F   F
  3.9451301480000271  8.3688848019999824 12.2103998060000407   F   F   F
  3.9451301480000271 13.9481413360000008 12.2103998060000407   F   F   F
  3.9451301480000271 19.5273965409999306 12.2103998060000407   F   F   F
 11.8353900909999528  2.7896282670000101 12.2103998060000407   F   F   F
 11.8353900909999528  8.3688848019999824 12.2103998060000407   F   F   F
 11.8353900909999528 13.9481413360000008 12.2103998060000407   F   F   F
 11.8353900909999528 19.5273965409999306 12.2103998060000407   F   F   F
 19.7256482699999580  2.7896282670000101 12.2103998060000407   F   F   F
 19.7256482699999580  8.3688848019999824 12.2103998060000407   F   F   F
  3.9451301480000271  2.7896282670000101 12.2103998060000407   F   F   F
  0.0000000000000000  8.3688848019999824 12.2103998060000407   F   F   F
 19.7832336680806620 16.7678500783713744 15.0772217915165800   F   F   F
 19.7960437651509658  8.3738481674972469 18.1150356873863849   F   F   F
 19.6944897622295620 19.5576517803657595 18.5927744946377835   F   F   F
 19.8692714982476986 14.0045713681302324 18.0844447773973762   F   F   F
 23.6681169417407666 19.5273446572053224 18.6453876757128576   F   F   F
  7.8470062081796339  2.6789094346749667 18.4061337599392481   F   F   F
  7.9095194999092477 13.9295578887299722 17.8613562352556912   F   F   F
  7.7116198544809205  8.3388533074852891 17.7855380261835272   F   F   F
 15.8772112731688448  8.3101473711404292 17.8255495620448272   F   F   F
 15.7722178642691322  2.7784250747786161 18.3743260754168318   F   F   F
  7.9131790752929900 19.6138400583965726 18.0902212076884865   F   F   F
  3.7675431075471120 14.0000099542312313 18.0446385009877552   F   F   F
  3.9270827867173428 19.4902889168882325 18.5251295545275312   F   F   F
 11.8774045151944190  8.2880995650527964 17.8516572131247244   F   F   F
 11.8415417432061023  2.7231663583732906 18.1853760984205728   F   F   F
  3.9523985262099437  2.7451490470224589 18.6603910936915653   F   F   F
  3.8549848229530226  8.2922609986174383 18.2376174245334610   F   F   F
 15.7430464770391261 19.6591649884305717 18.2156243030150691   F   F   F
 15.7649293371052419 13.9857249674636890 17.8035452112785322   F   F   F
 -0.0014353788314911  8.4498719091991106 18.6543101944304510   F   F   F
 -0.0047027040134455 13.9247028415397409 19.2029405526018131   F   F   F
 19.7613232421081975  2.7693670581423220 18.2938903196763718   F   F   F
 11.8476275231359267 19.5669325589307839 18.2880656393039658   F   F   F
  0.0000000000000000  2.7896282670000101 12.2103998060000407   F   F   F
 11.9243948601254246 13.9520044219903081 17.8188254284999985   F   F   F
 21.6972896012310770 22.2743027001502369 18.0946202191692223   F   F   F
 13.8352306802068714 16.7396405905244947 17.9908660495946400   F   F   F
 13.9762461000138138 11.1866813459016043 17.8121140392459054   F   F   F
  5.7346893978306577 11.1131581631389871 17.8190438285546620   F   F   F
  5.9046797067120131 16.7967519577392146 17.7653795964676746   F   F   F
 13.8279261747469207  5.5168032729135197 17.9189062980804472   F   F   F
 13.7907137665041670  0.0252334636226513 18.1264901255484752   F   F   F
  5.9050029462915532 22.2700589234602546 18.1269607481681483   F   F   F
  5.8878511675863923  5.4894651781714412 18.1098919264095031   F   F   F
  9.8713102328075877  0.0031867366954124 18.1409074188500163   F   F   F
  9.8144909755393908  5.5520779439168422 17.7353000303007207   F   F   F
  9.8508902170412611 16.7427609414374992 17.8333250498304423   F   F   F
 17.8962964781460911 11.2261256584143396 17.8654008939971831   F   F   F
 17.7966399222975475 16.7998561528481254 17.7158933839365424   F   F   F
 17.8402058815072344  5.5453318552707129 17.8302062169437434   F   F   F
 17.7483590612579540  0.0095883945290876 18.1172828574026461   F   F   F
  1.9698428131917693  5.5402298891073647 18.1118127561806936   F   F   F
  1.9284604829998326 11.1856726740368941 18.0993540548701972   F   F   F
  1.9119679950473982 16.7525618006396790 18.0993094681910023   F   F   F
  1.9708626635104545 22.2889083363700955 18.0993815364027384   F   F   F