Au  C  H  O Sr Ti                       
   1.00000000000000     
    23.6707801818999997    0.0000000000000000    0.0000000000000000
     0.0000000000000000   22.3170261383000010    0.0000000000000000
     0.0000000000000000    0.0000000000000000   30.0000000000000000
   Au   C    H    O    Sr   Ti
    50     2     5   264    72    72
Selective dynamics
Direct
  0.7156919443160764  0.5250270772450870  0.7532775600126860   T   T   T
  0.2937177410810476  0.7465679553752443  0.6968224406418568   T   T   T
  0.5117834556266877  0.6034917858829202  0.7768978564673856   T   T   T
  0.5782912535649157  0.7256888545284143  0.7939004492029483   T   T   T
  0.2403446903446869  0.4695884296507469  0.7091464786704866   T   T   T
  0.2852107900703015  0.6624438588282106  0.7645271605553325   T   T   T
  0.5983666676926686  0.2918126000717240  0.7849016405790655   T   T   T
  0.5141308400503544  0.4843244868764618  0.6780113636157794   T   T   T
  0.5628705334292439  0.4861267838849159  0.7622180392242719   T   T   T
  0.4835548294486849  0.2708082670345290  0.7747754334661342   T   T   T
  0.5466583978511581  0.3866570146536696  0.8287021766970311   T   T   T
  0.5526426689240537  0.2142253354868404  0.7101227720243817   T   T   T
  0.3913919912319053  0.8174807529596432  0.7065301653733443   T   T   T
  0.4362374727292899  0.2274142113684244  0.6978325410858007   T   T   T
  0.3691341763732151  0.2989433602661764  0.7557283205567381   T   T   T
  0.3493111471430320  0.4999716761303551  0.6979150944492232   T   T   T
  0.4273528052190009  0.3718975957931198  0.8164849116593046   T   T   T
  0.6347258834808713  0.5840131052559486  0.8001332511962483   T   T   T
  0.7329336860899842  0.6147763940931509  0.6940320997016691   T   T   T
  0.4856582194151361  0.7765533626247851  0.7551019569613269   T   T   T
  0.7637898894606127  0.4314637292480104  0.7045121803892916   T   T   T
  0.7227750030274018  0.2592318268786892  0.6905954070400520   T   T   T
  0.6213626327751237  0.5708592557075242  0.7040093001494656   T   T   T
  0.4636928538786761  0.6953577511369372  0.8303361227976906   T   T   T
  0.6168261044174135  0.3203868251922518  0.6958948447227216   T   T   T
  0.5964155794787446  0.7845726599770459  0.7130439441522194   T   T   T
  0.6999652273807231  0.3445140430586843  0.7570535914437962   T   T   T
  0.5694869627305632  0.5100774280831548  0.8567644867878946   T   T   T
  0.6673892302079096  0.1986810498250861  0.7513711888317969   T   T   T
  0.4697406587540634  0.4515060796529250  0.8796689027451382   T   T   T
  0.5175991020631915  0.3772953568319739  0.7322421199949748   T   T   T
  0.2817770898290445  0.3407649387831761  0.7023579999387715   T   T   T
  0.6694218839816086  0.6811622667659490  0.7488103966370930   T   T   T
  0.2890461929359827  0.5382970400098012  0.7775093633237270   T   T   T
  0.3976056270117748  0.3816837205224328  0.6904594112235659   T   T   T
  0.4522063237239130  0.5797920623135915  0.7028469064635610   T   T   T
  0.3748498144557246  0.4934074854521120  0.8328465192919603   T   T   T
  0.3682720563071321  0.6191415023922893  0.8202549920754201   T   T   T
  0.3251248683287610  0.4151819879021148  0.7694679669511887   T   T   T
  0.7736035538851351  0.4284987710977369  0.7945694322716047   T   T   T
  0.2567825450011331  0.5931113833499092  0.6944927194192531   T   T   T
  0.6485036176018404  0.4453554556851238  0.6945896909826056   T   T   T
  0.5644567697454389  0.6395011947904873  0.8611613335743232   T   T   T
  0.5405542672008510  0.6676075826380721  0.7017986325456194   T   T   T
  0.4435489697526398  0.4734179648597703  0.7562822031000935   T   T   T
  0.3741345542451108  0.7398412199696615  0.7788540260335592   T   T   T
  0.4623493452698246  0.5737294256506246  0.8643115923137084   T   T   T
  0.6551976209343963  0.4406817245223325  0.8126329897149200   T   T   T
  0.7064825718857572  0.7569333472995063  0.6883953796971565   T   T   T
  0.4176563823865651  0.6965411653002960  0.6995417393967582   T   T   T
  0.6920217386942485  0.0790372603820103  0.7856366800450103   T   T   T
  0.7187018747362554  0.1219494336542968  0.7527751480807918   T   T   T
  0.7602020836644214  0.1383271572961593  0.7628275216220466   T   T   T
  0.7181707582758118  0.0383810365203995  0.7869761226112015   T   T   T
  0.7198995960371291  0.1056522520172434  0.7185181825886393   T   T   T
  0.6496763521455325  0.0651471023285451  0.7754987714095023   T   T   T
  0.6902510294014903  0.0973083561515715  0.8193928817809421   T   T   T
  0.4984467047807493  0.2529595036168223  0.5906732253439592   T   T   T
  0.0845821237889117  0.6869096748009256  0.4530421946771921   T   T   T
  0.0838754763393736  0.9366762332289356  0.4534758855995883   T   T   T
  0.0829230024209034  0.4368962644611123  0.4529147457270294   T   T   T
  0.0838525986783447  0.1865748219522360  0.4529703842087243   T   T   T
  0.9165814721037596  0.8121324071876238  0.4540723218298867   T   T   T
  0.7465410469945400  0.5581961386753844  0.5446690933898916   T   T   T
  0.9161650307206189  0.5623210760423492  0.4539276706057484   T   T   T
  0.9162534685368454  0.3121924126349736  0.4538653594468304   T   T   T
  0.4170644351364287  0.1871572216822997  0.4535517185309136   T   T   T
  0.2521366548997336  0.6875790517717408  0.4560590618359306   T   T   T
  0.9157742485666056  0.3129889862693935  0.5467071591075745   T   T   T
  0.9164707937478711  0.9371118447244904  0.4536507627115187   T   T   T
  0.0001831692246850  0.1250289305161968  0.4983040354237689   T   T   T
  0.5832762126705282  0.8104728157424537  0.4553460155154208   T   T   T
  0.9998963757204752  0.6271441662912423  0.4977105101147654   T   T   T
  0.3335933344585698  0.1255991532595276  0.4985727544155471   T   T   T
  0.0000526111255698  0.8751593923046987  0.4995341372715839   T   T   T
  0.3334637990178597  0.8739877442961598  0.4993055658465516   T   T   T
  0.6661344872576851  0.1265768152217858  0.4990440622995359   T   T   T
  0.2511656957637277  0.4392795683243229  0.4549070196922066   T   T   T
  0.0833333358191695  0.5625000000092442  0.3605200052333331   F   F   F
  0.9166666865332829  0.0625000000159659  0.3605200052333331   F   F   F
  0.7494148661539183  0.8131718551091787  0.4530613543224509   T   T   T
  0.7496511919423960  0.4384064327289751  0.4557178039707884   T   T   T
  0.2505163944975150  0.0620238227600901  0.4542399632104030   T   T   T
  0.5825986517642084  0.1902644303234938  0.4554918843435056   T   T   T
  0.2519175474402853  0.5645958420180389  0.4537720654988406   T   T   T
  0.4164355484749221  0.4354595513948814  0.4538397174795480   T   T   T
  0.0001014922413702  0.3737259187541187  0.4981617169202394   T   T   T
  0.4171278841010205  0.6847865806244549  0.4547458050238421   T   T   T
  0.5833333134730552  0.9375000000154046  0.3605200052333331   F   F   F
  0.2498714925508558  0.1884946911475060  0.4541046899326536   T   T   T
  0.9166666865332829  0.6874999999963620  0.3605200052333331   F   F   F
  0.9166666865332829  0.4374999701794380  0.3605200052333331   F   F   F
  0.9166666865332829  0.1875000000030838  0.3605200052333331   F   F   F
  0.0864019617226464  0.3134744001311385  0.5468681449074737   T   T   T
  0.5833333134730552  0.6874999999963620  0.3605200052333331   F   F   F
  0.5833333134730552  0.4374999701794380  0.3605200052333331   F   F   F
  0.5833333134730552  0.1875000000030838  0.3605200052333331   F   F   F
  0.2499999999799343  0.9375000000154046  0.3605200052333331   F   F   F
  0.9166666865332829  0.9375000000154046  0.3605200052333331   F   F   F
  0.2499999999799343  0.6874999999963620  0.3605200052333331   F   F   F
  0.2499999999799343  0.1875000000030838  0.3605200052333331   F   F   F
  0.7499999404149307  0.9375000000154046  0.3605200052333331   F   F   F
  0.7499999404149307  0.6874999999963620  0.3605200052333331   F   F   F
  0.7499999404149307  0.4374999701794380  0.3605200052333331   F   F   F
  0.7499999404149307  0.1875000000030838  0.3605200052333331   F   F   F
  0.4166666269218169  0.9375000000154046  0.3605200052333331   F   F   F
  0.4166666269218169  0.6874999999963620  0.3605200052333331   F   F   F
  0.4166666269218169  0.4374999701794380  0.3605200052333331   F   F   F
  0.2499999999799343  0.4374999701794380  0.3605200052333331   F   F   F
  0.0833333358191695  0.0625000000159659  0.3605200052333331   F   F   F
  0.9153721094929058  0.6867725952868129  0.4531557442011486   T   T   T
  0.6653995853062888  0.3786230087656706  0.5029794132319750   T   T   T
  0.3343344468261743  0.3785121624729618  0.5030083709218526   T   T   T
  0.3356478467147874  0.6258011232044574  0.5037817014661754   T   T   T
  0.9175961773043816  0.0633750708298453  0.5474467654481074   T   T   T
  0.7494686633134384  0.9384315694050985  0.4553536288655196   T   T   T
  0.5827208828857068  0.4396469538730993  0.4563086741717321   T   T   T
  0.6654165342809198  0.6260643222301412  0.5029723115741827   T   T   T
  0.2500616063659587  0.9360720108654228  0.4540591013620907   T   T   T
  0.7490785087570748  0.6886805113363658  0.4573674865785730   T   T   T
  0.2499999999799343  0.8124999999834799  0.3605200052333331   F   F   F
  0.5827695998702653  0.6861512238841126  0.4546281627396844   T   T   T
  0.5000000000021103  0.4999999999932783  0.4070133268666680   F   F   F
  0.2499999999799343  0.5625000000092442  0.3605200052333331   F   F   F
  0.2499999999799343  0.0625000000159659  0.3605200052333331   F   F   F
  0.7499999404149307  0.5625000000092442  0.3605200052333331   F   F   F
  0.7499999404149307  0.3124999999901945  0.3605200052333331   F   F   F
  0.7499999404149307  0.0625000000159659  0.3605200052333331   F   F   F
  0.4166666269218169  0.8124999999834799  0.3605200052333331   F   F   F
  0.4166666269218169  0.5625000000092442  0.3605200052333331   F   F   F
  0.7499999404149307  0.8124999999834799  0.3605200052333331   F   F   F
  0.0835619943280390  0.3120529934544188  0.4539696955144790   T   T   T
  0.4166666269218169  0.0625000000159659  0.3605200052333331   F   F   F
  0.4168842301728408  0.0615920853438186  0.4553612539863913   T   T   T
  0.0834865551084907  0.8121096045340843  0.4541942063382748   T   T   T
  0.0839508131159747  0.5624940693107801  0.4538722651712016   T   T   T
  0.4166666269218169  0.3124999999901945  0.3605200052333331   F   F   F
  0.5833333134730552  0.3124999999901945  0.3605200052333331   F   F   F
  0.2522582974621281  0.3141392128872554  0.4541575431990594   T   T   T
  0.4160608315231188  0.5595133623527565  0.4578818665249522   T   T   T
  0.4144159233038990  0.8117779953697147  0.5478873986296362   T   T   T
  0.2510804102108772  0.0625205368412576  0.5472712473016285   T   T   T
  0.0833333358191695  0.8124999999834799  0.3605200052333331   F   F   F
  0.4166666269218169  0.1875000000030838  0.3605200052333331   F   F   F
  0.8333332538436267  0.4999999999932783  0.4070133268666680   F   F   F
  0.0833333358191695  0.6874999999963620  0.3605200052333331   F   F   F
  0.0833333358191695  0.4374999701794380  0.3605200052333331   F   F   F
  0.8333332538436267  0.7500000000123208  0.4070133268666680   F   F   F
  0.4154830285381084  0.3113644052969843  0.4573798412858970   T   T   T
  0.0837633095361859  0.0618694291219781  0.4541863872772984   T   T   T
  0.0833333358191695  0.9375000000154046  0.3605200052333331   F   F   F
  0.5833333134730552  0.8124999999834799  0.3605200052333331   F   F   F
  0.2505080890074167  0.8108000686749414  0.4553223180291809   T   T   T
  0.2499999999799343  0.3124999999901945  0.3605200052333331   F   F   F
  0.5833333134730552  0.5625000000092442  0.3605200052333331   F   F   F
  0.1666666716383389  0.0000000000000000  0.4070133268666680   F   F   F
  0.0833333358191695  0.1875000000030838  0.3605200052333331   F   F   F
  0.0000000000000000  0.0000000000000000  0.4070133268666680   F   F   F
  0.0000000000000000  0.2500000000190425  0.4070133268666680   F   F   F
  0.0000000000000000  0.4999999999932783  0.4070133268666680   F   F   F
  0.7482299705517633  0.5642896874286986  0.4538049285106387   T   T   T
  0.3333333432766779  0.0000000000000000  0.4070133268666680   F   F   F
  0.3333333432766779  0.4999999999932783  0.4070133268666680   F   F   F
  0.3333333432766779  0.7500000000123208  0.4070133268666680   F   F   F
  0.6666666865533486  0.0000000000000000  0.4070133268666680   F   F   F
  0.6666666865533486  0.2500000000190425  0.4070133268666680   F   F   F
  0.6666666865533486  0.4999999999932783  0.4070133268666680   F   F   F
  0.6666666865533486  0.7500000000123208  0.4070133268666680   F   F   F
  0.5843543726043443  0.3154549803294541  0.4535768261196700   T   T   T
  0.1666666716383389  0.2500000000190425  0.4070133268666680   F   F   F
  0.7482914715531368  0.8081423600885400  0.5457038682615782   T   T   T
  0.1666666716383389  0.7500000000123208  0.4070133268666680   F   F   F
  0.5000000000021103  0.2500000000190425  0.4070133268666680   F   F   F
  0.5000000000021103  0.7500000000123208  0.4070133268666680   F   F   F
  0.9166666865332829  0.3124999999901945  0.3605200052333331   F   F   F
  0.3333333432766779  0.2500000000190425  0.4070133268666680   F   F   F
  0.7475270187174136  0.3142365746044575  0.4545382611720791   T   T   T
  0.0000000000000000  0.7500000000123208  0.4070133268666680   F   F   F
  0.4168109319285333  0.8100923500855853  0.4550724048077736   T   T   T
  0.7496794384109338  0.0641954958630334  0.4532987406620255   T   T   T
  0.9158052641623584  0.1868248242854418  0.4531684361691307   T   T   T
  0.8333332538436267  0.0000000000000000  0.4070133268666680   F   F   F
  0.5832317782140236  0.0637002739083977  0.4538511322705150   T   T   T
  0.5833333134730552  0.0625000000159659  0.3605200052333331   F   F   F
  0.1666666716383389  0.4999999999932783  0.4070133268666680   F   F   F
  0.8333332538436267  0.2500000000190425  0.4070133268666680   F   F   F
  0.5000000000021103  0.0000000000000000  0.4070133268666680   F   F   F
  0.5845481433487946  0.5628540515508390  0.4548635231743189   T   T   T
  0.9161183778878851  0.0622071453647751  0.4540992803870579   T   T   T
  0.5906357851252994  0.5659050874486857  0.6389244849917401   T   T   T
  0.0826915113623301  0.4385962729771049  0.5451642569769953   T   T   T
  0.0836610445049799  0.1889752125879991  0.5455028049096649   T   T   T
  0.4994690805984784  0.1256495511252942  0.4995706104277334   T   T   T
  0.9997508560625268  0.4997115626713003  0.5941208361342892   T   T   T
  0.5807226287862425  0.1853001298217221  0.5499001475199830   T   T   T
  0.9998391997341345  0.7531499540088344  0.5923706184423767   T   T   T
  0.3340323422901446  0.9998558677071764  0.5919776997923031   T   T   T
  0.9998260300678703  0.9992569644272932  0.5932046060476253   T   T   T
  0.0009317103931333  0.2498233686648942  0.5918968925651896   T   T   T
  0.3332517433439972  0.4963725753918653  0.5909371235138849   T   T   T
  0.3354522056501375  0.7412063504236599  0.5904099457992545   T   T   T
  0.6635458511359380  0.2479233731308046  0.5902144057541111   T   T   T
  0.6659685281097054  0.0004308010266944  0.5919180611218882   T   T   T
  0.6657545880962700  0.7415261367777111  0.5904110995442654   T   T   T
  0.6666689098653638  0.4946692316424288  0.5912270847589295   T   T   T
  0.1684099033505614  0.2486503670573026  0.5931812842364866   T   T   T
  0.1707082956059585  0.7501150135100494  0.5949688600708308   T   T   T
  0.2484174045444421  0.4358765389999531  0.5491131654856384   T   T   T
  0.1655776657867669  0.5027192915695142  0.5874005717429445   T   T   T
  0.3346078118975679  0.2546617302059459  0.5926670065841019   T   T   T
  0.4997429979220805  0.0001075630845736  0.5910790374312825   T   T   T
  0.8327640708463731  0.8743167121797283  0.4986245578873470   T   T   T
  0.7485644850130783  0.9372015096950120  0.6403065630311010   T   T   T
  0.8321781415621422  0.0020771384054712  0.5922788436080196   T   T   T
  0.7485479173856163  0.1835388773379831  0.5507375612761974   T   T   T
  0.4230777587153167  0.6879776998907908  0.5467278487009394   T   T   T
  0.4231460326205846  0.4439140194206926  0.5456182657295473   T   T   T
  0.7520445227625214  0.4351968137878497  0.5488893052012699   T   T   T
  0.2530273688965919  0.8125150249245746  0.5506949252369677   T   T   T
  0.0833333358191695  0.3124999999901945  0.3605200052333331   F   F   F
  0.5826346199866256  0.3112075318219755  0.5449202393277093   T   T   T
  0.5827374874485044  0.9371620119563490  0.4543310053668333   T   T   T
  0.5831028153132194  0.0621295690710569  0.5455300741231381   T   T   T
  0.4159743111081623  0.9371339074407345  0.5460957518630413   T   T   T
  0.4171505841351046  0.9358966505054260  0.4540303612542635   T   T   T
  0.0823264470423463  0.0632525807853974  0.5475934811691379   T   T   T
  0.5008638901662120  0.7563819816948379  0.5927906193905292   T   T   T
  0.2492747595784512  0.3137639580807280  0.5459326991265646   T   T   T
  0.0821203210086030  0.5643578579959641  0.5462131742711877   T   T   T
  0.0849025001835014  0.8129120313893617  0.5473131675531920   T   T   T
  0.4165235646196136  0.0654236521927572  0.5473939931190644   T   T   T
  0.5766874583966438  0.4358683592881870  0.5521160111813118   T   T   T
  0.4159647573657744  0.3197401325189653  0.5525719977917408   T   T   T
  0.2524563265866291  0.5590400970167063  0.5438958834674342   T   T   T
  0.5811513907735485  0.5600994415318620  0.5489342737688867   T   T   T
  0.7479126372627969  0.3114218357863413  0.5475165777235455   T   T   T
  0.5859021594427676  0.8143509938666935  0.5504030117363261   T   T   T
  0.4124625441986713  0.8128393804690704  0.6395380258814446   T   T   T
  0.9140385373721863  0.6891344966358558  0.5453483781667952   T   T   T
  0.9170727136917166  0.1889679905843030  0.5452519122097373   T   T   T
  0.9159326624713198  0.4377041514181772  0.5457715299498209   T   T   T
  0.5795594362831651  0.6861471523041288  0.5474489516290284   T   T   T
  0.2515179826289051  0.9373059043880680  0.5452944231759861   T   T   T
  0.4974178612430954  0.5043708113196878  0.6090032803656696   T   T   T
  0.9174936348099071  0.5638494440720763  0.5468869789992586   T   T   T
  0.4200069929667764  0.5650129061045298  0.5554462191696846   T   T   T
  0.9155922358222968  0.8128762085348282  0.5468405395577244   T   T   T
  0.0836017267297078  0.9389351086340417  0.5457623435194042   T   T   T
  0.2491276320598672  0.6831885659187670  0.5519669554870816   T   T   T
  0.7492917758107938  0.9340191074308829  0.5476488940894690   T   T   T
  0.7518845509650753  0.6805130902419623  0.5531879622336217   T   T   T
  0.9157018659436982  0.9385725699151197  0.5464251023380463   T   T   T
  0.4177948362471068  0.0652086121957285  0.6400877773044503   T   T   T
  0.5838002838424490  0.9376827642537617  0.5462264463457792   T   T   T
  0.9131094020179819  0.5622440311534124  0.6412827441614194   T   T   T
  0.1674720715402871  0.9983514237112595  0.5922988860047468   T   T   T
  0.4174300526561324  0.9349368378127840  0.6398113108918859   T   T   T
  0.9141146003492769  0.8132952311332877  0.6415599234771096   T   T   T
  0.5828149539930170  0.0667561737427654  0.6388624703177380   T   T   T
  0.5836915994619765  0.3208715205857643  0.6333397462260257   T   T   T
  0.7507658155329798  0.1898230227880877  0.4556521126147237   T   T   T
  0.2475199334365634  0.5738529347391076  0.6287366073153410   T   T   T
  0.7537776786829312  0.6921399314045302  0.6570327991275702   T   T   T
  0.2619417888332276  0.7995809545652255  0.6463384458297950   T   T   T
  0.2509623671741154  0.0594407821634090  0.6423058621168704   T   T   T
  0.9166666865332829  0.5625000000092442  0.3605200052333331   F   F   F
  0.4995266433375434  0.3742432255425537  0.4997116178111357   T   T   T
  0.5002947161225861  0.6211091992187697  0.5000793305584345   T   T   T
  0.8324015334931325  0.6230975679580633  0.5000184447132604   T   T   T
  0.2518355097966967  0.1882817517806722  0.5471625124342469   T   T   T
  0.8326532697980314  0.3733661858432907  0.4995757571273259   T   T   T
  0.9150986727651998  0.3118236551821287  0.6396350803070273   T   T   T
  0.0861586738994871  0.6893911737054653  0.5452386879137199   T   T   T
  0.1677444425591140  0.6243173266136595  0.5000111568550540   T   T   T
  0.5813970474517187  0.4390251644432114  0.6461589774854514   T   T   T
  0.5784799689554860  0.6858769132841753  0.6395700018756585   T   T   T
  0.9161036201332147  0.1863595468297726  0.6398777432003340   T   T   T
  0.2491287879586468  0.3164663533536257  0.6412730984535551   T   T   T
  0.1676855013926608  0.8733227335376240  0.4998591218063573   T   T   T
  0.9159497031757888  0.4370540437594422  0.4535887541443618   T   T   T
  0.1670734521312122  0.1243127652685487  0.4993146763354901   T   T   T
  0.7482045648712478  0.0599154074819781  0.5444197586958480   T   T   T
  0.4270865072772252  0.3044874021204285  0.6554515982558883   T   T   T
  0.5910849174482014  0.8102137002797232  0.6460724783041031   T   T   T
  0.4204452163664463  0.6761049411697874  0.6336338886564976   T   T   T
  0.7551449467968733  0.4341565686599409  0.6378955111841769   T   T   T
  0.4156979383516055  0.1914894599238405  0.5465174773782603   T   T   T
  0.1667520284718203  0.3762714107071056  0.4977642145456644   T   T   T
  0.5000006411109760  0.8734282379911815  0.5009079720769661   T   T   T
  0.8329163494461662  0.1245444256743343  0.5001262917729745   T   T   T
  0.9157868964770265  0.0627465756842487  0.6414100024704317   T   T   T
  0.7411133264487800  0.8098891686053046  0.6400113912763057   T   T   T
  0.7533155931586705  0.5685093038554278  0.6356296037209846   T   T   T
  0.7472436019241037  0.3125466295510441  0.6400400822230743   T   T   T
  0.7476920006842733  0.0679967178449032  0.6388496507900163   T   T   T
  0.0839181235718000  0.3117354376334271  0.6403919153096275   T   T   T
  0.6665353332358868  0.8743770524924502  0.4989249943491055   T   T   T
  0.0870001853448782  0.5627461185134295  0.6403555976408822   T   T   T
  0.0871309141195456  0.4365880152173272  0.6397176624321896   T   T   T
  0.0834923811564075  0.1856776252681628  0.6410346418861984   T   T   T
  0.4150741389389035  0.4187424315967312  0.6300611162568466   T   T   T
  0.0843312195166768  0.9356389195198025  0.6406804643945447   T   T   T
  0.0832520621478899  0.6871150625342415  0.6390755706641502   T   T   T
  0.0842675219964147  0.0606566577548193  0.6421282398790482   T   T   T
  0.8333206095967929  0.5030257148702331  0.5887294943452995   T   T   T
  0.9125039139391981  0.4361231201663752  0.6397707363227468   T   T   T
  0.4177306520676582  0.1873197431370244  0.6395838507413288   T   T   T
  0.8305603408343825  0.7508821052196359  0.5928670338769678   T   T   T
  0.2535751934935409  0.1865348428063227  0.6411835634873084   T   T   T
  0.2520037435580507  0.9302050148095221  0.6373969432917934   T   T   T
  0.9163274243036574  0.6876078421639963  0.6392018071939485   T   T   T
  0.9144323846808310  0.9371019154952861  0.6411321276964640   T   T   T
  0.3972076168357215  0.5506195493767624  0.6520141177971406   T   T   T
  0.2549034834386992  0.6775665121435120  0.6628412321699100   T   T   T
  0.5798139878988090  0.1922181019913275  0.6450076291173493   T   T   T
  0.2406512086234321  0.4421309672670960  0.6415857517469477   T   T   T
  0.0843245453607408  0.8125285624077214  0.6422149776010533   T   T   T
  0.5820853419765690  0.9360837708500857  0.6395607704571844   T   T   T
  0.9166666865332829  0.8124999999834799  0.3605200052333331   F   F   F
  0.7466491540936462  0.1950370652949030  0.6459301298286425   T   T   T
  0.8320046440803837  0.2491534926065102  0.5903318916624762   T   T   T
  0.1660060326166201  0.0011394259728262  0.5065690321417314   T   T   T
  0.0005908325581347  0.1227775822818392  0.6198408047701549   T   T   T
  0.1666666716383389  0.3750000000061604  0.4070133268666680   F   F   F
  0.0000000000000000  0.3750000000061604  0.4070133268666680   F   F   F
  0.6654569482975324  0.7519279919298175  0.5022763182567361   T   T   T
  0.8333332538436267  0.6249999999803961  0.4070133268666680   F   F   F
  0.5011394619205772  0.7528639272914217  0.5039349031380453   T   T   T
  0.3311849512262516  0.4992533960412152  0.5009506534497505   T   T   T
  0.1644353812316577  0.7515351567650749  0.5033632325998951   T   T   T
  0.6686323399036989  0.4999593462905625  0.5006455395700019   T   T   T
  0.6666666865533486  0.3750000000061604  0.4070133268666680   F   F   F
  0.6669599516236459  0.2480917504308949  0.5024538989825049   T   T   T
  0.3330998793477460  0.0010602325650974  0.5057945315767346   T   T   T
  0.5012725789460685  0.4998956016063706  0.5002412785563942   T   T   T
  0.3300661624385388  0.2480996338815994  0.5028494981243149   T   T   T
  0.6659072689841388  0.9998875767268920  0.5055593265591382   T   T   T
  0.5010359448650454  0.2479743269316671  0.5020745845289943   T   T   T
  0.0000562852882378 -0.0000012173373527  0.5066850948647990   T   T   T
  0.3338829745351238  0.7511666587475895  0.5015386977173218   T   T   T
  0.3333333432766779  0.3750000000061604  0.4070133268666680   F   F   F
  0.9997975216065244  0.5004609174492753  0.5068600479974631   T   T   T
  0.9999612771645221  0.7509671536264099  0.5066095685147310   T   T   T
  0.0009513619751770  0.2498903094208422  0.5058812119808931   T   T   T
  0.6666666865533486  0.6249999999803961  0.4070133268666680   F   F   F
  0.8333332538436267  0.8749999404036828  0.4070133268666680   F   F   F
  0.3333333432766779  0.6249999999803961  0.4070133268666680   F   F   F
  0.3333333432766779  0.1249999999871179  0.4070133268666680   F   F   F
  0.6666666865533486  0.1249999999871179  0.4070133268666680   F   F   F
  0.8342692199488830  0.0001498292637269  0.5064743008763654   T   T   T
  0.3333333432766779  0.8749999404036828  0.4070133268666680   F   F   F
  0.0000000000000000  0.6249999999803961  0.4070133268666680   F   F   F
  0.1663753890803388  0.2482359676040533  0.5061990643033498   T   T   T
  0.5008571141914594  0.8769001980048945  0.6097037339469398   T   T   T
  0.5002434630285415  0.9993483247996803  0.5055766754130323   T   T   T
  0.0000000000000000  0.8749999404036828  0.4070133268666680   F   F   F
  0.8361942231399382  0.5001367291540476  0.5027436754359066   T   T   T
  0.8320265342656598  0.8764131263530167  0.6181407674186300   T   T   T
  0.3259957077380028  0.3735881710408703  0.5927538714125474   T   T   T
  0.5037394761983115  0.6251231279779785  0.5940897749733337   T   T   T
  0.5000000000021103  0.1249999999871179  0.4070133268666680   F   F   F
  0.0000000000000000  0.1249999999871179  0.4070133268666680   F   F   F
  0.1666666716383389  0.1249999999871179  0.4070133268666680   F   F   F
  0.5000000000021103  0.6249999999803961  0.4070133268666680   F   F   F
  0.3315660322969327  0.1197816043854448  0.6130303110064000   T   T   T
  0.9997015082143355  0.6228122846760250  0.6283424533271489   T   T   T
  0.9991932889589173  0.8750494681317850  0.6223306112478439   T   T   T
  0.8376961604573749  0.3727497993138498  0.6033983865444621   T   T   T
  0.8360697559614647  0.7517720294183842  0.5026116264987518   T   T   T
  0.1666666716383389  0.8749999404036828  0.4070133268666680   F   F   F
  0.1635885730803756  0.4998961890242208  0.5020540132054594   T   T   T
  0.8333332538436267  0.3750000000061604  0.4070133268666680   F   F   F
  0.8360575283708519  0.2486775633164821  0.5023922367512353   T   T   T
  0.8333332538436267  0.1249999999871179  0.4070133268666680   F   F   F
  0.5000000000021103  0.3750000000061604  0.4070133268666680   F   F   F
  0.8396155426486350  0.6269970028289906  0.6037455819848512   T   T   T
  0.5004016437195891  0.1225897143633640  0.6065175414810156   T   T   T
  0.5000000000021103  0.8749999404036828  0.4070133268666680   F   F   F
  0.3341160679481755  0.6245196499005161  0.5951344889108310   T   T   T
  0.1677498682429275  0.1229528209538137  0.6218890916908538   T   T   T
  0.6666666865533486  0.8749999404036828  0.4070133268666680   F   F   F
  0.6710173544945173  0.3725666436648037  0.5930747764676437   T   T   T
  0.1662499375912512  0.8735655026809211  0.6179150832547079   T   T   T
  0.5016684946801847  0.3713701706785199  0.5948030857194221   T   T   T
  0.3345367993215427  0.8787048353541317  0.6028853489643007   T   T   T
  0.6654538320206151  0.1249943389395928  0.6094798494010646   T   T   T
  0.1632786858919774  0.3714407555025632  0.6075508041425990   T   T   T
  0.1666666716383389  0.6249999999803961  0.4070133268666680   F   F   F
  0.6653575782286505  0.8812734370809742  0.6073806876746707   T   T   T
  0.6665673458771540  0.6262210021984067  0.5934461893423565   T   T   T
  0.0001323151036965  0.3750160554790921  0.6235461761106567   T   T   T
  0.8341637046323094  0.1241076041642008  0.6152201746441446   T   T   T
  0.1595212869104875  0.6273991010744566  0.6013556659160482   T   T   T
  0.9164567238458516  0.0000582197026047  0.6038712856841757   T   T   T
  0.5848298531554296  0.7499043803639400  0.5997845856628580   T   T   T
  0.0835235319960051  0.2480063138890600  0.6035669517866501   T   T   T
  0.7495465057601896  0.0018901560963221  0.6044188850932162   T   T   T
  0.5825577432222621  0.0011604807756226  0.6043272917739783   T   T   T
  0.5903211195427507  0.5014579591958049  0.5935191114628571   T   T   T
  0.2424420386851354  0.4978940885629993  0.5940214486127319   T   T   T
  0.2495801435785576  0.7527423445650864  0.5919981230547501   T   T   T
  0.5847197297882779  0.2476929160199845  0.5967273940570840   T   T   T
  0.2496927506074451  0.9977111483016364  0.6042435363926930   T   T   T
  0.7544690549196805  0.2483402487824277  0.5923958204037900   T   T   T
  0.2492578987625283  0.2459565038065242  0.6037319817669189   T   T   T