Au  C  H  O Sr Ti 
 1.0000000000000000
    23.6707801818999997    0.0000000000000000    0.0000000000000000
     0.0000000000000000   22.3170261383000010    0.0000000000000000
     0.0000000000000000    0.0000000000000000   30.0000000000000000
 Au  C   H   O   Sr  Ti 
  50   2   5 264  72  72
Selective dynamics
Cartesian
 16.9491777409520203 11.7207637677669432 22.5984680943552476   T   T   T
  6.9543715225664613 16.6600240045072887 20.9144843951302875   T   T   T
 12.1120014050100817 13.4675683108440936 23.3081966333265242   T   T   T
 13.6866013580556860 16.1865627887406589 23.8105312532469853   T   T   T
  5.6929074632586625 10.4782520244643145 21.2746474564371120   T   T   T
  6.7521692692599755 14.7817613652387401 22.9383382461485716   T   T   T
 14.1969857799600518  6.4273270679685117 23.5242664998372213   T   T   T
 12.1752009282259142 10.8096420264452870 20.3430263895305821   T   T   T
 13.3274411758500744 10.8433890115774840 22.8695379459337857   T   T   T
 11.4610866968273779  6.0243202882593270 23.2480766017624987   T   T   T
 12.9841488267848693  8.5714722997762927 24.8514245260072286   T   T   T
 13.0821163114187176  4.7711187745265198 21.2945470563708348   T   T   T
  9.2672441336866456 18.2434633618257003 21.1973068267096103   T   T   T
 10.3113198351103730  5.0749533860813969 20.9382744108306724   T   T   T
  8.7388345180870992  6.6738594151965778 22.6729730644188834   T   T   T
  8.2706877200845614 11.1577900560427832 20.9365290105666659   T   T   T
 10.1411986791554760  8.2919827665431018 24.4667318642611313   T   T   T
 15.0258789503886536 13.0335927693934170 24.0034053449618980   T   T   T
 17.3564407263709022 13.7236174330758836 20.8194626168103092   T   T   T
 11.4960339961920148 17.3427995486687934 22.6668144116850527   T   T   T
 18.0813990122298023  9.6306031454417180 21.1337774474020570   T   T   T
 17.0347001524845716  5.7542797347880210 20.7225275365622323   T   T   T
 14.7223661637903014 12.7356959400171696 21.1236431433017593   T   T   T
 10.9763629206226110 15.5176628938793133 24.9129796198246183   T   T   T
 14.5761475374055500  7.1636688617647257 20.8746892106689685   T   T   T
 14.1118137712968554 17.5079236217223873 21.3895203134345735   T   T   T
 16.5445617803746607  7.7088861777992799 22.6983011713241147   T   T   T
 13.4847233765996570 11.3792532378314473 25.6998728254508038   T   T   T
 15.7366194442123142  4.2450165144649681 22.4626777247435996   T   T   T
 11.1447122818574123 10.0495122874952152 26.3561749664998644   T   T   T
 12.2415290377916595  8.4170755870310323 21.9790854014785069   T   T   T
  6.6665196757724470  7.5984615856281739 21.0738172356904201   T   T   T
 15.8472028598876165 15.2014161725703083 22.4621973418330008   T   T   T
  6.8516139374928695 12.0123159060367257 23.3263476115743735   T   T   T
  9.4094959634856981  8.5192338076173915 20.7126397488796670   T   T   T
 10.7055517141550371 12.9405484211784696 21.0833175608448471   T   T   T
  8.8868361423744151 11.0089996155252052 24.9869767477337739   T   T   T
  8.7232587433482678 13.8181130303602355 24.6103901307262447   T   T   T
  7.6968939574504187  9.2665166039511053 23.0859322886054414   T   T   T
 18.3110260951771338  9.5638303300733494 23.8362811023490160   T   T   T
  6.0784475556009410 13.2339056088170270 20.8366922429541646   T   T   T
 15.3512137389706336  9.9378597720708406 20.8369458604882034   T   T   T
 13.3600727205724183 14.2701837051706271 25.8337940268807209   T   T   T
 12.8010891773954185 14.8921338323462038 21.0521256988899950   T   T   T
 10.5061672162236395 10.5773909589221944 22.6890292519510268   T   T   T
  8.8571900479456716 16.5104629190790924 23.3665030788404806   T   T   T
 10.9504015556445768 12.7896881716685265 25.9340532462102331   T   T   T
 15.5163694540173154  9.8430671629621838 24.3857549064884509   T   T   T
 16.7207772907018395 16.8931586584904423 20.6494941184888638   T   T   T
  9.8877483748322827 15.5448314120035036 20.9889339974602471   T   T   T
 16.3760484130126649  1.9695197768539390 23.5114058558657000   T   T   T
 17.2067833183785872  2.7405531255075308 22.5122059354631432   T   T   T
 18.2382144819442651  2.9023004052735732 22.8221067011000009   T   T   T
 16.8646321375023511  0.9972478252244427 23.6682505777881573   T   T   T
 17.1771396531812002  2.3205838194010204 21.5027079953385503   T   T   T
 15.3610492950692628  1.7731413027112559 23.1589377016248115   T   T   T
 16.3197714115082917  2.4598155810378781 24.4856872394765155   T   T   T
 11.7994720115921616  5.6434849177249866 17.7178256547613273   T   T   T
  2.0017664013993990 15.3301715789888569 13.5913912620452031   T   T   T
  1.9868173911028739 20.9040127920025895 13.6045680355372589   T   T   T
  1.9619481690266010  9.7491897781141574 13.5871377515087897   T   T   T
  1.9848837353684219  4.1631898972067853 13.5899729938173444   T   T   T
 21.6963336637669215 18.1246650095094211 13.6223067651692258   T   T   T
 17.6703383643163399 12.4534276002142814 16.3392879444879888   T   T   T
 21.6865745051527199 12.5500930616389894 13.6180341956464801   T   T   T
 21.6878955630694783  6.9666751555413837 13.6162981393429519   T   T   T
  9.8741582395497609  4.1766393971679356 13.6066612103813540   T   T   T
  5.9672685610956586 15.3453776382741882 13.6843108467215906   T   T   T
 21.6751191513346413  6.9830721186783604 16.4026622929664327   T   T   T
 21.6923962846429710 20.9142757126541312 13.6089872354120107   T   T   T
  0.0024888945767054  2.7919652383095075 14.9523390068240243   T   T   T
 13.8063456258534476 18.0877017254414021 13.6605841119554619   T   T   T
 23.6694116273247168 13.9956439740001013 14.9311982882044649   T   T   T
  7.8966913710732234  2.8045585623838338 14.9567131951761727   T   T   T
  0.0015475757513154 19.5312294517251992 14.9860286233269377   T   T   T
  7.8931120474557428 19.5036759162870439 14.9805313402457827   T   T   T
 15.7667388609361243  2.8262297357103026 14.9710013414441256   T   T   T
  5.9444486891483992  9.8033510757558364 13.6466464511058518   T   T   T
  1.9725650740000149 12.5533272030000536 10.8156001569999933   F   F   F
 21.6982156369999721  1.3948141340000613 10.8156001569999933   F   F   F
 17.7400400149973585 18.1477059090568744 13.5915183389855905   T   T   T
 17.7444465353463343  9.7831120219227472 13.6710433293912512   T   T   T
  5.9300103705197840  1.3844742791122078 13.6278477423077149   T   T   T
 13.7904125407315306  4.2462168462249288 13.6643701329125431   T   T   T
  5.9625191451657074 12.5998039119364336 13.6146211947288336   T   T   T
  9.8578597463582973  9.7183398686768498 13.6152635856189175   T   T   T
  0.0013311499255978  8.3399302033383957 14.9453436085523066   T   T   T
  9.8742895850392536 15.2820200286087449 13.6417457727086671   T   T   T
 13.8079546360000549 20.9222120050000342 10.8156001569999933   F   F   F
  5.9143548236752412  4.2068628527644574 13.6228042586055658   T   T   T
 21.6982156369999721 15.3429554700000619 10.8156001569999933   F   F   F
 21.6982156369999721  9.7636982699999884 10.8156001569999933   F   F   F
 21.6982156369999721  4.1844424010000720 10.8156001569999933   F   F   F
  2.0441462074785504  6.9956933065516305 16.4063158721361404   T   T   T
 13.8079546360000549 15.3429554700000619 10.8156001569999933   F   F   F
 13.8079546360000549  9.7636982699999884 10.8156001569999933   F   F   F
 13.8079546360000549  4.1844424010000720 10.8156001569999933   F   F   F
  5.9176950450000287 20.9222120050000342 10.8156001569999933   F   F   F
 21.6982156369999721 20.9222120050000342 10.8156001569999933   F   F   F
  5.9176950450000287 15.3429554700000619 10.8156001569999933   F   F   F
  5.9176950450000287  4.1844424010000720 10.8156001569999933   F   F   F
 17.7530837259999217 20.9222120050000342 10.8156001569999933   F   F   F
 17.7530837259999217 15.3429554700000619 10.8156001569999933   F   F   F
 17.7530837259999217  9.7636982699999884 10.8156001569999933   F   F   F
 17.7530837259999217  4.1844424010000720 10.8156001569999933   F   F   F
  9.8628241350000643 20.9222120050000342 10.8156001569999933   F   F   F
  9.8628241350000643 15.3429554700000619 10.8156001569999933   F   F   F
  9.8628241350000643  9.7636982699999884 10.8156001569999933   F   F   F
  5.9176950450000287  9.7636982699999884 10.8156001569999933   F   F   F
  1.9725650740000149  1.3948141340000613 10.8156001569999933   F   F   F
 21.6679801221593955 15.3263171446420969 13.5946267941155181   T   T   T
 15.7529219664744833  8.4483970315766985 15.0897364075812579   T   T   T
  7.9133928700446843  8.4450132141872274 15.0901702167839513   T   T   T
  7.9451119675799573 13.9662885639988570 15.1137325435128904   T   T   T
 21.7196516957614811  1.4153587386699877 16.4243747062963621   T   T   T
 17.7413711193528414 20.9427652873286654 13.6606062923638945   T   T   T
 13.7946007480005086  9.8109544336741283 13.6908142874234748   T   T   T
 15.7508775382421007 13.9716269154071000 15.0900489020104516   T   T   T
  5.9190114920675851 20.8901327086576991 13.6228955285431770   T   T   T
 17.7316393440463891 15.3698543022721541 13.7223786729923134   T   T   T
  5.9176950450000287 18.1325837370000720 10.8156001569999933   F   F   F
 13.7948627923686455 15.3127919954401079 13.6378442953725507   T   T   T
 11.8353900909999528 11.1585130689999925 12.2103998060000407   F   F   F
  5.9176950450000287 12.5533272030000536 10.8156001569999933   F   F   F
  5.9176950450000287  1.3948141340000613 10.8156001569999933   F   F   F
 17.7530837259999217 12.5533272030000536 10.8156001569999933   F   F   F
 17.7530837259999217  6.9740706679999214 10.8156001569999933   F   F   F
 17.7530837259999217  1.3948141340000613 10.8156001569999933   F   F   F
  9.8628241350000643 18.1325837370000720 10.8156001569999933   F   F   F
  9.8628241350000643 12.5533272030000536 10.8156001569999933   F   F   F
 17.7530837259999217 18.1325837370000720 10.8156001569999933   F   F   F
  1.9772141021956895  6.9638223227089986 13.6193115339808202   T   T   T
  9.8628241350000643  1.3948141340000613 10.8156001569999933   F   F   F
  9.8682973835383425  1.3742602115915208 13.6611007670810967   T   T   T
  1.9751040282339349 18.1246783374216065 13.6254281177122945   T   T   T
  1.9872333490738519 12.5524594089492396 13.6167607307348959   T   T   T
  9.8628241350000643  6.9740706679999214 10.8156001569999933   F   F   F
 13.8079546360000549  6.9740706679999214 10.8156001569999933   F   F   F
  5.9708543785692534  7.0110324044160031 13.6238297199899154   T   T   T
  9.8487666276001509 12.4868539985115614 13.7363663871949626   T   T   T
  9.8142812694378385 18.1188025263771166 16.4393614021550256   T   T   T
  5.9433407636910109  1.3966741474842632 16.4179467879228156   T   T   T
  1.9725650740000149 18.1325837370000720 10.8156001569999933   F   F   F
  9.8628241350000643  4.1844424010000720 10.8156001569999933   F   F   F
 19.7256482699999580 11.1585130689999925 12.2103998060000407   F   F   F
  1.9725650740000149 15.3429554700000619 10.8156001569999933   F   F   F
  1.9725650740000149  9.7636982699999884 10.8156001569999933   F   F   F
 19.7256482699999580 16.7377696039999648 12.2103998060000407   F   F   F
  9.8358738368311478  6.9484667064823427 13.7215111085987580   T   T   T
  1.9817288665806594  1.3807649925466368 13.6263263907328511   T   T   T
  1.9725650740000149 20.9222120050000342 10.8156001569999933   F   F   F
 13.8079546360000549 18.1325837370000720 10.8156001569999933   F   F   F
  5.9296650907163091 18.0949336478144929 13.6606825573587773   T   T   T
  5.9176950450000287  6.9740706679999214 10.8156001569999933   F   F   F
 13.8079546360000549 12.5533272030000536 10.8156001569999933   F   F   F
  3.9451301480000271  0.0000000000000000 12.2103998060000407   F   F   F
  1.9725650740000149  4.1844424010000720 10.8156001569999933   F   F   F
  0.0000000000000000  0.0000000000000000 12.2103998060000407   F   F   F
  0.0000000000000000  5.5792565349999723 12.2103998060000407   F   F   F
  0.0000000000000000 11.1585130689999925 12.2103998060000407   F   F   F
 17.7111547767262785 12.5936246013246933 13.6134767267954722   T   T   T
  7.8902602960000570  0.0000000000000000 12.2103998060000407   F   F   F
  7.8902602960000570 11.1585130689999925 12.2103998060000407   F   F   F
  7.8902602960000570 16.7377696039999648 12.2103998060000407   F   F   F
 15.7805205919999434  0.0000000000000000 12.2103998060000407   F   F   F
 15.7805205919999434  5.5792565349999723 12.2103998060000407   F   F   F
 15.7805205919999434 11.1585130689999925 12.2103998060000407   F   F   F
 15.7805205919999434 16.7377696039999648 12.2103998060000407   F   F   F
 13.8320189327486212  7.0393921000361859 13.6068334993433488   T   T   T
  3.9451301480000271  5.5792565349999723 12.2103998060000407   F   F   F
 17.7092678020689505 18.0340702312472949 16.3683727323345067   T   T   T
  3.9451301480000271 16.7377696039999648 12.2103998060000407   F   F   F
 11.8353900909999528  5.5792565349999723 12.2103998060000407   F   F   F
 11.8353900909999528 16.7377696039999648 12.2103998060000407   F   F   F
 21.6982156369999721  6.9740706679999214 10.8156001569999933   F   F   F
  7.8902602960000570  5.5792565349999723 12.2103998060000407   F   F   F
 17.6914101934731285  7.0112400597073217 13.6403316745249192   T   T   T
  0.0000000000000000 16.7377696039999648 12.2103998060000407   F   F   F
  9.8626664777137201 18.0765242932152610 13.6550661478357203   T   T   T
 17.7459203792347360  1.4319266586728745 13.6011368529135659   T   T   T
 21.6776201488222995  4.1699868380746619 13.5965310763801259   T   T   T
 19.7256482699999580  0.0000000000000000 12.2103998060000407   F   F   F
 13.8055238308789860  1.4215669588644362 13.6157308235621581   T   T   T
 13.8079546360000549  1.3948141340000613 10.8156001569999933   F   F   F
  3.9451301480000271 11.1585130689999925 12.2103998060000407   F   F   F
 19.7256482699999580  5.5792565349999723 12.2103998060000407   F   F   F
 11.8353900909999528  0.0000000000000000 12.2103998060000407   F   F   F
 13.8358531256581916 12.5609834067578277 13.6464452749517537   T   T   T
 21.6851638445149639  1.3901747561605349 13.6242246547531138   T   T   T
 13.9956825622088079 12.6125703009815453 19.1763913826625974   T   T   T
  1.9553934496715393  9.7878907494186631 16.3535791968204229   T   T   T
  1.9786452293136636  4.2165355325208616 16.3659698835383516   T   T   T
 11.8231845631753671  2.8033167684798208 14.9873789075452351   T   T   T
 23.6639417464099608 11.1676458356952963 17.8286517236515714   T   T   T
 13.7454132324397360  4.1353307935499162 16.4931050477228744   T   T   T
 23.6636342156265194 16.8099433722515634 17.7706375865835540   T   T   T
  7.9064179513441761 22.3141474367522079 17.7600535641884676   T   T   T
 23.6676001125235800 22.2998725921658298 17.7969582318195485   T   T   T
  0.0199478121984536  5.5757261280760027 17.7581642161166116   T   T   T
  7.8893787212187378 11.0779727203877361 17.7269412291238133   T   T   T
  7.9478047138701360 16.5408395348511306 17.7131615956496340   T   T   T
 15.7042360908781156  5.5332763198448749 17.7057781711639066   T   T   T
 15.7665130800360718  0.0126953564587737 17.7589860089990026   T   T   T
 15.7611194355585891 16.5498249824124422 17.7082378895118850   T   T   T
 15.7832794818273747 11.0318705340227705 17.7380991326180677   T   T   T
  3.9858510474951920  5.5504714801671842 17.7941024562857706   T   T   T
  4.0420561774093917 16.7413404536042023 17.8516866617412120   T   T   T
  5.8811342284522601  9.7299479726222007 16.4702777187374281   T   T   T
  3.9188471121255066 11.2183950241362798 17.6227917721293288   T   T   T
  7.9198365463709370  5.6831106109755360 17.7790311401934709   T   T   T
 11.8283808032858477  0.0021256242030983 17.7312987589034989   T   T   T
 19.7116029818661929 19.5123939759037448 14.9590517836595573   T   T   T
 17.7195206806441732 20.9154907390336966 19.2079029459597734   T   T   T
 19.7028430068403395  0.0374762755338868 17.7612644420601100   T   T   T
 17.7168069516616633  4.0970605385361205 16.5276048181505217   T   T   T
 10.0162412024614049 15.3551529842390391 16.4010277644319800   T   T   T
 10.0165338042933314  9.9075350042877073 16.3680769455990642   T   T   T
 17.7999231256918158  9.7142395926835192 16.4658675077841501   T   T   T
  5.9932062975689062 18.1349858239845965 16.5261967749693746   T   T   T
  1.9725650740000149  6.9740706679999214 10.8156001569999933   F   F   F
 13.7922469936701955  6.9430965941002238 16.3439798300627430   T   T   T
 13.7924324291153404 20.9154760147213423 13.6295778923497757   T   T   T
 13.8022790556078387  1.3865419653395805 16.3646881439032406   T   T   T
  9.8451970604818921 20.9162890630281595 16.3811445048932711   T   T   T
  9.8748850138726194 20.8856561403879333 13.6204639425438145   T   T   T
  1.9482438377964590  1.4118829537917543 16.4274457568882895   T   T   T
 11.8622523195324430 16.8784850596947571 17.7908812326200128   T   T   T
  5.8997586335008005  7.0032485379042502 16.3784097346947703   T   T   T
  1.9474900308466159 12.5948550763333831 16.3892468059312719   T   T   T
  2.0097219966940139 18.1422482680581112 16.4200777540466838   T   T   T
  9.8593462524110596  1.4609255607390126 16.4211863568676542   T   T   T
 13.6519376908613950  9.7267522494217253 16.5627187472989625   T   T   T
  9.8460528178610272  7.1352188080169645 16.5769860040243557   T   T   T
  5.9758559111126770 12.4775181398732098 16.3181153769140188   T   T   T
 13.7571265389871300 12.4993712609526657 16.4708124963697138   T   T   T
 17.7052992125474304  6.9551949161627915 16.4422841404221245   T   T   T
 13.8707386728569677 18.1755815332807558 16.5127361997524602   T   T   T
  9.7681548413579389 18.1404359035965932 19.1884896312101034   T   T   T
 21.6331771232874317 15.3794532348415061 16.3579748121983641   T   T   T
 21.7000447143223738  4.2147454891769502 16.3636524563884045   T   T   T
 21.6814756538192768  9.7675159655505883 16.3734897753585678   T   T   T
 13.7192461037331608 15.3129189598016744 16.4226290998926174   T   T   T
  5.9533336698132313 20.9179082745461606 16.3584888708343392   T   T   T
 11.7766471532707175 11.2574315373100440 18.2701023130679694   T   T   T
 21.7155935170022474 12.5818706279217984 16.4079600938668122   T   T   T
  9.9437573925886173 12.6106437846781336 16.6640103392671790   T   T   T
 21.6721421923834932 18.1411489366152381 16.4057455195202806   T   T   T
  1.9800807521201047 20.9528907113608298 16.3751599777754997   T   T   T
  5.9007547963074494 15.2479827327179063 16.5621902087944193   T   T   T
 17.7356906127982441 20.8442746739105935 16.4289977554136151   T   T   T
 17.7989055079271452 15.1827724683870802 16.5981990082629949   T   T   T
 21.6780040201667070 20.9462174337000704 16.3919115346430928   T   T   T
  9.8875194390840520  1.4548679507650761 19.2014939827736981   T   T   T
 13.8197901644331385 20.9287720573058920 16.3840653224223622   T   T   T
 21.6085453157001517 12.5396990589645814 19.2537154096968877   T   T   T
  3.9630516663164745 22.2809036626773462 17.7697362218391390   T   T   T
  9.8801404590237922 20.8663095025297025 19.1939993471314736   T   T   T
 21.6373865035456134 18.1493803493506967 19.2463250767655616   T   T   T
 13.7927163146468619  1.4875519271345896 19.1618763541821906   T   T   T
 13.8083133826428881  7.1616896145222526 18.9918836076834943   T   T   T
 17.7721034394893245  4.2371398180442776 13.6719627745495593   T   T   T
  5.8604978706772517 12.8081797889164548 18.8621562606343716   T   T   T
 17.8468544622824723 15.4509440780605125 19.7119159204707834   T   T   T
  6.2043131008170871 17.8352554233511178 19.3944198808145494   T   T   T
  5.9404878761497839  1.3270266825590182 19.2694366894103837   T   T   T
 21.6982156369999721 12.5533272030000536 10.8156001569999933   F   F   F
 11.8251002000204934  8.3522789464863081 14.9917066280661473   T   T   T
 11.8430593036490226 13.8614104169300578 15.0026427325192344   T   T   T
 19.7036289350442750 13.9046600960090458 15.0002693294456222   T   T   T
  5.9611506654323794  4.2029448219581163 16.4132944760663229   T   T   T
 19.7061968434885486  8.3272068969229451 14.9924201358220870   T   T   T
 21.6605915223229886  6.9603403352689304 19.1894410176790871   T   T   T
  2.0435011114517518 15.3880138776608479 16.3576645168550066   T   T   T
  3.9711562883849596 13.9331304276491768 15.0001599835802395   T   T   T
 13.7568582786732652  9.7899594468693021 19.3864111133512687   T   T   T
 13.7086790896455604 15.2978378935908523 19.1870210643154095   T   T   T
 21.6848952604207099  4.1565265719787003 19.1958285851342971   T   T   T
  5.8963794266612615  7.0615854126622706 19.2383895991330860   T   T   T
  3.9704696128362773 19.4897021001846795 14.9971201129978571   T   T   T
 21.6772180937505325  9.7529583147765724 13.6096445950077509   T   T   T
  3.9544325307601573  2.7741833410543801 14.9797386553315626   T   T   T
 17.7105586552848244  1.3367566212746984 16.3327468349094680   T   T   T
 10.1045721060371871  6.7944183352254655 19.6624374234946870   T   T   T
 13.9928474454921918 18.0802770095181771 19.3825036057853488   T   T   T
  9.9567005121901850 15.0863763604233885 19.0112899683578718   T   T   T
 17.8754979212278506  9.6823090274040595 19.1346616098365523   T   T   T
  9.8395816157734846  4.2736944553820067 16.3950159975461958   T   T   T
  3.9463973303542415  8.3975617817482195 14.9334842969160384   T   T   T
 11.8357390679464771 19.4924906786941534 15.0268825155995049   T   T   T
 19.7148858890205503  2.7800976608780301 15.0102326800438384   T   T   T
 21.6767039281603218  1.4012406767430752 19.2385640230769717   T   T   T
 17.5431857627854910 18.0739547931126303 19.1998240817771091   T   T   T
 17.8275018641923104 12.6888503155650891 19.0654588053425087   T   T   T
 17.6590624242781367  6.9635131370161849 19.2351780966931507   T   T   T
 17.7253709478758310  1.5222509315926971 19.1541407737792042   T   T   T
  1.9827961107182106  6.9585204347712200 19.2121723452095878   T   T   T
 15.7774669783179426 19.5149003208036369 14.9652060486265714   T   T   T
  2.0635388436289563 12.5492896897312161 19.2261229680118859   T   T   T
  2.0582016013633080  9.7415017689661898 19.1876281979413328   T   T   T
  1.9762547719327854  4.1454530954588664 19.2314596202439247   T   T   T
  9.8254957470686453  9.3446404341007874 18.9011027050601115   T   T   T
  1.9959691669795596 20.8800629404378491 19.2219971198791519   T   T   T
  1.9669924425651633 15.3330294959842846 19.1758252852415225   T   T   T
  1.9943843710543685  1.3539653488153811 19.2635775852055424   T   T   T
 19.7245196637207947 11.2263899998422225 17.6636328400746976   T   T   T
 21.5992393570852173  9.7322564312171185 19.1923718455719623   T   T   T
  9.8880289979225537  4.1797467252217411 19.1871721940752913   T   T   T
 19.6585893076352285 16.7582984128864005 17.7837938510855835   T   T   T
  6.0029936374786219  4.1627655300609137 19.2355851146148105   T   T   T
  5.9640503920410701 20.7589276155803724 19.1213408346861016   T   T   T
 21.6884733830996730 15.3422412326092346 19.1765096832320872   T   T   T
 21.6471890937708729 20.9120119861813514 19.2372439697247763   T   T   T
  9.4022118074881220 12.2870589993843939 19.5594696010966445   T   T   T
  6.0254647378079937 15.1217856585774566 19.8991391006687905   T   T   T
 13.7237307635567714  4.2839889983383053 19.3432176500688691   T   T   T
  5.6977684548749483  9.8687397110541966 19.2470453764846425   T   T   T
  1.9936018055612210 18.1301686058442435 19.2642378376413994   T   T   T
 13.7791445769095731 20.8892248971654304 19.1839791727906004   T   T   T
 21.6982156369999721 18.1325837370000720 10.8156001569999933   F   F   F
 17.6569783721196565  4.3411358385665784 19.3833754857041427   T   T   T
 19.6842975944095961  5.5601078385544369 17.7258978324152778   T   T   T
  3.9292681964149363  0.0256924145510567 15.1979359729878158   T   T   T
  0.0154001844184723  2.7400961635605059 18.5920183319556394   T   T   T
  3.9451301480000271  8.3688848019999824 12.2103998060000407   F   F   F
  0.0000000000000000  8.3688848019999824 12.2103998060000407   F   F   F
 15.7500866106162096 16.7809456365768277 15.0674105101824392   T   T   T
 19.7256482699999580 13.9481413360000008 12.2103998060000407   F   F   F
 11.8625949351258733 16.8021386905837318 15.1199296304348287   T   T   T
  7.8390804101981173 11.1415812845910125 15.0288686825099642   T   T   T
  3.8923130365826055 16.7727596994359409 15.1012848504146913   T   T   T
 15.8267154526355718 11.1562984049329383 15.0194575478663790   T   T   T
 15.7805205919999434  8.3688848019999824 12.2103998060000407   F   F   F
 15.7867729365288074  5.5376460256994635 15.0753408701510008   T   T   T
  7.8844588567664173  0.0239927649922855 15.1740177772745568   T   T   T
 11.8662061637265150 11.1564183561215380 15.0079067616312170   T   T   T
  7.8121641488087414  5.5373014075976412 15.0840463826704489   T   T   T
 15.7628148338508929 22.3150199307301982 15.1657742170967307   T   T   T
 11.8584871691189733  5.5352251628651876 15.0590309876005595   T   T   T
  0.0013924896324055  0.0004589972968545 15.2014336787010720   T   T   T
  7.9033617156425411 16.7639048722216017 15.0475401409338279   T   T   T
  7.8902602960000570  8.3688848019999824 12.2103998060000407   F   F   F
 23.6655356878746943 11.1717678478493099 15.2092273434130014   T   T   T
 23.6686325152783041 16.7585068533706227 15.1982759245122168   T   T   T
  0.0205666528826887  5.5766647491784180 15.1775168416795818   T   T   T
 15.7805205919999434 13.9481413360000008 12.2103998060000407   F   F   F
 19.7256482699999580 19.5273965409999306 12.2103998060000407   F   F   F
  7.8902602960000570 13.9481413360000008 12.2103998060000407   F   F   F
  7.8902602960000570  2.7896282670000101 12.2103998060000407   F   F   F
 15.7805205919999434  2.7896282670000101 12.2103998060000407   F   F   F
 19.7477618058877411  0.0029523397310950 15.1899556700169143   T   T   T
  7.8902602960000570 19.5273965409999306 12.2103998060000407   F   F   F
  0.0000000000000000 13.9481413360000008 12.2103998060000407   F   F   F
  3.9368604302589394  5.5403861147456128 15.1859003871443861   T   T   T
 11.8550377008569594 19.5680003726127794 18.2914279653981033   T   T   T
 11.8406581190382347 22.3018628215556838 15.1657132075384453   T   T   T
  0.0000000000000000 19.5273965409999306 12.2103998060000407   F   F   F
 19.7927852738684251 11.1605548775853887 15.0830713859862229   T   T   T
 19.6958206950734365 19.5583038382694525 18.5410840589603012   T   T   T
  7.7150051145871554  8.3372197181911485 17.7832909751523971   T   T   T
 11.9261161892117968 13.9502897773143246 17.8219779090266002   T   T   T
 11.8353900909999528  2.7896282670000101 12.2103998060000407   F   F   F
  0.0000000000000000  2.7896282670000101 12.2103998060000407   F   F   F
  3.9451301480000271  2.7896282670000101 12.2103998060000407   F   F   F
 11.8353900909999528 13.9481413360000008 12.2103998060000407   F   F   F
  7.8470705420138991  2.6734247201717825 18.3891996293516158   T   T   T
 23.6623005180426738 13.8871177639974821 18.9055667588884440   T   T   T
 23.6513700715205388 19.5281518612481619 18.6661981395197785   T   T   T
 19.8268558801386625  8.3146536376806282 18.1040860078171768   T   T   T
 19.7898057204649902 16.7773208944706269 15.0785546652327120   T   T   T
  3.9451301480000271 19.5273965409999306 12.2103998060000407   F   F   F
  3.8717647731510936 11.1560810867234306 15.0620909966993093   T   T   T
 19.7256482699999580  8.3688848019999824 12.2103998060000407   F   F   F
 19.7844875817565651  5.5512310217249583 15.0805048852679775   T   T   T
 19.7256482699999580  2.7896282670000101 12.2103998060000407   F   F   F
 11.8353900909999528  8.3688848019999824 12.2103998060000407   F   F   F
 19.8755722735119633 13.9915033826608237 18.1107843816208387   T   T   T
 11.8418765891760636  2.7320935269744666 18.1899737611571055   T   T   T
 11.8353900909999528 19.5273965409999306 12.2103998060000407   F   F   F
  7.9107528152765960 13.9358645840899253 17.8554208905284284   T   T   T
  3.9698278225015446  2.7436153724723922 18.6532028936220584   T   T   T
 15.7805205919999434 19.5273965409999306 12.2103998060000407   F   F   F
 15.8809372980775692  8.3126787433444012 17.7966098098851582   T   T   T
  3.9333679622994753 19.4937513134017308 18.5387622858153449   T   T   T
 11.8726817230973865  8.2901779484099620 17.8421873108257856   T   T   T
  7.9180935731269040 19.6088525002326861 18.0890788601084438   T   T   T
 15.7533941777428073  2.7790210908746320 18.2878680162092344   T   T   T
  3.8646817888611147  8.2887738707648904 18.2269026504811507   T   T   T
  3.9451301480000271 13.9481413360000008 12.2103998060000407   F   F   F
 15.7500639834476495 19.6674278371226130 18.2204728134066585   T   T   T
 15.7774014053096838 13.9753863306120198 17.8043753468134511   T   T   T
  0.0015356555661461  8.3673933615953633 18.6956507386746580   T   T   T
 19.7585781731632402  2.7701678352875714 18.4018034401328343   T   T   T
  3.7723346185594417 14.0001058147254476 18.0456804173722958   T   T   T
 21.6947698966377374 -0.0016051367756060 18.1171708797426021   T   T   T
 13.8407486949527438 16.7335865552959113 17.9948661474328944   T   T   T
  1.9741961414259164  5.5365614701396852 18.1079665646969801   T   T   T
 17.7477263742507922  0.0407432175274323 18.1298127140343865   T   T   T
 13.7893224277437891  0.0240188715097806 18.1264588799957842   T   T   T
 13.9755311308606327 11.1874936417913720 17.8076625472027210   T   T   T
  5.7379902097394320 11.1126890447071300 17.8201192527879257   T   T   T
  5.9032052133169586 16.7982696220197774 17.7620577690156125   T   T   T
 13.8331326867272271  5.5262877982448995 17.8949195519041169   T   T   T
  5.9100136661010305 22.2657044542582163 18.1273713722425889   T   T   T
 17.8467715197929380  5.5403162804390806 17.7870137419959100   T   T   T
  5.8981100884176136  5.4876919279451597 18.1104143214737121   T   T   T
  9.8732775284404681  0.0015572417817871 18.1400523722807741   T   T   T