Au  C  H  O Sr Ti                       
   1.00000000000000     
    23.6707801818999997    0.0000000000000000    0.0000000000000000
     0.0000000000000000   22.3170261383000010    0.0000000000000000
     0.0000000000000000    0.0000000000000000   30.0000000000000000
   Au   C    H    O    Sr   Ti
    50     1     2   265    72    72
Selective dynamics
Direct
  0.7152762953147375  0.5244844464568518  0.7528422625844543   T   T   T
  0.6204337141765448  0.5711006303019671  0.7040889025434363   T   T   T
  0.7225116172888069  0.2591662927382620  0.6909394383873974   T   T   T
  0.2947637235567161  0.7461352143671440  0.6962136540669559   T   T   T
  0.5116055755053432  0.6032993474089288  0.7769768493648029   T   T   T
  0.5786890968238332  0.7256717449655632  0.7939971306915051   T   T   T
  0.2403879096543581  0.4691464134627412  0.7087399816701621   T   T   T
  0.2859844254815759  0.6622822989330959  0.7640364743855057   T   T   T
  0.5999261592415792  0.2863660498935202  0.7833795996172690   T   T   T
  0.5141049745046010  0.4844179950558100  0.6779628688653055   T   T   T
  0.5627722629122666  0.4859508012169981  0.7622050904396795   T   T   T
  0.5486511714554867  0.2157847634715549  0.7088222693704342   T   T   T
  0.5471525837800947  0.3839492570638970  0.8272335002332775   T   T   T
  0.3920604396351701  0.8173100711667313  0.7066493732479362   T   T   T
  0.4638199473648816  0.6951025859174882  0.8305712054958693   T   T   T
  0.4321545984595762  0.2269883757458004  0.6986513144658909   T   T   T
  0.3684794640212905  0.2994358798964781  0.7562003036991374   T   T   T
  0.3494259911845147  0.4994617661458264  0.6977520072623852   T   T   T
  0.4268269895823526  0.3718824151821359  0.8166686444976397   T   T   T
  0.5965691022961650  0.7845650209857664  0.7129612467959303   T   T   T
  0.6347575656294820  0.5839020654351258  0.8001024916411594   T   T   T
  0.7325056004073559  0.6144912855235222  0.6939989337373362   T   T   T
  0.4859224451891788  0.7750473087174496  0.7545708165671925   T   T   T
  0.7634919961910271  0.4307136731261531  0.7042190335052211   T   T   T
  0.4832563697215176  0.2713054678476488  0.7751828231185911   T   T   T
  0.2891097068945948  0.5383927196118649  0.7772179942336763   T   T   T
  0.6171653335131136  0.3202897154600656  0.6956401793100552   T   T   T
  0.3683811451728258  0.6189487058645022  0.8202981474416141   T   T   T
  0.5691600146121973  0.5093031688737927  0.8564093542123794   T   T   T
  0.6563976465517014  0.1885784446244759  0.7446453224253975   T   T   T
  0.4703053763115908  0.4507320400346271  0.8794030413129117   T   T   T
  0.5176790684711899  0.3772259526375207  0.7319063103220189   T   T   T
  0.2815584754422956  0.3406725649452132  0.7023735153012136   T   T   T
  0.6694563293777021  0.6811587452662393  0.7487789046275660   T   T   T
  0.3976286349570357  0.3815715697926629  0.6904756477181043   T   T   T
  0.4520912842568187  0.5794936096201985  0.7028801775318556   T   T   T
  0.3746999520585907  0.4932583142815746  0.8329242685363998   T   T   T
  0.3245156851690885  0.4153450149522426  0.7695424885491141   T   T   T
  0.4148967763449998  0.6950428723870206  0.6997355684244271   T   T   T
  0.6998811462842449  0.3438955337755365  0.7573889360039034   T   T   T
  0.7733356710771113  0.4284711033699073  0.7943261564896275   T   T   T
  0.2568155095225333  0.5926128434017658  0.6942536427972889   T   T   T
  0.6484111436251689  0.4456313369429988  0.6945370396147937   T   T   T
  0.5645388442699127  0.6392612638544284  0.8610742926886367   T   T   T
  0.5396528543648536  0.6681151429490924  0.7020641732045630   T   T   T
  0.4434914954091177  0.4731508993084431  0.7564568147275987   T   T   T
  0.3745106493613955  0.7399398912766616  0.7792606871630494   T   T   T
  0.4624420492663591  0.5731556897244827  0.8643458456718565   T   T   T
  0.6550249343903417  0.4404757670549904  0.8125495540032157   T   T   T
  0.7065402247127974  0.7569035591225791  0.6883808318595831   T   T   T
  0.7026718385757903  0.1144449542345717  0.7330932297809064   T   T   T
  0.7403075714638342  0.1130291666813618  0.7118239611950163   T   T   T
  0.6550775709486857  0.0589552196183210  0.7632715271659105   T   T   T
  0.2492255066035006  0.3137662968115646  0.5458625373753162   T   T   T
  0.7502728608086078  0.1895762045799343  0.4557071246717860   T   T   T
  0.4172432179374888  0.9360490264855792  0.4540559024274079   T   T   T
  0.4172018262583387  0.6851518802397721  0.4550372789195610   T   T   T
  0.4166845470883903  0.4355761108694670  0.4539808731187012   T   T   T
  0.0843674031521409  0.6869523603304465  0.4531757657574189   T   T   T
  0.0840784361923569  0.9368904960054759  0.4537036849903305   T   T   T
  0.0827552793141869  0.4367892389214427  0.4528312463855816   T   T   T
  0.0838476970686019  0.1865479161132119  0.4530063509858930   T   T   T
  0.9165545561851717  0.8122959299680264  0.4540822596431390   T   T   T
  0.0833333358191695  0.3124999999901945  0.3605200052333331   F   F   F
  0.7464309730621097  0.5577251945796360  0.5446550692683754   T   T   T
  0.9161286555612188  0.0622206323628412  0.4541185126827063   T   T   T
  0.9160863284780614  0.3121437104483905  0.4538915875099687   T   T   T
  0.4169155435551071  0.1872680365462543  0.4536666613980123   T   T   T
  0.2520678614139917  0.6875995136127117  0.4560588183282912   T   T   T
  0.9163723189851876  0.9371064199545097  0.4536861349499625   T   T   T
  0.5830323702235252  0.1904187534064237  0.4556956773041868   T   T   T
  0.0000663998245917  0.1251127009091539  0.4985204977593943   T   T   T
  0.5828598013534246  0.8108148256684062  0.4552573049181689   T   T   T
 -0.0000140156842576  0.3734261707412750  0.4983841989790556   T   T   T
 -0.0003637306608677  0.6271536044050675  0.4976371797163694   T   T   T
  0.3336317756006946  0.1256623399075241  0.4987280817800340   T   T   T
  0.0001177572926090  0.8752137361405511  0.4996369227124666   T   T   T
  0.3335056359159855  0.8741364398324679  0.4991093509163044   T   T   T
  0.6658419628984811  0.1274380468067580  0.5009403390258148   T   T   T
  0.2511982779445576  0.4394209220102664  0.4549001536297981   T   T   T
  0.0833333358191695  0.5625000000092442  0.3605200052333331   F   F   F
  0.9166666865332829  0.0625000000159659  0.3605200052333331   F   F   F
  0.7495411739393399  0.8131763050389311  0.4530250169347655   T   T   T
  0.7496442721220558  0.4382743974828416  0.4558266831395056   T   T   T
  0.2504832718960132  0.0620888192697949  0.4542950045619731   T   T   T
  0.7490614101143701  0.6886312980872316  0.4575317511042396   T   T   T
  0.2500084659024097  0.1887238672974154  0.4543593930157634   T   T   T
  0.2499782792531483  0.9361038017492800  0.4540207880435559   T   T   T
  0.6653342711580411  0.6260301335730023  0.5030513344765698   T   T   T
  0.5845304304440484  0.5629478571181131  0.4548685051057466   T   T   T
  0.5837628485255859  0.0641889243571039  0.4538496511738906   T   T   T
  0.9166666865332829  0.6874999999963620  0.3605200052333331   F   F   F
  0.9166666865332829  0.4374999701794380  0.3605200052333331   F   F   F
  0.9166666865332829  0.1875000000030838  0.3605200052333331   F   F   F
  0.5833333134730552  0.9375000000154046  0.3605200052333331   F   F   F
  0.5833333134730552  0.6874999999963620  0.3605200052333331   F   F   F
  0.5833333134730552  0.4374999701794380  0.3605200052333331   F   F   F
  0.5833333134730552  0.1875000000030838  0.3605200052333331   F   F   F
  0.2499999999799343  0.9375000000154046  0.3605200052333331   F   F   F
  0.9166666865332829  0.9375000000154046  0.3605200052333331   F   F   F
  0.2499999999799343  0.6874999999963620  0.3605200052333331   F   F   F
  0.2499999999799343  0.1875000000030838  0.3605200052333331   F   F   F
  0.7499999404149307  0.9375000000154046  0.3605200052333331   F   F   F
  0.7499999404149307  0.6874999999963620  0.3605200052333331   F   F   F
  0.7499999404149307  0.4374999701794380  0.3605200052333331   F   F   F
  0.7499999404149307  0.1875000000030838  0.3605200052333331   F   F   F
  0.4166666269218169  0.9375000000154046  0.3605200052333331   F   F   F
  0.4166666269218169  0.6874999999963620  0.3605200052333331   F   F   F
  0.4166666269218169  0.4374999701794380  0.3605200052333331   F   F   F
  0.2499999999799343  0.4374999701794380  0.3605200052333331   F   F   F
  0.0833333358191695  0.0625000000159659  0.3605200052333331   F   F   F
  0.9152889780765960  0.6868844725776985  0.4533582762216556   T   T   T
  0.6654009606971641  0.3786101695323592  0.5031542002729386   T   T   T
  0.3343536508191929  0.3784702234539672  0.5029259941072693   T   T   T
  0.3356496920421667  0.6258287428646425  0.5037744262048679   T   T   T
  0.9171224274544260  0.0633576240272996  0.5474866897243965   T   T   T
  0.7497893114320746  0.9384522726550339  0.4554831734370716   T   T   T
  0.9156575143325726  0.3124511530741604  0.5466765779685119   T   T   T
  0.2522270536418139  0.3143976835109815  0.4539497965360784   T   T   T
  0.2518169564433815  0.5648118753383999  0.4536457171443538   T   T   T
  0.2499999999799343  0.8124999999834799  0.3605200052333331   F   F   F
  0.2499999999799343  0.5625000000092442  0.3605200052333331   F   F   F
  0.2499999999799343  0.3124999999901945  0.3605200052333331   F   F   F
  0.2499999999799343  0.0625000000159659  0.3605200052333331   F   F   F
  0.7499999404149307  0.5625000000092442  0.3605200052333331   F   F   F
  0.7499999404149307  0.3124999999901945  0.3605200052333331   F   F   F
  0.7499999404149307  0.0625000000159659  0.3605200052333331   F   F   F
  0.4166666269218169  0.8124999999834799  0.3605200052333331   F   F   F
  0.4166666269218169  0.5625000000092442  0.3605200052333331   F   F   F
  0.4166666269218169  0.3124999999901945  0.3605200052333331   F   F   F
  0.7499999404149307  0.8124999999834799  0.3605200052333331   F   F   F
  0.0834715074978846  0.3119725311469095  0.4540459699034061   T   T   T
  0.4166666269218169  0.0625000000159659  0.3605200052333331   F   F   F
  0.4168146738248728  0.0616079950698958  0.4553299710198387   T   T   T
  0.0834639687385658  0.8121697863390895  0.4541743619927344   T   T   T
  0.0839670353917663  0.5625229226858558  0.4539773586043823   T   T   T
  0.4159765836936854  0.5596183030636567  0.4578698578054483   T   T   T
  0.0838066445691797  0.0619965814673323  0.4541811427889827   T   T   T
  0.4155475407366855  0.3113893727803845  0.4573808574885168   T   T   T
  0.8333332538436267  0.7500000000123208  0.4070133268666680   F   F   F
  0.0833333358191695  0.4374999701794380  0.3605200052333331   F   F   F
  0.0833333358191695  0.6874999999963620  0.3605200052333331   F   F   F
  0.0833333358191695  0.9375000000154046  0.3605200052333331   F   F   F
  0.4166666269218169  0.1875000000030838  0.3605200052333331   F   F   F
  0.0833333358191695  0.8124999999834799  0.3605200052333331   F   F   F
  0.8333332538436267  0.4999999999932783  0.4070133268666680   F   F   F
  0.6900710894263580  0.0606592600268111  0.7462076118967099   T   T   T
  0.2511203037854052  0.0624733903227215  0.5473004903438387   T   T   T
  0.4140904180039581  0.8117894222173502  0.5478499242220365   T   T   T
  0.5833333134730552  0.0625000000159659  0.3605200052333331   F   F   F
  0.5833333134730552  0.3124999999901945  0.3605200052333331   F   F   F
  0.5833333134730552  0.8124999999834799  0.3605200052333331   F   F   F
  0.7485834975286083  0.0641558600330389  0.4536920774066577   T   T   T
  0.2504008030657364  0.8107951315350016  0.4553446526771940   T   T   T
  0.8333332538436267  0.2500000000190425  0.4070133268666680   F   F   F
  0.5843632913145290  0.3155529980848106  0.4536529380525093   T   T   T
  0.8333332538436267  0.0000000000000000  0.4070133268666680   F   F   F
  0.7476357289701044  0.8073307933352185  0.5453658315212597   T   T   T
  0.0833333358191695  0.1875000000030838  0.3605200052333331   F   F   F
  0.0000000000000000  0.0000000000000000  0.4070133268666680   F   F   F
  0.0000000000000000  0.2500000000190425  0.4070133268666680   F   F   F
  0.0000000000000000  0.4999999999932783  0.4070133268666680   F   F   F
  0.7482350117167781  0.5642465408561229  0.4538350440740932   T   T   T
  0.3333333432766779  0.0000000000000000  0.4070133268666680   F   F   F
  0.3333333432766779  0.4999999999932783  0.4070133268666680   F   F   F
  0.3333333432766779  0.7500000000123208  0.4070133268666680   F   F   F
  0.6666666865533486  0.0000000000000000  0.4070133268666680   F   F   F
  0.5826855865758332  0.4396685321598020  0.4565147416787207   T   T   T
  0.6666666865533486  0.2500000000190425  0.4070133268666680   F   F   F
  0.6666666865533486  0.7500000000123208  0.4070133268666680   F   F   F
  0.1666666716383389  0.0000000000000000  0.4070133268666680   F   F   F
  0.1666666716383389  0.2500000000190425  0.4070133268666680   F   F   F
  0.1666666716383389  0.4999999999932783  0.4070133268666680   F   F   F
  0.1666666716383389  0.7500000000123208  0.4070133268666680   F   F   F
  0.5000000000021103  0.0000000000000000  0.4070133268666680   F   F   F
  0.5000000000021103  0.2500000000190425  0.4070133268666680   F   F   F
  0.5000000000021103  0.7500000000123208  0.4070133268666680   F   F   F
  0.9166666865332829  0.3124999999901945  0.3605200052333331   F   F   F
  0.3333333432766779  0.2500000000190425  0.4070133268666680   F   F   F
  0.7473317250571545  0.3140162862966398  0.4551286574424408   T   T   T
  0.0000000000000000  0.7500000000123208  0.4070133268666680   F   F   F
  0.4168601224572411  0.8103862716476583  0.4549586105570191   T   T   T
  0.5833333134730552  0.5625000000092442  0.3605200052333331   F   F   F
  0.6666666865533486  0.4999999999932783  0.4070133268666680   F   F   F
  0.5827031135665568  0.6865375820802488  0.4549013683144373   T   T   T
  0.5000000000021103  0.4999999999932783  0.4070133268666680   F   F   F
  0.9156711769299137  0.1866095165892223  0.4532084350630423   T   T   T
  0.4159789800989148  0.9371674115191277  0.5460978175232445   T   T   T
  0.4982062153260800  0.2535104414019961  0.5909589759470069   T   T   T
  0.4159477077579519  0.1913450493184438  0.5465990480285551   T   T   T
  0.0854098818528012  0.6891633870312018  0.5454933362886255   T   T   T
  0.0827855825551131  0.4385229977127444  0.5448906952672345   T   T   T
  0.0838145312904386  0.1888025244271150  0.5458500762712570   T   T   T
  0.4994576833403123  0.1256162514587774  0.4991473721023446   T   T   T
  0.9995679060424696  0.4984109694557448  0.5941209568252598   T   T   T
  0.5794285075421670  0.1848787048806610  0.5505669712471259   T   T   T
  0.9996115777058106  0.7538797827306433  0.5929144792266022   T   T   T
  0.3340658655313434  0.9998490328583417  0.5919920730538623   T   T   T
 -0.0000947936182222  0.9991378617765933  0.5932868211389108   T   T   T
  0.0011112341024630  0.2487930258491159  0.5922611141171606   T   T   T
  0.3332497181759915  0.4963725594468925  0.5909254579370622   T   T   T
  0.3353112437956392  0.7412102827373390  0.5904259454388031   T   T   T
  0.6632724075623475  0.2472162712024498  0.5907760055984237   T   T   T
  0.6662825647616060  0.0013505701511189  0.5919992513744916   T   T   T
  0.6654806723244244  0.7410595754500737  0.5909160571397344   T   T   T
  0.6666217318063791  0.4946508996313912  0.5914639700815163   T   T   T
  0.1675086759211833  0.9983046920258862  0.5923176342636529   T   T   T
  0.1685474856498307  0.2485576557951309  0.5933592261263644   T   T   T
  0.1707539739348101  0.7500823199096655  0.5950117282156797   T   T   T
  0.2485265787317560  0.4359478058130353  0.5489052382699825   T   T   T
  0.1654879773337030  0.5028610785783546  0.5869083003895141   T   T   T
  0.3345437843925885  0.2546912203410812  0.5926325189098302   T   T   T
  0.4999087918247032  0.0001762413698156  0.5911930044397915   T   T   T
  0.8326300137128777  0.8741995525503626  0.4992508273960399   T   T   T
  0.7479991613695036  0.9392506299283311  0.6414210398065928   T   T   T
  0.8317309672329322  0.0026798282466057  0.5924686368137556   T   T   T
  0.7489352309622137  0.1841986094082898  0.5506704214308377   T   T   T
  0.4231226172519519  0.6878998105143435  0.5469031381180645   T   T   T
  0.4231279526994368  0.4435582366822719  0.5459668174740737   T   T   T
  0.7519562557818528  0.4353391096751039  0.5489988937743244   T   T   T
  0.5828693373704225  0.3110024669898985  0.5450762582130838   T   T   T
  0.2531110107948172  0.8125880381234075  0.5506315341251106   T   T   T
  0.5830359651177970  0.0620330640168913  0.5455488957329141   T   T   T
  0.5825395204040400  0.9376798345955352  0.4547047358228833   T   T   T
  0.5858716910723119  0.8141920872644507  0.5504019981374751   T   T   T
  0.7475822983970171  0.3119574320572845  0.5486807189849452   T   T   T
  0.5811342384837209  0.5600063947090085  0.5489132463079783   T   T   T
  0.2525886785999079  0.5590802892306921  0.5437437794253379   T   T   T
  0.4158890846028307  0.3194744309676824  0.5524394263402032   T   T   T
  0.5766677010201964  0.4358172044553566  0.5522299680145798   T   T   T
  0.4166620491307577  0.0654032306068653  0.5473618128461163   T   T   T
  0.0852836951244893  0.8125436643775934  0.5473595945139160   T   T   T
  0.0808302243436156  0.5643351169346849  0.5463725836456400   T   T   T
  0.0866424890385200  0.3134305353588769  0.5470978928611486   T   T   T
  0.5003111331277565  0.7570945421139512  0.5928843976597844   T   T   T
  0.0824910348266442  0.0630359978301043  0.5475327892016736   T   T   T
  0.9143959034830454  0.6885929533755556  0.5459159179936478   T   T   T
  0.5839270279831017  0.9375203645845204  0.5463761147717972   T   T   T
  0.9164554384436145  0.1886938370014805  0.5453990385241170   T   T   T
  0.9154549027263674  0.4373255674994398  0.5457436285668104   T   T   T
  0.5790992256311037  0.6860181165122695  0.5476764180757080   T   T   T
  0.2515032803526850  0.9372900101400997  0.5452634186485695   T   T   T
  0.4974305689623152  0.5043708013048815  0.6089691532058514   T   T   T
  0.9179660076682146  0.5637268519382440  0.5470671970292067   T   T   T
  0.4200018055088536  0.5648478158765603  0.5553764853271829   T   T   T
  0.9155747088269127  0.8126532861152378  0.5468501374360292   T   T   T
  0.0840743185034693  0.9383770612177859  0.5461667957437936   T   T   T
  0.2489630209337767  0.6833037150412373  0.5518060964813787   T   T   T
  0.7487671839973413  0.9335189235579308  0.5482017639734311   T   T   T
  0.7517724298992459  0.6799587844304628  0.5535185321700246   T   T   T
  0.9156464936724977  0.9386486985544696  0.5465038628473794   T   T   T
  0.4176606242657332  0.0651617437314952  0.6401026296348240   T   T   T
  0.9160875441224263  0.5622002650867703  0.4540829764170368   T   T   T
  0.4124860791571625  0.8130219746945456  0.6396978746084283   T   T   T
  0.9159455977689378  0.0629999837784991  0.6412266872785105   T   T   T
  0.9139134176196797  0.5628393971391341  0.6407459179018475   T   T   T
  0.9152428637199777  0.3119039855511131  0.6396787122964833   T   T   T
  0.9131563939728345  0.8135564249729254  0.6421721054314196   T   T   T
  0.5831615967466415  0.0668667197064899  0.6391422762185324   T   T   T
  0.5833269340266335  0.3210575773411199  0.6334954913854850   T   T   T
  0.5905070866836052  0.5662010839968480  0.6388205189094190   T   T   T
  0.2474440857900838  0.5736324136682721  0.6285051191514077   T   T   T
  0.7539013586025322  0.6918161996184179  0.6572943019387032   T   T   T
  0.2620270575984658  0.7995087575048899  0.6463612399195755   T   T   T
  0.2510157959801522  0.0594116411895724  0.6423259169334550   T   T   T
  0.9166666865332829  0.5625000000092442  0.3605200052333331   F   F   F
  0.4995509771310007  0.3742330828585513  0.4999005582796983   T   T   T
  0.5002597207724525  0.6210238745587487  0.5000969222952903   T   T   T
  0.8324300368789390  0.6230499410056893  0.5001783833034535   T   T   T
  0.2519496680517041  0.1880645306335529  0.5474262833990233   T   T   T
  0.8323458114500785  0.3730253684661763  0.4998681022810377   T   T   T
  0.8325031447333610  0.1241263010181381  0.5001216000257567   T   T   T
  0.1667267581083569  0.3762206744483957  0.4977311985104206   T   T   T
  0.1675076238295537  0.6243022255390730  0.5002758881726251   T   T   T
  0.5813056324601348  0.4390038945967922  0.6462341149246609   T   T   T
  0.5768203978567334  0.6865110520239714  0.6398303183576217   T   T   T
  0.9158897399320763  0.1861955841695933  0.6398738406889671   T   T   T
  0.2491505465345939  0.3164732563290736  0.6412537645110369   T   T   T
  0.9158031374101558  0.4368932717214710  0.4536575490896751   T   T   T
  0.1671046460397679  0.1244743391537626  0.4994825845841052   T   T   T
  0.7479453499969113  0.0605891243915034  0.5451517946126430   T   T   T
  0.1677255244196220  0.8732674500046681  0.4998744989907833   T   T   T
  0.4266182349821726  0.3042774354307101  0.6557038858015161   T   T   T
  0.5909821388190635  0.8105747727698009  0.6460749544661853   T   T   T
  0.4203105446690081  0.6759671428926393  0.6336898333970628   T   T   T
  0.4999534433301403  0.8733276236678464  0.5010337483420894   T   T   T
  0.7546308767756386  0.4328928316909520  0.6375876595548776   T   T   T
  0.7533394271783898  0.5681100667941394  0.6357763736811970   T   T   T
  0.3971963386724874  0.5505097636641731  0.6519759107343072   T   T   T
  0.4176530000780564  0.9349673564176512  0.6398055574143836   T   T   T
  0.7410823839212473  0.8099431585581448  0.6399572212662391   T   T   T
  0.7471627249062547  0.3125941802235114  0.6407720813610130   T   T   T
  0.7478635096846550  0.0704811503493466  0.6400049261417399   T   T   T
  0.0838566081377181  0.3118857913781681  0.6406007911189202   T   T   T
  0.6664471550931876  0.8742726873972108  0.4986952738930262   T   T   T
  0.0865872622701157  0.5627024413255877  0.6398529155103012   T   T   T
  0.0874152786895813  0.4365936786282629  0.6397021193632213   T   T   T
  0.0843149027533146  0.1859883705483164  0.6420103535272726   T   T   T
  0.4173469405947449  0.1870917743697726  0.6396095140092467   T   T   T
  0.4151825186824875  0.4186116824663260  0.6301617990366968   T   T   T
  0.0844960896669988  0.9357074329333872  0.6410491998754904   T   T   T
  0.0831157397942558  0.6870121588316711  0.6389010052670000   T   T   T
  0.0843273343311013  0.0606207458031649  0.6421297628684453   T   T   T
  0.8332893497379142  0.5030038959814982  0.5889121667461897   T   T   T
  0.9123709958338252  0.4361538684628662  0.6399964751722138   T   T   T
  0.8303274965492057  0.7509461873472988  0.5928275402919315   T   T   T
  0.8317387834040246  0.2491940571991703  0.5907539232656126   T   T   T
  0.7463851042838359  0.1944559712284966  0.6467777063397303   T   T   T
  0.9166666865332829  0.8124999999834799  0.3605200052333331   F   F   F
  0.5825102748341320  0.9364877392066147  0.6398534203086145   T   T   T
  0.0846582541704432  0.8126740653897202  0.6424750115428470   T   T   T
  0.5779341889024476  0.1923073553279664  0.6452467093426077   T   T   T
  0.2550134042898423  0.6771946406543319  0.6626391210707047   T   T   T
  0.2404972814319995  0.4420661513888420  0.6411858555253142   T   T   T
  0.9141354748316292  0.9375141670998984  0.6415119951816900   T   T   T
  0.9163822406345425  0.6876753943344273  0.6390728260587785   T   T   T
  0.2520407683109784  0.9301713427449975  0.6373657357267466   T   T   T
  0.2536862621993474  0.1865740483770736  0.6414692280067982   T   T   T
  0.0010005317049342  0.1232507317727808  0.6205774771858099   T   T   T
  0.1666666716383389  0.3750000000061604  0.4070133268666680   F   F   F
  0.6652765665537538  0.7518692741255435  0.5022008508206022   T   T   T
  0.5011429494355758  0.7529008637621579  0.5038566643487860   T   T   T
  0.6660438581342208 -0.0004082028378271  0.5056710784146031   T   T   T
  0.1643151389926378  0.7513297665633075  0.5034564286919181   T   T   T
  0.8333332538436267  0.6249999999803961  0.4070133268666680   F   F   F
  0.6684021445286003  0.4999965416526194  0.5005877899862179   T   T   T
  0.3311521380867113  0.4992644911788076  0.5008565477983463   T   T   T
  0.3301138290546669  0.2480103863482955  0.5028637114442241   T   T   T
  0.3339149896380695  0.7511750202038060  0.5015752268021357   T   T   T
  0.6668199022269823  0.2483773067244429  0.5023464919130372   T   T   T
  0.5010867415309446  0.4998060261625635  0.5002581683076965   T   T   T
 -0.0004687038287147  0.4998066630996756  0.5067631859560380   T   T   T
  0.8362753860589202  0.5001245392378157  0.5027796251790433   T   T   T
  0.8360802647227917  0.2485174632903871  0.5023778986807617   T   T   T
  0.6666666865533486  0.3750000000061604  0.4070133268666680   F   F   F
  0.1659960368860045  0.0011384591180112  0.5065735396377855   T   T   T
  0.0000000000000000  0.8749999404036828  0.4070133268666680   F   F   F
  0.5009208486198897  0.2479806667133999  0.5020922504564835   T   T   T
 -0.0001648525104763  0.7511234690757105  0.5068272936505545   T   T   T
  0.0010218468041709  0.2496281976635767  0.5062249344812589   T   T   T
  0.0001523777096818 -0.0000543602604253  0.5068672070368709   T   T   T
  0.6666666865533486  0.6249999999803961  0.4070133268666680   F   F   F
  0.8333332538436267  0.8749999404036828  0.4070133268666680   F   F   F
  0.3333333432766779  0.6249999999803961  0.4070133268666680   F   F   F
  0.3333333432766779  0.1249999999871179  0.4070133268666680   F   F   F
  0.3333333432766779  0.3750000000061604  0.4070133268666680   F   F   F
  0.8340631706977717 -0.0000871084815746  0.5067452012557780   T   T   T
  0.3333333432766779  0.8749999404036828  0.4070133268666680   F   F   F
  0.6666666865533486  0.1249999999871179  0.4070133268666680   F   F   F
  0.0000000000000000  0.6249999999803961  0.4070133268666680   F   F   F
  0.1664450032881227  0.2480814874275447  0.5063698882796098   T   T   T
  0.3331858339283864  0.0010221248002672  0.5057973371783877   T   T   T
  0.5003303580792605  0.9991527746321808  0.5056787738284622   T   T   T
  0.5012277135929130  0.8772084178885594  0.6096753253139198   T   T   T
  0.3259705114811743  0.3735410026716461  0.5926934662636512   T   T   T
  0.0000000000000000  0.3750000000061604  0.4070133268666680   F   F   F
  0.3340094619539555  0.6246490938405204  0.5949645636934502   T   T   T
  0.5000000000021103  0.8749999404036828  0.4070133268666680   F   F   F
  0.8333332538436267  0.3750000000061604  0.4070133268666680   F   F   F
  0.1666666716383389  0.1249999999871179  0.4070133268666680   F   F   F
  0.6649664234295760  0.1245263240126472  0.6052798660503742   T   T   T
  0.5000000000021103  0.6249999999803961  0.4070133268666680   F   F   F
  0.8394853157909288  0.6271874427723962  0.6041765938658589   T   T   T
  0.3314970238942320  0.1196361463612261  0.6126033159356847   T   T   T
  0.9989866954374759  0.8750823782754741  0.6239916902711741   T   T   T
  0.1633325239607391  0.4997794667729205  0.5018288500005174   T   T   T
  0.5000000000021103  0.1249999999871179  0.4070133268666680   F   F   F
  0.8313137721288957  0.8774318520836420  0.6185542755781110   T   T   T
  0.8382612280108275  0.3727752379933329  0.6028670430262836   T   T   T
  0.8361768999707756  0.7518350770278578  0.5027171840457116   T   T   T
  0.1666666716383389  0.8749999404036828  0.4070133268666680   F   F   F
  0.8333332538436267  0.1249999999871179  0.4070133268666680   F   F   F
  0.0000000000000000  0.1249999999871179  0.4070133268666680   F   F   F
  0.5036620039880279  0.6249250513183318  0.5941368572132151   T   T   T
  0.6703484955570055  0.3726927809636948  0.5929455148044457   T   T   T
  0.5000000000021103  0.3750000000061604  0.4070133268666680   F   F   F
  0.6666666865533486  0.8749999404036828  0.4070133268666680   F   F   F
  0.3346843091416773  0.8787316961203409  0.6029358820218296   T   T   T
  0.1595277946459621  0.6274594875600564  0.6014037885220993   T   T   T
  0.1661954099317969  0.8738262358128771  0.6174245071522183   T   T   T
  0.5015129348520885  0.3715439988577142  0.5946447337972829   T   T   T
  0.1666666716383389  0.6249999999803961  0.4070133268666680   F   F   F
  0.1679174376464745  0.1229444643069765  0.6220056905743091   T   T   T
  0.5003025929112760  0.1223324201052299  0.6064797626672752   T   T   T
 -0.0002712990927114  0.6234827378505003  0.6237235882028966   T   T   T
  0.0001696114225267  0.3755105084644894  0.6244745828757243   T   T   T
  0.8352532372818070  0.1240652949596299  0.6122481893797473   T   T   T
  0.6657597615511245  0.8819076729404451  0.6074098950974178   T   T   T
  0.1632939963993881  0.3712950039704309  0.6073656219012130   T   T   T
  0.6664923355612434  0.6259278687971207  0.5932669632844195   T   T   T
  0.0839358394687321  0.2478899156889494  0.6041456306781929   T   T   T
  0.7495969762812210  0.0032731493550816  0.6054060419564812   T   T   T
  0.5827979329005298  0.0014598642431428  0.6044999264325758   T   T   T
  0.9166651872917781  0.0000972780527583  0.6039019677096297   T   T   T
  0.5849147588361637  0.7500551231178524  0.5997595663871844   T   T   T
  0.5902078826206398  0.5014221026927578  0.5935018413142479   T   T   T
  0.2423324573243960  0.4979986715739372  0.5935934454590915   T   T   T
  0.5843585085680906  0.2477506840339850  0.5963578934627577   T   T   T
  0.2497530296591754  0.9976682370819000  0.6042193418622193   T   T   T
  0.7544220437204743  0.2481486615696652  0.5921089161059944   T   T   T
  0.2494453410519288  0.2457547591562916  0.6038576697496832   T   T   T
  0.4173207297846968  0.0000327563217010  0.6046906585612756   T   T   T
  0.2497562438520833  0.7528098908450378  0.5919282875052562   T   T   T
  0.0815234658256987  0.4996129235832784  0.6029517088295645   T   T   T
  0.0808732364350619  0.6258014638746860  0.5054137898454067   T   T   T