Au  C  H  O Sr Ti 
 1.0000000000000000
    23.6707801818999997    0.0000000000000000    0.0000000000000000
     0.0000000000000000   22.3170261383000010    0.0000000000000000
     0.0000000000000000    0.0000000000000000   30.0000000000000000
 Au  C   H   O   Sr  Ti 
  50   1   2 265  72  72
Selective dynamics
Cartesian
 16.9352135875800371 11.7071749198945323 22.5893200396685785   T   T   T
 14.6907980175597945 12.7489734879528420 21.1221646892217834   T   T   T
 17.0612114425559582  5.7742278517056569 20.7374130403731591   T   T   T
  6.9805701638797952 16.6555408646422052 20.8835193322367552   T   T   T
 12.1114721167637942 13.4667285887253598 23.3078231543285845   T   T   T
 13.6929864514428061 16.1945877868071477 23.8194042638228218   T   T   T
  5.6865753934317951 10.4749654654687010 21.2665635682706622   T   T   T
  6.7702559058708616 14.7808914537869622 22.9221298280825074   T   T   T
 14.2097271768326401  6.4246952000359974 23.5262097676955761   T   T   T
 12.1691263674014056 10.8092583595064919 20.3385687712571119   T   T   T
 13.3194735418610115 10.8478931555063713 22.8671080033344261   T   T   T
 13.1182457238728709  4.7749851144796427 21.3276540434298418   T   T   T
 12.9464526317226838  8.5773234598067578 24.8286327494960908   T   T   T
  9.2807818710728025 18.2408057715911767 21.2005071879793618   T   T   T
 10.9783875375742124 15.5154675328514688 24.9141927773085605   T   T   T
 10.3706223487475935  5.0962645219950851 20.9289426415220206   T   T   T
  8.7450317331479503  6.6749498097835129 22.6654342601313026   T   T   T
  8.2700662052807150 11.1484913314973824 20.9329625586657393   T   T   T
 10.0991388237293354  8.2940284003937705 24.5007880733115826   T   T   T
 14.1193681050051776 17.5101038981035728 21.3879990794807853   T   T   T
 15.0258196469069887 13.0312252445205594 24.0022682601624240   T   T   T
 17.3402258501717448 13.7147401666803770 20.8200578946217938   T   T   T
 11.5049365916489261 17.3124713930810614 22.6385354576021243   T   T   T
 18.0718348220671814  9.6132119111319057 21.1345320033400697   T   T   T
 11.4642099283421874  6.0513353931461866 23.2608844702832869   T   T   T
  6.8445643788891868 12.0154313717144845 23.3151190630431202   T   T   T
 14.5975309395695181  7.1751471223510963 20.8778171059381741   T   T   T
  8.7192930955405679 13.8165096157527110 24.6095921553191488   T   T   T
 13.4740997271397287 11.3720424665852367 25.6942470412265997   T   T   T
 15.8045252528332725  4.2420540136480502 22.4726101157577673   T   T   T
 11.1284954700568903 10.0636462515308427 26.3717084621548210   T   T   T
 12.2494559406892058  8.4208058465145328 21.9630958478149338   T   T   T
  6.6678288624109525  7.6029043597802461 21.0687582267164899   T   T   T
 15.8455178997670494 15.2012897606609290 22.4633385094080538   T   T   T
  9.4111186207257980  8.5187163196062521 20.7127237092054237   T   T   T
 10.7013392089875214 12.9313414064746688 21.0865413675188016   T   T   T
  8.8667779635812458 11.0125228483950366 24.9901859596685156   T   T   T
  7.6874004718879005  9.2658716535899686 23.0844105689168622   T   T   T
  9.8255961135972978 15.5136847703638185 20.9923934106885284   T   T   T
 16.5619826941400099  7.6954947333494870 22.7203418950808285   T   T   T
 18.3072494869242810  9.5653435400480973 23.8391672435528328   T   T   T
  6.0802093502479355 13.2279367003945083 20.8285427080681025   T   T   T
 15.3478848384668201  9.9489833675432777 20.8372392241549171   T   T   T
 13.3633233214758231 14.2677568318097361 25.8313114441820950   T   T   T
 12.7739791418614761 14.9102889962729481 21.0615015760288742   T   T   T
 10.4962870188018513 10.5574350218671356 22.6986704743090613   T   T   T
  8.8671558683976208 16.5143486593537823 23.3742891874580963   T   T   T
 10.9454375649450242 12.7960983579448673 25.9300543468011107   T   T   T
 15.5026207990704528  9.8329552538287910 24.3846545807312225   T   T   T
 16.7234781543395457 16.8921850067671713 20.6517195148329122   T   T   T
 16.9976248798304006  2.4458169676664934 22.7989370339152018   T   T   T
 17.7288256738898653  2.3173790893745458 22.0025642146822697   T   T   T
 15.3355008473814305  1.6076448479148593 23.3008298072611133   T   T   T
  5.9007391400564542  7.0019726008223095 16.3761615587059666   T   T   T
 17.7699646866389287  4.2389230671861649 13.6749335857756886   T   T   T
  9.8731169248967774 20.8904336249919034 13.6202349684696689   T   T   T
  9.8747781276533306 15.2915374960684680 13.6501633000889786   T   T   T
  9.8573945204475937  9.7185924157788666 13.6153723423211552   T   T   T
  1.9973317619327160 15.3311230187173155 13.5949694235441836   T   T   T
  1.9906409509925493 20.9064678007545304 13.6082636656656213   T   T   T
  1.9583623890714730  9.7486517800819392 13.5844367150210346   T   T   T
  1.9850438336159486  4.1634662502500532 13.5895389437655449   T   T   T
 21.6963922278226420 18.1244475973122441 13.6218210782524167   T   T   T
  1.9725650740000149  6.9740706679999214 10.8156001569999933   F   F   F
 17.6711451465125116 12.4571853738095637 16.3400916467168535   T   T   T
 21.6852765259739364  1.3904375705330587 13.6231821626066036   T   T   T
 21.6850798113727663  6.9657940448581099 13.6165052691611628   T   T   T
  9.8720301294723605  4.1767696954807896 13.6080195681767560   T   T   T
  5.9669126399757868 15.3446145505901352 13.6797841761766534   T   T   T
 21.6926813854648195 20.9141446523709433 13.6096088476288255   T   T   T
 13.8004188386017486  4.2477161247716611 13.6696921617938862   T   T   T
  0.0018439827686032  2.7936449038558449 14.9547520769778366   T   T   T
 13.8035416969309761 18.0882847194699927 13.6595020962088185   T   T   T
 23.6683185360069572  8.3402899798543668 14.9450726032888994   T   T   T
 23.6654989181572084 13.9977774047431645 14.9293380775514315   T   T   T
  7.8965882991913245  2.8028326000642192 14.9574045289547932   T   T   T
  0.0013827576997888 19.5306883868009429 14.9857739166012482   T   T   T
  7.8932307917545872 19.5083744686321445 14.9736826159983636   T   T   T
 15.7723077662601039  2.8268109673292923 14.9936582266612675   T   T   T
  5.9449492723265642  9.8050157178904360 13.6462685048819097   T   T   T
  1.9725650740000149 12.5533272030000536 10.8156001569999933   F   F   F
 21.6982156369999721  1.3948141340000613 10.8156001569999933   F   F   F
 17.7379292830151734 18.1477609388213601 13.5904787410243362   T   T   T
 17.7447562622503909  9.7834857925595493 13.6716073891346088   T   T   T
  5.9241270135311135  1.3863253722841880 13.6270582459864844   T   T   T
 17.7317899223434310 15.3686798662942721 13.7214460233152113   T   T   T
  5.9173076271022387  4.2120242930544727 13.6303095931096223   T   T   T
  5.9176550349737891 20.8910324165282120 13.6198988478580620   T   T   T
 15.7490046767217269 13.9714235916901934 15.0901155924520296   T   T   T
 13.8353457139010434 12.5613931163400316 13.6452675352254449   T   T   T
 13.8104712416861286  1.4281521690711696 13.6135359705768870   T   T   T
 21.6982156369999721 15.3429554700000619 10.8156001569999933   F   F   F
 21.6982156369999721  9.7636982699999884 10.8156001569999933   F   F   F
 21.6982156369999721  4.1844424010000720 10.8156001569999933   F   F   F
 13.8079546360000549 20.9222120050000342 10.8156001569999933   F   F   F
 13.8079546360000549 15.3429554700000619 10.8156001569999933   F   F   F
 13.8079546360000549  9.7636982699999884 10.8156001569999933   F   F   F
 13.8079546360000549  4.1844424010000720 10.8156001569999933   F   F   F
  5.9176950450000287 20.9222120050000342 10.8156001569999933   F   F   F
 21.6982156369999721 20.9222120050000342 10.8156001569999933   F   F   F
  5.9176950450000287 15.3429554700000619 10.8156001569999933   F   F   F
  5.9176950450000287  4.1844424010000720 10.8156001569999933   F   F   F
 17.7530837259999217 20.9222120050000342 10.8156001569999933   F   F   F
 17.7530837259999217 15.3429554700000619 10.8156001569999933   F   F   F
 17.7530837259999217  9.7636982699999884 10.8156001569999933   F   F   F
 17.7530837259999217  4.1844424010000720 10.8156001569999933   F   F   F
  9.8628241350000643 20.9222120050000342 10.8156001569999933   F   F   F
  9.8628241350000643 15.3429554700000619 10.8156001569999933   F   F   F
  9.8628241350000643  9.7636982699999884 10.8156001569999933   F   F   F
  5.9176950450000287  9.7636982699999884 10.8156001569999933   F   F   F
  1.9725650740000149  1.3948141340000613 10.8156001569999933   F   F   F
 21.6659797041510132 15.3288311088445930 13.5997569439583845   T   T   T
 15.7513242087909475  8.4490587470857808 15.0899658990410472   T   T   T
  7.9143866871244724  8.4460232338611725 15.0884908776433733   T   T   T
  7.9429070681333620 13.9658257483190056 15.1120432076459963   T   T   T
 21.7169445247041963  1.4149822724269716 16.4231689075603811   T   T   T
 17.7409547726181387 20.9428336097207399 13.6607613256696148   T   T   T
 21.6748841907722678  6.9743282554737620 16.4018710216419450   T   T   T
  5.9703314385712218  7.0162669770800132 13.6183815454772184   T   T   T
  5.9614401008414060 12.6027011372252087 13.6089075675938087   T   T   T
  5.9176950450000287 18.1325837370000720 10.8156001569999933   F   F   F
  5.9176950450000287 12.5533272030000536 10.8156001569999933   F   F   F
  5.9176950450000287  6.9740706679999214 10.8156001569999933   F   F   F
  5.9176950450000287  1.3948141340000613 10.8156001569999933   F   F   F
 17.7530837259999217 12.5533272030000536 10.8156001569999933   F   F   F
 17.7530837259999217  6.9740706679999214 10.8156001569999933   F   F   F
 17.7530837259999217  1.3948141340000613 10.8156001569999933   F   F   F
  9.8628241350000643 18.1325837370000720 10.8156001569999933   F   F   F
  9.8628241350000643 12.5533272030000536 10.8156001569999933   F   F   F
  9.8628241350000643  6.9740706679999214 10.8156001569999933   F   F   F
 17.7530837259999217 18.1325837370000720 10.8156001569999933   F   F   F
  1.9761693410238879  6.9623032726987510 13.6208684086336262   T   T   T
  9.8628241350000643  1.3948141340000613 10.8156001569999933   F   F   F
  9.8692325509717769  1.3755465793188992 13.6602726400208763   T   T   T
  1.9752499061557280 18.1249308244364897 13.6249466957001246   T   T   T
  1.9875335394695690 12.5535255976216593 13.6192818376642801   T   T   T
  9.8468874343637189 12.4891218347149433 13.7347190794179443   T   T   T
  1.9813914162126762  1.3814391769683652 13.6270137405285752   T   T   T
  9.8351299160841688  6.9480931165392068 13.7206841067533993   T   T   T
 19.7256482699999580 16.7377696039999648 12.2103998060000407   F   F   F
  1.9725650740000149  9.7636982699999884 10.8156001569999933   F   F   F
  1.9725650740000149 15.3429554700000619 10.8156001569999933   F   F   F
  1.9725650740000149 20.9222120050000342 10.8156001569999933   F   F   F
  9.8628241350000643  4.1844424010000720 10.8156001569999933   F   F   F
  1.9725650740000149 18.1325837370000720 10.8156001569999933   F   F   F
 19.7256482699999580 11.1585130689999925 12.2103998060000407   F   F   F
 16.1729827332857496  1.3586676833543625 22.8689820684050602   T   T   T
  5.9430054197421898  1.3941359714581312 16.4181301874312773   T   T   T
  9.7976735435178632 18.1161903220505032 16.4301815290980286   T   T   T
 13.8079546360000549  1.3948141340000613 10.8156001569999933   F   F   F
 13.8079546360000549  6.9740706679999214 10.8156001569999933   F   F   F
 13.8079546360000549 18.1325837370000720 10.8156001569999933   F   F   F
 17.7420498016523673  1.4325398800990157 13.6031177848671607   T   T   T
  5.9287500710410379 18.0953103958518291 13.6589190602454202   T   T   T
 19.7256482699999580  5.5792565349999723 12.2103998060000407   F   F   F
 13.8319392396785723  7.0397109821516004 13.6069334494471015   T   T   T
 19.7256482699999580  0.0000000000000000 12.2103998060000407   F   F   F
 17.7023822748924964 18.0302438701655134 16.3686009340543066   T   T   T
  1.9725650740000149  4.1844424010000720 10.8156001569999933   F   F   F
  0.0000000000000000  0.0000000000000000 12.2103998060000407   F   F   F
  0.0000000000000000  5.5792565349999723 12.2103998060000407   F   F   F
  0.0000000000000000 11.1585130689999925 12.2103998060000407   F   F   F
 17.7118424188704431 12.5934935332277043 13.6141280054277658   T   T   T
  7.8902602960000570  0.0000000000000000 12.2103998060000407   F   F   F
  7.8902602960000570 11.1585130689999925 12.2103998060000407   F   F   F
  7.8902602960000570 16.7377696039999648 12.2103998060000407   F   F   F
 15.7805205919999434  0.0000000000000000 12.2103998060000407   F   F   F
 13.7937653517454066  9.8118534319633817 13.6888395439627981   T   T   T
 15.7805205919999434  5.5792565349999723 12.2103998060000407   F   F   F
 15.7805205919999434 16.7377696039999648 12.2103998060000407   F   F   F
  3.9451301480000271  0.0000000000000000 12.2103998060000407   F   F   F
  3.9451301480000271  5.5792565349999723 12.2103998060000407   F   F   F
  3.9451301480000271 11.1585130689999925 12.2103998060000407   F   F   F
  3.9451301480000271 16.7377696039999648 12.2103998060000407   F   F   F
 11.8353900909999528  0.0000000000000000 12.2103998060000407   F   F   F
 11.8353900909999528  5.5792565349999723 12.2103998060000407   F   F   F
 11.8353900909999528 16.7377696039999648 12.2103998060000407   F   F   F
 21.6982156369999721  6.9740706679999214 10.8156001569999933   F   F   F
  7.8902602960000570  5.5792565349999723 12.2103998060000407   F   F   F
 17.6913211438044939  7.0116180676358866 13.6388880807889556   T   T   T
  0.0000000000000000 16.7377696039999648 12.2103998060000407   F   F   F
  9.8686403862485541 18.0869751590088015 13.6473101888287260   T   T   T
 13.8079546360000549 12.5533272030000536 10.8156001569999933   F   F   F
 15.7805205919999434 11.1585130689999925 12.2103998060000407   F   F   F
 13.7945140613181358 15.3133815997548002 13.6394154887947039   T   T   T
 11.8353900909999528 11.1585130689999925 12.2103998060000407   F   F   F
 21.6773751584811905  4.1703538096636104 13.5972107026122266   T   T   T
  9.8468273456944662 20.9148564640631491 16.3829211401809332   T   T   T
 11.8021606614359467  5.6445967789604365 17.7188859435605082   T   T   T
  9.8401161749619632  4.2706740916732011 16.3952878450704738   T   T   T
  2.0281487394614612 15.3834693898715749 16.3629164604459234   T   T   T
  1.9615150659753555  9.7909471371965289 16.3449451076742278   T   T   T
  1.9817249179553842  4.2140015135377000 16.3705657902970216   T   T   T
 11.8254665349737991  2.8049835513395367 14.9847268191547620   T   T   T
 23.6621031732041516 11.1220330611932567 17.8233122876038443   T   T   T
 13.7463948056014278  4.1333692041711654 16.5025208509113668   T   T   T
 23.6630715338451694 16.8177312572774120 17.7801766275238080   T   T   T
  7.9081194541309614 22.3138596204252089 17.7599451946122677   T   T   T
 23.6654004934532942 22.3015260529649026 17.7957608840908179   T   T   T
  0.0200264098667997  5.5435435850892283 17.7672045861330261   T   T   T
  7.8873057356326024 11.0761370398416883 17.7258306309667226   T   T   T
  7.9318679791696098 16.5414592711278736 17.7096904558713248   T   T   T
 15.7062936348502191  5.5320305309882434 17.7103312331264071   T   T   T
 15.7718824611109483  0.0236422838938191 17.7526256723554390   T   T   T
 15.7516872364197091 16.5430761368183070 17.7253162778902151   T   T   T
 15.7805881634321494 11.0411964286504016 17.7360646716982160   T   T   T
  3.9644564339202160 22.2795362564002666 17.7693911567221150   T   T   T
  3.9855228224480337  5.5498789659855223 17.7930410290268206   T   T   T
  4.0402141278875616 16.7443613396882611 17.8487371197671649   T   T   T
  5.8816685527385051  9.7299553606043645 16.4668031336529559   T   T   T
  3.9175755753471453 11.2249244603436047 17.6080780663247154   T   T   T
  7.9216742753150005  5.6800447863207921 17.7810199979134467   T   T   T
 11.8355140396412590  0.0024084939971680 17.7348628604895175   T   T   T
 19.7100932757702019 19.5096439119427423 14.9590675797576278   T   T   T
 17.7083849044786774 20.9340183018769999 19.2294904458876559   T   T   T
 19.6962901067656162  0.0469992443717768 17.7691001327675906   T   T   T
 17.7255862668093478  4.0998369090946412 16.5344186352244726   T   T   T
 10.0102041866534357 15.3498527888430374 16.4065153705962459   T   T   T
 10.0167482783195378  9.9021933635451944 16.3729708153007749   T   T   T
 17.7995805759246579  9.7151713321053865 16.4664499501334198   T   T   T
 13.7917881058437839  6.9444859976823663 16.3466230259750738   T   T   T
  5.9897074162243067 18.1349733926311920 16.5169752370388068   T   T   T
 13.8028248935995848  1.3866640948553461 16.3658376842769648   T   T   T
 13.7905650080240356 20.9173417937927013 13.6330459271126401   T   T   T
 13.8657999506740257 18.1708094803620313 16.5116085624182602   T   T   T
 17.7026383280551443  6.9547752931675406 16.4390180251929330   T   T   T
 13.7556051778701303 12.4985555169495370 16.4651769218981485   T   T   T
  5.9788249783582970 12.4776200877780479 16.3114359399698223   T   T   T
  9.8476762688970858  7.1299636353350246 16.5739436715306923   T   T   T
 13.6502208356355332  9.7269985924491440 16.5631525735310774   T   T   T
  9.8616842198751140  1.4584324460943363 16.4200446906119026   T   T   T
  2.0116695280222787 18.1388832011453403 16.4197264112764216   T   T   T
  1.9149102279246677 12.5967944737162370 16.3925863231990014   T   T   T
  2.0290660987194586  6.9925499880252078 16.4094332978113222   T   T   T
 11.8386634216741520 16.8947797110738485 17.7788728739056658   T   T   T
  1.9511155377194351  1.4091177765120804 16.4268026472067383   T   T   T
 21.6420582236742298 15.3703114504547127 16.3707247692620541   T   T   T
 13.8222971734760485 20.9246765278614930 16.3885393810918423   T   T   T
 21.6926043541884752  4.2147237058825775 16.3664239808433187   T   T   T
 21.6701139061598482  9.7610809651453412 16.3718947037966736   T   T   T
 13.7090136636029438 15.3108550450526391 16.4277429577764771   T   T   T
  5.9535735539286430 20.9171527685999834 16.3572322651175206   T   T   T
 11.7747551733737517 11.2562062800540694 18.2682968049519836   T   T   T
 21.7304760420520147 12.5810844899185135 16.4114093373566128   T   T   T
  9.9401724220013516 12.6078526996676459 16.6602719437946725   T   T   T
 21.6715726820747534 18.1373704399586444 16.4046239953716118   T   T   T
  1.9809902823859180 20.9507824223143508 16.3776789970747494   T   T   T
  5.8914139560765850 15.2496929269936352 16.5533585006928767   T   T   T
 17.7362773057203817 20.8410502392796566 16.4328986338865306   T   T   T
 17.7931713823732771 15.1862242825285936 16.5956289882365375   T   T   T
 21.6740475892857845 20.9454686877130172 16.3932436339135990   T   T   T
  9.8914988085080608  1.4546986286124950 19.2022997212776581   T   T   T
 21.6848944510572643 12.5473038478128203 13.6217074074709732   T   T   T
  9.7593365796906273 18.1409716841768898 19.1875883293406986   T   T   T
 21.6713894700671261  1.4047808025878914 19.2404022117938425   T   T   T
 21.6360248286109424 12.5593142694462649 19.2225750501184152   T   T   T
 21.6661601999380196  6.9596958959071440 19.1911020655224789   T   T   T
 21.6164336666371319 18.1530738291678766 19.2584762294412073   T   T   T
 13.8102870173260488  1.4892947317111112 19.1742228858841628   T   T   T
 13.8086781301853510  7.1626703501001678 19.0007058204824837   T   T   T
 13.9827819263825397 12.6343241987640251 19.1620459994212595   T   T   T
  5.8576144031087924 12.8018192970183140 18.8554861873890616   T   T   T
 17.8391986980501969 15.4420252782174945 19.7133360511740250   T   T   T
  6.2011343759526270 17.8477215172854393 19.3883836869369439   T   T   T
  5.9424361967695836  1.3246851674091977 19.2691238612295876   T   T   T
 21.6982156369999721 12.5533272030000536 10.8156001569999933   F   F   F
 11.8245450111292545  8.3522857622406317 14.9914921347504446   T   T   T
 11.8405841844251771 13.8616276760088866 15.0001169669856864   T   T   T
 19.7054334183818121 13.9057876003587246 15.0057496527016809   T   T   T
  5.9633765025872378  4.1981898840186611 16.4207646878846028   T   T   T
 19.7046979967292017  8.3256877962555880 14.9923519770361491   T   T   T
 19.7158105527631058  2.7790208532831087 15.0070567181991503   T   T   T
  3.9444621526609311  8.3935907741401561 14.9329712661056213   T   T   T
  3.9662934962578271 13.9313412384002486 15.0057281179210396   T   T   T
 13.7621803795685551  9.8012815832536848 19.3829783012432806   T   T   T
 13.6548923246488041 15.3209829309334964 19.1924128120302768   T   T   T
 21.6774838402211714  4.1540240499674139 19.1979525890801703   T   T   T
  5.8963093402131985  7.0573642628586279 19.2369117759652752   T   T   T
 21.6768639708406603  9.7515180743862704 13.6088337674844269   T   T   T
  3.9546836281191551  2.7777860717418639 14.9846249164536989   T   T   T
 17.7160337710090836  1.3440135411139926 16.3447200025426014   T   T   T
  3.9697441363017054 19.4898336686092470 14.9958886065400829   T   T   T
 10.1093387822427623  6.8011631467517306 19.6555050860286116   T   T   T
 13.9882626881045748 18.0906649925373877 19.3787815382686333   T   T   T
  9.9494539981672236 15.0886853789556437 19.0102933662821769   T   T   T
 11.8351261141869344 19.4928819713872628 15.0275966989310756   T   T   T
 17.8784474757369090  9.6902880283698600 19.1359120258361273   T   T   T
 17.8284670375593883 12.6868989424657048 19.0682275662928866   T   T   T
  9.4015928762020540 12.2863662212968912 19.5579889861075351   T   T   T
  9.8866903779670565 20.8650187375078708 19.1930362663189022   T   T   T
 17.5426516833403383 18.0744949959909178 19.1995743642329515   T   T   T
 17.6694889990254183  6.9808138679152245 19.2220750747863320   T   T   T
 17.6869636471467793  1.5234363818978622 19.1974031440354729   T   T   T
  1.9803833074068236  6.9485428144869035 19.2150226978314649   T   T   T
 15.7754015951481357 19.5122156632953434 14.9640655419978454   T   T   T
  2.0502905575142027 12.5578244398630048 19.1959712350452527   T   T   T
  2.0689235703551558  9.7423213197893919 19.1910825845922588   T   T   T
  1.9913459156763162  4.1390164105987974 19.2431291635317656   T   T   T
  9.8973884205313460  4.1837770967968853 19.1933296997096150   T   T   T
  9.8246671493216198  9.3454323003495254 18.9015518053785314   T   T   T
  1.9937494534102764 20.8820429217923049 19.2255595758162912   T   T   T
  1.9679297074752620 15.3330489574162883 19.1667842160210569   T   T   T
  1.9944239074529879  1.3501338214158121 19.2641056663853831   T   T   T
 19.7263348751107408 11.2285775072194394 17.6645328139212623   T   T   T
 21.5968498794053119  9.7328340195985970 19.1988635321538119   T   T   T
 19.6560126158657056 16.7561657701793436 17.7815139283006580   T   T   T
 19.6816752102321182  5.5655222425590951 17.7343133122000083   T   T   T
 17.6634931309897745  4.3438089899469174 19.4008577078807143   T   T   T
 21.6982156369999721 18.1325837370000720 10.8156001569999933   F   F   F
 13.7993015029060277 20.8991868110812717 19.1871758581779694   T   T   T
  1.9970456631836870 18.1356148527302565 19.2725042263022566   T   T   T
 13.7192054259971066  4.2932631897186742 19.3572888464625770   T   T   T
  6.0362636956467588 15.1163026069356352 19.8849399949080272   T   T   T
  5.6893952686909897  9.8641343813341109 19.2378336048305982   T   T   T
 21.6442949962197737 20.9223860117221712 19.2450589959820206   T   T   T
 21.6900735582322532 15.3464303913786519 19.1702460143664091   T   T   T
  5.9661198940979272 20.7594051353743865 19.1220504101255884   T   T   T
  6.0014939190700822  4.1609548311879259 19.2381491274771825   T   T   T
  0.0153048542067959  2.7448938886184329 18.6106672986737891   T   T   T
  3.9451301480000271  8.3688848019999824 12.2103998060000407   F   F   F
 15.7512447988902764 16.7796957672190246 15.0673877116841464   T   T   T
 11.8614521665351162 16.8018314730485585 15.1160378176440364   T   T   T
 15.7680657748440236 -0.0006162412878126 15.1654821271970270   T   T   T
  3.8908334687658228 16.7714730795365057 15.1037387128520670   T   T   T
 19.7256482699999580 13.9481413360000008 12.2103998060000407   F   F   F
 15.8274376343578886 11.1562852068274498 15.0184205677413409   T   T   T
  7.8393055062977659 11.1416153356190613 15.0264722287307269   T   T   T
  7.8126717124491583  5.5354735492395326 15.0849868503762377   T   T   T
  7.9049713318932531 16.7642832560673440 15.0469557312619493   T   T   T
 15.7869398948468511  5.5401075490693410 15.0791138010284946   T   T   T
 11.8633879602182581 11.1552914507426930 15.0071306932698683   T   T   T
 23.6610764030419460 11.1575258294533359 15.2015229364662012   T   T   T
 19.7915591822555612 11.1584805667992253 15.0832316323916711   T   T   T
 19.7794562436446242  5.5488364520722095 15.0867383087897764   T   T   T
 15.7805205919999434  8.3688848019999824 12.2103998060000407   F   F   F
  3.9286131255841554  0.0242767742735509 15.1963194589630906   T   T   T
  0.0000000000000000 19.5273965409999306 12.2103998060000407   F   F   F
 11.8598703439572795  5.5339084717767513 15.0633451711787849   T   T   T
 23.6679409896865955 16.7626896253691093 15.2008890383670519   T   T   T
  0.0191558437643819  5.5737902443138694 15.1827470326826734   T   T   T
  0.0002897692250092 -0.0000913837124907 15.2025098074470488   T   T   T
 15.7805205919999434 13.9481413360000008 12.2103998060000407   F   F   F
 19.7256482699999580 19.5273965409999306 12.2103998060000407   F   F   F
  7.8902602960000570 13.9481413360000008 12.2103998060000407   F   F   F
  7.8902602960000570  2.7896282670000101 12.2103998060000407   F   F   F
  7.8902602960000570  8.3688848019999824 12.2103998060000407   F   F   F
 19.7446374914000025  0.0023371478845224 15.1963231176860454   T   T   T
  7.8902602960000570 19.5273965409999306 12.2103998060000407   F   F   F
 15.7805205919999434  2.7896282670000101 12.2103998060000407   F   F   F
  0.0000000000000000 13.9481413360000008 12.2103998060000407   F   F   F
  3.9357401322225325  5.5390809757468649 15.1864627343997238   T   T   T
  7.8861574585104748  0.0235559323549300 15.1735887370615163   T   T   T
 11.8432739405626979 22.3023184420232212 15.1682848057211022   T   T   T
 11.8677999469487645 19.5771052306292290 18.2963091637772060   T   T   T
  7.7144613801761173  8.3355222076727049 17.7814735512422821   T   T   T
  0.0000000000000000  8.3688848019999824 12.2103998060000407   F   F   F
  7.9076418790306420 13.9408941703639080 17.8507143212857429   T   T   T
 11.8353900909999528 19.5273965409999306 12.2103998060000407   F   F   F
 19.7256482699999580  8.3688848019999824 12.2103998060000407   F   F   F
  3.9451301480000271  2.7896282670000101 12.2103998060000407   F   F   F
 15.7545543426076442  2.7950874622919537 18.2158785419471592   T   T   T
 11.8353900909999528 13.9481413360000008 12.2103998060000407   F   F   F
 19.8726086418682897 13.9933167457103469 18.1204007239866840   T   T   T
  7.8512206094128159  2.6718281988626886 18.3982176178156713   T   T   T
 23.6453009861530994 19.5267319644747452 18.7047965937317855   T   T   T
  3.8692308529089132 11.1547443936613018 15.0558893260046993   T   T   T
 11.8353900909999528  2.7896282670000101 12.2103998060000407   F   F   F
 19.6854623417988570 19.5743438044386018 18.5576151173630350   T   T   T
 19.8265760190936540  8.3118781602681349 18.1117258618806041   T   T   T
 19.7915075631693149 16.7764120318926864 15.0793577644317054   T   T   T
  3.9451301480000271 19.5273965409999306 12.2103998060000407   F   F   F
 19.7256482699999580  2.7896282670000101 12.2103998060000407   F   F   F
  0.0000000000000000  2.7896282670000101 12.2103998060000407   F   F   F
 11.9217191888277352 13.9458220232729975 17.8246174096173071   T   T   T
 15.8810334058019507  8.3164579959485021 17.7980907287074857   T   T   T
 11.8353900909999528  8.3688848019999824 12.2103998060000407   F   F   F
 15.7805205919999434 19.5273965409999306 12.2103998060000407   F   F   F
  7.9223372276201589 19.6115287723638545 18.0874191046957478   T   T   T
  3.7778664953780323 14.0041522386178645 18.0439065799591951   T   T   T
  3.9351194887070320 19.4976405793059122 18.5412277312929206   T   T   T
 11.8710943500002486  8.2901345608629544 17.8412310948970472   T   T   T
  3.9451301480000271 13.9481413360000008 12.2103998060000407   F   F   F
  3.9737570224014949  2.7359607567454183 18.6513760813794427   T   T   T
 11.8500970296926145  2.7333982837073494 18.2044195777528799   T   T   T
 23.6659403889871811 13.9137834044987407 18.7220842304391013   T   T   T
  0.0034613315354316  8.3781862751880904 18.7323944919229142   T   T   T
 19.7443599824329965  2.7711763434983214 18.4173655027675345   T   T   T
 15.7577536459832217 19.6696845771018296 18.2115562991807671   T   T   T
  3.8633954443492864  8.2808238659054254 18.2253781575391756   T   T   T
 15.7794502016239235 13.9709333711945920 17.8004079490577460   T   T   T
  1.9783938520777875  5.5253764759458779 18.1123524749789624   T   T   T
 17.7448439519800125  0.0523324301964143 18.1481145195613571   T   T   T
 13.7991816434767021  0.0330075442452672 18.1277114377960729   T   T   T
 21.6950558391956783  0.0028858473830065 18.1168587361495952   T   T   T
 13.8465130772085416 16.7379513085099632 17.9925752818028748   T   T   T
 13.9729987079202207 11.1922607699550465 17.8040958454618981   T   T   T
  5.7356030445637725 11.1114151971365693 17.8135183327079538   T   T   T
 13.8299731442428833  5.5315210271567450 17.9094228241413234   T   T   T
  5.9119244644262317 22.2651624956507277 18.1260978621371400   T   T   T
 17.8453159130982648  5.5498931792570083 17.8024324642161638   T   T   T
  5.8971485628929239  5.4816585836985503 18.1102830744111252   T   T   T
  9.8813904972800000  0.0018177889825780 18.1399489653208583   T   T   T
  5.9131527612347821 16.8054318303876684 17.7559974494604376   T   T   T
  1.9314365110858818 11.1495713922163091 18.0895184124041428   T   T   T
  1.9208380219348558 13.9682473764027950 15.1636262979062018   T   T   T
  5.8353338380960889  8.3225655104855356 15.0808353827047394   T   T   T