Au  C  H  O Sr Ti                       
   1.00000000000000     
    23.6707801818999997    0.0000000000000000    0.0000000000000000
     0.0000000000000000   22.3170261383000010    0.0000000000000000
     0.0000000000000000    0.0000000000000000   30.0000000000000000
   Au   C    H    O    Sr   Ti
    50     3     7   264    72    72
Selective dynamics
Direct
  0.7129039025429160  0.5310864119586353  0.7544095364660124   T   T   T
  0.6630374699747301  0.1789214832975775  0.7408717741728319   T   T   T
  0.4717941423456583  0.4494793451342665  0.8770990477619507   T   T   T
  0.5196745308565186  0.3789014047376398  0.7327685309821063   T   T   T
  0.2822173516179439  0.3398814659477800  0.7023858883917067   T   T   T
  0.6694734941894540  0.6825301393371982  0.7482905483288975   T   T   T
  0.3977511991094339  0.3818308492887692  0.6904932844567239   T   T   T
  0.4514973061234800  0.5803889610493489  0.7030882962929713   T   T   T
  0.3750378849120680  0.4926793230307783  0.8331011096479188   T   T   T
  0.2892086031580643  0.5380769217085699  0.7777148886142284   T   T   T
  0.3681574514380881  0.6191226901470777  0.8202270030007834   T   T   T
  0.6950732882996337  0.3573473453651927  0.7634616700336659   T   T   T
  0.3252709406576859  0.4147983121169225  0.7693594921009572   T   T   T
  0.2570778112870331  0.5933537311699395  0.6944032935674331   T   T   T
  0.6456396053424192  0.4456925885914402  0.6957141207474878   T   T   T
  0.5610591439144809  0.6430531846467710  0.8640732833379577   T   T   T
  0.5400620710147240  0.6678745685590847  0.7017932019445128   T   T   T
  0.4429851032538187  0.4736150074775138  0.7560820685125121   T   T   T
  0.3736622402710671  0.7406202191753634  0.7787771948649904   T   T   T
  0.4607264252641017  0.5733452289909702  0.8652767917559304   T   T   T
  0.6551808901836405  0.4519100182484522  0.8163468441186084   T   T   T
  0.7066543088831951  0.7578101977754482  0.6879165614833549   T   T   T
  0.4174067746274056  0.6970009100056525  0.6995151918581470   T   T   T
  0.7753883221628934  0.4407619532738396  0.7938975931098696   T   T   T
  0.5963983457930756  0.7845046302984735  0.7131179474024798   T   T   T
  0.5674551107336122  0.5142642990078008  0.8585107064435108   T   T   T
  0.4616320505883557  0.6976453882615761  0.8319413817405535   T   T   T
  0.2938268854255562  0.7466854954966790  0.6969729914658969   T   T   T
  0.5086049106583808  0.6064708989177268  0.7778363825028449   T   T   T
  0.5779760267885797  0.7250745562235829  0.7941327363936858   T   T   T
  0.2402992328554920  0.4695256650330938  0.7092569124227888   T   T   T
  0.2852146817443809  0.6624106176189144  0.7645215300249781   T   T   T
  0.6020845083051086  0.2832137119531000  0.7840306940957548   T   T   T
  0.5135466023465618  0.4852534769582938  0.6780079291825805   T   T   T
  0.5615183725628841  0.4895556500908220  0.7631046246728420   T   T   T
  0.4859053338333802  0.2708139647326073  0.7739892261281354   T   T   T
  0.6196478982482626  0.3202597288833568  0.6974964251315826   T   T   T
  0.5540313743037237  0.2141650056727159  0.7093923091161828   T   T   T
  0.5517224020220804  0.3843322996993541  0.8268088448190015   T   T   T
  0.4361991963339039  0.2273884416796374  0.6978818480792941   T   T   T
  0.3699171986768753  0.2989012693678186  0.7556380874834060   T   T   T
  0.3490094610869584  0.5001360622180963  0.6978238020444951   T   T   T
  0.4300708023516249  0.3709282937112262  0.8148244526355486   T   T   T
  0.6307090864605226  0.5895835371617950  0.8012083040085950   T   T   T
  0.7325141713016310  0.6167441608799825  0.6930411741545587   T   T   T
  0.4857748419740711  0.7765511466612771  0.7551835572308737   T   T   T
  0.7611941934425703  0.4385009387483905  0.7036618373204755   T   T   T
  0.7371816185908365  0.2447519702228809  0.6938610280765006   T   T   T
  0.6207330342410066  0.5720866235109556  0.7040067943766439   T   T   T
  0.3913886948504162  0.8178261774131005  0.7065093321319285   T   T   T
  0.6963969498930165  0.0623899725080014  0.7786250206380411   T   T   T
  0.7239179704115355  0.1116327568580804  0.7515726761613619   T   T   T
  0.7558045944341596  0.2900693815379072  0.7503261442844723   T   T   T
  0.7543386041993235  0.2627155655566901  0.7804618155628225   T   T   T
  0.6594925592738826  0.0432873673098391  0.7620477130869953   T   T   T
  0.7958368759456036  0.3139520320583786  0.7470845926300494   T   T   T
  0.6847360634952572  0.0767882553100505  0.8121890317998005   T   T   T
  0.7591221647456595  0.1333916332370689  0.7685476655702366   T   T   T
  0.7274505101361464  0.0260337099252794  0.7820533523611755   T   T   T
  0.7356576560004613  0.0978654196486977  0.7179187894557881   T   T   T
  0.2531043743200719  0.8125157242107161  0.5506948763330016   T   T   T
  0.5859839924316091  0.8145357500088817  0.5504681880157870   T   T   T
  0.7487605974118755  0.3143028708509760  0.5501431965240521   T   T   T
  0.5811301938409201  0.5599923121924999  0.5489473728715343   T   T   T
  0.4163260780757487  0.3194847914657221  0.5526398181016461   T   T   T
  0.5766522984426038  0.4358142407029084  0.5521751184772796   T   T   T
  0.4166164261043034  0.0653991305879048  0.5473743651247513   T   T   T
  0.0850035236267806  0.8127629410662858  0.5473127720714187   T   T   T
  0.0817883896009528  0.5643281055470973  0.5462938492516999   T   T   T
  0.2494910740140938  0.3135879207955749  0.5459780376851969   T   T   T
  0.5010070148167521  0.7562717552001951  0.5929144108027423   T   T   T
  0.9141982009768549  0.6888908962508563  0.5454223484652896   T   T   T
  0.9176753898536517  0.1887379197452263  0.5448930024984483   T   T   T
  0.9157309892440524  0.4375607840338893  0.5457030785139345   T   T   T
  0.5795411450999056  0.6860979408932034  0.5474018533300765   T   T   T
  0.2515117129121245  0.9372799998812283  0.5452635926001350   T   T   T
  0.4972320823726039  0.5047750725050718  0.6090245651897424   T   T   T
  0.9174527357238319  0.5637329983936992  0.5470122592959220   T   T   T
  0.4198425905171961  0.5648661443995364  0.5554416052451439   T   T   T
  0.9155712837198273  0.8128367648700535  0.5468099856341262   T   T   T
  0.0838478564680588  0.9386280635367179  0.5459051477564225   T   T   T
  0.2492261917658725  0.6831890939733370  0.5520206161435567   T   T   T
  0.7490980852751294  0.9342835812254005  0.5474595328570514   T   T   T
  0.7517937243803736  0.6804968060755420  0.5530415678160812   T   T   T
  0.9158324824270171  0.9385638859899208  0.5463620396804575   T   T   T
  0.4178886574561848  0.0652104347299985  0.6400647961319251   T   T   T
  0.5838604978183447  0.9378827574114783  0.5461013420224834   T   T   T
  0.0823840421961759  0.0631645218690487  0.5475293434798739   T   T   T
  0.4170672693854434  0.9360483350827742  0.4540733702033184   T   T   T
  0.4159490719607373  0.9370762030187931  0.5461120947784448   T   T   T
  0.5830801161083361  0.0625352650889346  0.5460515624469447   T   T   T
  0.4997258212002058  0.1257325202962066  0.4997282442254227   T   T   T
  0.9996365743463544  0.4994547090862759  0.5939976409298027   T   T   T
  0.5814255763021370  0.1855324392126818  0.5502834114914515   T   T   T
  0.9998472417962758  0.7531693702927059  0.5923327236644461   T   T   T
  0.3340570905121350  0.9998755117985727  0.5919762840042196   T   T   T
  0.9999013410699045  0.9988395047697695  0.5930528181658856   T   T   T
  0.0005985261497834  0.2480040777786127  0.5922800861202202   T   T   T
  0.3331980085555271  0.4958675492534268  0.5910531235110055   T   T   T
  0.3356187279354617  0.7412008634738466  0.5903009941312721   T   T   T
  0.6649503966286870  0.2492269241913311  0.5894729245203622   T   T   T
  0.6659871800100976  0.0001769881350811  0.5919977591239239   T   T   T
  0.6657409809782210  0.7416412470239873  0.5902939871161907   T   T   T
  0.6666090024488668  0.4944452919027036  0.5913717326136013   T   T   T
  0.1674842117990352  0.9983645404719621  0.5923268510161608   T   T   T
  0.4127463396204953  0.8128538275631387  0.6394713321531202   T   T   T
  0.1683827408522816  0.2484161421706521  0.5931355886340270   T   T   T
  0.2484083556732968  0.4356938570856588  0.5491907295837294   T   T   T
  0.1655907927059704  0.5026878620441607  0.5874116205153652   T   T   T
  0.3350369091373271  0.2543826972607248  0.5928539952842351   T   T   T
  0.4997171063990754 -0.0000080902582202  0.5910431883517979   T   T   T
  0.8327688169998679  0.8743402610355057  0.4986685022115117   T   T   T
  0.7485519201602765  0.9358054202979754  0.6404126389789885   T   T   T
  0.8323269853886366  0.0010919094629674  0.5920036465659753   T   T   T
  0.7485907712667961  0.1868349673699967  0.5470227208146990   T   T   T
  0.4232474199063855  0.6878638625901212  0.5467347997836584   T   T   T
  0.4232103962558924  0.4437097291439717  0.5457903371914624   T   T   T
  0.7524163656266415  0.4365885016051095  0.5483548044069779   T   T   T
  0.0833333358191695  0.3124999999901945  0.3605200052333331   F   F   F
  0.5827017458292336  0.3115023438981379  0.5455765588348851   T   T   T
  0.5827503885303161  0.9371574601081112  0.4543145429169169   T   T   T
  0.1707384875786159  0.7502186614400586  0.5949640967227245   T   T   T
  0.0860171973685312  0.6892552531260442  0.5453437996770724   T   T   T
  0.9142393542480426  0.8132404026543738  0.6416084199736940   T   T   T
  0.5826595857373648  0.0656946532525544  0.6393290056228220   T   T   T
  0.4173545428805604  0.9350081596594835  0.6398316633398731   T   T   T
  0.7536623915700208  0.3062245507817947  0.6449050287453806   T   T   T
  0.7486068943856615  0.0650903540724961  0.6399955656858394   T   T   T
  0.0835397239102043  0.3110847960643476  0.6404488343242641   T   T   T
  0.6665641650419734  0.8744787640927033  0.4988705281905811   T   T   T
  0.0867491159374473  0.5626307927899385  0.6401416328801932   T   T   T
  0.0867787142367388  0.4363311726815300  0.6394994666278521   T   T   T
  0.4182942017527220  0.1871414429249861  0.6395475348569023   T   T   T
  0.4156298812408508  0.4185045556476372  0.6300587014300900   T   T   T
  0.0845476647833873  0.9356257224637088  0.6408428814252373   T   T   T
  0.0831412843371995  0.6870300035400563  0.6389731006442276   T   T   T
  0.0840655966788594  0.0603090844312509  0.6422038310518007   T   T   T
  0.8332270663707547  0.5025361538689544  0.5893003495161639   T   T   T
  0.0839584239717587  0.1851330078941562  0.6414738777651425   T   T   T
  0.2403581644138585  0.4418988083144103  0.6417735089091078   T   T   T
  0.9126839303363500  0.4355480619084280  0.6397667436706005   T   T   T
  0.2520421712431702  0.9302100370903504  0.6373958610393762   T   T   T
  0.9163747835848099  0.6874526760979698  0.6389896789037516   T   T   T
  0.9145403075082761  0.9370759220461486  0.6413369840231929   T   T   T
  0.3971674075995116  0.5506091682851334  0.6520089106085414   T   T   T
  0.2546487283401870  0.6778438485789441  0.6628370259612258   T   T   T
  0.2535849356658598  0.1864375367510601  0.6411984489224454   T   T   T
  0.5801778812970498  0.1917226982441780  0.6446540574093106   T   T   T
  0.5819275088582367  0.9352990670783372  0.6394507489448586   T   T   T
  0.9166666865332829  0.8124999999834799  0.3605200052333331   F   F   F
  0.7426673200272973  0.1891818937316050  0.6405312982535415   T   T   T
  0.8320872017739525  0.2461365400398521  0.5895230036056891   T   T   T
  0.8306362211640308  0.7509938123144992  0.5925941866889041   T   T   T
  0.0843146469920440  0.8125524884525795  0.6422676277025211   T   T   T
  0.7534132662301273  0.5681674163614232  0.6358732068806715   T   T   T
  0.0835831877335798  0.1888706874737909  0.5455948473025828   T   T   T
  0.7412863537077518  0.8105985664428255  0.6395587757320199   T   T   T
  0.8331273427959838  0.1246390482526854  0.5000881632683503   T   T   T
  0.5885047038431285  0.3206239166976438  0.6343027009339096   T   T   T
  0.7504502541773757  0.1878079741654167  0.4539026157690900   T   T   T
  0.2476434889720317  0.5736520811881338  0.6287589701276838   T   T   T
  0.2621148993890011  0.7995839903201371  0.6463248077205358   T   T   T
  0.2510402254763875  0.0593738123998874  0.6423245920621946   T   T   T
  0.9166666865332829  0.5625000000092442  0.3605200052333331   F   F   F
  0.4996583358244113  0.3742497095065253  0.4997948622336029   T   T   T
  0.5003127272228167  0.6210933342363495  0.5000770992059342   T   T   T
  0.8324096559413241  0.6230652404727878  0.5000155660910748   T   T   T
  0.2520239392884163  0.1882373547275395  0.5472469186468792   T   T   T
  0.8326641015274440  0.3732110619496465  0.4994997348739061   T   T   T
  0.9148964251795564  0.3103914920140921  0.6396185722039286   T   T   T
  0.1666593974877747  0.3760882723966602  0.4978822825465158   T   T   T
  0.5792820032616701  0.4383119822537549  0.6458983763767605   T   T   T
  0.5788314163377081  0.6855976783289151  0.6396800167712280   T   T   T
  0.9148545330006278  0.1847144332834653  0.6398103008806645   T   T   T
  0.2492161662549299  0.3161610082348518  0.6412538745947635   T   T   T
  0.1677465304898683  0.8732747567229685  0.4998755961806967   T   T   T
  0.9157841927019322  0.4370328605031336  0.4536375090957505   T   T   T
  0.1671117375005205  0.1244614298933940  0.4994887963471668   T   T   T
  0.7486561216957763  0.0614958320657700  0.5455447035960467   T   T   T
  0.4272072036483205  0.3045020725419128  0.6556287151996527   T   T   T
  0.5910839468712767  0.8100421445571092  0.6461110014631456   T   T   T
  0.4204371028023372  0.6761006510537884  0.6336438369038881   T   T   T
  0.7538138833195847  0.4325743396703734  0.6371470207032377   T   T   T
  0.4163503864508002  0.1916217079857591  0.5465611569566071   T   T   T
  0.9133922989778398  0.5622257088053190  0.6411611983362668   T   T   T
  0.1677150781398403  0.6242948600953785  0.5001180121861337   T   T   T
  0.5000200926283255  0.8734584465858698  0.5008991000642983   T   T   T
  0.9154672786935373  0.0623459858733522  0.6412243494585994   T   T   T
  0.0827337518371263  0.4389042211545658  0.5448343189920793   T   T   T
  0.7541351427918882  0.6937179086586978  0.6556856663966598   T   T   T
  0.9162072583015037  0.3121152123223074  0.4538716323105564   T   T   T
  0.9166666865332829  0.4374999701794380  0.3605200052333331   F   F   F
  0.9166666865332829  0.1875000000030838  0.3605200052333331   F   F   F
  0.0855870076032397  0.3134656165297401  0.5471041208825791   T   T   T
  0.5833333134730552  0.6874999999963620  0.3605200052333331   F   F   F
  0.5833333134730552  0.4374999701794380  0.3605200052333331   F   F   F
  0.5833333134730552  0.1875000000030838  0.3605200052333331   F   F   F
  0.2499999999799343  0.9375000000154046  0.3605200052333331   F   F   F
  0.9166666865332829  0.9375000000154046  0.3605200052333331   F   F   F
  0.2499999999799343  0.6874999999963620  0.3605200052333331   F   F   F
  0.2499999999799343  0.1875000000030838  0.3605200052333331   F   F   F
  0.7499999404149307  0.9375000000154046  0.3605200052333331   F   F   F
  0.7499999404149307  0.6874999999963620  0.3605200052333331   F   F   F
  0.7499999404149307  0.4374999701794380  0.3605200052333331   F   F   F
  0.4171588106045922  0.6849094026297873  0.4547769267017349   T   T   T
  0.9166666865332829  0.6874999999963620  0.3605200052333331   F   F   F
  0.7499999404149307  0.1875000000030838  0.3605200052333331   F   F   F
  0.4166666269218169  0.4374999701794380  0.3605200052333331   F   F   F
  0.2499999999799343  0.4374999701794380  0.3605200052333331   F   F   F
  0.0833333358191695  0.0625000000159659  0.3605200052333331   F   F   F
  0.9153620559881882  0.6867514519910216  0.4532048469463230   T   T   T
  0.6655788403770476  0.3783811883789116  0.5034974296634663   T   T   T
  0.3344177974395033  0.3783414846767972  0.5031522424225974   T   T   T
  0.3356477321265705  0.6258182841025153  0.5037793934646303   T   T   T
  0.9175995129518304  0.0633941207978271  0.5473973267643564   T   T   T
  0.7495797340000029  0.9382949125220303  0.4552848147201619   T   T   T
  0.5828021050825613  0.4395114104498759  0.4564725389339269   T   T   T
  0.6653531931656946  0.6258637350975086  0.5029702664869102   T   T   T
  0.2500611254493331  0.9360725455589651  0.4540498053179485   T   T   T
  0.2499894690059766  0.1885720621116904  0.4542301934460680   T   T   T
  0.4166666269218169  0.9375000000154046  0.3605200052333331   F   F   F
  0.4166666269218169  0.6874999999963620  0.3605200052333331   F   F   F
  0.2499999999799343  0.8124999999834799  0.3605200052333331   F   F   F
  0.7490577502701430  0.6886033702245650  0.4573274829524672   T   T   T
  0.4166196184016309  0.4354593629084549  0.4539617110013123   T   T   T
  0.0845701533571133  0.6868723416945268  0.4530658035028988   T   T   T
  0.5906988577964307  0.5651726473975841  0.6390209386722370   T   T   T
  0.0840591860064845  0.9367771340173634  0.4535674713387928   T   T   T
  0.0828030026730553  0.4368113139644516  0.4528353754766737   T   T   T
  0.0840275038988095  0.1866250343123107  0.4529778383669331   T   T   T
  0.9165860225293064  0.8121388550150215  0.4540721038561485   T   T   T
  0.7465131794573252  0.5585547529989352  0.5449092389596035   T   T   T
  0.0003996956068185  0.1249110601450058  0.4979361853605213   T   T   T
  0.9161122408617981  0.0621646394461528  0.4540841507692033   T   T   T
  0.4994531962662899  0.2538938666699703  0.5914918459903531   T   T   T
  0.4172038648510936  0.1871509353681811  0.4536104820339641   T   T   T
  0.2520757801493665  0.6876322150919353  0.4561446111341164   T   T   T
  0.9156074867923266  0.3126600375521584  0.5468679566607830   T   T   T
  0.9163861121280712  0.9371593406035053  0.4536188546932085   T   T   T
  0.5833333134730552  0.9375000000154046  0.3605200052333331   F   F   F
  0.9161876776966882  0.5623135777655855  0.4539695859003709   T   T   T
  0.9998433210598971  0.6271105836757874  0.4977023067792903   T   T   T
  0.3337540861494888  0.1256949494659728  0.4987705071963518   T   T   T
  0.0000955013945703  0.8751607292038874  0.4995021749066453   T   T   T
  0.3334643358615420  0.8739342704261306  0.4993166710038376   T   T   T
  0.6660268261530821  0.1257483007542800  0.4992498590284300   T   T   T
  0.2511674850759775  0.4392710520011313  0.4549566093417356   T   T   T
  0.0833333358191695  0.5625000000092442  0.3605200052333331   F   F   F
  0.9166666865332829  0.0625000000159659  0.3605200052333331   F   F   F
  0.7494008848865380  0.8131878704183522  0.4530586950910419   T   T   T
  0.7494011289301018  0.4377196257720272  0.4554195816135566   T   T   T
  0.2505049892206255  0.0620642342759665  0.4542794190660169   T   T   T
  0.5829494188879615  0.1901656813859151  0.4556383936658618   T   T   T
  0.2518825101936976  0.5645999295380306  0.4538462536089572   T   T   T
 -0.0000922884517780  0.3737211085407925  0.4981796456531056   T   T   T
  0.5832772172448450  0.8104975276541995  0.4553760449938944   T   T   T
  0.8333332538436267  0.0000000000000000  0.4070133268666680   F   F   F
  0.2525465949490217  0.5590054768737404  0.5439687426955887   T   T   T
  0.2499999999799343  0.5625000000092442  0.3605200052333331   F   F   F
  0.0000000000000000  0.2500000000190425  0.4070133268666680   F   F   F
  0.0000000000000000  0.4999999999932783  0.4070133268666680   F   F   F
  0.7483012158073394  0.5639245943756976  0.4539918383192057   T   T   T
  0.3333333432766779  0.0000000000000000  0.4070133268666680   F   F   F
  0.3333333432766779  0.4999999999932783  0.4070133268666680   F   F   F
  0.3333333432766779  0.7500000000123208  0.4070133268666680   F   F   F
  0.6666666865533486  0.0000000000000000  0.4070133268666680   F   F   F
  0.6666666865533486  0.2500000000190425  0.4070133268666680   F   F   F
  0.6666666865533486  0.4999999999932783  0.4070133268666680   F   F   F
  0.6666666865533486  0.7500000000123208  0.4070133268666680   F   F   F
  0.5843075683735550  0.3152587031204693  0.4539993603975552   T   T   T
  0.1666666716383389  0.2500000000190425  0.4070133268666680   F   F   F
  0.7481558656345838  0.8080929989260214  0.5454999051425817   T   T   T
  0.1666666716383389  0.7500000000123208  0.4070133268666680   F   F   F
  0.0000000000000000  0.0000000000000000  0.4070133268666680   F   F   F
  0.5000000000021103  0.7500000000123208  0.4070133268666680   F   F   F
  0.3333333432766779  0.2500000000190425  0.4070133268666680   F   F   F
  0.7473851862104656  0.3127657346749438  0.4559998818156524   T   T   T
  0.0000000000000000  0.7500000000123208  0.4070133268666680   F   F   F
  0.4168730443271275  0.8103690059189222  0.4549446319960209   T   T   T
  0.7498685792288139  0.0632373619999326  0.4538146953034777   T   T   T
  0.9159436905076513  0.1866247652561279  0.4529555203552970   T   T   T
  0.5831292004480484  0.0636105370175906  0.4540790189740136   T   T   T
  0.5827814420240776  0.6861134032567127  0.4545931911241067   T   T   T
  0.5833333134730552  0.0625000000159659  0.3605200052333331   F   F   F
  0.1666666716383389  0.4999999999932783  0.4070133268666680   F   F   F
  0.8333332538436267  0.2500000000190425  0.4070133268666680   F   F   F
  0.5844559731306956  0.5627961276427947  0.4548208859429277   T   T   T
  0.5000000000021103  0.0000000000000000  0.4070133268666680   F   F   F
  0.5000000000021103  0.4999999999932783  0.4070133268666680   F   F   F
  0.9166666865332829  0.3124999999901945  0.3605200052333331   F   F   F
  0.0833333358191695  0.1875000000030838  0.3605200052333331   F   F   F
  0.5000000000021103  0.2500000000190425  0.4070133268666680   F   F   F
  0.5833333134730552  0.5625000000092442  0.3605200052333331   F   F   F
  0.7499999404149307  0.5625000000092442  0.3605200052333331   F   F   F
  0.1666666716383389  0.0000000000000000  0.4070133268666680   F   F   F
  0.2499999999799343  0.0625000000159659  0.3605200052333331   F   F   F
  0.7499999404149307  0.3124999999901945  0.3605200052333331   F   F   F
  0.7499999404149307  0.0625000000159659  0.3605200052333331   F   F   F
  0.4166666269218169  0.8124999999834799  0.3605200052333331   F   F   F
  0.4166666269218169  0.5625000000092442  0.3605200052333331   F   F   F
  0.7499999404149307  0.8124999999834799  0.3605200052333331   F   F   F
  0.0834803068099504  0.3119896454475828  0.4540448079286965   T   T   T
  0.4170423463927298  0.0616689039376429  0.4553657580553345   T   T   T
  0.0835325115397428  0.8120555393270468  0.4541778167834862   T   T   T
  0.0839723200683165  0.5624829357653209  0.4539045173701677   T   T   T
  0.4166666269218169  0.3124999999901945  0.3605200052333331   F   F   F
  0.5833333134730552  0.3124999999901945  0.3605200052333331   F   F   F
  0.2522563817834766  0.3141388603533986  0.4541696448742439   T   T   T
  0.4166666269218169  0.0625000000159659  0.3605200052333331   F   F   F
  0.5833333134730552  0.8124999999834799  0.3605200052333331   F   F   F
  0.2505035345276563  0.8108022349895134  0.4553256134191392   T   T   T
  0.4160580707681601  0.5595200568957139  0.4578739426520823   T   T   T
  0.0833333358191695  0.9375000000154046  0.3605200052333331   F   F   F
  0.0839512659489094  0.0619746153000317  0.4541029527660219   T   T   T
  0.2499999999799343  0.3124999999901945  0.3605200052333331   F   F   F
  0.8333332538436267  0.7500000000123208  0.4070133268666680   F   F   F
  0.0833333358191695  0.4374999701794380  0.3605200052333331   F   F   F
  0.4155597895086560  0.3113673408842334  0.4574043122532560   T   T   T
  0.8333332538436267  0.4999999999932783  0.4070133268666680   F   F   F
  0.4166666269218169  0.1875000000030838  0.3605200052333331   F   F   F
  0.0833333358191695  0.8124999999834799  0.3605200052333331   F   F   F
  0.2511080627308232  0.0625354395995521  0.5472764256337067   T   T   T
  0.4145834535798863  0.8116526035514121  0.5477365411620753   T   T   T
  0.0833333358191695  0.6874999999963620  0.3605200052333331   F   F   F
  0.5000000000021103  0.3750000000061604  0.4070133268666680   F   F   F
  0.9996822698807444  0.6229222722145225  0.6259438877783255   T   T   T
  0.8361268689633911  0.4998655944003882  0.5028906006573132   T   T   T
  0.8333332538436267  0.3750000000061604  0.4070133268666680   F   F   F
  0.1635905723524675  0.4997520263905952  0.5020779634084385   T   T   T
  0.1666666716383389  0.8749999404036828  0.4070133268666680   F   F   F
  0.1666666716383389  0.1249999999871179  0.4070133268666680   F   F   F
  0.8376475313260724  0.3716007366515630  0.6043021574375209   T   T   T
  0.8323985845262842  0.8760743668367110  0.6178459436157175   T   T   T
  0.8333332538436267  0.1249999999871179  0.4070133268666680   F   F   F
  0.3316715453539142  0.1198010214314979  0.6130926655327089   T   T   T
  0.5000000000021103  0.6249999999803961  0.4070133268666680   F   F   F
  0.9992986668575884  0.8750339896059213  0.6227160130986054   T   T   T
  0.8361060052818599  0.7516579237390154  0.5025965937235811   T   T   T
  0.5007069719662994  0.1222229379191870  0.6063568578971061   T   T   T
  0.9998588925090133  0.3742763316397090  0.6230934527415264   T   T   T
  0.6653438164400444  0.1220578257775644  0.6077887694824000   T   T   T
  0.0000000000000000  0.1249999999871179  0.4070133268666680   F   F   F
  0.5029253170039798  0.3707280663893439  0.5959066650198296   T   T   T
  0.8331978843478671  0.1226325075808002  0.6128351675315387   T   T   T
  0.6663279852645365  0.6261404457794126  0.5931626817937291   T   T   T
  0.6650812323816891  0.8808027658215085  0.6068671040984736   T   T   T
  0.1666666716383389  0.6249999999803961  0.4070133268666680   F   F   F
  0.1631227590437009  0.3709951429901969  0.6078182797062761   T   T   T
  0.1595986033876323  0.6272193480266085  0.6014451948490411   T   T   T
  0.6720883268333755  0.3725198494580796  0.5941713506775738   T   T   T
  0.1663166230917675  0.8735335167621443  0.6178797052467363   T   T   T
  0.3345594923123530  0.8786780473703831  0.6028563940773186   T   T   T
  0.5000000000021103  0.8749999404036828  0.4070133268666680   F   F   F
  0.6666666865533486  0.8749999404036828  0.4070133268666680   F   F   F
  0.1678437567588673  0.1225060625742569  0.6219086897546475   T   T   T
  0.3341615254537158  0.6244388049210307  0.5950618449748419   T   T   T
  0.3261493366338385  0.3733189661092118  0.5928046327371350   T   T   T
  0.5000000000021103  0.1249999999871179  0.4070133268666680   F   F   F
  0.8396985800401991  0.6268304234989738  0.6037199491527893   T   T   T
  0.8357503234567121  0.2481852403541986  0.5024705250308000   T   T   T
  0.5012668119006778  0.2480838096385885  0.5023112983547632   T   T   T
  0.5011561479031704  0.7528269280267008  0.5039596504107743   T   T   T
  0.3302108928420890  0.2480938528418211  0.5028448665646468   T   T   T
  0.6666666865533486  0.3750000000061604  0.4070133268666680   F   F   F
  0.6687531736088596  0.4998360029559106  0.5007147661362601   T   T   T
  0.1644506461519549  0.7514269547417018  0.5033501802859323   T   T   T
  0.6661951630072181  0.0000020495772075  0.5056163868636389   T   T   T
  0.6653812537960804  0.7518579726982345  0.5022362178373553   T   T   T
  0.0004969670768841  0.1226224093053411  0.6200881903002170   T   T   T
  0.1660145687504832  0.0011063959598745  0.5065528650091973   T   T   T
  0.8333332538436267  0.6249999999803961  0.4070133268666680   F   F   F
  0.6670799777133876  0.2480343155207509  0.5023465712982034   T   T   T
  0.1666666716383389  0.3750000000061604  0.4070133268666680   F   F   F
  0.5036988280579944  0.6250292958707726  0.5940701750533626   T   T   T
  0.0000000000000000  0.3750000000061604  0.4070133268666680   F   F   F
  0.0009095847601853  0.2497871647836556  0.5059996375023039   T   T   T
  0.3339085086463834  0.7511498403411202  0.5015149883128802   T   T   T
  0.3312164349943650  0.4991238538718017  0.5009918377825628   T   T   T
  0.3333333432766779  0.3750000000061604  0.4070133268666680   F   F   F
  0.5012239949574000  0.4998072313699584  0.5003519789443387   T   T   T
  0.9995921744001363  0.5001266977315580  0.5067592806240026   T   T   T
  0.3331501619592628  0.0010347693352900  0.5058007041872697   T   T   T
  0.0000000000000000  0.8749999404036828  0.4070133268666680   F   F   F
  0.5002562362933460  0.9992584943855585  0.5055723322694486   T   T   T
  0.5006492827646587  0.8766125943416783  0.6095284265105657   T   T   T
  0.0000000000000000  0.6249999999803961  0.4070133268666680   F   F   F
  0.3333333432766779  0.8749999404036828  0.4070133268666680   F   F   F
  0.1662612899464999  0.2482516687827957  0.5062476157423753   T   T   T
  0.6666666865533486  0.1249999999871179  0.4070133268666680   F   F   F
  0.3333333432766779  0.1249999999871179  0.4070133268666680   F   F   F
  0.3333333432766779  0.6249999999803961  0.4070133268666680   F   F   F
  0.8333332538436267  0.8749999404036828  0.4070133268666680   F   F   F
  0.6666666865533486  0.6249999999803961  0.4070133268666680   F   F   F
  0.0001765418949629  0.9998605465207238  0.5066394596174312   T   T   T
  0.9999526841909631  0.7509467651987941  0.5065767258284631   T   T   T
  0.8341497641260587  0.0001822288270776  0.5062870212545261   T   T   T
  0.7519381072876254  0.7525099540438576  0.5905201718568589   T   T   T
  0.2491963097238731  0.8787044542673539  0.5024857838949028   T   T   T
  0.9184310767179159  0.3742039458201470  0.5059572224376191   T   T   T
  0.0833333358191695  0.4999999999932783  0.4070133268666680   F   F   F
  0.4166666269218169  0.4999999999932783  0.4070133268666680   F   F   F
  0.2499999999799343  0.2500000000190425  0.4070133268666680   F   F   F
  0.7524871120061528  0.6247475955455631  0.5023300156995381   T   T   T
  0.0833333358191695  0.2500000000190425  0.4070133268666680   F   F   F
  0.9166666865332829  0.4999999999932783  0.4070133268666680   F   F   F