Au  C  H  O Sr Ti 
 1.0000000000000000
    23.6707801818999997    0.0000000000000000    0.0000000000000000
     0.0000000000000000   22.3170261383000010    0.0000000000000000
     0.0000000000000000    0.0000000000000000   30.0000000000000000
 Au  C   H   O   Sr  Ti 
  50   3   7 264  72  72
Selective dynamics
Cartesian
 16.9140105060346109 11.7771403819036529 22.5998143366304092   T   T   T
 15.7948633395650564  4.1578160115783200 22.3319442682426050   T   T   T
 11.1515915198855069 10.0477728647354567 26.3309163797279737   T   T   T
 12.2144404965748805  8.4473214203826021 21.9895550127066706   T   T   T
  6.6901399641921646  7.5704493075743242 21.0712106237098240   T   T   T
 15.8509164640470690 15.2108391747913512 22.4552576462271425   T   T   T
  9.4044466805033871  8.5312816121666142 20.7210773051336012   T   T   T
 10.7041829222728460 12.9465465563874318 21.0744900029729614   T   T   T
  8.8644979808077977 11.0051493863600829 25.0139367354628988   T   T   T
  6.8480257517115968 12.0077469244526167 23.3328301252507906   T   T   T
  8.7215593076690627 13.8192490707316509 24.6114338505055166   T   T   T
 16.5096753334934370  7.8728861714466909 22.8324860819958175   T   T   T
  7.7034227710858421  9.2614832548641708 23.0832287983955347   T   T   T
  6.0889048902975773 13.2492419629642750 20.8288111835911174   T   T   T
 15.3075843281628181  9.9093784363882751 20.8894447400809113   T   T   T
 13.3340232177414695 14.2991028233683171 25.8694728304084904   T   T   T
 12.7984180872000994 14.9027240799900298 21.0446173156173479   T   T   T
 10.4753385037682687 10.6111964872683942 22.7072303407045126   T   T   T
  8.8561833948540070 16.5089233423285755 23.3620640597305176   T   T   T
 10.9438302660420934 12.7906310526452280 25.9335174611227544   T   T   T
 15.4986949504218998  9.9573166015869283 24.4255063987529297   T   T   T
 16.7250878613483991 16.8972072686899146 20.6419004999998386   T   T   T
  9.8856214178220849 15.5476231187177287 20.9800083772324761   T   T   T
 18.3517997880694956  9.7407197666860679 23.8375284905450435   T   T   T
 14.1180631008736182 17.5090090744511251 21.3917089629155264   T   T   T
 13.4731003740505564 11.4010941916627626 25.7112528735202552   T   T   T
 10.9595713686908187 15.5392083077317302 24.9356919750394219   T   T   T
  6.9375978323574303 16.6591742365463347 20.9257209201750207   T   T   T
 12.0843883732702366 13.5003278504357276 23.3104463338856966   T   T   T
 13.6804094981345550 16.1728503941071580 23.8098996288056064   T   T   T
  5.6897409874946208 10.4813580327844438 21.2811313099327037   T   T   T
  6.7468619011797717 14.7798613412556996 22.9393961587100570   T   T   T
 14.2816785854251833  6.3502335021913607 23.5445377723533475   T   T   T
 12.1636825483104030 10.8127267013798196 20.3405956748931551   T   T   T
 13.2943405283359528 10.8767278184668612 22.8737167199913216   T   T   T
 11.5188362590591176  6.0238863186601304 23.2500061624453842   T   T   T
 14.5797240109138482  7.1205780679651003 20.9400330709985347   T   T   T
 13.1358326505581129  4.7017988958898185 21.3266285958006527   T   T   T
 13.0215603495650889  8.5533045820030047 24.8202167125729325   T   T   T
 10.3777305281690939  5.0943759284826022 20.9320294461123169   T   T   T
  8.7616197743532656  6.6674353740993801 22.6723060760488622   T   T   T
  8.2597203239867163 11.1718936581623023 20.9338117513547211   T   T   T
 10.1728914731141078  8.2909916724381976 24.4410029914132778   T   T   T
 14.9776288108869853 13.0883250102630004 24.0054563813034783   T   T   T
 17.3479599608893942 13.7402829570924467 20.8016186414499096   T   T   T
 11.4992700370257914 17.3318227790235184 22.6532995015025875   T   T   T
 18.0591349084426334  9.6854636002375205 21.1268453172658361   T   T   T
 17.6240797942901253  5.5206229889542335 20.8429820379177571   T   T   T
 14.7080740624187243 12.7434827431059592 21.1181320047043037   T   T   T
  9.2553539959577869 18.2382290609624107 21.1966821740774272   T   T   T
 16.5112385613101935  1.4777935001057150 23.3697075331700681   T   T   T
 17.1731513856130853  2.5649829931429946 22.5578605020074008   T   T   T
 17.9802120256178384  6.3188102017770893 22.8264362490456740   T   T   T
 17.8813298476778968  5.7538953361543577 23.7551681965969301   T   T   T
 15.6353473246891568  1.0562772430102010 22.8744540306216528   T   T   T
 18.9311603503501544  6.8525237307855953 22.7764350295789022   T   T   T
 16.2418701478248657  1.8005582957365234 24.3777370885408793   T   T   T
 18.0432758852000639  3.0063872854107556 23.0468514306279388   T   T   T
 17.2449646291690790  0.6626108591740300 23.4756396662589211   T   T   T
 17.4044631696153971  2.2731007339044584 21.5306795368602337   T   T   T
  5.9935252546409075 18.1307487575719577 16.5228311174182281   T   T   T
 13.8719041011674857 18.1775994690056137 16.5116995102752249   T   T   T
 17.7232219050655040  6.9715285699048337 16.4654822743755211   T   T   T
 13.7605932467256054 12.4941170620215782 16.4672330220473810   T   T   T
  9.8566819980015872  7.1316653564420651 16.5818578380142228   T   T   T
 13.6482722043170490  9.7209505148019524 16.5650823466823987   T   T   T
  9.8596652612485194  1.4603206567351237 16.4218215512395460   T   T   T
  2.0098726842007770 18.1411936924370103 16.4198393012062098   T   T   T
  1.9459817838873346 12.5939231773950304 16.3898311583207850   T   T   T
  5.9061379680432387  6.9977159132309117 16.3801241545233296   T   T   T
 11.8644255495975148 16.8785758031729891 17.7907295388726467   T   T   T
 21.6349511671974639 15.3777250297478414 16.3598265885036618   T   T   T
 21.7212148734685186  4.2121456566487883 16.3466777612071468   T   T   T
 21.6816208476811276  9.7673063609456339 16.3731844613666269   T   T   T
 13.7174702677949121 15.3108172622735701 16.4200552721906554   T   T   T
  5.9540890328139993 20.9170235620762703 16.3572835864036215   T   T   T
 11.7736923932728086 11.2569617644377207 18.2698062393041631   T   T   T
 21.7132990984864733 12.5822307854720528 16.4083999461358268   T   T   T
  9.9399570611998875 12.6075464275184128 16.6614713257118865   T   T   T
 21.6724742237873684 18.1406553244609690 16.4046902899264317   T   T   T
  1.9798163961458173 20.9529925855129342 16.3745953736518075   T   T   T
  5.9006293422170719 15.2468616661825287 16.5624828202636785   T   T   T
 17.7369101112439083 20.8423313873357259 16.4294073328693848   T   T   T
 17.7974057591147243 15.1738477346740304 16.6011457489654042   T   T   T
 21.6798191810031291 20.9464021995734058 16.3903483375081116   T   T   T
  9.8910487788558346  1.4560086728819928 19.2022146204619943   T   T   T
 13.8204966595508552 20.9306754284612957 16.3838550564656700   T   T   T
  1.9476225906437268  1.4120540819941891 16.4270975545414295   T   T   T
  9.8727084439272694 20.8902007599999315 13.6205097252766034   T   T   T
  9.8453937571425207 20.9145286082540416 16.3819630530870519   T   T   T
 13.8070888462608128  1.3967715535257146 16.3807335146948994   T   T   T
 11.8291246844145128  2.8056864880033614 14.9924640695310458   T   T   T
 23.6613015671741813 11.1680840184030785 17.8261573812233358   T   T   T
 13.7693864647593482  4.1433971695743574 16.5027492421943514   T   T   T
 23.6630418892075518 16.8047264274905430 17.7716873213578772   T   T   T
  7.9065874474253741 22.3136940620670607 17.7600905867445533   T   T   T
 23.6679675467463788 22.2995726365772988 17.7965235416686944   T   T   T
  0.0092662621011925  5.5549797282495978 17.7706371427939409   T   T   T
  7.8872304698517572 11.0651000112514861 17.7298555663741517   T   T   T
  7.9499599978171682 16.5416619136633365 17.7127734474541931   T   T   T
 15.7456427865165960  5.5604901122864998 17.6933303177409265   T   T   T
 15.7652512203018560  0.0118901699848905 17.7587184513489156   T   T   T
 15.7601581974104974 16.5505157265056013 17.7032355901383944   T   T   T
 15.7837007657906927 11.0181449663637299 17.7430900611836400   T   T   T
  3.9642037151813594 22.2800377788344228 17.7687782076197180   T   T   T
  9.7734057557420488 18.1391927407508113 19.1875748345050496   T   T   T
  3.9845023662012897  5.5493513333573929 17.7955142399728281   T   T   T
  5.8790099744115478  9.7223847883188999 16.4763281869461302   T   T   T
  3.9192076161538054 11.2184136595343151 17.6241239973323509   T   T   T
  7.9321484585144875  5.6777210353270489 17.7875565590613576   T   T   T
 11.8291270407844458  0.0019417890268282 17.7322601089649972   T   T   T
 19.7122716118999897 19.5122686489121833 14.9591590379147288   T   T   T
 17.7190524374768863 20.9156792635540647 19.2136791568416285   T   T   T
 19.7016567819325452  0.0293425905066895 17.7575295087437794   T   T   T
 17.7092014830443212  4.1029402283732086 16.4956367490763149   T   T   T
 10.0180641912220274 15.3550580303530033 16.3978928966468303   T   T   T
 10.0161870587896633  9.9048303335281762 16.3667052766941090   T   T   T
 17.8019692400728999  9.7142170630298175 16.4664425884622787   T   T   T
  1.9725650740000149  6.9740706679999214 10.8156001569999933   F   F   F
 13.7929371123443403  6.9454347277832174 16.3545793002051170   T   T   T
 13.7933467919196993 20.9154335339428989 13.6296031030052163   T   T   T
  4.0417225516781823 16.7403561761421606 17.8506783600665138   T   T   T
  2.0394747178457719 15.3840482720493839 16.3596825564772175   T   T   T
 21.6371272480713195 18.1492140604502055 19.2468414836928581   T   T   T
 13.7931714954178020  1.4791196693395512 19.1741460121584275   T   T   T
  9.8792328204908380 20.8665752339049355 19.1936853479172171   T   T   T
 17.8638771815954946  6.8718699609899447 19.2940371003892999   T   T   T
 17.7265243780648518  1.5159269432132012 19.1537587205720428   T   T   T
  1.9780195502038374  6.9473445758898329 19.2170064302340968   T   T   T
 15.7776597940850642 19.5154767845080457 14.9656234081537907   T   T   T
  2.0591621593719012 12.5495989174627933 19.2243198308646583   T   T   T
  2.0507609013192227  9.7358715389807688 19.1824125603263766   T   T   T
  9.9084889373005165  4.1842001872094974 19.1962045421496832   T   T   T
  9.8321320168256765  9.3439663740111989 18.9042698788640173   T   T   T
  1.9962883448839046 20.8797265068888827 19.2211324624879367   T   T   T
  1.9664837440498875 15.3308703881739792 19.1750983516386597   T   T   T
  1.9941410823434922  1.3513116012721422 19.2646818734512415   T   T   T
 19.7208462677900691 11.2085806069015312 17.6724442376445197   T   T   T
  1.9803701500192799  4.1402937706778120 19.2368078917877305   T   T   T
  5.6888362229199076  9.8681272893131702 19.2569653274345960   T   T   T
 21.6036990298895688  9.7268224341936680 19.1941485376213983   T   T   T
  5.9640840707253249 20.7587698660205788 19.1209326009250624   T   T   T
 21.6868941284719554 15.3433549380772476 19.1767529280010507   T   T   T
 21.6457965951440450 20.9121233859846960 19.2398153074432550   T   T   T
  9.4009199424582608 12.2878752217138079 19.5538906854273655   T   T   T
  6.0243780010657284 15.1286828935022672 19.8799343928687051   T   T   T
  6.0008967853320927  4.1623295467713728 19.2360803495022843   T   T   T
 13.7400518098795299  4.2794050880478869 19.3448517148324868   T   T   T
 13.7794484053420199 20.8824818268482808 19.1830539214098863   T   T   T
 21.6982156369999721 18.1325837370000720 10.8156001569999933   F   F   F
 17.5992700540297768  4.2768504519781345 19.3219993856102192   T   T   T
 19.6948743970497802  5.4878268392660772 17.6787616157819443   T   T   T
 19.6587057556329761 16.7589350174222886 17.7793461174699097   T   T   T
  1.9948880280340551 18.1294227137679833 19.2640198952448465   T   T   T
 17.8321059268762490 12.6755324082759682 19.0714326580161249   T   T   T
  1.9778192958027867  4.2166737188253736 16.3674099833808810   T   T   T
 17.5449368691420133 18.0800778452795470 19.1918680041731093   T   T   T
 19.7173808800614481  2.7822881955294427 15.0120306331583659   T   T   T
 13.9270869635730428  7.1591468994229519 19.0166200557002192   T   T   T
 17.7728704113808185  4.2277855403169262 13.6605175283970635   T   T   T
  5.8625546596976621 12.8018059721277631 18.8613247129082566   T   T   T
  6.2057696557576776 17.8332279396717404 19.3964224290460123   T   T   T
  5.9410365943555403  1.3268862233783238 19.2698124516612808   T   T   T
 21.6982156369999721 12.5533272030000536 10.8156001569999933   F   F   F
 11.8255117042813396  8.3510470815112701 14.9915227497886328   T   T   T
 11.8425151482112305 13.8595591745821114 15.0032500044322585   T   T   T
 19.7026908253229145 13.9043392904929934 15.0003875462426812   T   T   T
  5.9651036620935685  4.2008404630783307 16.4182844702792501   T   T   T
 19.7083334653835429  8.3324696304479655 14.9889295800650757   T   T   T
 21.6279070861627005  6.9346801976822050 19.1891383829538213   T   T   T
  3.9455784959371525  8.3946002061996516 14.9381662128666122   T   T   T
 13.7378640362060622  9.7831272006857368 19.3876538621589951   T   T   T
 13.7197675755590502 15.2953759668611138 19.1810762944165667   T   T   T
 21.6571435022411691  4.1315164551120613 19.1907379097057813   T   T   T
  5.8972564423240064  7.0621099959196405 19.2377064752896878   T   T   T
  3.9704129542684243 19.4885129827713364 14.9965039182711060   T   T   T
 21.6783691731889938  9.7526758121541004 13.6092016876009083   T   T   T
  3.9547006408180332  2.7777932913620416 14.9846341819713924   T   T   T
 17.7130852909748455  1.3382577059946528 16.3329902487271319   T   T   T
 10.1122066329193459  6.7966917692070945 19.6674544113889951   T   T   T
 13.9929397972425278 18.0794051914502489 19.3824858221829253   T   T   T
  9.9655483052911578 15.0825236442785862 19.0023854892037320   T   T   T
 17.8538055489836864  9.6454269884446227 19.1350644748637073   T   T   T
  9.8572946246287465  4.2757115131587460 16.4045615715541189   T   T   T
 21.6031677951894672 12.5453708025359223 19.2406382330043684   T   T   T
  3.9718663921140003 13.9332623706593797 15.0003124682734761   T   T   T
 11.8357203464810983 19.4929331189004458 15.0265975155132221   T   T   T
 21.6687351132043595  1.3981034028657739 19.2305308408327420   T   T   T
  1.9547098499546325  9.7888936115277456 16.3519019422526313   T   T   T
 17.8513449661092096 15.4648622846855375 19.6840510046335702   T   T   T
 21.6879716318259348  6.9660393579266406 13.6163047055278437   T   T   T
 21.6982156369999721  9.7636982699999884 10.8156001569999933   F   F   F
 21.6982156369999721  4.1844424010000720 10.8156001569999933   F   F   F
  2.0210574802082815  6.9942264422228559 16.4110639735221042   T   T   T
 13.8079546360000549 15.3429554700000619 10.8156001569999933   F   F   F
 13.8079546360000549  9.7636982699999884 10.8156001569999933   F   F   F
 13.8079546360000549  4.1844424010000720 10.8156001569999933   F   F   F
  5.9176950450000287 20.9222120050000342 10.8156001569999933   F   F   F
 21.6982156369999721 20.9222120050000342 10.8156001569999933   F   F   F
  5.9176950450000287 15.3429554700000619 10.8156001569999933   F   F   F
  5.9176950450000287  4.1844424010000720 10.8156001569999933   F   F   F
 17.7530837259999217 20.9222120050000342 10.8156001569999933   F   F   F
 17.7530837259999217 15.3429554700000619 10.8156001569999933   F   F   F
 17.7530837259999217  9.7636982699999884 10.8156001569999933   F   F   F
  9.8722624144131856 15.2831687195760058 13.6414786728208810   T   T   T
 21.6982156369999721 15.3429554700000619 10.8156001569999933   F   F   F
 17.7530837259999217  4.1844424010000720 10.8156001569999933   F   F   F
  9.8628241350000643  9.7636982699999884 10.8156001569999933   F   F   F
  5.9176950450000287  9.7636982699999884 10.8156001569999933   F   F   F
  1.9725650740000149  1.3948141340000613 10.8156001569999933   F   F   F
 21.6678647794734687 15.3257986420209349 13.5953772167203599   T   T   T
 15.7547340933307929  8.4452508855447483 15.0993145673192757   T   T   T
  7.9152768512754843  8.4424531027403749 15.0943455801386985   T   T   T
  7.9436451275418172 13.9657527697104769 15.1140705598146710   T   T   T
 21.7185547781818400  1.4153210532371767 16.4212916903986965   T   T   T
 17.7404746886125899 20.9430275739298466 13.6596397140080761   T   T   T
 13.7949396502364863  9.8113259231515730 13.6927909587488958   T   T   T
 15.7520586102593363 13.9653716498014369 15.0884218361231692   T   T   T
  5.9185994679518892 20.8899101764251078 13.6207171628597017   T   T   T
  5.9170852475408759  4.2050061070885549 13.6260242578938477   T   T   T
  9.8628241350000643 20.9222120050000342 10.8156001569999933   F   F   F
  9.8628241350000643 15.3429554700000619 10.8156001569999933   F   F   F
  5.9176950450000287 18.1325837370000720 10.8156001569999933   F   F   F
 17.7313464995728047 15.3677988895183066 13.7257932542330252   T   T   T
  9.8579521894493158  9.7171023411176964 13.6155924884956292   T   T   T
  2.0024167064375775 15.3292294718691888 13.5922009017942962   T   T   T
 13.9945397390076423 12.6091719742955028 19.1645131261334427   T   T   T
  1.9851010964512463 20.9039146799492137 13.6040974116688016   T   T   T
  1.9623217891857792  9.7491916005129919 13.5873164823032582   T   T   T
  1.9892244501353562  4.1651473217487176 13.5889729700282018   T   T   T
 21.6966328808628539 18.1238946130347642 13.6224869337054084   T   T   T
 17.6700383567733752 12.4441285834017084 16.3407784082464254   T   T   T
  0.0074684337794574  2.7901875383991332 14.9398845151373276   T   T   T
 21.6844405504663840  1.3883251831917547 13.6226711642229894   T   T   T
 11.8300077965299195  5.6646213396568648 17.7415160745832345   T   T   T
  9.8724294931296441  4.1764758127794019 13.6098997318771708   T   T   T
  5.9667364717696874 15.3459506373426962 13.6842483307360610   T   T   T
 21.6740828150183340  6.9843054634637980 16.4031928253459256   T   T   T
 21.6913451756846740 20.9147429150239823 13.6082026870871395   T   T   T
 13.8079546360000549 20.9222120050000342 10.8156001569999933   F   F   F
 21.6866250696913596 12.5489752190834931 13.6182289926550091   T   T   T
 23.6692466515350972 13.9953357238016149 14.9320905147470775   T   T   T
  7.9002685074369863  2.8067189630662313 14.9628262214947725   T   T   T
  0.0011808845158883 19.5304263737641968 14.9853594883796344   T   T   T
  7.8933512360924327 19.5026406030376727 14.9792052454190792   T   T   T
 15.7672038253126914  2.8161670320674848 14.9716107095000730   T   T   T
  5.9456244680776660  9.8019529078108079 13.6491187886508474   T   T   T
  1.9725650740000149 12.5533272030000536 10.8156001569999933   F   F   F
 21.6982156369999721  1.3948141340000613 10.8156001569999933   F   F   F
 17.7372153487187134 18.1467827163089730 13.5899812941540041   T   T   T
 17.7441377237831759  9.7812385136948841 13.6723185482312637   T   T   T
  5.9298359487592780  1.3844344451672539 13.6281813388276092   T   T   T
 13.7965007508030233  4.2466876294844429 13.6692030994595886   T   T   T
  5.9633761046034461 12.5999591730648088 13.6148064574446686   T   T   T
  0.0000510130173370  8.3408668853627770 14.9436220146929255   T   T   T
 13.8067202784008085 18.0870879206596484 13.6602890680184093   T   T   T
 19.7256482699999580  0.0000000000000000 12.2103998060000407   F   F   F
  5.9773685366998377 12.4756973724105649 16.3192024944942489   T   T   T
  5.9176950450000287 12.5533272030000536 10.8156001569999933   F   F   F
  0.0000000000000000  5.5792565349999723 12.2103998060000407   F   F   F
  0.0000000000000000 11.1585130689999925 12.2103998060000407   F   F   F
 17.7119825917267022 12.5899072924336615 13.6154815816067760   T   T   T
  7.8902602960000570  0.0000000000000000 12.2103998060000407   F   F   F
  7.8902602960000570 11.1585130689999925 12.2103998060000407   F   F   F
  7.8902602960000570 16.7377696039999648 12.2103998060000407   F   F   F
 15.7805205919999434  0.0000000000000000 12.2103998060000407   F   F   F
 15.7805205919999434  5.5792565349999723 12.2103998060000407   F   F   F
 15.7805205919999434 11.1585130689999925 12.2103998060000407   F   F   F
 15.7805205919999434 16.7377696039999648 12.2103998060000407   F   F   F
 13.8333216260876064  7.0384730268971278 13.6118648808368512   T   T   T
  3.9451301480000271  5.5792565349999723 12.2103998060000407   F   F   F
 17.7072950674355241 18.0279062638510581 16.3602410215819809   T   T   T
  3.9451301480000271 16.7377696039999648 12.2103998060000407   F   F   F
  0.0000000000000000  0.0000000000000000 12.2103998060000407   F   F   F
 11.8353900909999528 16.7377696039999648 12.2103998060000407   F   F   F
  7.8902602960000570  5.5792565349999723 12.2103998060000407   F   F   F
 17.6907142546503451  7.0072111720964347 13.6556176656991362   T   T   T
  0.0000000000000000 16.7377696039999648 12.2103998060000407   F   F   F
  9.8673097082865340 18.0852279134002245 13.6482257555783590   T   T   T
 17.7468493685063713  1.4294197641182891 13.6009102753267257   T   T   T
 21.6795609220657930  4.1636943745135966 13.5877172257603611   T   T   T
 13.8036084294651680  1.4208251505485738 13.6229758383998547   T   T   T
 13.7953679361311572 15.3111742846618544 13.6387171954418100   T   T   T
 13.8079546360000549  1.3948141340000613 10.8156001569999933   F   F   F
  3.9451301480000271 11.1585130689999925 12.2103998060000407   F   F   F
 19.7256482699999580  5.5792565349999723 12.2103998060000407   F   F   F
 13.8341878017508506 12.5603352883515100 13.6443273739863926   T   T   T
 11.8353900909999528  0.0000000000000000 12.2103998060000407   F   F   F
 11.8353900909999528 11.1585130689999925 12.2103998060000407   F   F   F
 21.6982156369999721  6.9740706679999214 10.8156001569999933   F   F   F
  1.9725650740000149  4.1844424010000720 10.8156001569999933   F   F   F
 11.8353900909999528  5.5792565349999723 12.2103998060000407   F   F   F
 13.8079546360000549 12.5533272030000536 10.8156001569999933   F   F   F
 17.7530837259999217 12.5533272030000536 10.8156001569999933   F   F   F
  3.9451301480000271  0.0000000000000000 12.2103998060000407   F   F   F
  5.9176950450000287  1.3948141340000613 10.8156001569999933   F   F   F
 17.7530837259999217  6.9740706679999214 10.8156001569999933   F   F   F
 17.7530837259999217  1.3948141340000613 10.8156001569999933   F   F   F
  9.8628241350000643 18.1325837370000720 10.8156001569999933   F   F   F
  9.8628241350000643 12.5533272030000536 10.8156001569999933   F   F   F
 17.7530837259999217 18.1325837370000720 10.8156001569999933   F   F   F
  1.9783967219660799  6.9649149634900036 13.6191484085779511   T   T   T
  9.8713534621202719  1.3772482980852814 13.6615034985477273   T   T   T
  1.9755724452448171 18.1237287982601458 13.6251084867731880   T   T   T
  1.9875620284511246 12.5529919593567403 13.6166722247050451   T   T   T
  9.8628241350000643  6.9740706679999214 10.8156001569999933   F   F   F
 13.8079546360000549  6.9740706679999214 10.8156001569999933   F   F   F
  5.9715960490189994  7.0099360251271401 13.6246384501799298   T   T   T
  9.8628241350000643  1.3948141340000613 10.8156001569999933   F   F   F
 13.8079546360000549 18.1325837370000720 10.8156001569999933   F   F   F
  5.9306321702788347 18.0941887114790489 13.6597548447033290   T   T   T
  9.8485656888469357 12.4864289965589474 13.7361977337774537   T   T   T
  1.9725650740000149 20.9222120050000342 10.8156001569999933   F   F   F
  1.9839269030329958  1.3812097540290218 13.6245427490761628   T   T   T
  5.9176950450000287  6.9740706679999214 10.8156001569999933   F   F   F
 19.7256482699999580 16.7377696039999648 12.2103998060000407   F   F   F
  1.9725650740000149  9.7636982699999884 10.8156001569999933   F   F   F
  9.8363304176173116  6.9478886923449394 13.7216595471190050   T   T   T
 19.7256482699999580 11.1585130689999925 12.2103998060000407   F   F   F
  9.8628241350000643  4.1844424010000720 10.8156001569999933   F   F   F
  1.9725650740000149 18.1325837370000720 10.8156001569999933   F   F   F
  5.9432228956932471  1.3961196052922791 16.4179754775322522   T   T   T
  9.8134350908637291 18.1155640253945016 16.4325855588225807   T   T   T
  1.9725650740000149 15.3429554700000619 10.8156001569999933   F   F   F
 11.8353900909999528  8.3688848019999824 12.2103998060000407   F   F   F
 23.6597954915456086 13.8906993766138811 18.8560931322374898   T   T   T
 19.7977127341575176 11.1640868743556876 15.0850236295118840   T   T   T
 19.7256482699999580  8.3688848019999824 12.2103998060000407   F   F   F
  3.8732790525054801 11.1540137025127777 15.0641065476950935   T   T   T
  3.9451301480000271 19.5273965409999306 12.2103998060000407   F   F   F
  3.9451301480000271  2.7896282670000101 12.2103998060000407   F   F   F
 19.8354666807406943  8.3154235773619618 18.0908367317208025   T   T   T
 19.6948123832405919 19.5587250057126028 18.5436673959907381   T   T   T
 19.7256482699999580  2.7896282670000101 12.2103998060000407   F   F   F
  7.8506057827130231  2.6769264997385580 18.3991810095531676   T   T   T
 11.8353900909999528 13.9481413360000008 12.2103998060000407   F   F   F
 23.6520923950599169 19.5251246537659107 18.6761330111429125   T   T   T
 19.7918906440899178 16.7760904900499099 15.0780663627091620   T   T   T
 11.8473068868614924  2.7322392648732388 18.1905286067043654   T   T   T
 23.6599146082845557  8.3472467477020462 18.7107005936150408   T   T   T
 15.7398515471465466  2.7544036170529886 18.2312315235838085   T   T   T
  0.0000000000000000  2.7896282670000101 12.2103998060000407   F   F   F
 11.9011965277483949  8.2770146691483450 17.8789859529233119   T   T   T
 19.7489439610658870  2.7471275280292708 18.3190522837635577   T   T   T
 15.7713878572691915 13.9771393055634174 17.8019751884127793   T   T   T
 15.7509083270478207 19.6654829424882607 18.2157688025159530   T   T   T
  3.9451301480000271 13.9481413360000008 12.2103998060000407   F   F   F
  3.8596159465988706  8.2848589951150213 18.2344753522021286   T   T   T
  3.7749672716808815 13.9953549132561612 18.0474545163504168   T   T   T
 15.9011058989206422  8.3137129073211007 17.8178802935782308   T   T   T
  3.9336849836771268 19.4936564709838365 18.5361526492471569   T   T   T
  7.9185709631098176 19.6079571173964560 18.0900157756813265   T   T   T
 11.8353900909999528 19.5273965409999306 12.2103998060000407   F   F   F
 15.7805205919999434 19.5273965409999306 12.2103998060000407   F   F   F
  3.9717142290389842  2.7422632231702480 18.6547847253494368   T   T   T
  7.9123832068298157 13.9337222407097752 17.8527551501976589   T   T   T
  7.7198607446554526  8.3342839134300561 17.7853004386135112   T   T   T
 11.8353900909999528  2.7896282670000101 12.2103998060000407   F   F   F
 19.8744340635121404 13.9920648624322439 18.1103446989603363   T   T   T
 19.7964264946694222  5.5480823362080081 15.0600065412215844   T   T   T
 11.8651248032287668  5.5375381962513295 15.0737672609314242   T   T   T
 11.8610188624923030 16.8014758340940347 15.1196991168447816   T   T   T
  7.8163877637373886  5.5371175237665522 15.0869572802220819   T   T   T
 15.7805205919999434  8.3688848019999824 12.2103998060000407   F   F   F
 15.8210940149249080 11.1580768740745064 15.0216231791702519   T   T   T
  3.8924973633060622 16.7702596213817685 15.1009760651092702   T   T   T
 15.7641108083229184 22.3125750440009760 15.1642876691427126   T   T   T
 15.7486869601751547 16.7808910313685189 15.0660721080763196   T   T   T
  0.0112457398183191  2.7402359330831962 18.6072045981311867   T   T   T
  3.9297858662122898  0.0260958590072598 15.1967967240613238   T   T   T
 19.7256482699999580 13.9481413360000008 12.2103998060000407   F   F   F
 15.7828868915551919  5.5375712744314924 15.0643658027762335   T   T   T
  3.9451301480000271  8.3688848019999824 12.2103998060000407   F   F   F
 11.9273416313427560 13.9463044184917049 17.8192620001461783   T   T   T
  0.0000000000000000  8.3688848019999824 12.2103998060000407   F   F   F
  0.0219854682582649  5.5769055349831609 15.1812088272438679   T   T   T
  7.9043970170655626 16.7631294108149049 15.0477691678853844   T   T   T
  7.8408837902228568 11.1387994541514725 15.0302464267033962   T   T   T
  7.8902602960000570  8.3688848019999824 12.2103998060000407   F   F   F
 11.8654533665504527 11.1536195684496633 15.0113896242377756   T   T   T
 23.6661525289048953 11.1696418089138643 15.2086313880461628   T   T   T
  7.8848720914334436  0.0240526851819549 15.1745615793158635   T   T   T
  0.0000000000000000 19.5273965409999306 12.2103998060000407   F   F   F
 11.8409409855040799 22.3024264181733471 15.1678968957610447   T   T   T
 11.8520523667761548 19.5650057108147912 18.2911591059136001   T   T   T
  0.0000000000000000 13.9481413360000008 12.2103998060000407   F   F   F
  7.8902602960000570 19.5273965409999306 12.2103998060000407   F   F   F
  3.9346598985124590  5.5401866893972551 15.1881244532214801   T   T   T
 15.7805205919999434  2.7896282670000101 12.2103998060000407   F   F   F
  7.8902602960000570  2.7896282670000101 12.2103998060000407   F   F   F
  7.8902602960000570 13.9481413360000008 12.2103998060000407   F   F   F
 19.7256482699999580 19.5273965409999306 12.2103998060000407   F   F   F
 15.7805205919999434 13.9481413360000008 12.2103998060000407   F   F   F
  0.0034229951405486 -0.0003704600523582 15.1991955522386597   T   T   T
 23.6694105409392073 16.7567387605283571 15.1991062334071856   T   T   T
 19.7484568382744712 22.3143506749947136 15.1837548559411104   T   T   T
 17.7967564268305836 16.7927390887695154 17.7149118837706148   T   T   T
  5.8983352509992057 19.6094611195450774 15.0743279126452414   T   T   T
 21.7518404990802274  8.3605781043451088 15.1764669322792329   T   T   T
  1.9725650740000149 11.1585130689999925 12.2103998060000407   F   F   F
  9.8628241350000643 11.1585130689999925 12.2103998060000407   F   F   F
  5.9176950450000287  5.5792565349999723 12.2103998060000407   F   F   F
 17.8109771275454207 13.9435013173094315 15.0684492191511499   T   T   T
  1.9725650740000149  5.5792565349999723 12.2103998060000407   F   F   F
 21.6982156369999721 11.1585130689999925 12.2103998060000407   F   F   F
 21.7336907936686181 11.1574103942940770 18.1169906020851279   T   T   T