Au C  H  O  Sr Ti                       
   1.00000000000000     
    23.6707801818999997    0.0000000000000000    0.0000000000000000
     0.0000000000000000   27.8962826732999716    0.0000000000000000
     0.0000000000000000    0.0000000000000000   30.0000000000000000
   Au   C    H    O    Sr   Ti
    50     5    11   330    90    90
Selective dynamics
Direct
  0.7177280760714595  0.6197855325212771  0.7532615022608908   F   F   F
  0.7052853031752235  0.8056192221553786  0.6887301730041955   F   F   F
  0.6564732608179966  0.5531438514090965  0.8127265805536865   F   F   F
  0.3682027468316633  0.6945039051644386  0.8201639557874358   F   F   F
  0.5701989082461267  0.6085650018452782  0.8569125038934686   F   F   F
  0.6691866947934457  0.3540093242949709  0.7542459301334290   T   T   T
  0.4719382067893960  0.5611615673371801  0.8797084555738337   F   F   F
  0.5176291015578656  0.5013460612291709  0.7337156775114053   F   F   F
  0.2829571390188761  0.4708046731259756  0.7028374647956070   F   F   F
  0.6691963776238552  0.7447767897519526  0.7495038473501694   F   F   F
  0.3977781363520592  0.5059870722571347  0.6906822833281723   F   F   F
  0.6159469222691030  0.4542348958594786  0.6971495414096367   F   F   F
  0.3759562798483600  0.5939397256044998  0.8338014216338294   F   F   F
  0.3265302038764872  0.5315939122749569  0.7696886612373603   F   F   F
  0.4860520870830669  0.4152010650827052  0.7758925830203580   F   F   F
  0.4268393286817656  0.7589074240707347  0.6992786590217293   F   F   F
  0.7005651590833892  0.4746950033550235  0.7574137215701882   F   F   F
  0.7743270063066703  0.5423134984767017  0.7949951209260888   F   F   F
  0.2561107332975681  0.6741881681379240  0.6950202310643618   F   F   F
  0.6475089917607590  0.5534685276254407  0.6960677760974008   F   F   F
  0.5656038617280359  0.7125019741029206  0.8611721272432931   F   F   F
  0.5456895248313600  0.7315962273064969  0.7014686644547510   F   F   F
  0.3727507606934211  0.7899115256675842  0.7777305245032977   F   F   F
  0.4633075341389556  0.6592486126157766  0.8639980443526625   F   F   F
  0.4540038833717546  0.6639561639189395  0.7033717184859611   F   F   F
  0.4432913356811454  0.5792629925855337  0.7563957958789373   F   F   F
  0.2897003602500376  0.6294649722743486  0.7781561185436132   F   F   F
  0.5547088991620015  0.3682912941729626  0.7114933483417403   F   F   F
  0.6240365684206566  0.6539188303605741  0.7041431412094923   F   F   F
  0.7214386080145374  0.4041280348536844  0.6921306086901780   F   F   F
  0.2894832073996909  0.7973439820601058  0.6985340044872430   F   F   F
  0.5137824076046513  0.6838313094464894  0.7772564311940187   F   F   F
  0.5771613958686856  0.7810572592206384  0.7932348292594966   F   F   F
  0.5500004470489870  0.5081067155830610  0.8296280107459779   F   F   F
  0.2416076072742754  0.5746822868007158  0.7095501218248828   F   F   F
  0.2823528088007308  0.7291029307981347  0.7660649922990501   F   F   F
  0.5145860202104657  0.5866385832958869  0.6784499013392988   F   F   F
  0.5625753967672011  0.5886330237201918  0.7628888803088145   F   F   F
  0.6011241454785363  0.4306934553733015  0.7861456367824928   F   F   F
  0.7633660599027081  0.5435669490303212  0.7050655357849536   F   F   F
  0.3893970864082945  0.8522609838587556  0.7062397770747921   F   F   F
  0.4390354456717631  0.3823874559642633  0.6980161028029173   F   F   F
  0.4629854395456761  0.7564308009015406  0.8300994610589356   F   F   F
  0.4309312458213270  0.4976376407075662  0.8158809940066760   F   F   F
  0.3494420664311804  0.6013129450561721  0.6978404594606715   F   F   F
  0.3714202776058286  0.4392241384943603  0.7561775678017355   F   F   F
  0.5941801407198213  0.8278969681808235  0.7127274787574365   F   F   F
  0.6360673760921856  0.6663152801828574  0.8003991378617528   F   F   F
  0.7331672331087731  0.6923879581765249  0.6943742526084904   F   F   F
  0.4838389605234781  0.8242247721834772  0.7575128195761565   F   F   F
  0.7176447009727482  0.2901033634950565  0.7560838418958440   T   T   T
  0.6465338126701994  0.2523146417998561  0.8101393325849813   T   T   T
  0.5753681113680571  0.2151375375636704  0.8640124855669384   T   T   T
  0.6083581563681975  0.2093628463407953  0.8203945010570308   T   T   T
  0.6789696987429039  0.2482531096393146  0.7658831950383558   T   T   T
  0.7476543658905754  0.2978620743515776  0.7828816128675200   T   T   T
  0.7065815344469399  0.2163847911481156  0.7669218735016230   T   T   T
  0.6768093447802528  0.2575609673421297  0.8374136373121530   T   T   T
  0.6202769516814541  0.2849056046444929  0.8093256180228465   T   T   T
  0.6500111421008654  0.2418775260606907  0.7380088519670096   T   T   T
  0.5788045425226898  0.2042007467673344  0.7926436455391865   T   T   T
  0.6341906367893273  0.1767633761213361  0.8219025441420271   T   T   T
  0.6036805386911297  0.2185285991212496  0.8926543811442187   T   T   T
  0.5486063036671993  0.2471200539657943  0.8632174884774031   T   T   T
  0.7384438084609073  0.2883223608510335  0.7237083007657077   T   T   T
  0.5479713444079266  0.1842937431366849  0.8695429842467087   T   T   T
  0.5011724704220200  0.8042741165892053  0.5928600166618025   F   F   F
  0.8329908747061836  0.6024954392128663  0.5899889107778833   F   F   F
  0.8315193818897484  0.3975560422430391  0.5912521608793142   F   F   F
  0.8301511063510105  0.8001304273003740  0.5930475430635269   F   F   F
  0.5815158276381069  0.9478069847517503  0.6380669645424604   F   F   F
  0.8325741811834391  0.2021501208201997  0.5922480003548642   F   F   F
  0.9163493710348263  0.3491402569326354  0.6404735874312451   F   F   F
  0.5807331195926864  0.7474150119154643  0.6386637311785179   F   F   F
  0.5810146080224854  0.5500140811852461  0.6461135380277483   F   F   F
  0.1677927677845616  0.6997174945918161  0.5001064232914842   F   F   F
  0.4179730276482729  0.2522897234501187  0.6390763595633189   F   F   F
  0.7404795310672867  0.8475538211482672  0.6403863386767554   F   F   F
  0.4126309957045109  0.8501088016767469  0.6396457536636646   F   F   F
  0.5837558911673710  0.0505429512288060  0.6418234851705833   F   F   F
  0.7460317819230653  0.4479427018917264  0.6421650203935911   F   F   F
  0.1665229364359035  0.5007654973698621  0.4977695164843894   F   F   F
  0.0868026848249812  0.5497482574264509  0.6397592237027325   F   F   F
  0.0840624982913099  0.2486048603877293  0.6419719548299199   F   F   F
  0.0860503009377354  0.6498107317175439  0.6419284050814511   F   F   F
  0.6663446338752408  0.8988738484408216  0.4989932922588451   F   F   F
  0.0843170966667941  0.4499187303682817  0.6403008704975619   F   F   F
  0.7477556345436938  0.2537644837038258  0.6392217914823988   F   F   F
  0.7520229315640066  0.6559156449820307  0.6352110730656335   F   F   F
  0.4270607258899091  0.4439994721450020  0.6563018410873127   F   F   F
  0.8324265244912823  0.3002997012360353  0.5000968699997088   F   F   F
  0.7474175397495060  0.9471441630337694  0.6393831389454476   F   F   F
  0.8324572958585463  0.8996392199427277  0.4996561607782510   F   F   F
  0.4985216946139630  0.4027415559684329  0.5910484495671540   F   F   F
  0.4975177196876857  0.6032360348735324  0.6092986068428559   F   F   F
  0.2517186916726715  0.9499151552129490  0.5450477780745544   F   F   F
  0.5794232041173757  0.7488409187064562  0.5469087119864682   F   F   F
  0.5762981108673983  0.5482549433659258  0.5520186376696685   F   F   F
  0.9153526521966526  0.5493880785052596  0.5463436286615746   F   F   F
  0.9170721308690517  0.3510149267727485  0.5457323132679193   F   F   F
  0.5836840501225353  0.9507562161653098  0.5455221118638605   F   F   F
  0.9134484025691663  0.7508265902947286  0.5459184304159308   F   F   F
  0.9162679836676872  0.9505197875113396  0.5462874543357472   F   F   F
  0.0826510908015621  0.2501255335910102  0.5473704019002312   F   F   F
  0.0859728498112204  0.4502957050900989  0.5466695429676065   F   F   F
  0.0826273969700182  0.6510067823364381  0.5460865694644212   F   F   F
  0.0854135901450874  0.8498974248604796  0.5475361258301703   F   F   F
  0.4165409432778375  0.2524129858638062  0.5472531095569835   F   F   F
  0.4199747196633510  0.6518888000210836  0.5557829276990347   F   F   F
  0.4156214373377978  0.4552573676105993  0.5525018981389067   F   F   F
  0.7483141092836618  0.4493908470122889  0.5491759228177600   F   F   F
  0.7485986830865130  0.2483970925104799  0.5450372418123521   F   F   F
  0.4146184687654184  0.8488404662244591  0.5483777883062899   F   F   F
  0.7469174196003436  0.6463014634386397  0.5448650312217609   F   F   F
  0.4999994451388403  0.2002867770110512  0.5916872904637955   F   F   F
  0.8327235938248165  0.4983836314856518  0.4995576921367686   F   F   F
  0.7535214650640398  0.7542177538209884  0.6577135927749040   F   F   F
  0.2536401255829048  0.3490920500432040  0.6407166601865271   F   F   F
  0.8322408614342010  0.6989665313265263  0.5001909998834932   F   F   F
  0.5001997576904316  0.6962361260265482  0.5002224819229255   F   F   F
  0.5000308659261563  0.8981663650879952  0.5008523394564435   F   F   F
  0.4994982669257553  0.4982277484026625  0.5000862664016168   F   F   F
  0.9166666865332829  0.6500000000127244  0.3605200052333331   F   F   F
  0.2509246285649454  0.2487654646771489  0.6412203429107777   F   F   F
  0.2486836229811402  0.4528079753973770  0.6420061938526516   F   F   F
  0.2615766367517693  0.8403663279743725  0.6467566127069873   F   F   F
  0.2476161989405199  0.6590764449843292  0.6291003000068969   F   F   F
  0.5917521350282939  0.6511449217313086  0.6396987884994445   F   F   F
  0.5844383933752013  0.4559091117229528  0.6341321596088676   F   F   F
  0.5829919974381355  0.2527488639116200  0.6388592274130360   F   F   F
  0.9143796966920590  0.8500082906431672  0.6415428155755833   F   F   F
  0.9146677904264422  0.4496062442195594  0.6390578700767691   F   F   F
  0.9136969254723439  0.6492151078809414  0.6424043176613239   F   F   F
  0.9161309944848171  0.2504619999390059  0.6414490698986484   F   F   F
  0.5893530807977712  0.8477849603499052  0.6459524418759699   F   F   F
  0.4215713963719807  0.7408797502905671  0.6338356927918909   F   F   F
  0.4174075660266041  0.9475007358288252  0.6391285739563841   F   F   F
  0.7544823900013569  0.5470042457369502  0.6386389491071540   F   F   F
  0.7459979168574193  0.3540377941254391  0.6465247454217860   F   F   F
  0.0839876728425821  0.3488828611837747  0.6416109481480206   F   F   F
  0.4182758051632405  0.3503793882140016  0.6401517846131100   F   F   F
  0.4166666269218169  0.1500000000001833  0.3605200052333331   F   F   F
  0.0844819394349159  0.9488992548544957  0.6405856882682031   F   F   F
  0.4173076810891061  0.0504915090020219  0.5476238389124575   F   F   F
  0.0837777265999264  0.0497303006981369  0.5465911618453632   F   F   F
  0.9161654332821811  0.1507025396942012  0.5463786842637077   F   F   F
  0.5828475241376694  0.1499457337118386  0.5473859825052898   F   F   F
  0.2502049009325944  0.1503845472552428  0.5463375135326700   F   F   F
  0.7500340220276414  0.1488356298364906  0.5477601372010099   F   F   F
  0.4166258662492552  0.1510705240196444  0.5463108716311140   F   F   F
  0.0835351115085388  0.1505214398870436  0.5462811653622666   F   F   F
  0.4999248254825943  0.1000528449811071  0.4987593908856525   F   F   F
  0.8332084500294243  0.1000594715786534  0.4988198643104482   F   F   F
  0.1667820323683600  0.0998374093972103  0.4987239020237908   F   F   F
  0.6663448923714554  0.0999255204489771  0.4990843173745105   F   F   F
  0.3335905396125227  0.0997171425583332  0.4989006814849688   F   F   F
  0.9999911505951644  0.1000202624459803  0.4991128455111422   F   F   F
  0.9166591285919665  0.1499984007634581  0.4537933897077622   F   F   F
  0.7500051983704878  0.0488104047827491  0.5461406213814470   F   F   F
  0.2500403518823191  0.0499665582500057  0.5468706946871151   F   F   F
  0.5824090137083857  0.0503418868092922  0.5474786654602610   F   F   F
  0.9162657389134878  0.0499361859145324  0.5466066062046053   F   F   F
  0.9157267357494021  0.0499820147221044  0.6402536182708616   F   F   F
  0.7501411754850125  0.1509678864650823  0.6415269895495612   F   F   F
  0.2507391081749759  0.1483197694282481  0.6410274150052047   F   F   F
  0.9157349204397391  0.1498825115423870  0.6403525759400281   F   F   F
  0.5834531372038114  0.1507652779112405  0.6424548030264177   F   F   F
  0.4166326155625129  0.1499680097744829  0.6414960915253758   F   F   F
  0.0830782219196564  0.1485011235759828  0.6404753018101488   F   F   F
  0.5834050110806430  0.1505720424003059  0.4543139873189546   F   F   F
  0.0830574810396456  0.0492488309299972  0.6406710689686363   F   F   F
  0.4176104138563517  0.0495422893577313  0.6429167103473930   F   F   F
  0.8323539495340952  0.9978684573418377  0.5922018387217847   F   F   F
  0.4997804359293951  0.0001623771093051  0.5916754445410746   F   F   F
  0.1674149724951874  0.9988562943769210  0.5921971081844575   F   F   F
  0.6659667534066287  0.9999623069345063  0.5918389890579476   F   F   F
  0.9999160805141614  0.9991638518859034  0.5921997792299720   F   F   F
  0.3340612833531154  0.0000586924330577  0.5919149460096165   F   F   F
  0.7498935060160861  0.0497567628276485  0.6406912184593523   F   F   F
  0.4153523875148011  0.5348139516660098  0.6300892264078257   F   F   F
  0.2500942594684972  0.1498838052920277  0.4537012959114932   F   F   F
  0.4166741646513046  0.1500843200337485  0.4538236940572205   F   F   F
  0.5833333134730552  0.1500000000001833  0.3605200052333331   F   F   F
  0.2499999999799343  0.1500000000001833  0.3605200052333331   F   F   F
  0.7499999404149307  0.1500000000001833  0.3605200052333331   F   F   F
  0.7479139416127438  0.8469224987127433  0.5462808714817911   F   F   F
  0.0833333358191695  0.1500000000001833  0.3605200052333331   F   F   F
  0.9166666865332829  0.8499999999890662  0.3605200052333331   F   F   F
  0.0842272460250513  0.8496266658849123  0.6419328942681943   F   F   F
  0.2520261599128872  0.9453104275264792  0.6373142779322407   F   F   F
  0.5800504704068103  0.3528436937653083  0.6453986898236437   F   F   F
  0.2536941814882780  0.7415906448670810  0.6635952929301467   F   F   F
  0.2406413600467516  0.5537531179734074  0.6418155067437965   F   F   F
  0.9157975459160994  0.9494612315076552  0.6410229366936662   F   F   F
  0.9154212684469982  0.7499481591554371  0.6404801783055518   F   F   F
  0.9125048982227355  0.5486424287146505  0.6395015313718062   F   F   F
  0.0839938291490014  0.7497978286594105  0.6408118716595084   F   F   F
  0.9166666865332829  0.1500000000001833  0.3605200052333331   F   F   F
  0.0833333358191695  0.0500000000120124  0.3605200052333331   F   F   F
  0.4166666269218169  0.0500000000120124  0.3605200052333331   F   F   F
  0.7499999404149307  0.0500000000120124  0.3605200052333331   F   F   F
  0.0833674743404984  0.1499810276988427  0.4537127836388137   F   F   F
  0.9166431798904711  0.0497078390363441  0.4538999860981647   F   F   F
  0.5833031681569238  0.0489937020510922  0.4546112122356831   F   F   F
  0.2501745250841836  0.0491039801402948  0.4542104412819938   F   F   F
  0.7499377840929924  0.0499438426492631  0.4536589480229551   F   F   F
  0.4168037754161844  0.0486421077867547  0.4547051718352009   F   F   F
  0.0832589296155959  0.0496238662137074  0.4539375329628754   F   F   F
  0.7498186255145995  0.1507219629078236  0.4544006578103534   F   F   F
  0.8333332538436267  0.0000000000000000  0.4070133268666680   F   F   F
  0.1666666716383389  0.0000000000000000  0.4070133268666680   F   F   F
  0.6666666865533486  0.0000000000000000  0.4070133268666680   F   F   F
  0.3333333432766779  0.0000000000000000  0.4070133268666680   F   F   F
  0.0000000000000000  0.0000000000000000  0.4070133268666680   F   F   F
  0.9166666865332829  0.0500000000120124  0.3605200052333331   F   F   F
  0.5833333134730552  0.0500000000120124  0.3605200052333331   F   F   F
  0.2499999999799343  0.0500000000120124  0.3605200052333331   F   F   F
  0.5000000000021103  0.0000000000000000  0.4070133268666680   F   F   F
  0.2512633472321539  0.2506761297040043  0.5473388110604844   F   F   F
  0.3983319969052843  0.6408166698044866  0.6524787401721426   F   F   F
  0.2524093381564185  0.6472452567322975  0.5442282591473955   F   F   F
  0.0833333358191695  0.4500000000005357  0.3605200052333331   F   F   F
  0.0833333358191695  0.2500000000242011  0.3605200052333331   F   F   F
  0.2499999999799343  0.5499999761504029  0.3605200052333331   F   F   F
  0.4166666269218169  0.5499999761504029  0.3605200052333331   F   F   F
  0.4166666269218169  0.7500000000008953  0.3605200052333331   F   F   F
  0.4166666269218169  0.9500000000130839  0.3605200052333331   F   F   F
  0.7499999404149307  0.3500000000123720  0.3605200052333331   F   F   F
  0.7499999404149307  0.5499999761504029  0.3605200052333331   F   F   F
  0.0833333358191695  0.6500000000127244  0.3605200052333331   F   F   F
  0.7499999404149307  0.7500000000008953  0.3605200052333331   F   F   F
  0.2499999999799343  0.3500000000123720  0.3605200052333331   F   F   F
  0.2499999999799343  0.7500000000008953  0.3605200052333331   F   F   F
  0.9166666865332829  0.9500000000130839  0.3605200052333331   F   F   F
  0.2499999999799343  0.9500000000130839  0.3605200052333331   F   F   F
  0.5833333134730552  0.3500000000123720  0.3605200052333331   F   F   F
  0.5833333134730552  0.5499999761504029  0.3605200052333331   F   F   F
  0.5833333134730552  0.7500000000008953  0.3605200052333331   F   F   F
  0.5833333134730552  0.9500000000130839  0.3605200052333331   F   F   F
  0.7499999404149307  0.9500000000130839  0.3605200052333331   F   F   F
  0.9166666865332829  0.3500000000123720  0.3605200052333331   F   F   F
  0.9166666865332829  0.4500000000005357  0.3605200052333331   F   F   F
  0.5833333134730552  0.8499999999890662  0.3605200052333331   F   F   F
  0.0833333358191695  0.9500000000130839  0.3605200052333331   F   F   F
  0.4166666269218169  0.3500000000123720  0.3605200052333331   F   F   F
  0.0833333358191695  0.8499999999890662  0.3605200052333331   F   F   F
  0.4166666269218169  0.2500000000242011  0.3605200052333331   F   F   F
  0.4166666269218169  0.4500000000005357  0.3605200052333331   F   F   F
  0.4166666269218169  0.6500000000127244  0.3605200052333331   F   F   F
  0.4166666269218169  0.8499999999890662  0.3605200052333331   F   F   F
  0.7499999404149307  0.2500000000242011  0.3605200052333331   F   F   F
  0.9166666865332829  0.2500000000242011  0.3605200052333331   F   F   F
  0.7499999404149307  0.4500000000005357  0.3605200052333331   F   F   F
  0.7499999404149307  0.8499999999890662  0.3605200052333331   F   F   F
  0.2499999999799343  0.2500000000242011  0.3605200052333331   F   F   F
  0.2499999999799343  0.4500000000005357  0.3605200052333331   F   F   F
  0.2499999999799343  0.6500000000127244  0.3605200052333331   F   F   F
  0.2499999999799343  0.8499999999890662  0.3605200052333331   F   F   F
  0.5833333134730552  0.2500000000242011  0.3605200052333331   F   F   F
  0.5833333134730552  0.4500000000005357  0.3605200052333331   F   F   F
  0.5833333134730552  0.6500000000127244  0.3605200052333331   F   F   F
  0.7499999404149307  0.6500000000127244  0.3605200052333331   F   F   F
  0.9166666865332829  0.5499999761504029  0.3605200052333331   F   F   F
  0.9166666865332829  0.7500000000008953  0.3605200052333331   F   F   F
  0.5833567035356069  0.2516500477670576  0.4539131826602159   F   F   F
  0.4168422676563068  0.3505245324319048  0.4542270073087522   F   F   F
  0.9161334187116523  0.4497180969873895  0.4539663494839274   F   F   F
  0.9160031007386564  0.2499144391456554  0.4543073792158481   F   F   F
  0.2510316096518466  0.5518010587946875  0.4552306538693642   F   F   F
  0.9162038996257067  0.6497754947901626  0.4539938028744075   F   F   F
  0.9162029337374733  0.8495177415276913  0.4542941898241679   F   F   F
  0.0837378547040259  0.3499629143120302  0.4537546767270655   F   F   F
  0.0832448613283532  0.5503482038362222  0.4538143629108831   F   F   F
  0.2516278556354479  0.7500824256378849  0.4561012054831863   F   F   F
  0.0838358918999020  0.9493209297363947  0.4536099989048878   F   F   F
  0.4171960891641220  0.5480257848378969  0.4540342204324119   F   F   F
  0.4171408523366580  0.7469849632726593  0.4544731488350493   F   F   F
  0.4173167851883903  0.9478937164637244  0.4541386009401549   F   F   F
  0.7502464481250044  0.3519345442255783  0.4556668781677473   F   F   F
  0.7497281440593682  0.5507943762840455  0.4562192599126789   F   F   F
  0.7488821234901621  0.7506960951445123  0.4571056566709260   F   F   F
  0.7494200926865133  0.9496985428597355  0.4547561446766721   F   F   F
  0.2499767635179566  0.3511103410914487  0.4544470876400339   F   F   F
  0.0847660367329510  0.7498840955128685  0.4535310766517213   F   F   F
  0.9164292642840124  0.9495505849691313  0.4537498372918307   F   F   F
  0.5828585498289627  0.3529279717871887  0.4561045823861960   F   F   F
  0.0000584548289808  0.2999573618596401  0.4987156606959289   F   F   F
  0.5844765642602781  0.6496100005227561  0.4550940989786483   F   F   F
  0.6653369681660521  0.7000518315656450  0.5030965253772166   F   F   F
  0.2506765153731294  0.9482040162371135  0.4536273155168331   F   F   F
  0.5825980554957084  0.5511711338678822  0.4562352458351882   F   F   F
  0.5826865418371412  0.7479327383588483  0.4542902955183408   F   F   F
  0.5827648720018885  0.9479415455510960  0.4535596630759571   F   F   F
  0.9158502827803545  0.3498656140026029  0.4536872137647165   F   F   F
  0.9159646727999089  0.5497512963811602  0.4539390801647940   F   F   F
  0.9150727765531670  0.7496868019619356  0.4535297899544162   F   F   F
  0.6657311942569351  0.5027089722022779  0.5034595700152593   F   F   F
  0.3340772141913959  0.5027865895665542  0.5030065061828637   F   F   F
  0.3354938495101578  0.7004118756346145  0.5040342683749586   F   F   F
  0.6659046131947406  0.3018555029953944  0.5000113270260158   F   F   F
  0.3335898543581735  0.8982219145399668  0.4995937680097953   F   F   F
  0.0001775566252533  0.8994586949173993  0.4993913776392063   F   F   F
  0.3336035379049989  0.3009893726526087  0.4988452697263739   F   F   F
  0.9998454276685820  0.7019814831507603  0.4974808073146448   F   F   F
  0.9999647707697008  0.4992083803696659  0.4985334221546154   F   F   F
  0.5829028195600117  0.8469338943231293  0.4560795819702435   F   F   F
  0.0833333358191695  0.7500000000008953  0.3605200052333331   F   F   F
  0.2493417306874548  0.4512818716328439  0.5462727191681296   F   F   F
  0.2505308639104484  0.0482863549848602  0.6417637799123881   F   F   F
  0.3338389403878779  0.2000292930225456  0.5921258172492188   F   F   F
  0.9164459439226889  0.6502473631356693  0.5463047793206712   F   F   F
  0.5810185762136371  0.6476647708226011  0.5493917050618649   F   F   F
  0.5858654849001326  0.8518713410471790  0.5508145463500682   F   F   F
  0.5832766923387709  0.4485193893936597  0.5454062996932123   F   F   F
  0.5831092964512123  0.2496483645996221  0.5458264548656189   F   F   F
  0.2530887126589931  0.8498078186330176  0.5511203886423317   F   F   F
  0.4233159057103109  0.5546786735071123  0.5460555774644078   F   F   F
  0.7528835676010246  0.5477524484786258  0.5496254328460140   F   F   F
  0.7511578742793716  0.7446715619895414  0.5528107331824756   F   F   F
  0.7481328715559528  0.9478286875269575  0.5470699535412820   F   F   F
  0.9152959275359436  0.8499249920178329  0.5469528194871884   F   F   F
  0.2525304739321044  0.3510901625536889  0.5473288046013778   F   F   F
  0.9168064688447330  0.2506663729424972  0.5472196883917420   F   F   F
  0.1671535536485322  0.3000995047559130  0.4999283081765782   F   F   F
  0.5000000000021103  0.8000000000129006  0.4070133268666680   F   F   F
  0.5000000000021103  0.4000000000243773  0.4070133268666680   F   F   F
  0.5000000000021103  0.2000000000121887  0.4070133268666680   F   F   F
  0.1666666716383389  0.8000000000129006  0.4070133268666680   F   F   F
  0.1666666716383389  0.6000000000007191  0.4070133268666680   F   F   F
  0.1666666716383389  0.4000000000243773  0.4070133268666680   F   F   F
  0.1666666716383389  0.2000000000121887  0.4070133268666680   F   F   F
  0.6666666865533486  0.8000000000129006  0.4070133268666680   F   F   F
  0.1678534157417531  0.8987056157913500  0.4994705600557978   F   F   F
  0.5800066910831063  0.3476623663369267  0.5507539710971443   F   F   F
  0.2492905756071409  0.7465724798049962  0.5522352602783371   F   F   F
  0.1654137273722185  0.6026719054217935  0.5882200658398062   F   F   F
  0.0840204180631332  0.9504335640319894  0.5459642411480061   F   F   F
  0.4157318088948116  0.3527660790342040  0.5474978770260250   F   F   F
  0.0867641335239639  0.7512768789813506  0.5459234144957037   F   F   F
  0.0831205886398649  0.5502407541393595  0.5459707255741648   F   F   F
  0.0836081488257676  0.3506955320241971  0.5463693210804479   F   F   F
  0.4994282364694627  0.3009121295887596  0.4995017737738223   F   F   F
  0.9995522072221306  0.5990669356314200  0.5941729059876337   F   F   F
  0.9997142065844713  0.8018712848639069  0.5927217235739803   F   F   F
  0.3346905820953694  0.4040734299454556  0.5933251785895095   F   F   F
  0.4224697941542459  0.7502461181138784  0.5465583747646363   F   F   F
  0.9997718203422110  0.2000262700253117  0.5924721860414692   F   F   F
  0.0010277438622168  0.3997999371924763  0.5923470622728999   F   F   F
  0.3333340150220891  0.5969387688991716  0.5913323223157221   F   F   F
  0.3354001281423535  0.7922632021625091  0.5915968036134984   F   F   F
  0.6635225906027671  0.3975370634058635  0.5906979757740913   F   F   F
  0.0833333358191695  0.5499999761504029  0.3605200052333331   F   F   F
  0.6662129291770782  0.2001727606803030  0.5920875125195124   F   F   F
  0.6656472038594501  0.7933697911923403  0.5905142951881430   F   F   F
  0.6667201343315341  0.5949637790681805  0.5910877050946794   F   F   F
  0.1670118568809684  0.1995367697250714  0.5921713062887122   F   F   F
  0.1684583585026971  0.3986294593192383  0.5930257562812074   F   F   F
  0.1709477640337695  0.7995789319566384  0.5957958051534860   F   F   F
  0.2479987774163206  0.5488361438404823  0.5492456370884113   F   F   F
  0.6666666865533486  0.6000000000007191  0.4070133268666680   F   F   F
  0.6666666865533486  0.4000000000243773  0.4070133268666680   F   F   F
  0.6666666865533486  0.2000000000121887  0.4070133268666680   F   F   F
  0.3333333432766779  0.8000000000129006  0.4070133268666680   F   F   F
  0.4155947038441354  0.6469987940737028  0.4582017235986697   F   F   F
  0.4170729620805957  0.8470379123026461  0.4554815770139911   F   F   F
  0.7489831141016694  0.2515370954188398  0.4535390499454408   F   F   F
  0.7475926459809159  0.4511596741928514  0.4551949658826757   F   F   F
  0.7483357235286121  0.6513266318218029  0.4538275866197665   F   F   F
  0.7499548990083724  0.8499455132037070  0.4537393052489804   F   F   F
  0.4151096685234634  0.4490604880903248  0.4572495807118031   F   F   F
  0.2501811986469775  0.2504143349742520  0.4542753542020037   F   F   F
  0.2519852868937846  0.4517488690254083  0.4539438896528267   F   F   F
  0.2519613745773697  0.6518569087967165  0.4538334051761694   F   F   F
  0.2505484288818494  0.8482378409497500  0.4555706407523346   F   F   F
  0.8333332538436267  0.4000000000243773  0.4070133268666680   F   F   F
  0.5845190392916777  0.4522941909241993  0.4537824565003703   F   F   F
  0.8333332538436267  0.2000000000121887  0.4070133268666680   F   F   F
  0.4160756577434128  0.9484835306776134  0.5466887514163474   F   F   F
  0.4162715626039812  0.2501987198683011  0.4550260339863570   F   F   F
  0.9152347368842868  0.4494766001392776  0.5463630776246902   F   F   F
  0.0840915628171004  0.6503023198635205  0.4538153811303189   F   F   F
  0.0837505664972724  0.8493648910881149  0.4544016206985759   F   F   F
  0.3333333432766779  0.6000000000007191  0.4070133268666680   F   F   F
  0.3333333432766779  0.4000000000243773  0.4070133268666680   F   F   F
  0.3333333432766779  0.2000000000121887  0.4070133268666680   F   F   F
  0.0000000000000000  0.8000000000129006  0.4070133268666680   F   F   F
  0.0000000000000000  0.6000000000007191  0.4070133268666680   F   F   F
  0.0000000000000000  0.4000000000243773  0.4070133268666680   F   F   F
  0.7475631479866607  0.3471375507499275  0.5509226963232408   F   F   F
  0.0000000000000000  0.2000000000121887  0.4070133268666680   F   F   F
  0.0833333358191695  0.3500000000123720  0.3605200052333331   F   F   F
  0.5000000000021103  0.6000000000007191  0.4070133268666680   F   F   F
  0.8333332538436267  0.6000000000007191  0.4070133268666680   F   F   F
  0.8333332538436267  0.8000000000129006  0.4070133268666680   F   F   F
  0.0838485940059854  0.2498499065681798  0.4542276071754685   F   F   F
  0.0833158398500160  0.4498748612798664  0.4538413902920837   F   F   F
  0.8324897355789744  0.1001978228303813  0.6179167177442224   F   F   F
  0.3340351156985548  0.0986145658188917  0.6197212966623127   F   F   F
  0.6669896768365078  0.1005809249421148  0.6187926568188331   F   F   F
  0.5003970047251158  0.1002910298634916  0.6200641570039664   F   F   F
  0.1669800403637893  0.0983883944808355  0.6196707153954861   F   F   F
  0.9994005205910028  0.0994648001432168  0.6188543690623263   F   F   F
  0.8338937641771196  0.0006816711350623  0.5060539770436776   F   F   F
  0.4998465227262940  0.0007970244012938  0.5058173347081123   F   F   F
  0.0001204517290461  0.0001141488007548  0.5059195386101933   F   F   F