Au C  H  O  Sr Ti
 1.0000000000000000
    23.6707801818999997    0.0000000000000000    0.0000000000000000
     0.0000000000000000   27.8962826732999716    0.0000000000000000
     0.0000000000000000    0.0000000000000000   30.0000000000000000
 Au  C   H   O   Sr  Ti 
  50   5  11 330  90  90
Selective dynamics
Cartesian
 16.9891835190654810 17.2897124120352323 22.5978450678266753   F   F   F
 16.6946533769854852 22.4737815482905035 20.6619051901258644   F   F   F
 15.5392342521178826 15.4306572379059990 24.3817974166106843   F   F   F
  8.7156462826240269 19.3740772561779124 24.6049186736231427   F   F   F
 13.4970530170534957 16.9767013165531786 25.7073751168039912   F   F   F
 15.8401711531079066  9.8755441795164209 22.6273779040028238   T   T   T
 11.1711455523519163 15.6543217078300714 26.3912536672150466   F   F   F
 12.2526846787306614 13.9856914411945539 22.0114703253422128   F   F   F
  6.6978162386150855 13.1337002454328982 21.0851239438682256   F   F   F
 15.8404003532580013 20.7765038554333188 22.4851154205050712   F   F   F
  9.4157188267554162 14.1151583967204814 20.7204684998450936   F   F   F
 14.5799442007497948 12.6714650549729928 20.9144862422891187   F   F   F
  8.8991784582954541 16.5687104763654141 25.0140426490149785   F   F   F
  7.7292246787113665 14.8294940442276584 23.0906598371207288   F   F   F
 11.5052321102970083 11.5825662778023908 23.2767774906108009   F   F   F
 10.1036199222158167 21.1706960247431013 20.9783597706518812   F   F   F
 16.5829238837606496 13.2422259971948417 22.7224116471056163   F   F   F
 18.3289243551939123 15.1285306510522126 23.8498536277827569   F   F   F
  6.0623408701119494 18.8073437133697645 20.8506069319308729   F   F   F
 15.3270430097725683 15.4397144974145277 20.8820332829220945   F   F   F
 13.3882846809980816 19.8761564748593180 25.8351638172988061   F   F   F
 12.9168967898485292 20.4088151596618275 21.0440599336425294   F   F   F
  8.8233013190100458 22.0355952069206147 23.3319157350988959   F   F   F
 10.9668507972213138 18.3905856495105304 25.9199413305799524   F   F   F
 10.7466261250218409 18.5219088313625626 21.1011515545788946   F   F   F
 10.4930517634492233 16.1592841833476903 22.6918738763680281   F   F   F
  6.8574335460958293 17.5597327995060795 23.3446835563084889   F   F   F
 13.1303924170075330 10.2739580483644595 21.3448004502522224   F   F   F
 14.7714324365525140 18.2419045371322177 21.1242942362848112   F   F   F
 17.0770147050481143 11.2736698964836322 20.7639182607052390   F   F   F
  6.8522933687094243 22.2429331114034028 20.9560201346173436   F   F   F
 12.1616304317370751 19.0763515091720848 23.3176929358205385   F   F   F
 13.6618605310862868 21.7885940872518020 23.7970448777849590   F   F   F
 13.0189396820433672 14.1742885661071600 24.8888403223792594   F   F   F
  5.7190405620641229 16.0314995199312627 21.2865036547464221   F   F   F
  6.6835112708641509 20.3392614554762474 22.9819497689715426   F   F   F
 12.1806525690806779 16.3650357466863028 20.3534970401790432   F   F   F
 13.3165985526216328 16.4206732205377257 22.8866664092645067   F   F   F
 14.2290775096549336 12.0147463766340064 23.5843691034747813   F   F   F
 18.0694702022801152 15.1634972620131379 21.1519660735486070   F   F   F
  9.2173328358429885 23.7749133171486733 21.1871933122438207   F   F   F
 10.3923115265587853 10.6671885623031741 20.9404830840875569   F   F   F
 10.9592265669060502 21.1016074447400221 24.9029838317681183   F   F   F
 10.2004787933490046 13.8822402940522629 24.4764298202001918   F   F   F
  8.2715663408014084 16.7743958904014470 20.9352137838200676   F   F   F
  8.7918077463078639 12.2527207243753420 22.6853270340519906   F   F   F
 14.0647074994293586 23.0952478487402750 21.3818243627230338   F   F   F
 15.0562110403560929 18.5877194055201258 24.0119741358524905   F   F   F
 17.3546404114896013 19.3150502008814158 20.8312275782547722   F   F   F
 11.4528456779902328 22.9928072311665694 22.7253845872845908   F   F   F
 16.9872099654313367  8.0928054325332326 22.6825152568754085   T   T   T
 15.3039597598819554  7.0386405702612587 24.3041799775493530   T   T   T
 13.6194120878682927  6.0015375615138424 25.9203745670082135   T   T   T
 14.4003121912576262  5.8404451428094397 24.6118350317109851   T   T   T
 16.0717424891142109  6.9253389210240917 22.9764958511507338   T   T   T
 17.6975621470336293  8.3092446237671211 23.4864483860255220   T   T   T
 16.7253361824830620  6.0363313000708079 23.0076562050487823   T   T   T
 16.0206052253491045  7.1849935505846272 25.1224091193646828   T   T   T
 14.6824393751507341  7.9478072823701353 24.2797685406854775   T   T   T
 15.3862708604554044  6.7474838393075167 22.1402655590103308   T   T   T
 13.7007550943398098  5.6964417539205705 23.7793093661756743   T   T   T
 15.0117871568592758  4.9310411065676485 24.6570763242607711   T   T   T
 14.2895893314487061  6.0961355732866220 26.7796314343264932   T   T   T
 12.9859392205109963  6.8937308796709003 25.8965246543219969   T   T   T
 17.4795410667631259  8.0431220793336973 21.7112490229712876   T   T   T
 12.9709092394601910  5.1411103534614790 26.1012895274012742   T   T   T
 11.8631433805794213 22.4362581031911610 17.7858004998541226   F   F   F
 19.7175438886987138 16.8073830816560914 17.6996673233365307   F   F   F
 19.6827125057016694 11.0903357328901162 17.7375648263795007   F   F   F
 19.6503243561958811 22.3206645754795403 17.7914262919058039   F   F   F
 13.7649333283172126 26.4402915663630118 19.1420089362738324   F   F   F
 19.7076804279185147  5.6392369128419633 17.7674400106459878   F   F   F
 21.6907045315877767  9.7397153000213237 19.2142076229373941   F   F   F
 13.7464060182275123 20.8501004466617417 19.1599119353555984   F   F   F
 13.7530690689731152 15.3433482830389352 19.3834061408323564   F   F   F
  3.9717857223409729 19.5195170205865303 15.0031926987445132   F   F   F
  9.8937476594255340  7.0379454409332247 19.1722907868996089   F   F   F
 17.5277282090901600 23.6436009755874856 19.2115901603026913   F   F   F
  9.7672975955599703 23.7148754346348731 19.1893726099099808   F   F   F
 13.8179573797119080  1.4099604546216475 19.2547045551175842   F   F   F
 17.6591543186121065 12.4959362334133210 19.2649506118077269   F   F   F
  3.9417278236188369 13.9694958676654029 14.9330854945317739   F   F   F
  2.0546872716908982 15.3359327883223688 19.1927767110818728   F   F   F
  1.9898249185950072  6.9351514593324017 19.2591586448975640   F   F   F
  2.0368777580834330 18.1273038561365105 19.2578521524435438   F   F   F
 15.7728973538493946 25.0752389637421977 14.9697987677653384   F   F   F
  1.9958514607757059 12.5510600823658862 19.2090261149268819   F   F   F
 17.6999592550609286  7.0790857698460092 19.1766537444719241   F   F   F
 17.8009695047995748 18.2976082422585122 19.0563321919690019   F   F   F
 10.1088605668626581 12.3859347817529084 19.6890552326193351   F   F   F
 19.7041852788160767  8.3772453523879360 15.0029060999913639   F   F   F
 17.6919562875070469 26.4218013043560767 19.1814941683634075   F   F   F
 19.7049136610864686 25.0965899835094142 14.9896848233476234   F   F   F
 11.8003974491154526 11.2349922895799796 17.7314534870145266   F   F   F
 11.7766325793273783 16.8280429475526425 18.2789582052856865   F   F   F
  5.9583778182592617 26.4991016854720982 16.3514333422367173   F   F   F
 13.7153992969544909 20.8898779455688768 16.4072613595940417   F   F   F
 13.6414259015863930 15.2942748771699275 16.5605591300899597   F   F   F
 21.6671114190661847 15.3258851353238015 16.3903088598472308   F   F   F
 21.7078128207479786  9.7920116198002525 16.3719693980375816   F   F   F
 13.8162568461316884 26.5225641595445261 16.3656633559158600   F   F   F
 21.6220363447224067 20.9452708014916844 16.3775529124778423   F   F   F
 21.6887780291104946 26.5159686789813733 16.3886236300724732   F   F   F
  1.9564158021580287  6.9775725888647440 16.4211120570069760   F   F   F
  2.0350444294928751 12.5615762757662512 16.4000862890281169   F   F   F
  1.9558549506798175 18.1606692222927038 16.3825970839326622   F   F   F
  2.0218063168712779 23.7089788072177114 16.4260837749050417   F   F   F
  9.8598491050910386  7.0413840040683962 16.4175932867096073   F   F   F
  9.9411292711062771 18.1852742369463911 16.6734878309710268   F   F   F
  9.8380836821083939 12.6999882159677924 16.5750569441672795   F   F   F
 17.7131787878679141 12.5363340990485916 16.4752776845328377   F   F   F
 17.7199148718007535  6.9293555078981290 16.3511172543705356   F   F   F
  9.8143426335021431 23.6794935903333297 16.4513336491887578   F   F   F
 17.6801180533917517 18.0294083162517289 16.3459509366527200   F   F   F
 11.8353769569533842  5.5872565472245022 17.7506187139138696   F   F   F
 19.7112171417090032 13.9030506636695996 14.9867307641031182   F   F   F
 17.8364409618741249 21.0398716578116982 19.7314077832471888   F   F   F
  6.0038596579825070  9.7383705070070530 19.2214998055957480   F   F   F
 19.6997904894040872 19.4985679370607521 15.0057299965048010   F   F   F
 11.8401185113297682 19.4223997789999707 15.0066744576877618   F   F   F
 11.8361207115031810 25.0555028081450004 15.0255701836933202   F   F   F
 11.8235136776395073 13.8987021051224957 15.0025879920485714   F   F   F
 21.6982156369999721 18.1325837379999442 10.8156001569999933   F   F   F
  5.9395817249857821  6.9396317219885866 19.2366102873233977   F   F   F
  5.8865353744250788 12.6316592784097974 19.2601858155794652   F   F   F
  6.1917230692718199 23.4430966342962925 19.4026983812097100   F   F   F
  5.8612686145986803 18.3857828125965703 18.8730090002069844   F   F   F
 14.0072347104247310 18.1645227979003216 19.1909636549833316   F   F   F
 13.8341127394472512 12.7181694539565218 19.0239647882659355   F   F   F
 13.7998754191649198  7.0507537530340327 19.1657768223911589   F   F   F
 21.6440808031900396 23.7120715504303270 19.2462844672674507   F   F   F
 21.6509002066484939 12.5423428804295192 19.1717361023031465   F   F   F
 21.6279190757336899 18.1106881652236531 19.2721295298397948   F   F   F
 21.6855353882754898  6.9869587492186467 19.2434720969594544   F   F   F
 13.9504472250896203 23.6500489000933349 19.3785732562790187   F   F   F
  9.9789238544977117 20.6677909410295442 19.0150707837567410   F   F   F
  9.8803627416776827 26.4317483598406682 19.1738572186914951   F   F   F
 17.8591868048366358 15.2593850625731591 19.1591684732145922   F   F   F
 17.6583527060872676  9.8763383819547652 19.3957423626534862   F   F   F
  1.9880537418461168  9.7325349154522005 19.2483284444406664   F   F   F
  9.9009146394263325  9.7742824565156834 19.2045535383933874   F   F   F
  9.8628241350000643  4.1844424010001093 10.8156001569999933   F   F   F
  1.9997534177044738 26.4707618419047428 19.2175706480461557   F   F   F
  9.8779983872787174  1.4085254077219289 16.4287151673737135   F   F   F
  1.9830841504862098  1.3872905257034644 16.3977348553607953   F   F   F
 21.6863505814776651  4.2040406468936649 16.3913605279112033   F   F   F
 13.7964556234274944  4.1829285732808286 16.4215794751587509   F   F   F
  5.9225452104094751  4.1951698399285489 16.3901254059801218   F   F   F
 17.7538904643626019  4.1519608017773422 16.4328041160302831   F   F   F
  9.8618592980798478  4.2143060416554894 16.3893261489334350   F   F   F
  1.9773412619892023  4.1989886354810642 16.3884349608680644   F   F   F
 11.8336106514731476  2.7911024458608344 14.9627817265694869   F   F   F
 19.7226940663481720  2.7912873032991121 14.9645959293134077   F   F   F
  3.9478608264819495  2.7850925939144755 14.9617170607138288   F   F   F
 15.7729034726565569  2.7875505647213097 14.9725295212353444   F   F   F
  7.8963483339293719  2.7817375961809829 14.9670204445490036   F   F   F
 -0.0002094723166538  2.7901935142507690 14.9733853653342113   F   F   F
 21.6980367346324314  4.1843977882404477 13.6138016912329043   F   F   F
 17.7532081859101964  1.3616288492176836 16.3842186414434394   F   F   F
  5.9186502060112254  1.3938812331540567 16.4061208406134256   F   F   F
 13.7860757394483819  1.4043515047393449 16.4243599638077420   F   F   F
 21.6887248940272670  1.3930339578981754 16.3981981861382629   F   F   F
 21.6759662686129317  1.3943124112689349 19.2076085481259327   F   F   F
 17.7564268702978829  4.2114428354206792 19.2458096864868438   F   F   F
  5.9351903126154735  4.1375702140091155 19.2308224501562144   F   F   F
 21.6761600066187121  4.1811649097705681 19.2105772782009083   F   F   F
 13.8107909571914025  4.2057908099305461 19.2736440907925264   F   F   F
  9.8620190595902297  4.1835499926212387 19.2448827457611777   F   F   F
  1.9665263289632882  4.1426293205783118 19.2142590543045131   F   F   F
 13.8096517743087901  4.2004002574949446 13.6294196195686386   F   F   F
  1.9660353761517164  1.3738593089527495 19.2201320690591118   F   F   F
  9.8851643080659919  1.3820457082056039 19.2875013104216997   F   F   F
 19.7024673729579156 27.8368205567777487 17.7660551616535685   F   F   F
 11.8301928380989025  0.0045297177408372 17.7502633362323259   F   F   F
  3.9628430130924559 27.8643775379435077 17.7659132455338131   F   F   F
 15.7639526283419720 -0.0010514964097601 17.7551696717383827   F   F   F
 23.6687937421977033 27.8729572491523321 17.7659933768992211   F   F   F
  7.9074912055349458  0.0016373007033697 17.7574483802884693   F   F   F
 17.7505643407411426  1.3880287207484465 19.2207365537806432   F   F   F
  9.8317150628901633 14.9193211732996112 18.9026767922347609   F   F   F
  5.9199262406338971  4.1812010005763423 13.6110388773447379   F   F   F
  9.8630025589378754  4.1867946164915129 13.6147108217167112   F   F   F
 13.8079546360000549  4.1844424010001093 10.8156001569999933   F   F   F
  5.9176950450000287  4.1844424010001093 10.8156001569999933   F   F   F
 17.7530837259999217  4.1844424010001093 10.8156001569999933   F   F   F
 17.7037065068936563 23.6259894264682409 16.3884261444536392   F   F   F
  1.9725650740000149  4.1844424010001093 10.8156001569999933   F   F   F
 21.6982156369999721 23.7118402719999644 10.8156001569999933   F   F   F
  1.9937246259857808 23.7014256382989181 19.2579868280457625   F   F   F
  5.9656558313863730 26.3706469002966841 19.1194283379672676   F   F   F
 13.7302471794073231  9.8430274207683528 19.3619606947092464   F   F   F
  6.0051392034360251 20.6876222570868649 19.9078587879043383   F   F   F
  5.6961687363401428 15.4476535102073633 19.2544652023138063   F   F   F
 21.6776424005034052 26.4864389014771326 19.2306881008100099   F   F   F
 21.6687356192449663 20.9207658381210280 19.2144053491664870   F   F   F
 21.5997028607373949 15.3050842779896588 19.1850459411542786   F   F   F
  1.9881994664220246 20.9165721761095504 19.2243561497852404   F   F   F
 21.6982156369999721  4.1844424010001093 10.8156001569999933   F   F   F
  1.9725650740000149  1.3948141340000999 10.8156001569999933   F   F   F
  9.8628241350000643  1.3948141340000999 10.8156001569999933   F   F   F
 17.7530837259999217  1.3948141340000999 10.8156001569999933   F   F   F
  1.9733731594341450  4.1839131443189741 13.6113835091644990   F   F   F
 21.6976592164251798  1.3866639288367861 13.6169995829449562   F   F   F
 13.8072410728484716  1.3667421616286990 13.6383363670705133   F   F   F
  5.9218261903789111  1.3698185103777774 13.6263132384598826   F   F   F
 17.7516124373663509  1.3932475523346499 13.6097684406886472   F   F   F
  9.8660705468624634  1.3569339886444207 13.6411551550560279   F   F   F
  1.9708038211109953  1.3843213992396239 13.6181259888863284   F   F   F
 17.7487918608505240  4.2045824823512694 13.6320197343105356   F   F   F
 19.7256482699999580  0.0000000000000000 12.2103998060000407   F   F   F
  3.9451301480000271  0.0000000000000000 12.2103998060000407   F   F   F
 15.7805205919999434  0.0000000000000000 12.2103998060000407   F   F   F
  7.8902602960000570  0.0000000000000000 12.2103998060000407   F   F   F
  0.0000000000000000  0.0000000000000000 12.2103998060000407   F   F   F
 21.6982156369999721  1.3948141340000999 10.8156001569999933   F   F   F
 13.8079546360000549  1.3948141340000999 10.8156001569999933   F   F   F
  5.9176950450000287  1.3948141340000999 10.8156001569999933   F   F   F
 11.8353900909999528  0.0000000000000000 12.2103998060000407   F   F   F
  5.9475994601007880  6.9929321736716394 16.4201643318144939   F   F   F
  9.4288291381622678 17.8764029626286529 19.5743622051643591   F   F   F
  5.9747259593594100 18.0557366407568018 16.3268477744219673   F   F   F
  1.9725650740000149 12.5533272029999310 10.8156001569999933   F   F   F
  1.9725650740000149  6.9740706690001133 10.8156001569999933   F   F   F
  5.9176950450000287 15.3429548049998807 10.8156001569999933   F   F   F
  9.8628241350000643 15.3429548049998807 10.8156001569999933   F   F   F
  9.8628241350000643 20.9222120049999525 10.8156001569999933   F   F   F
  9.8628241350000643 26.5014685399999657 10.8156001569999933   F   F   F
 17.7530837259999217  9.7636989360001234 10.8156001569999933   F   F   F
 17.7530837259999217 15.3429548049998807 10.8156001569999933   F   F   F
  1.9725650740000149 18.1325837379999442 10.8156001569999933   F   F   F
 17.7530837259999217 20.9222120049999525 10.8156001569999933   F   F   F
  5.9176950450000287  9.7636989360001234 10.8156001569999933   F   F   F
  5.9176950450000287 20.9222120049999525 10.8156001569999933   F   F   F
 21.6982156369999721 26.5014685399999657 10.8156001569999933   F   F   F
  5.9176950450000287 26.5014685399999657 10.8156001569999933   F   F   F
 13.8079546360000549  9.7636989360001234 10.8156001569999933   F   F   F
 13.8079546360000549 15.3429548049998807 10.8156001569999933   F   F   F
 13.8079546360000549 20.9222120049999525 10.8156001569999933   F   F   F
 13.8079546360000549 26.5014685399999657 10.8156001569999933   F   F   F
 17.7530837259999217 26.5014685399999657 10.8156001569999933   F   F   F
 21.6982156369999721  9.7636989360001234 10.8156001569999933   F   F   F
 21.6982156369999721 12.5533272029999310 10.8156001569999933   F   F   F
 13.8079546360000549 23.7118402719999644 10.8156001569999933   F   F   F
  1.9725650740000149 26.5014685399999657 10.8156001569999933   F   F   F
  9.8628241350000643  9.7636989360001234 10.8156001569999933   F   F   F
  1.9725650740000149 23.7118402719999644 10.8156001569999933   F   F   F
  9.8628241350000643  6.9740706690001133 10.8156001569999933   F   F   F
  9.8628241350000643 12.5533272029999310 10.8156001569999933   F   F   F
  9.8628241350000643 18.1325837379999442 10.8156001569999933   F   F   F
  9.8628241350000643 23.7118402719999644 10.8156001569999933   F   F   F
 17.7530837259999217  6.9740706690001133 10.8156001569999933   F   F   F
 21.6982156369999721  6.9740706690001133 10.8156001569999933   F   F   F
 17.7530837259999217 12.5533272029999310 10.8156001569999933   F   F   F
 17.7530837259999217 23.7118402719999644 10.8156001569999933   F   F   F
  5.9176950450000287  6.9740706690001133 10.8156001569999933   F   F   F
  5.9176950450000287 12.5533272029999310 10.8156001569999933   F   F   F
  5.9176950450000287 18.1325837379999442 10.8156001569999933   F   F   F
  5.9176950450000287 23.7118402719999644 10.8156001569999933   F   F   F
 13.8079546360000549  6.9740706690001133 10.8156001569999933   F   F   F
 13.8079546360000549 12.5533272029999310 10.8156001569999933   F   F   F
 13.8079546360000549 18.1325837379999442 10.8156001569999933   F   F   F
 17.7530837259999217 18.1325837379999442 10.8156001569999933   F   F   F
 21.6982156369999721 15.3429548049998807 10.8156001569999933   F   F   F
 21.6982156369999721 20.9222120049999525 10.8156001569999933   F   F   F
 13.8085082970291957  7.0201008672593215 13.6173954798065147   F   F   F
  9.8669816882171784  9.7783314406468129 13.6268102192625253   F   F   F
 21.6855927716160757 12.5454631568587640 13.6189904845179264   F   F   F
 21.6825080435234838  6.9716838385464683 13.6292213764754848   F   F   F
  5.9421140507774091 15.3931983155627314 13.6569196160809501   F   F   F
 21.6872611098396533 18.1263208768496717 13.6198140862322248   F   F   F
 21.6872382465116758 23.6983870536398022 13.6288256947251298   F   F   F
  1.9821403516028304  9.7626643828202031 13.6126403018118900   F   F   F
  1.9704708137761446 15.3526690629580695 13.6144308873264830   F   F   F
  5.9562276583895803 20.9245113738688957 13.6830361644956131   F   F   F
  1.9844609685160850 26.4825250036063622 13.6082999671467331   F   F   F
  9.8753569193522797 15.2878822060949542 13.6210266129724182   F   F   F
  9.8740494205514313 20.8381036881587747 13.6341944650513831   F   F   F
  9.8782138884114854 26.4427110587169523 13.6241580282046133   F   F   F
 17.7589187558182537  9.8176655282157359 13.6700063450323785   F   F   F
 17.7466500942131979 15.3651156156835924 13.6865777973803873   F   F   F
 17.7266241272902008 20.9416304718937347 13.7131697001278283   F   F   F
 17.7393582778815109 26.4930590060362547 13.6426843403002049   F   F   F
  5.9171450198162860  9.7946733246058511 13.6334126292011018   F   F   F
  2.0064782223965012 20.9189787006388102 13.6059322995516485   F   F   F
 21.6925956671272324 26.4889315308961990 13.6124951187549552   F   F   F
 13.7967166101423722  9.8453784642898885 13.6831374715858711   F   F   F
  0.0013836714074485  8.3676953563738063 14.9614698208778432   F   F   F
 13.8350162740771232 18.1217042019852990 13.6528229693594625   F   F   F
 15.7490451203504698 19.5288437793165457 15.0928957613165320   F   F   F
  5.9337086921620985 26.4513672689088075 13.6088194655049666   F   F   F
 13.7905505060412334 15.3756257517417190 13.6870573750557476   F   F   F
 13.7926450467784303 20.8645430898736457 13.6287088655501840   F   F   F
 13.7944991828897461 26.4440453124581722 13.6067898922786625   F   F   F
 21.6788907232247858  9.7599500658842864 13.6106164129415461   F   F   F
 21.6815984242326145 15.3360175638619332 13.6181724049437989   F   F   F
 21.6604865442309915 20.9134749439723144 13.6058936986325225   F   F   F
 15.7583767594896926 14.0237115909589232 15.1037871004577458   F   F   F
  7.9078683009061388 14.0258768268929828 15.0901951854858538   F   F   F
  7.9414011641343034 19.5388876704393795 15.1210280512487962   F   F   F
 15.7624817210458428  8.4206464380506567 15.0003398107804635   F   F   F
  7.8963321134243296 25.0570524313596898 14.9878130402938297   F   F   F
  0.0042029038462322 25.0915540063731548 14.9817413291761898   F   F   F
  7.8966560136533088  8.3964846211763184 14.9653580917911366   F   F   F
 23.6671213342207878 19.5826738853959306 14.9244242194393077   F   F   F
 23.6699462785336827 13.9260580916725125 14.9560026646385253   F   F   F
 13.7977645092147849 23.6263073216367481 13.6823874591073249   F   F   F
  1.9725650740000149 20.9222120049999525 10.8156001569999933   F   F   F
  5.9021132972772445 12.5890866564056765 16.3881815750439017   F   F   F
  5.9302610084057710  1.3470098079209283 19.2529133973716462   F   F   F
  7.9022281740798759  5.5800737010971977 17.7637745174764632   F   F   F
 21.6929904871878847 18.1394842496005211 16.3891433796200907   F   F   F
 13.7531629991534707 18.0674395244053194 16.4817511518559954   F   F   F
 13.8678931092333340 23.7640437311352812 16.5244363905021245   F   F   F
 13.8066143695767902 12.5120236709813391 16.3621889907964224   F   F   F
 13.8026519783190569  6.9642613477980673 16.3747936459685413   F   F   F
  5.9908072838710176 23.7064791265670429 16.5336116592698730   F   F   F
 10.0202177515706854 15.4734730690054203 16.3816673239322981   F   F   F
 17.8213414312485057 15.2802571377519651 16.4887629853805180   F   F   F
 17.7804929239702894 20.7735683920280749 16.5843219954743297   F   F   F
 17.7088887494545624 26.4408969931149649 16.4120986062384731   F   F   F
 21.6657687020916683 23.7097478284315919 16.4085845846155927   F   F   F
  5.9775933376777983  9.7941104184125312 16.4198641380412873   F   F   F
 21.7015243933676985  6.9926599962947940 16.4165906517522870   F   F   F
  3.9566550250377799  8.3716606147883237 14.9978492452973526   F   F   F
 11.8353900909999528 22.3170261389998572 12.2103998060000407   F   F   F
 11.8353900909999528 11.1585130700000246 12.2103998060000407   F   F   F
 11.8353900909999528  5.5792565350000141 12.2103998060000407   F   F   F
  3.9451301480000271 22.3170261389998572 12.2103998060000407   F   F   F
  3.9451301480000271 16.7377696040000430 12.2103998060000407   F   F   F
  3.9451301480000271 11.1585130700000246 12.2103998060000407   F   F   F
  3.9451301480000271  5.5792565350000141 12.2103998060000407   F   F   F
 15.7805205919999434 22.3170261389998572 12.2103998060000407   F   F   F
  3.9732213068040894 25.0705458981976221 14.9841168016740216   F   F   F
 13.7292108886594111  9.6984876462032581 16.5226191329143113   F   F   F
  5.9009024166158852 20.8265969327467282 16.5670578083500573   F   F   F
  3.9154719796965733 16.8123058329026804 17.6466019751942014   F   F   F
  1.9888288467637376 26.5135633644283146 16.3789272344402619   F   F   F
  9.8406962629728003  9.8408622582899294 16.4249363107807227   F   F   F
  2.0537747323187632 20.9578321819783646 16.3777024348711286   F   F   F
  1.9675291822844307 15.3496716158413999 16.3791217672249445   F   F   F
  1.9790701122703396  9.7831016936104191 16.3910796324134402   F   F   F
 11.8218560021025461  8.3943298268326423 14.9850532132146004   F   F   F
 23.6601805774879743 16.7117405766016063 17.8251871796290651   F   F   F
 23.6640152287835654 22.3692280301657718 17.7816517072193783   F   F   F
  7.9223871977316529 11.2721466225282665 17.7997553576852390   F   F   F
 10.0001896309176441 20.9290777854507901 16.3967512429390538   F   F   F
 23.6653789913784500  5.5799893707119939 17.7741655812439987   F   F   F
  0.0243274990458048 11.1529320606888493 17.7704118681869616   F   F   F
  7.8902761967381059 16.6523726358629851 17.7399696694715843   F   F   F
  7.9391827062387845 22.1011982391790767 17.7479041084049776   F   F   F
 15.7060973878829184 11.0898062938834716 17.7209392732227542   F   F   F
  1.9725650740000149 15.3429548049998807 10.8156001569999933   F   F   F
 15.7697798008904115  5.5840759154324635 17.7626253755853263   F   F   F
 15.7563886412534959 22.1320679595584409 17.7154288556442729   F   F   F
 15.7817857426085801 16.5972777612608269 17.7326311528403018   F   F   F
  3.9533009520002911  5.5663341319676665 17.7651391886613901   F   F   F
  3.9875407739209696 11.1202800790742060 17.7907726884362170   F   F   F
  4.0464669450306685 22.3052799054777005 17.8738741546046640   F   F   F
  5.8703245456016262 15.3104882098980504 16.4773691126522621   F   F   F
 15.7805205919999434 16.7377696040000430 12.2103998060000407   F   F   F
 15.7805205919999434 11.1585130700000246 12.2103998060000407   F   F   F
 15.7805205919999434  5.5792565350000141 12.2103998060000407   F   F   F
  7.8902602960000570 22.3170261389998572 12.2103998060000407   F   F   F
  9.8374508794563695 18.0488612487641973 13.7460517079601825   F   F   F
  9.8724424052237776 23.6292090365964107 13.6644473104197175   F   F   F
 17.7290146538555895  7.0169499166247711 13.6061714983631497   F   F   F
 17.6961011886192878 12.5856778020776776 13.6558489764803017   F   F   F
 17.7136904139088074 18.1695918339493403 13.6148275985930880   F   F   F
 17.7520175607662338 23.7103202932336750 13.6121791574694555   F   F   F
  9.8259697150002570 12.5271183131778514 13.7174874213541855   F   F   F
  5.9219841588168043  6.9856290738882532 13.6282606260601558   F   F   F
  5.9646883351358131 12.6021141476763869 13.6183166895848942   F   F   F
  5.9641223119502147 18.1843845903367516 13.6150021552851719   F   F   F
  5.9306767849825865 23.6626825853239637 13.6671192225701219   F   F   F
 19.7256482699999580 11.1585130700000246 12.2103998060000407   F   F   F
 13.8360216912087477 12.6173266015129606 13.6134736950112067   F   F   F
 19.7256482699999580  5.5792565350000141 12.2103998060000407   F   F   F
  9.8488354334837602 26.4591646827522489 16.4006625424904549   F   F   F
  9.8534726543748015  6.9796142139439246 13.6507810195906050   F   F   F
 21.6643202716271190 12.5387262925191507 16.3908923287406161   F   F   F
  1.9905128985960499 18.1410173380155619 13.6144614339095433   F   F   F
  1.9824412496665169 23.6941230945706387 13.6320486209573186   F   F   F
  7.8902602960000570 16.7377696040000430 12.2103998060000407   F   F   F
  7.8902602960000570 11.1585130700000246 12.2103998060000407   F   F   F
  7.8902602960000570  5.5792565350000141 12.2103998060000407   F   F   F
  0.0000000000000000 22.3170261389998572 12.2103998060000407   F   F   F
  0.0000000000000000 16.7377696040000430 12.2103998060000407   F   F   F
  0.0000000000000000 11.1585130700000246 12.2103998060000407   F   F   F
 17.6954029480814690  9.6838472422370110 16.5276808896971303   F   F   F
  0.0000000000000000  5.5792565350000141 12.2103998060000407   F   F   F
  1.9725650740000149  9.7636989360001234 10.8156001569999933   F   F   F
 11.8353900909999528 16.7377696040000430 12.2103998060000407   F   F   F
 19.7256482699999580 16.7377696040000430 12.2103998060000407   F   F   F
 19.7256482699999580 22.3170261389998572 12.2103998060000407   F   F   F
  1.9847616372770371  6.9698836195235447 13.6268282152640428   F   F   F
  1.9721509307601792 12.5498362978747959 13.6152417087624151   F   F   F
 19.7056815345780194  2.7951467889255155 18.5375015323267114   F   F   F
  7.9068717967361026  2.7509798037885287 18.5916388998692952   F   F   F
 15.7881660239934405  2.8058339137271826 18.5637797045650643   F   F   F
 11.8447875025293978  2.7977469186682584 18.6019247101189258   F   F   F
  3.9525478302160959  2.7446704642094781 18.5901214618645483   F   F   F
 23.6565900365860102  2.7746981808384605 18.5656310718698023   F   F   F
 19.7389159868938293  0.0190160906738853 15.1816193113103743   F   F   F
 11.8317571641411217  0.0222340179959119 15.1745200412434489   F   F   F
  0.0028511864007540  0.0031843272126239 15.1775861583057434   F   F   F
 15.7661318772491867  0.0375501860235678 15.1680411210149675   F   F   F