Au  O Sr Ti                             
   1.00000000000000     
    23.6707801818999997    0.0000000000000000    0.0000000000000000
     0.0000000000000000   22.3170261383000010    0.0000000000000000
     0.0000000000000000    0.0000000000000000   30.0000000000000000
   Au   O    Sr   Ti
    50    72    24    24
Direct
  0.7192534753586770  0.5252366374776472  0.7539417741787346
  0.6258271438847700  0.5655452259025040  0.7038498476115009
  0.7188078528563153  0.2589371455221254  0.6916862842572442
  0.2881486733026861  0.7448847172005983  0.6993499164048345
  0.5151716261319450  0.6040857970629574  0.7770721051886724
  0.5770263822446111  0.7258634327339948  0.7922466974165943
  0.5504486490629219  0.3843972096123451  0.8296574423076066
  0.2429620268100905  0.4670256339772365  0.7091151212353708
  0.2820527826064563  0.6600531835439583  0.7665913539464739
  0.6023765451839296  0.2886385647888972  0.7880741658252859
  0.5149460449547618  0.4828252207890174  0.6780624142787772
  0.5625746479747207  0.4856622956333538  0.7627896376129399
  0.4637630023058321  0.6949396338042391  0.8297479594153288
  0.7644823502083113  0.4301781845405515  0.7055400597339627
  0.7338663331821280  0.6156263946883911  0.6940742361821819
  0.6366797017818016  0.5829484822543805  0.8001944478557235
  0.5944639165073085  0.7853438070161047  0.7124411327319180
  0.4830282791682947  0.7800896942549969  0.7575472229434226
  0.3500693780769240  0.5022442586717091  0.6973142092987814
  0.4313216529614934  0.3719014060376296  0.8158313961418244
  0.3729453290757974  0.2986850793355273  0.7558763178529517
  0.4406708611158479  0.2285276306274042  0.6970897548259316
  0.3868067600473211  0.8136961001872152  0.7060540722742630
  0.2901388062618935  0.5357342453376575  0.7778280701109139
  0.5550883654354877  0.2071065041476459  0.7117462628399949
  0.4551073203528944  0.5799933823424013  0.7031756070737458
  0.6131145078096552  0.3181179773992255  0.6979357227411640
  0.7052381773914647  0.7576163037557677  0.6884629745371527
  0.6565318040747030  0.4412433563820599  0.8124881807049533
  0.3686689754048160  0.6176664176907991  0.8201529707387252
  0.5714073054075328  0.5101826760279593  0.8570633516854329
  0.6644139448271034  0.1939009746910614  0.7520932875624098
  0.4726633171102108  0.4510534867672220  0.8794804202092905
  0.5161431488738870  0.3770158493664084  0.7342267866577643
  0.2839569361222303  0.3372127080556737  0.7026906425341792
  0.6695691963426924  0.6808962551085571  0.7490864641269326
  0.3981024806497118  0.3825809695529401  0.6906056972379986
  0.3762914123603167  0.4921460902463153  0.8336190042350538
  0.4641057650839286  0.5735440860306156  0.8633306685657942
  0.3270089698552354  0.4136617191825280  0.7696334676165293
  0.4874077356619679  0.2680720902691505  0.7752452728548604
  0.4296094636301433  0.6990977384775263  0.6987971453815192
  0.6999491413714267  0.3455235956616178  0.7568218666488349
  0.7744770530566711  0.4280894336569645  0.7960067871545533
  0.2554191053707839  0.5918582213053867  0.6953747642055248
  0.6474316512038456  0.4395155572116138  0.6975783531429443
  0.5663429677283460  0.6406065024051415  0.8608709920336253
  0.5478872908016470  0.6639635890267712  0.7016586532223386
  0.4431409893239149  0.4746826311756678  0.7561688178518935
  0.3726953628146106  0.7354249284962009  0.7774762489895934
  0.9996499988632550  0.4980719439293111  0.5943441578872495
  0.9992592803203095  0.7542507079217131  0.5919824237787452
  0.3346768213728240  0.2541338509430062  0.5926363220427717
  0.3340194229244560  0.9998522750556020  0.5920137739536884
  0.9996501693023063  0.9980762712636917  0.5928136371031130
  0.0011140054780086  0.2498581268134998  0.5919281883608605
  0.3336982967356619  0.4969281788112099  0.5909732815822224
  0.3352791936892103  0.7393609310226807  0.5916729791534223
  0.6634899994164982  0.2471126259398986  0.5907884412562154
  0.6658327121414302  0.0004473637198075  0.5918764802838723
  0.6658871987318093  0.7421159766693179  0.5899867347623768
  0.6671501003747409  0.4930750071184207  0.5909965470901994
  0.1674066084693564  0.9983080795158088  0.5922558727741176
  0.1685502226915929  0.2491619532744735  0.5930515181896183
  0.1706474436754704  0.7498799117899395  0.5949966966627116
  0.1654420438633224  0.5036084610447205  0.5882014986689512
  0.4984130282403640  0.5039243682233874  0.6089360789749847
  0.4985575181191493  0.2528714190731165  0.5903297955391693
  0.4996488765634197  0.9999560827144052  0.5910018726199482
  0.7534314895316427  0.6934513042580974  0.6575114032387859
  0.7486212247035269  0.9367079053337548  0.6398123080518232
  0.2533850323327087  0.1864640052765267  0.6411462295388972
  0.7457025533637633  0.1941903590814107  0.6467339930492386
  0.7558964631604894  0.4360471842220264  0.6390702578012792
  0.4172948267754961  0.9350513303633150  0.6397525671995723
  0.4218825964680235  0.6757503687756383  0.6336265463635300
  0.5899496598766731  0.8105634041145109  0.6456342355479947
  0.9162094357492876  0.0623182114302523  0.6413494187844861
  0.9137908622742188  0.5614766504532298  0.6426164975614199
  0.9153740706818994  0.3119975798492405  0.6394838975421351
  0.9142516946821928  0.8124700440328496  0.6419002670595688
  0.5821808455619149  0.0655152388225204  0.6398436874700053
  0.5831302299306529  0.3192834189486220  0.6342881739429274
  0.5927672214282893  0.5642121869667278  0.6397306063153394
  0.2478574827243065  0.5739309041783685  0.6291118579933936
  0.2610703183057552  0.7980981078625575  0.6473633832362040
  0.2496440934866087  0.3164241651721866  0.6414330531988526
  0.2508223448240514  0.0594489682128057  0.6419962537669477
  0.5819827375724387  0.4380987503941256  0.6458132491168698
  0.5802688553519104  0.6848844818909683  0.6381565861699841
  0.9171680156691266  0.1865475210201950  0.6405817378402929
  0.5820139148488153  0.9355040730396098  0.6392570341150901
  0.8303567877412448  0.7503390312053924  0.5934034440378966
  0.8317355800860753  0.2478409481110191  0.5914836095895168
  0.8333134841511480  0.5037550715477082  0.5895136322081811
  0.8322050476686087  0.0020070722692722  0.5922143102232127
  0.5008724111123755  0.7563628610491833  0.5927460697486850
  0.4177475075138233  0.0652856907867161  0.6398861952613970
  0.4265281351188150  0.3049606900819768  0.6552040043033642
  0.4118741093677443  0.8124393070624834  0.6397595133516560
  0.3997414873621636  0.5512404191040901  0.6520569100224094
  0.7520951679823966  0.5710888899879052  0.6342847053394181
  0.7409490265526202  0.8099819331692188  0.6400711702519573
  0.7467516151149098  0.3126407106752538  0.6400760213029741
  0.7476633607021128  0.0669352030383692  0.6390753433748344
  0.0840563665129679  0.3118918102308328  0.6404048630583077
  0.0860884946967175  0.5617168905663945  0.6424796040297878
  0.0834912989429526  0.0604231855863588  0.6414510704143623
  0.0870973295194588  0.4365458580965011  0.6396707317578390
  0.0836514794626524  0.1856372976194365  0.6409706347736730
  0.4185115376786683  0.1879029297250199  0.6398610782487779
  0.4151875209883187  0.4189045665592914  0.6299600766737683
  0.0843915991191935  0.9351689027650707  0.6408926887569351
  0.0824645528979033  0.6872994068159244  0.6399436991426981
  0.9125152259201741  0.4361200810663277  0.6397131595836854
  0.9166976948019752  0.6873793230678871  0.6399000097843768
  0.9138906864432954  0.9366000577282634  0.6408475776953253
  0.2410331843999529  0.4422078715532791  0.6416200223662898
  0.2486988944439474  0.6767187893377979  0.6654461729191254
  0.5786668175246490  0.1903233624432303  0.6442241862763396
  0.2520361978447454  0.9300325397946381  0.6373503683787050
  0.0838003038633985  0.8115185881877665  0.6420890488682431
  0.0006599646912306  0.1228134125928335  0.6188976383716209
  0.8370696633204915  0.3725858795856212  0.6043010659847567
  0.8319868185625054  0.8753028110566206  0.6184244755042556
  0.8409523372565886  0.6264719459583503  0.6029704232500279
  0.9989546341417679  0.8748021700239406  0.6223395778205827
  0.3314793484833771  0.1198528649363411  0.6132704492833696
  0.3346986205942244  0.6235850253325026  0.5953879473253423
  0.3260231687686499  0.3737874429545016  0.5929040133258496
  0.6710792795827771  0.3718668499389821  0.5943384576681936
  0.6654392104480422  0.1244372856823617  0.6117386189964549
  0.3346014842581937  0.8788558089033955  0.6028608173803676
  0.1583503578002166  0.6271583656177668  0.6024095491987396
  0.1664032062105250  0.8721034267181551  0.6195767007172819
  0.5018344319129753  0.3710887589577538  0.5949630406756583
  0.5003007357103897  0.1218921854456809  0.6059900617952039
  0.1675156063300065  0.1225466670124078  0.6213045920754183
  0.1635609038629227  0.3717141227440095  0.6077768515270208
  0.6652205784816516  0.8809554149116607  0.6069078858956374
  0.6663453799988304  0.6266865910138861  0.5935243180748486
  0.0002137610383883  0.3749384005426037  0.6225306780478022
  0.9996025362499878  0.6226280564874855  0.6469739432009547
  0.8337336631532182  0.1247082138979394  0.6192669906585522
  0.5003610766521831  0.8766659360046773  0.6098753476233156
  0.5040391717567800  0.6247578920166177  0.5939339921510509
  0.9162212254612569  0.9997614388477345  0.6036824151969498
  0.5844672892227436  0.7502613898420591  0.5993408727307923
  0.5908952373951237  0.5006658248676601  0.5937683116739834
  0.2422281464340088  0.4984426694993900  0.5939761287944449
  0.2494484342791168  0.7524485054255692  0.5921774254364180
  0.5843498805530345  0.2471708329707027  0.5972203701812475
  0.5825429880165487  0.0009380080299977  0.6042752483309712
  0.2494358410178563  0.9974342998603021  0.6041285124855449
  0.2492567279714635  0.2459469643697574  0.6037160873839511
  0.4170677646209242  0.0000925602941493  0.6046224144195946
  0.4147882241130034  0.2485171852918953  0.5910175376991234
  0.4161661439188222  0.7498513681605914  0.5946824063696710
  0.7564967169815446  0.5026463966189283  0.5957332967898736
  0.7517655975390909  0.7525584801972229  0.5905945736749061
  0.7540848180123518  0.2479505706154299  0.5943881595080711
  0.7496363993039239  0.0016927012578947  0.6041401173383179
  0.0838433480885428  0.2480959830719769  0.6036807060700227
  0.0810735110995608  0.5004481616693042  0.6036957201009869
  0.0799685225262721  0.7507632531741706  0.6030712412153321
  0.0832475761712743  0.9980310127273597  0.6034810598367457
  0.9180809670837746  0.7512435696284925  0.6033253949987127
  0.4117637803256713  0.4971851560476637  0.5931696623883482
  0.9200003231234817  0.2484793755439441  0.6027283222904600
  0.9186977937829255  0.5003399676225158  0.6039272648892862
 
  0.00000000E+00  0.00000000E+00  0.00000000E+00
  0.00000000E+00  0.00000000E+00  0.00000000E+00
  0.00000000E+00  0.00000000E+00  0.00000000E+00
  0.00000000E+00  0.00000000E+00  0.00000000E+00
  0.00000000E+00  0.00000000E+00  0.00000000E+00
  0.00000000E+00  0.00000000E+00  0.00000000E+00
  0.00000000E+00  0.00000000E+00  0.00000000E+00
  0.00000000E+00  0.00000000E+00  0.00000000E+00
  0.00000000E+00  0.00000000E+00  0.00000000E+00
  0.00000000E+00  0.00000000E+00  0.00000000E+00
  0.00000000E+00  0.00000000E+00  0.00000000E+00
  0.00000000E+00  0.00000000E+00  0.00000000E+00
  0.00000000E+00  0.00000000E+00  0.00000000E+00
  0.00000000E+00  0.00000000E+00  0.00000000E+00
  0.00000000E+00  0.00000000E+00  0.00000000E+00
  0.00000000E+00  0.00000000E+00  0.00000000E+00
  0.00000000E+00  0.00000000E+00  0.00000000E+00
  0.00000000E+00  0.00000000E+00  0.00000000E+00
  0.00000000E+00  0.00000000E+00  0.00000000E+00
  0.00000000E+00  0.00000000E+00  0.00000000E+00
  0.00000000E+00  0.00000000E+00  0.00000000E+00
  0.00000000E+00  0.00000000E+00  0.00000000E+00
  0.00000000E+00  0.00000000E+00  0.00000000E+00
  0.00000000E+00  0.00000000E+00  0.00000000E+00
  0.00000000E+00  0.00000000E+00  0.00000000E+00
  0.00000000E+00  0.00000000E+00  0.00000000E+00
  0.00000000E+00  0.00000000E+00  0.00000000E+00
  0.00000000E+00  0.00000000E+00  0.00000000E+00
  0.00000000E+00  0.00000000E+00  0.00000000E+00
  0.00000000E+00  0.00000000E+00  0.00000000E+00
  0.00000000E+00  0.00000000E+00  0.00000000E+00
  0.00000000E+00  0.00000000E+00  0.00000000E+00
  0.00000000E+00  0.00000000E+00  0.00000000E+00
  0.00000000E+00  0.00000000E+00  0.00000000E+00
  0.00000000E+00  0.00000000E+00  0.00000000E+00
  0.00000000E+00  0.00000000E+00  0.00000000E+00
  0.00000000E+00  0.00000000E+00  0.00000000E+00
  0.00000000E+00  0.00000000E+00  0.00000000E+00
  0.00000000E+00  0.00000000E+00  0.00000000E+00
  0.00000000E+00  0.00000000E+00  0.00000000E+00
  0.00000000E+00  0.00000000E+00  0.00000000E+00
  0.00000000E+00  0.00000000E+00  0.00000000E+00
  0.00000000E+00  0.00000000E+00  0.00000000E+00
  0.00000000E+00  0.00000000E+00  0.00000000E+00
  0.00000000E+00  0.00000000E+00  0.00000000E+00
  0.00000000E+00  0.00000000E+00  0.00000000E+00
  0.00000000E+00  0.00000000E+00  0.00000000E+00
  0.00000000E+00  0.00000000E+00  0.00000000E+00
  0.00000000E+00  0.00000000E+00  0.00000000E+00
  0.00000000E+00  0.00000000E+00  0.00000000E+00
  0.00000000E+00  0.00000000E+00  0.00000000E+00
  0.00000000E+00  0.00000000E+00  0.00000000E+00
  0.00000000E+00  0.00000000E+00  0.00000000E+00
  0.00000000E+00  0.00000000E+00  0.00000000E+00
  0.00000000E+00  0.00000000E+00  0.00000000E+00
  0.00000000E+00  0.00000000E+00  0.00000000E+00
  0.00000000E+00  0.00000000E+00  0.00000000E+00
  0.00000000E+00  0.00000000E+00  0.00000000E+00
  0.00000000E+00  0.00000000E+00  0.00000000E+00
  0.00000000E+00  0.00000000E+00  0.00000000E+00
  0.00000000E+00  0.00000000E+00  0.00000000E+00
  0.00000000E+00  0.00000000E+00  0.00000000E+00
  0.00000000E+00  0.00000000E+00  0.00000000E+00
  0.00000000E+00  0.00000000E+00  0.00000000E+00
  0.00000000E+00  0.00000000E+00  0.00000000E+00
  0.00000000E+00  0.00000000E+00  0.00000000E+00
  0.00000000E+00  0.00000000E+00  0.00000000E+00
  0.00000000E+00  0.00000000E+00  0.00000000E+00
  0.00000000E+00  0.00000000E+00  0.00000000E+00
  0.00000000E+00  0.00000000E+00  0.00000000E+00
  0.00000000E+00  0.00000000E+00  0.00000000E+00
  0.00000000E+00  0.00000000E+00  0.00000000E+00
  0.00000000E+00  0.00000000E+00  0.00000000E+00
  0.00000000E+00  0.00000000E+00  0.00000000E+00
  0.00000000E+00  0.00000000E+00  0.00000000E+00
  0.00000000E+00  0.00000000E+00  0.00000000E+00
  0.00000000E+00  0.00000000E+00  0.00000000E+00
  0.00000000E+00  0.00000000E+00  0.00000000E+00
  0.00000000E+00  0.00000000E+00  0.00000000E+00
  0.00000000E+00  0.00000000E+00  0.00000000E+00
  0.00000000E+00  0.00000000E+00  0.00000000E+00
  0.00000000E+00  0.00000000E+00  0.00000000E+00
  0.00000000E+00  0.00000000E+00  0.00000000E+00
  0.00000000E+00  0.00000000E+00  0.00000000E+00
  0.00000000E+00  0.00000000E+00  0.00000000E+00
  0.00000000E+00  0.00000000E+00  0.00000000E+00
  0.00000000E+00  0.00000000E+00  0.00000000E+00
  0.00000000E+00  0.00000000E+00  0.00000000E+00
  0.00000000E+00  0.00000000E+00  0.00000000E+00
  0.00000000E+00  0.00000000E+00  0.00000000E+00
  0.00000000E+00  0.00000000E+00  0.00000000E+00
  0.00000000E+00  0.00000000E+00  0.00000000E+00
  0.00000000E+00  0.00000000E+00  0.00000000E+00
  0.00000000E+00  0.00000000E+00  0.00000000E+00
  0.00000000E+00  0.00000000E+00  0.00000000E+00
  0.00000000E+00  0.00000000E+00  0.00000000E+00
  0.00000000E+00  0.00000000E+00  0.00000000E+00
  0.00000000E+00  0.00000000E+00  0.00000000E+00
  0.00000000E+00  0.00000000E+00  0.00000000E+00
  0.00000000E+00  0.00000000E+00  0.00000000E+00
  0.00000000E+00  0.00000000E+00  0.00000000E+00
  0.00000000E+00  0.00000000E+00  0.00000000E+00
  0.00000000E+00  0.00000000E+00  0.00000000E+00
  0.00000000E+00  0.00000000E+00  0.00000000E+00
  0.00000000E+00  0.00000000E+00  0.00000000E+00
  0.00000000E+00  0.00000000E+00  0.00000000E+00
  0.00000000E+00  0.00000000E+00  0.00000000E+00
  0.00000000E+00  0.00000000E+00  0.00000000E+00
  0.00000000E+00  0.00000000E+00  0.00000000E+00
  0.00000000E+00  0.00000000E+00  0.00000000E+00
  0.00000000E+00  0.00000000E+00  0.00000000E+00
  0.00000000E+00  0.00000000E+00  0.00000000E+00
  0.00000000E+00  0.00000000E+00  0.00000000E+00
  0.00000000E+00  0.00000000E+00  0.00000000E+00
  0.00000000E+00  0.00000000E+00  0.00000000E+00
  0.00000000E+00  0.00000000E+00  0.00000000E+00
  0.00000000E+00  0.00000000E+00  0.00000000E+00
  0.00000000E+00  0.00000000E+00  0.00000000E+00
  0.00000000E+00  0.00000000E+00  0.00000000E+00
  0.00000000E+00  0.00000000E+00  0.00000000E+00
  0.00000000E+00  0.00000000E+00  0.00000000E+00
  0.00000000E+00  0.00000000E+00  0.00000000E+00
  0.00000000E+00  0.00000000E+00  0.00000000E+00
  0.00000000E+00  0.00000000E+00  0.00000000E+00
  0.00000000E+00  0.00000000E+00  0.00000000E+00
  0.00000000E+00  0.00000000E+00  0.00000000E+00
  0.00000000E+00  0.00000000E+00  0.00000000E+00
  0.00000000E+00  0.00000000E+00  0.00000000E+00
  0.00000000E+00  0.00000000E+00  0.00000000E+00
  0.00000000E+00  0.00000000E+00  0.00000000E+00
  0.00000000E+00  0.00000000E+00  0.00000000E+00
  0.00000000E+00  0.00000000E+00  0.00000000E+00
  0.00000000E+00  0.00000000E+00  0.00000000E+00
  0.00000000E+00  0.00000000E+00  0.00000000E+00
  0.00000000E+00  0.00000000E+00  0.00000000E+00
  0.00000000E+00  0.00000000E+00  0.00000000E+00
  0.00000000E+00  0.00000000E+00  0.00000000E+00
  0.00000000E+00  0.00000000E+00  0.00000000E+00
  0.00000000E+00  0.00000000E+00  0.00000000E+00
  0.00000000E+00  0.00000000E+00  0.00000000E+00
  0.00000000E+00  0.00000000E+00  0.00000000E+00
  0.00000000E+00  0.00000000E+00  0.00000000E+00
  0.00000000E+00  0.00000000E+00  0.00000000E+00
  0.00000000E+00  0.00000000E+00  0.00000000E+00
  0.00000000E+00  0.00000000E+00  0.00000000E+00
  0.00000000E+00  0.00000000E+00  0.00000000E+00
  0.00000000E+00  0.00000000E+00  0.00000000E+00
  0.00000000E+00  0.00000000E+00  0.00000000E+00
  0.00000000E+00  0.00000000E+00  0.00000000E+00
  0.00000000E+00  0.00000000E+00  0.00000000E+00
  0.00000000E+00  0.00000000E+00  0.00000000E+00
  0.00000000E+00  0.00000000E+00  0.00000000E+00
  0.00000000E+00  0.00000000E+00  0.00000000E+00
  0.00000000E+00  0.00000000E+00  0.00000000E+00
  0.00000000E+00  0.00000000E+00  0.00000000E+00
  0.00000000E+00  0.00000000E+00  0.00000000E+00
  0.00000000E+00  0.00000000E+00  0.00000000E+00
  0.00000000E+00  0.00000000E+00  0.00000000E+00
  0.00000000E+00  0.00000000E+00  0.00000000E+00
  0.00000000E+00  0.00000000E+00  0.00000000E+00
  0.00000000E+00  0.00000000E+00  0.00000000E+00
  0.00000000E+00  0.00000000E+00  0.00000000E+00
  0.00000000E+00  0.00000000E+00  0.00000000E+00
  0.00000000E+00  0.00000000E+00  0.00000000E+00
  0.00000000E+00  0.00000000E+00  0.00000000E+00
  0.00000000E+00  0.00000000E+00  0.00000000E+00
  0.00000000E+00  0.00000000E+00  0.00000000E+00
  0.00000000E+00  0.00000000E+00  0.00000000E+00
  0.00000000E+00  0.00000000E+00  0.00000000E+00
  0.00000000E+00  0.00000000E+00  0.00000000E+00
