Au  O Sr Ti 
 1.0000000000000000
    23.6707801818999997    0.0000000000000000    0.0000000000000000
     0.0000000000000000   22.3170261383000010    0.0000000000000000
     0.0000000000000000    0.0000000000000000   30.0000000000000000
 Au  O   Sr  Ti 
  50  72  24  24
Cartesian
 17.0252909102829051 11.7217197673815026 22.6182532253620039
 14.8138167547627724 12.6212875888569087 21.1154954283449996
 17.0147426779853603  5.7787070447939950 20.7505885277173014
  6.8207039054539500 16.6236117037859472 20.9804974921450231
 12.1945143181213211 13.4813985228298350 23.3121631556601727
 13.6586646532691525 16.1991132011607917 23.7674009224977993
 13.0295489733923073  8.5786025744083414 24.8897232692281847
  5.7511007291705347 10.4226232807261443 21.2734536370612020
  6.6764094167707366 14.7304241498185728 22.9977406183941397
 14.2587227877812079  6.4415543949152880 23.6422249747584985
 12.1891746356629884 10.7752230725789122 20.3418724283634234
 13.3165808281193367 10.8385381460363170 22.8836891283882906
 10.9776320840792643 15.5089859721497572 24.8924387824599513
 18.0958936647233131  9.6002977885179224 21.1662017920189243
 17.3711886556511637 13.7389503416882395 20.8222270854653750
 15.0707052671546631 13.0096765157533181 24.0058334356716507
 14.0714246937159064 17.5265382687303770 21.3732339819575365
 11.4336562178342085 17.4092820969072939 22.7264166883027663
  8.2864152968732494 11.2085982485877071 20.9194262789633783
 10.2097200349453345  8.2997333994122613 24.4749418842547506
  8.8279069044195708  6.6657627226512277 22.6762895355885625
 10.4310230860418081  5.1000571060355719 20.9126926447778914
  9.1560177899531343 18.1592771365108874 21.1816221682278254
  6.8678119052640909 11.9559951563829188 23.3348421033275137
 13.1393746797536402  4.6220012664750163 21.3523878851998212
 10.7727453392468853 12.9437274737764678 21.0952682122123889
 14.5128987406961532  7.0994472166816243 20.9380716822349981
 16.6935378729171795 16.9077428537197321 20.6538892361145834
 15.5406200166785329  9.8472395177295908 24.3746454211485748
  8.7266822766936993 13.7844775883557542 24.6045891221616699
 13.5256567206335081 11.3857601162238709 25.7119005505630618
 15.7271964377914610  4.3272931204223397 22.5627986268722722
 11.1883094793635074 10.0661724539554314 26.3844126062786408
 12.2175110193874321  8.4138725648635564 22.0268035997329008
  6.7214822160751915  7.5255848198454309 21.0807192760253201
 15.8492252631992496 15.1955795227282060 22.4725939238079917
  9.4233963093284476  8.5380694975291966 20.7181709171399895
  8.9071113063177840 10.9832371598892280 25.0085701270515166
 10.9857455464542273 12.7997983594126747 25.8999200569739365
  7.7405574429527881  9.2316993994106138 23.0890040284959888
 11.5373213698120658  5.9825718454854062 23.2573581856457139
 10.1691911776531150 15.6017825028293835 20.9639143614454930
 16.5683422639127400  7.7110591157796629 22.7046559994649897
 18.3324760788302257  9.5536830804525881 23.8802036146366952
  6.0459694974893576 13.2085153950400933 20.8612429261656587
 15.3252122984508308  9.8086801784810653 20.9273505942882743
 13.4057798966625956 14.2964320585404501 25.8261297610087190
 12.9689196250224708 14.8176927711899573 21.0497595966700857
 10.4894929478760890 10.5935046873444616 22.6850645355568723
  8.8219900079981688 16.4124973520070512 23.3242874696877180
 23.6624953819287072 11.1154845914243356 17.8303247366174489
 23.6532467691856958 16.8326327635201700 17.7594727133622747
  7.9220614706931762  5.6715117941218676 17.7790896612832299
  7.9065003365298328 -0.0032967814453466 17.7604132186105517
 -0.0082807655459362 22.2740942338088068 17.7844091130934885
  0.0263693787914213  5.5760903469636069 17.7578456508258427
  7.8988990291042800 11.0899591553876231 17.7291984474666009
  7.9363200933820046 16.5003372232710070 17.7501893746025701
 15.7053259290768565  5.5148189322047036 17.7236532376865199
 15.7607797670180236  0.0099838278282867 17.7562944085161725
 15.7620695071218133 16.5618216489792260 17.6996020428712768
 15.7919633743030570 11.0039678220042774 17.7298964127059335
  3.9626450300754703 22.2792675046303152 17.7676761832235854
  3.9897152709430079  5.5605538238963534 17.7915455456886313
  4.0393581278451975 16.7350895920021863 17.8499008998812876
  3.9161422531329930 11.2390431886040947 17.6460449600685649
 11.7978252312727570 11.2460932973676506 18.2680823692494414
 11.8012454194319485  5.6433380690837742 17.7098938661750971
 11.8270787252659595 -0.0009801032105870 17.7300561785985131
 17.8343111708249324 15.4757708827661631 19.7253420971635975
 17.7204484494618697 20.9045348072856427 19.1943692415546181
  5.9978214017310956  4.1613220796082979 19.2343868861668206
 17.6513612217552343  4.3337513194257324 19.4020197914770911
 17.8926590197475939  9.7312764078150185 19.1721077340383204
  9.8776941156468467 20.8675649803702790 19.1925770159870730
  9.9862902035637227 15.0807386429318520 19.0087963909058359
 13.9645687173273920 18.0893646763729095 19.3690270664397950
 21.6873921542040371  1.3907571533810397 19.2404825635345169
 21.6301426331218707 12.5304890842098917 19.2784949268425194
 21.6676184113221701  6.9628581445818734 19.1845169262640063
 21.6410508957517465 18.1319152092669142 19.2570080117871427
 13.7806748214087289  1.4621052972591304 19.1953106241000917
 13.8031474901092484  7.1254564062021783 19.0286452182878776
 14.0312625974646163 12.5915381240838471 19.1919181894602922
  5.8669799900060884 12.8084309901268441 18.8733557398017631
  6.1797381166341667 17.8111763340964835 19.4209014970860423
  5.9092704606311912  7.0616463649374142 19.2429915959655098
  5.9371605890387880  1.3267241775001017 19.2598876130084591
 13.7759854507376556  9.7770612637021959 19.3743974735061215
 13.7354165214378430 15.2845848840767182 19.1446975850996033
 21.7100824887732387  4.1631859026427431 19.2174521352088803
 13.7767234411933863 20.8776688505110251 19.1777110234528045
 19.6551929951715536 16.7453357719974747 17.8021033211369648
 19.6878300856826485  5.5310729171346225 17.7445082876855160
 19.7251803059549857 11.2423150990313747 17.6854089662455074
 19.6989427496313034  0.0447918842948249 17.7664293066963310
 11.8560407426193439 16.8797697400740532 17.7823820924606473
  9.8884094218962844  1.4569824677441037 19.1965858578419208
 10.0962537277932221  6.8058156917135468 19.6561201291008310
  9.7493815054597910 18.1312292514958351 19.1927854005496030
  9.4621928769356156 12.3020468416333806 19.5617073006722180
 17.8026793971803841 12.7450056851527957 19.0285411601826198
 17.5388415335199319 18.0763879740882487 19.2021351075587425
 17.6761933318637752  6.9772109120362673 19.2022806390891887
 17.6977750612402431  1.4937946757797744 19.1722603012449859
  1.9896797746177119  6.9604976812432211 19.2121458917492269
  2.0377818341567253 12.5358505290947804 19.2743881208936614
  1.9763041843799924  1.3484658120900765 19.2435321124308452
  2.0616617414856617  9.7424053257061534 19.1901219527350904
  1.9800957822512004  4.1428724232163248 19.2291190432102503
  9.9064946119807988  4.1934345941364306 19.1958323474632913
  9.8278125435824464  9.3487041613568778 18.8988023002130525
  1.9976149919494832 20.8701888467334022 19.2267806627079736
  1.9520003044448533 15.3384788267490553 19.1983109742809930
 21.5999473253933090  9.7329032485947664 19.1913947875106388
 21.6989496269119826 15.3402623198330339 19.1970002935313389
 21.6325055490849145 20.9021279694550159 19.2254273308597803
  5.7054435244746999  9.8687646280164945 19.2486006709887718
  5.8868968618641659 15.1023509099304363 19.9633851875737953
 13.6974950361855434  4.2474514543746436 19.3267255882902589
  5.9658934370648389 20.7555605000664478 19.1205110513611061
  1.9836185719268884 18.1106815443027500 19.2626714660473333
  0.0156218791340084  2.7408301389680272 18.5669291511486740
 19.8140919973963747  8.3150088134738631 18.1290319795427166
 19.6937770964314041 19.5341557132781247 18.5527342651277642
 19.9059979186557143 13.9809907928641799 18.0891126975008909
 23.6460355564600633 19.5229828942658621 18.6701873346174203
  7.8463747927894536  2.6747595195344438 18.3981134785011626
  7.9225774752710461 13.9165633097979509 17.8616384197602862
  7.7172227621291523  8.3418241345838862 17.7871203997754677
 15.8849701116317981  8.2989622100555795 17.8301537300458115
 15.7514652749327322  2.7770701571523726 18.3521585698937315
  7.9202781824131572 19.6134480590938836 18.0858245214109523
  3.7482765112141294 13.9963096383452648 18.0722864759622901
  3.9388937157726973 19.4627549693700708 18.5873010215185523
 11.8788125255206314  8.2815975332894425 17.8488912202698131
 11.8425087398434101  2.7202710886458075 18.1797018538561517
  3.9652250944752656  2.7348771708774984 18.6391377622625640
  3.8716142016921831  8.2955537932533314 18.2333055458106372
 15.7462900857154668 19.6603050212604415 18.2072365768690894
 15.7729150151769115 13.9857810321790446 17.8057295422454054
  0.0050598905511631  8.3675100851617490 18.6759203414340256
 23.6613719048431719 13.8952066110701917 19.4092182960285626
 19.7351262707500332  2.7831164692210679 18.5780097197565155
 11.8439370570125764 19.5645766083736348 18.2962604286994974
 11.9310004377216572 13.9427382062440017 17.8180197645314244
 21.6876712258844968 22.3117021628293521 18.1104724559084147
 13.8347967267025691 16.7436030476625994 17.9802261819238183
 13.9869512749115543 11.1733723001251288 17.8130493502195719
  5.7337292081085796 11.1237580836618513 17.8192838638333733
  5.9046390545400413 16.7924129633071253 17.7653227630925201
 13.8320175718904768  5.5161179400325580 17.9166111054374646
 13.7892470158469553  0.0209335497233315 18.1282574499290590
  5.9043409622209770 22.2597673412192592 18.1238553745664390
  5.9001012166722138  5.4888048324753926 18.1114826215185971
  9.8723193772983091  0.0020656705038920 18.1386724325877466
  9.8183608750195184  5.5461645199760277 17.7305261309736366
  9.8509773118514232 16.7344525830799782 17.8404721910901607
 17.9068674959991370 11.2175727716669833 17.8719989036963050
 17.7948782076625776 16.7948672731607651 17.7178372102471897
 17.8497759656784751  5.5335193654308981 17.8316447852422293
 17.7444784242741349  0.0377760582167024 18.1242035201496350
  1.9846374623184269  5.5367645390245945 18.1104211821006480
  1.9190732598124955 11.1685147048380156 18.1108716030296826
  1.8929173181907526 16.7548031447631018 18.0921372364598625
  1.9705350762261418 22.2730841978704461 18.1044317951023537
 21.7316927610262205 16.7655223796289192 18.0997618499613395
  9.7467699309571163 11.0956941230904906 17.7950898716504788
 21.7771254159328791  5.5453207188425866 18.0818496687137262
 21.7462935302321370 11.1661001354678948 18.1178179466786311
