C  O                                    
   1.00000000000000     
    17.3099740034466869    0.0000000000000000    0.0000000000000000
     8.6549870017233435   14.9908772258330494    0.0000000000000000
     0.0000000000000000    0.0000000000000000   33.0667672948810178
   C    O 
     1     1
Direct
  0.5000157556967082  0.4999707413442209  0.4848575564774931
  0.5000157556967082  0.4999707413442209  0.5193833390375817
 
  0.00000000E+00  0.00000000E+00  0.00000000E+00
  0.00000000E+00  0.00000000E+00  0.00000000E+00
