C  O 
 1.0000000000000000
    17.3099740034466869    0.0000000000000000    0.0000000000000000
     8.6549870017233435   14.9908772258330494    0.0000000000000000
     0.0000000000000000    0.0000000000000000   33.0667672948810178
C   O  
 1   1
Cartesian
  12.9825 7.495 16.0335 
  12.9825 7.495 17.1735
