Au  O Sr Ti  H                          
   1.00000000000000     
    23.6707801818999997    0.0000000000000000    0.0000000000000000
     0.0000000000000000   22.3170261383000010    0.0000000000000000
     0.0000000000000000    0.0000000000000000   30.0000000000000000
   Au   O    Sr   Ti   H 
    50   264    72    72     1
Selective dynamics
Direct
  0.7173480421660359  0.5262955863935298  0.7538670320016172   T   T   T
  0.6235417529054974  0.5690484099189912  0.7040036518261761   T   T   T
  0.7179445239987069  0.2590565187406752  0.6913106644215588   T   T   T
  0.2997498406805239  0.7485321617096717  0.6960826755456353   T   T   T
  0.5122846071412080  0.6034203988501529  0.7767551244943748   T   T   T
  0.5764897387623665  0.7255790724335620  0.7917724046178838   T   T   T
  0.5500127225125474  0.3836530902692528  0.8286259506554743   T   T   T
  0.2405295431788178  0.4694194128062615  0.7091860287342957   T   T   T
  0.2836465843595389  0.6610118086711669  0.7650884893978623   T   T   T
  0.6029302067525897  0.2884648469649825  0.7877382786247856   T   T   T
  0.5139445501271609  0.4853505101603406  0.6782128532881566   T   T   T
  0.5626744216197992  0.4861455167029318  0.7626276434508437   T   T   T
  0.4647139213473367  0.6963872134948430  0.8293267362434107   T   T   T
  0.7642576715183657  0.4322511913084565  0.7053640759766163   T   T   T
  0.7337268252188222  0.6156649173728926  0.6939918365258776   T   T   T
  0.6350862025933917  0.5838848142575132  0.8000930502753132   T   T   T
  0.5950934751332660  0.7852176359466432  0.7122617428559215   T   T   T
  0.4839754721511089  0.7800627517014017  0.7544260668244355   T   T   T
  0.3496232298144701  0.4994902341158975  0.6976320830485010   T   T   T
  0.4303642315008597  0.3730903377096100  0.8151756019706106   T   T   T
  0.3722453633047035  0.2986657778597615  0.7551935220934047   T   T   T
  0.4415074960170977  0.2278531205195045  0.6972271520239339   T   T   T
  0.3863339480746007  0.8315780010331075  0.7072501781984933   T   T   T
  0.2895808348199885  0.5372402447198753  0.7777193665931242   T   T   T
  0.5561604131022688  0.2083284610731559  0.7117156536115221   T   T   T
  0.4519677606111825  0.5820998794906368  0.7024815595386521   T   T   T
  0.6133741560285625  0.3202352894248951  0.6978897423105808   T   T   T
  0.7055185513150289  0.7575788109311512  0.6884292174813774   T   T   T
  0.6561476047321142  0.4416089095247148  0.8119711956116850   T   T   T
  0.3702493015337011  0.6184489991682401  0.8181898120773038   T   T   T
  0.5713124139586264  0.5101825260636699  0.8570580828336901   T   T   T
  0.6647114584288157  0.1939121115906344  0.7523169943051141   T   T   T
  0.4726809031351663  0.4507982982445117  0.8788958182513126   T   T   T
  0.5154705452310944  0.3780810196266573  0.7334537866224569   T   T   T
  0.2832401808591622  0.3379015024373998  0.7026233422378475   T   T   T
  0.6695488782947947  0.6812455921450988  0.7490896763649121   T   T   T
  0.3975855308722502  0.3818900041885168  0.6899393640298133   T   T   T
  0.3765311422572021  0.4936789342422624  0.8327772256040502   T   T   T
  0.4635856871148047  0.5738020261649400  0.8641633313555792   T   T   T
  0.3266065579854242  0.4141876917550008  0.7692356897349352   T   T   T
  0.4872774796895128  0.2692910643086425  0.7751367065281868   T   T   T
  0.4247769924754466  0.7023299027413012  0.6961536294790091   T   T   T
  0.7000410744596600  0.3464193750029991  0.7565031769284866   T   T   T
  0.7743156164448572  0.4295039396664332  0.7955389639657436   T   T   T
  0.2573991883043046  0.5922070671014101  0.6942256535776912   T   T   T
  0.6474415278167541  0.4430695394593320  0.6966475296583001   T   T   T
  0.5651965000398340  0.6406669694836109  0.8609788458194898   T   T   T
  0.5436666100840077  0.6657347818064361  0.7012820172253407   T   T   T
  0.4434847477129734  0.4762088590357070  0.7560891033595892   T   T   T
  0.3757617711915278  0.7347497168638248  0.7761021979930706   T   T   T
  0.2498903547020792  0.1886319739278755  0.4542079457131281   T   T   T
  0.7494145885252592  0.9384104720204323  0.4553501972795134   T   T   T
  0.7491002739632516  0.6886615596268609  0.4572937192428685   T   T   T
  0.7494552640478246  0.4383391546945057  0.4558168914686593   T   T   T
  0.7500902709444492  0.1896941990307982  0.4556225433823169   T   T   T
  0.4173160314063667  0.9356094121544803  0.4538017912444209   T   T   T
  0.4171855713472676  0.6844970991255444  0.4544143073728060   T   T   T
  0.4164801938168390  0.4353056711392866  0.4538212628213248   T   T   T
  0.0844262272253088  0.6869325110769223  0.4530383717032941   T   T   T
  0.0838924441365305  0.9366690147492501  0.4534745189215422   T   T   T
  0.0828133453659199  0.4367987727671829  0.4529101762312439   T   T   T
  0.0838643447694920  0.1865562889564702  0.4529802254736372   T   T   T
  0.9165719393285676  0.8120147441450151  0.4541158809388566   T   T   T
  0.9161890746674582  0.5624199976598324  0.4537991744570099   T   T   T
  0.2512616338957122  0.4394705784707919  0.4550497326450916   T   T   T
  0.9161273021761382  0.0621169462084631  0.4540927630334745   T   T   T
  0.9162734818460141  0.3122493113630440  0.4538173490751006   T   T   T
  0.4172475327003718  0.1871411095082232  0.4534931503071520   T   T   T
  0.2521497578157065  0.6876628536740743  0.4561276745287295   T   T   T
  0.9166678100874009  0.9367526773243098  0.4532768394985925   T   T   T
  0.5825709299978544  0.1890156381259109  0.4550685911320316   T   T   T
  0.0000492220214600  0.1251343234800503  0.4984342493892004   T   T   T
  0.5838032675612554  0.8100094735503133  0.4555003030581426   T   T   T
 -0.0000377066966891  0.3733659175102815  0.4984779952636403   T   T   T
  0.9997610670367904  0.6271309870132669  0.4976526717573047   T   T   T
  0.3336059017653992  0.1256838461519213  0.4983690360973295   T   T   T
  0.0000472804295645  0.8751471031451994  0.4995550107381648   T   T   T
  0.3334422841192943  0.8735602650229265  0.4993860152830150   T   T   T
  0.6658614833335469  0.1257360792261739  0.4992294774197515   T   T   T
  0.3357428868792929  0.6255016320691227  0.5036739056048293   T   T   T
  0.3343592772450950  0.3784661819063365  0.5030876673555711   T   T   T
  0.6654929631635677  0.3785060158789362  0.5033424581782115   T   T   T
  0.9153475493138035  0.6866604292949136  0.4529590075015205   T   T   T
  0.9161124501190836  0.4370293740015204  0.4536625280586726   T   T   T
  0.9158160048017356  0.1869515857041777  0.4532185542443778   T   T   T
  0.5828423993844382  0.9361283970203469  0.4537886678827942   T   T   T
  0.5828086039993626  0.6860072672467191  0.4545586280751147   T   T   T
  0.5827418146031946  0.4389576523091401  0.4560286743321876   T   T   T
  0.2500779427677925  0.9359965741274415  0.4540732281089782   T   T   T
  0.6655957789315884  0.6258062795141944  0.5028510016374639   T   T   T
  0.5846607244308005  0.5624060898837845  0.4549871699170461   T   T   T
  0.5828810779022011  0.0622959767615094  0.4548288890717646   T   T   T
  0.9166666865332829  0.6874999999963620  0.3605200052333331   F   F   F
  0.9166666865332829  0.4374999701794380  0.3605200052333331   F   F   F
  0.9166666865332829  0.1875000000030838  0.3605200052333331   F   F   F
  0.5833333134730552  0.9375000000154046  0.3605200052333331   F   F   F
  0.5833333134730552  0.6874999999963620  0.3605200052333331   F   F   F
  0.5833333134730552  0.4374999701794380  0.3605200052333331   F   F   F
  0.5833333134730552  0.1875000000030838  0.3605200052333331   F   F   F
  0.2499999999799343  0.9375000000154046  0.3605200052333331   F   F   F
  0.9166666865332829  0.9375000000154046  0.3605200052333331   F   F   F
  0.2499999999799343  0.6874999999963620  0.3605200052333331   F   F   F
  0.2499999999799343  0.1875000000030838  0.3605200052333331   F   F   F
  0.7499999404149307  0.9375000000154046  0.3605200052333331   F   F   F
  0.7499999404149307  0.6874999999963620  0.3605200052333331   F   F   F
  0.7499999404149307  0.4374999701794380  0.3605200052333331   F   F   F
  0.7499999404149307  0.1875000000030838  0.3605200052333331   F   F   F
  0.4166666269218169  0.9375000000154046  0.3605200052333331   F   F   F
  0.4166666269218169  0.6874999999963620  0.3605200052333331   F   F   F
  0.4166666269218169  0.4374999701794380  0.3605200052333331   F   F   F
  0.2499999999799343  0.4374999701794380  0.3605200052333331   F   F   F
  0.0833333358191695  0.0625000000159659  0.3605200052333331   F   F   F
  0.0833333358191695  0.3124999999901945  0.3605200052333331   F   F   F
  0.0833333358191695  0.5625000000092442  0.3605200052333331   F   F   F
  0.9166666865332829  0.3124999999901945  0.3605200052333331   F   F   F
  0.9166666865332829  0.0625000000159659  0.3605200052333331   F   F   F
  0.5833333134730552  0.8124999999834799  0.3605200052333331   F   F   F
  0.5833333134730552  0.5625000000092442  0.3605200052333331   F   F   F
  0.5833333134730552  0.3124999999901945  0.3605200052333331   F   F   F
  0.5833333134730552  0.0625000000159659  0.3605200052333331   F   F   F
  0.2499999999799343  0.8124999999834799  0.3605200052333331   F   F   F
  0.2499999999799343  0.5625000000092442  0.3605200052333331   F   F   F
  0.2499999999799343  0.3124999999901945  0.3605200052333331   F   F   F
  0.2499999999799343  0.0625000000159659  0.3605200052333331   F   F   F
  0.7499999404149307  0.8124999999834799  0.3605200052333331   F   F   F
  0.7499999404149307  0.5625000000092442  0.3605200052333331   F   F   F
  0.7499999404149307  0.3124999999901945  0.3605200052333331   F   F   F
  0.7499999404149307  0.0625000000159659  0.3605200052333331   F   F   F
  0.4166666269218169  0.8124999999834799  0.3605200052333331   F   F   F
  0.4166666269218169  0.5625000000092442  0.3605200052333331   F   F   F
  0.4166666269218169  0.3124999999901945  0.3605200052333331   F   F   F
  0.4166666269218169  0.0625000000159659  0.3605200052333331   F   F   F
  0.0833333358191695  0.8124999999834799  0.3605200052333331   F   F   F
  0.4166666269218169  0.1875000000030838  0.3605200052333331   F   F   F
  0.0833333358191695  0.9375000000154046  0.3605200052333331   F   F   F
  0.0833333358191695  0.6874999999963620  0.3605200052333331   F   F   F
  0.0833333358191695  0.4374999701794380  0.3605200052333331   F   F   F
  0.8333332538436267  0.4999999999932783  0.4070133268666680   F   F   F
  0.8333332538436267  0.7500000000123208  0.4070133268666680   F   F   F
  0.0836949445749178  0.0618801960210475  0.4541785799160383   T   T   T
  0.0835866259194734  0.3120799966963794  0.4539361191944967   T   T   T
  0.0839589644324446  0.5624984245732764  0.4538952146738942   T   T   T
  0.0834372047017345  0.8121411893751147  0.4541761859389286   T   T   T
  0.4168504695565141  0.0614321634080500  0.4554459789598292   T   T   T
  0.4154874282026463  0.3113693194274473  0.4573783335995625   T   T   T
  0.4160988557708660  0.5594019130366900  0.4577561930277552   T   T   T
  0.4164225810560769  0.8096273250274110  0.4553734869252757   T   T   T
  0.7495639813328900  0.0640520204289076  0.4533519038753767   T   T   T
  0.7474092157857612  0.3140562352062151  0.4546091365789217   T   T   T
  0.7481621844394065  0.5642479807857070  0.4536822218876108   T   T   T
  0.7489618070170269  0.8132768613148654  0.4530309804121845   T   T   T
  0.2501661435849170  0.0620178529824706  0.4541170408899937   T   T   T
  0.9154024733243390  0.3124223291684614  0.5467229414165465   T   T   T
  0.2522537845726924  0.3142579693825083  0.4541380586932305   T   T   T
  0.2518830196455804  0.5647157990717886  0.4536380656224878   T   T   T
  0.2503157230214727  0.8108008148193552  0.4552756503125926   T   T   T
  0.8333332538436267  0.2500000000190425  0.4070133268666680   F   F   F
  0.5842522675347216  0.3145191683265944  0.4541574402820504   T   T   T
  0.8333332538436267  0.0000000000000000  0.4070133268666680   F   F   F
  0.5000000000021103  0.4999999999932783  0.4070133268666680   F   F   F
  0.0833333358191695  0.1875000000030838  0.3605200052333331   F   F   F
  0.0000000000000000  0.0000000000000000  0.4070133268666680   F   F   F
  0.0000000000000000  0.2500000000190425  0.4070133268666680   F   F   F
  0.0000000000000000  0.4999999999932783  0.4070133268666680   F   F   F
  0.0000000000000000  0.7500000000123208  0.4070133268666680   F   F   F
  0.3333333432766779  0.0000000000000000  0.4070133268666680   F   F   F
  0.3333333432766779  0.2500000000190425  0.4070133268666680   F   F   F
  0.3333333432766779  0.4999999999932783  0.4070133268666680   F   F   F
  0.3333333432766779  0.7500000000123208  0.4070133268666680   F   F   F
  0.6666666865533486  0.0000000000000000  0.4070133268666680   F   F   F
  0.6666666865533486  0.2500000000190425  0.4070133268666680   F   F   F
  0.6666666865533486  0.4999999999932783  0.4070133268666680   F   F   F
  0.6666666865533486  0.7500000000123208  0.4070133268666680   F   F   F
  0.1666666716383389  0.0000000000000000  0.4070133268666680   F   F   F
  0.1666666716383389  0.2500000000190425  0.4070133268666680   F   F   F
  0.1666666716383389  0.4999999999932783  0.4070133268666680   F   F   F
  0.1666666716383389  0.7500000000123208  0.4070133268666680   F   F   F
  0.5000000000021103  0.0000000000000000  0.4070133268666680   F   F   F
  0.5000000000021103  0.2500000000190425  0.4070133268666680   F   F   F
  0.5000000000021103  0.7500000000123208  0.4070133268666680   F   F   F
  0.1670731508419979  0.1243519410382573  0.4993635623303376   T   T   T
  0.9176831591951987  0.0632776890153092  0.5474770298256560   T   T   T
  0.1676708855065271  0.8733414605578834  0.4998400011294441   T   T   T
  0.2518645387055586  0.1880207548891241  0.5473122531424259   T   T   T
  0.7495489872725984  0.9342124285171995  0.5475975023122883   T   T   T
  0.7518227202557053  0.6803733345081352  0.5530549705687847   T   T   T
  0.7526217310389967  0.4346003355872392  0.5493575459296028   T   T   T
  0.4231932784340527  0.4439819567634233  0.5456158812595587   T   T   T
  0.4232286134946478  0.6885242200328747  0.5458733611066762   T   T   T
  0.7484477683378303  0.1835683932177589  0.5507247575555456   T   T   T
  0.4157243050294392  0.9375569473190454  0.5455871310701522   T   T   T
  0.0835865202373501  0.9389314457881850  0.5457216872920267   T   T   T
  0.4157226772805755  0.1915208140920438  0.5465069449770498   T   T   T
  0.0866388259478253  0.6897800874396777  0.5450928120739622   T   T   T
  0.0827723595365842  0.4384220190321279  0.5452131773862934   T   T   T
  0.0837073394426504  0.1888391818072157  0.5456952189754650   T   T   T
  0.4993587358892223  0.1254693676386814  0.4996233754558977   T   T   T
  0.9996890516890365  0.4986314487397666  0.5945650081721898   T   T   T
  0.9994612568352657  0.7537879701429814  0.5922548816249001   T   T   T
  0.3346880383739121  0.2544977876451121  0.5928013180364955   T   T   T
  0.3341354899130636  0.9989969658708424  0.5921320234936667   T   T   T
  0.9996330597235915  0.9983949739030075  0.5927750618073444   T   T   T
  0.0011565207657975  0.2497069541673528  0.5919001272417128   T   T   T
  0.3332631126010062  0.4964987025907073  0.5909155196787217   T   T   T
  0.3362772050813729  0.7418345213637547  0.5901767309472798   T   T   T
  0.6633469088383157  0.2471283493502451  0.5908011978881380   T   T   T
  0.6656433386876033  0.0002249271899231  0.5918627682458747   T   T   T
  0.6659593355909526  0.7419886831912835  0.5899104207422554   T   T   T
  0.6670420980429054  0.4935838127804258  0.5916198890083121   T   T   T
  0.1674637179665991  0.9981824097748488  0.5922865376971082   T   T   T
  0.1685177393529782  0.2489830191721093  0.5930821881284758   T   T   T
  0.1709775128118768  0.7494095570153342  0.5951953935238414   T   T   T
  0.2481944096648793  0.4357628034197001  0.5493316367710186   T   T   T
  0.1654225684465621  0.5031162218569385  0.5876349406595409   T   T   T
  0.2496597009012002  0.6828334506135009  0.5520446876057366   T   T   T
  0.5807011156334662  0.1861113670395183  0.5491366936161867   T   T   T
  0.9154234630455402  0.8130768163647575  0.5469489515836348   T   T   T
  0.9168041961718361  0.5634744239582752  0.5465251690485855   T   T   T
  0.5817790384796094  0.5600234193303066  0.5492563152486918   T   T   T
  0.5862998750498436  0.8149208888450313  0.5504474068683891   T   T   T
  0.5829962519750178  0.3116887943447891  0.5456243389128431   T   T   T
  0.5821988088341523  0.0633920705344621  0.5472503113308442   T   T   T
  0.2529694202009889  0.8121189486763266  0.5505886351594194   T   T   T
  0.2523032849489452  0.5588475371501656  0.5436718064954836   T   T   T
  0.2494915921594406  0.3137045923092264  0.5459598126822516   T   T   T
  0.2514069511533712  0.0622724570425670  0.5469950835775241   T   T   T
  0.7484881538617765  0.8082472631315177  0.5457168927131107   T   T   T
  0.7464553325445252  0.5576896349572421  0.5446071215502779   T   T   T
  0.4150194340594281  0.8131587436526575  0.5492176520554775   T   T   T
  0.7482186448983263  0.0596683728359322  0.5446200478841595   T   T   T
  0.7479940160910565  0.3112164871678157  0.5480119891266551   T   T   T
  0.4159896598058352  0.3195523907953964  0.5525702943540013   T   T   T
  0.4201310642771985  0.5651269451548464  0.5552868621235294   T   T   T
  0.4164678895800981  0.0655964601685025  0.5477864195396129   T   T   T
  0.0849560588892073  0.8128918708646020  0.5473318667537707   T   T   T
  0.0824129146773395  0.5641884269345444  0.5463239617855292   T   T   T
  0.0864839848361007  0.3133700438703286  0.5468802931825619   T   T   T
  0.0823059214771686  0.0632394677719598  0.5475529649265061   T   T   T
  0.9156293490035735  0.9387268504893133  0.5460497776238651   T   T   T
  0.9132548232155381  0.6894994699410822  0.5449602016706290   T   T   T
  0.5830764537831038  0.9386332613288857  0.5456415506600651   T   T   T
  0.9170227119139078  0.1887952530021176  0.5455160949421065   T   T   T
  0.9156846481769408  0.4373582974313474  0.5458551645434926   T   T   T
  0.5766966380546797  0.4360430907063992  0.5518894538352001   T   T   T
  0.5798263302789166  0.6862811643745309  0.5469667556868687   T   T   T
  0.2515945445691464  0.9370614592381850  0.5452802935529950   T   T   T
  0.4975837416738270  0.5045994447444907  0.6089339104949284   T   T   T
  0.4986092393431605  0.2531393255366174  0.5904088796951312   T   T   T
  0.4988462750940878  0.9988460111990893  0.5916281314883567   T   T   T
  0.7529283194980072  0.6936135182451936  0.6566455231256425   T   T   T
  0.7483099980731428  0.9367793732634638  0.6398971966361978   T   T   T
  0.2535962740421578  0.1864211567074335  0.6411697468182870   T   T   T
  0.7456600803792774  0.1942298774870365  0.6467675759382052   T   T   T
  0.7555815532999129  0.4352804376365277  0.6387138674007253   T   T   T
  0.4163452646880790  0.9305954702621960  0.6396749266301274   T   T   T
  0.4216654318012668  0.6749383821190250  0.6318373953547357   T   T   T
  0.5903528928790311  0.8103941507940299  0.6454922885571170   T   T   T
  0.9162429587690336  0.0624154436172185  0.6414405762670169   T   T   T
  0.9131822259033999  0.5615074083942705  0.6424733189225282   T   T   T
  0.9153391341059673  0.3119397353638278  0.6394916276840759   T   T   T
  0.9139128273278375  0.8126826413808448  0.6415828081491716   T   T   T
  0.5818687919527330  0.0650035750016203  0.6396498495336461   T   T   T
  0.5832594192310224  0.3195223277933225  0.6343457008843908   T   T   T
  0.5917434724428815  0.5649205883496095  0.6393957647466744   T   T   T
  0.2469381690704627  0.5743533819426769  0.6283647935507392   T   T   T
  0.2621956281699142  0.7989782797993022  0.6459691360800986   T   T   T
  0.2492197805230207  0.3165717070406930  0.6412257401693011   T   T   T
  0.2510276675460613  0.0591336807708149  0.6419329419942000   T   T   T
  0.9166666865332829  0.5625000000092442  0.3605200052333331   F   F   F
  0.4995732479591587  0.3740965963499449  0.4998673586116831   T   T   T
  0.5000286959168343  0.8727805075059463  0.5007427160347290   T   T   T
  0.5006084979592247  0.6207839863886472  0.5000592362076814   T   T   T
  0.8323212895637490  0.6230301640179094  0.4999534657239400   T   T   T
  0.8327193180613246  0.8742669065616010  0.4984749111077767   T   T   T
  0.8325999738626114  0.3730535466333018  0.4994873665898089   T   T   T
  0.8328671822030458  0.1244847576472766  0.4996870602563482   T   T   T
  0.1667473105087207  0.3762243550033827  0.4977335089822871   T   T   T
  0.1677552073661404  0.6243848391142984  0.5000050237402501   T   T   T
  0.5808504026416175  0.4388419488816048  0.6463874273255024   T   T   T
  0.5802261905004917  0.6853328329159263  0.6388142297209985   T   T   T
  0.9171473142046579  0.1865836337542644  0.6406293429101632   T   T   T
  0.5820461098637517  0.9348480369566203  0.6392394171993856   T   T   T
  0.8305437893512427  0.7505979147496381  0.5928243459533029   T   T   T
  0.8315982412790967  0.2478872358569905  0.5914810711297405   T   T   T
  0.8334414792319103  0.5033613472898524  0.5891172242305331   T   T   T
  0.8321620651394295  0.0020359044362410  0.5922437921488162   T   T   T
  0.5017617499661957  0.7561701168235750  0.5921832738271952   T   T   T
  0.4174283067723446  0.0629061019103570  0.6407284161626339   T   T   T
  0.4274120049221306  0.3052992333485908  0.6551516333721393   T   T   T
  0.4146896922993414  0.8053677795824589  0.6442865957753108   T   T   T
  0.3969787203840424  0.5509419583697470  0.6520936127878583   T   T   T
  0.7531191868095741  0.5700182862148752  0.6348380806260948   T   T   T
  0.7410648004728044  0.8099088799764704  0.6399643923578735   T   T   T
  0.7465342704183090  0.3124447152618753  0.6401750344470517   T   T   T
  0.7475383701537878  0.0669638338570039  0.6392416038373504   T   T   T
  0.0838979699734807  0.3117164202058946  0.6404077159361671   T   T   T
  0.6665037569641726  0.8748200706636716  0.4995513827368603   T   T   T
  0.0868672287286874  0.5616906238380905  0.6419584484324419   T   T   T
  0.0835943175978634  0.0604291844779140  0.6415029289820618   T   T   T
  0.0870900713380075  0.4365167477872497  0.6397267221733878   T   T   T
  0.0839685392570707  0.1854034447945976  0.6409940734605146   T   T   T
  0.4184004705279054  0.1878217917628398  0.6398084356949787   T   T   T
  0.4151476491575522  0.4191405255753272  0.6298209316804361   T   T   T
  0.0841137076568210  0.9352787075292461  0.6407899160956975   T   T   T
  0.0830157831037154  0.6870526781734384  0.6398437915940135   T   T   T
  0.9125089417689605  0.4360902876241254  0.6397147222604961   T   T   T
  0.9166098254327620  0.6874841063921873  0.6397595825142302   T   T   T
  0.9141129012243390  0.9367101066016861  0.6408768136347553   T   T   T
  0.2408869913593810  0.4426038374468756  0.6419123599966139   T   T   T
  0.2621968267812509  0.6774891885466858  0.6634324756809926   T   T   T
  0.5784114184395857  0.1902533698072542  0.6441236098247574   T   T   T
  0.2518761907669689  0.9297357521959116  0.6374126570770136   T   T   T
  0.0840114557524091  0.8118221095027406  0.6418364659215938   T   T   T
  0.9166666865332829  0.8124999999834799  0.3605200052333331   F   F   F
  0.0006800448831875  0.1228950100388750  0.6190413181236050   T   T   T
  0.8333332538436267  0.6249999999803961  0.4070133268666680   F   F   F
  0.9996147826883314  0.5005403875253311  0.5072321662127759   T   T   T
  0.3313371599599868  0.4993700808988116  0.5009506139887490   T   T   T
  0.3301456447131719  0.2479940048775302  0.5028476654253712   T   T   T
  0.3332033306022285  0.0009684965869767  0.5059616504264494   T   T   T
  0.3341044037406637  0.7509210766833710  0.5017887997925742   T   T   T
  0.6658038259382880  0.0001882851010801  0.5056098943094089   T   T   T
  0.6685753299800933  0.4997131502513183  0.5008491483532332   T   T   T
  0.6668829949545240  0.2476130717069256  0.5030749429265198   T   T   T
  0.6656090149218181  0.7518347637980810  0.5021182282483481   T   T   T
  0.1660388124723663  0.0011202699130066  0.5064917144344302   T   T   T
  0.1664414254487969  0.2482455152764014  0.5061994248260698   T   T   T
  0.1634356947115812  0.4998233529377147  0.5021459038686873   T   T   T
  0.4996655301901961  0.9992872158157837  0.5058424789313214   T   T   T
  0.1643869831525253  0.7514951709049420  0.5034113441653405   T   T   T
  0.5010003157592146  0.7526883203364014  0.5038472511772353   T   T   T
  0.8341884478836388  0.0003922493181524  0.5064788126620698   T   T   T
  0.5012888898371384  0.4997445272484906  0.5003047351585288   T   T   T
  0.5010245679325193  0.2477754067366950  0.5020671888419287   T   T   T
  0.8354278228458063  0.2483375705918326  0.5032383314542030   T   T   T
  0.9997488906516194  0.7506781996340478  0.5065800465436351   T   T   T
  0.0008614170264895  0.2497617401496893  0.5059011564192654   T   T   T
 -0.0000243650184021  0.9999972715538704  0.5064206622092577   T   T   T
  0.8333332538436267  0.8749999404036828  0.4070133268666680   F   F   F
  0.0000000000000000  0.6249999999803961  0.4070133268666680   F   F   F
  0.0000000000000000  0.8749999404036828  0.4070133268666680   F   F   F
  0.3333333432766779  0.1249999999871179  0.4070133268666680   F   F   F
  0.3333333432766779  0.3750000000061604  0.4070133268666680   F   F   F
  0.3333333432766779  0.6249999999803961  0.4070133268666680   F   F   F
  0.3333333432766779  0.8749999404036828  0.4070133268666680   F   F   F
  0.6666666865533486  0.1249999999871179  0.4070133268666680   F   F   F
  0.6666666865533486  0.3750000000061604  0.4070133268666680   F   F   F
  0.6666666865533486  0.6249999999803961  0.4070133268666680   F   F   F
  0.8360560573695395  0.4998712022484108  0.5030048706634581   T   T   T
  0.6666666865533486  0.8749999404036828  0.4070133268666680   F   F   F
  0.1666666716383389  0.3750000000061604  0.4070133268666680   F   F   F
  0.1666666716383389  0.6249999999803961  0.4070133268666680   F   F   F
  0.1666666716383389  0.8749999404036828  0.4070133268666680   F   F   F
  0.5000000000021103  0.1249999999871179  0.4070133268666680   F   F   F
  0.5000000000021103  0.3750000000061604  0.4070133268666680   F   F   F
  0.5000000000021103  0.6249999999803961  0.4070133268666680   F   F   F
  0.5000000000021103  0.8749999404036828  0.4070133268666680   F   F   F
  0.8333332538436267  0.1249999999871179  0.4070133268666680   F   F   F
  0.8333332538436267  0.3750000000061604  0.4070133268666680   F   F   F
  0.1666666716383389  0.1249999999871179  0.4070133268666680   F   F   F
  0.0000000000000000  0.3750000000061604  0.4070133268666680   F   F   F
  0.8358331741540148  0.7516276537998515  0.5025828738943591   T   T   T
  0.8371118821331809  0.3724701679694640  0.6043553280610297   T   T   T
  0.8319259604206991  0.8757551416067688  0.6183144040313417   T   T   T
  0.8407416682261412  0.6265916399245531  0.6030346949533072   T   T   T
  0.9988840207330039  0.8747750859562234  0.6218168096562987   T   T   T
  0.3321288870265706  0.1192425950132541  0.6138748192048138   T   T   T
  0.3342153825583760  0.6246482296063987  0.5955876280302383   T   T   T
  0.3259648969382459  0.3737932378310042  0.5928178296931897   T   T   T
  0.6709405887366572  0.3719428124622564  0.5942611515001223   T   T   T
  0.6649565465849200  0.1241162391370453  0.6116674792359945   T   T   T
  0.3337906247288344  0.8770195556023568  0.6024803091772138   T   T   T
  0.1581292158487519  0.6267124570137937  0.6009694961934114   T   T   T
  0.1660959422543264  0.8728420396432829  0.6185988996952994   T   T   T
  0.5018413228936024  0.3713421507363689  0.5954540504447913   T   T   T
  0.4994113276574866  0.1207462055105907  0.6064505910085118   T   T   T
  0.1678116820595555  0.1224607184572415  0.6215543312254692   T   T   T
  0.1634309246228833  0.3715871535246519  0.6076751945574924   T   T   T
  0.6654508053956377  0.8807039189493556  0.6067547347065707   T   T   T
  0.6665901069515350  0.6264918129083800  0.5935876681479741   T   T   T
  0.0001780375685223  0.3749365715729182  0.6226698101731875   T   T   T
  0.9997229626934067  0.6222279709719036  0.6433838617252877   T   T   T
  0.8336449609243006  0.1247406108758183  0.6195825967992395   T   T   T
  0.5006703606900622  0.8751182246812671  0.6098766388427337   T   T   T
  0.0000000000000000  0.1249999999871179  0.4070133268666680   F   F   F
  0.5043474879076341  0.6248447002657754  0.5934597105435341   T   T   T
  0.9161653050829712  0.9998630011547266  0.6037419139127038   T   T   T
  0.5847425270855700  0.7499632469598758  0.5993879326845031   T   T   T
  0.5908023957962522  0.5009079682721999  0.5938586457771146   T   T   T
  0.2423571386508177  0.4984600386567609  0.5939368369097835   T   T   T
  0.2493554323422296  0.7523903660634742  0.5920953410222165   T   T   T
  0.5839843561359451  0.2470064330790678  0.5971446072331559   T   T   T
  0.5823318822630613  0.0000798051691540  0.6043114650345268   T   T   T
  0.2496725138211453  0.9968750313733608  0.6041359220377115   T   T   T
  0.2492902388463249  0.2459412161481320  0.6037957559792897   T   T   T
  0.4167697951783997 -0.0020646336168959  0.6058499673775832   T   T   T
  0.4147484908473564  0.2486046555208311  0.5913024819851067   T   T   T
  0.4169348865661385  0.7508831510616529  0.5950544867686013   T   T   T
  0.7566161340642288  0.5027186746437970  0.5956587305263540   T   T   T
  0.7519094643706122  0.7524586035437175  0.5906691900842447   T   T   T
  0.7539060866048236  0.2478929130506398  0.5941561295791040   T   T   T
  0.7494410072293760  0.0016607446693481  0.6041333645618260   T   T   T
  0.0837877277915224  0.2479338679041479  0.6037098566151751   T   T   T
  0.0813103314016114  0.5000877579589669  0.6035481580643068   T   T   T
  0.0801645239679131  0.7506776211762674  0.6031763204161372   T   T   T
  0.0832154999740066  0.9981673557549193  0.6034700842656655   T   T   T