Au  C  H  O Sr Ti 
 1.0000000000000000
    23.6707801818999997    0.0000000000000000    0.0000000000000000
     0.0000000000000000   22.3170261383000010    0.0000000000000000
     0.0000000000000000    0.0000000000000000   30.0000000000000000
 Au  C   H   O   Sr  Ti 
  50   2   4 264  72  72
Selective dynamics
Cartesian
 16.8846968973940399 11.8733781457451997 22.6418317596499250   F   F   F
 13.4861370631804665 11.4446218932039034 25.7342762453150655   F   F   F
 15.1837031826393858  4.0463356839257463 22.2755044300634779   T   T   T
 11.1537469156939792 10.1147989569056200 26.3299403297936827   F   F   F
 12.3774761081773796  8.5091478341756748 22.0219787621263450   F   F   F
  6.6472165237827143  7.6255067917045229 21.0802998393598955   F   F   F
 15.8468953192731750 15.2401213025318132 22.4470209305897797   F   F   F
  9.3935246848391358  8.5342195222439745 20.7219679474502385   F   F   F
 10.6702044426393865 12.9214727619853544 21.1204355844244809   F   F   F
  8.8799893993576813 11.0698886704382851 25.0090541686914563   F   F   F
  7.6363440768115751  9.3084108238622338 23.1303718918049981   F   F   F
  8.7655464949688504 13.8762796573080962 24.6094146727966958   F   F   F
  9.8115693826422561 15.5133147978656076 21.0070428054182798   F   F   F
 18.2836758659089327  9.7772187830648285 23.8092621690922996   F   F   F
  6.1012837897769634 13.2678586414574085 20.8323944159556227   F   F   F
 15.0647982926014787  9.7398556883734084 21.1983216947882234   F   F   F
 13.3091635390109584 14.3370708625683179 25.9458702451986234   F   F   F
 12.7690174843182067 14.8875681573055374 21.0664076135898135   F   F   F
 10.3948416096147991 10.4851667444306269 22.6414396373829199   F   F   F
  8.9089171410682777 16.5817737520324329 23.4042324021281445   F   F   F
 10.9187442140484805 12.8552164596034135 26.0306185714441014   F   F   F
 15.3956625064439994  9.9572348611965733 24.2358777730317776   F   F   F
 16.7180901719095125 16.9136082574159374 20.6258617866753191   F   F   F
 16.5586711385429517  7.7926429093443828 22.7955289459086536   T   T   T
  6.8625707712234707 12.0631368027874473 23.3331811290514892   F   F   F
 14.5404352580268164  6.9436914351057410 20.9728415292846186   F   F   F
 12.7379260691617429  4.7182918146078929 21.1697184975362589   F   F   F
  6.9767836643283214 16.6748502740294064 20.8526987040535197   F   F   F
 11.9198730506682029 13.6642326465421231 23.3784777512460664   F   F   F
 13.6771213518499870 16.1606512412751542 23.8325999192750295   F   F   F
  5.6647633682509646 10.4931678341902082 21.3193495520031142   F   F   F
  6.8488624595363241 14.8329077340813047 22.8932808408862982   F   F   F
 14.2257547146050030  6.3889801764032912 23.6213208746535201   F   F   F
 12.1507448159450941 10.8171932119724001 20.3118563985898462   F   F   F
 13.1122742145395321 11.1037908483464598 22.9089903621654507   F   F   F
 11.4339126634706911  6.0860984291982261 23.1856599247308495   F   F   F
 12.9691445798746194  8.5759037963314775 24.8497349857563954   F   F   F
  9.2770170350509904 18.2357561003045241 21.1982454625929257   F   F   F
 10.9608459765553974 15.6712202123993727 25.0909645086538617   F   F   F
 10.0028296059005193  5.0873728322139096 20.9729276150058581   F   F   F
  8.6850842900294847  6.7376203440748075 22.7326638941547117   F   F   F
  8.2057625543508337 11.1743662427013266 20.8863166185562861   F   F   F
 10.1219188952510741  8.3102775162825768 24.5111377152752716   F   F   F
 14.1029617091998123 17.5002598499169650 21.3818055292324196   F   F   F
 14.8991944561772858 13.1789628393534812 24.0071857073360775   F   F   F
 17.3384312175463151 13.7838416543657392 20.7921878057295366   F   F   F
 11.5207069713883250 17.3325140243704467 22.6475945745437350   F   F   F
 17.9199523205649349  9.7485021438510362 21.1178002005796266   F   F   F
 17.6811641297010738  5.3221866347701985 20.9091136286242403   T   T   T
 14.7365441343124193 12.7041454672896457 21.0887006905863501   F   F   F
 18.0802120256178398  6.3188102017770893 22.6264362490456712   T   T   T
 17.2160133263863671  3.6962830378763649 22.0880021119390939   T   T   T
 17.9813298476778982  5.7538953361543577 23.5551681965969273   T   T   T
 19.0311603503501559  6.8525237307855953 22.5764350295788994   T   T   T
 17.7003435794453061  3.6501295880295985 23.0604940066453423   T   T   T
 17.3448682020059302  2.7840719695174800 21.4981560625466557   T   T   T
 17.7570767537959355  4.1804586838527165 13.6066128273296876   F   F   F
 13.7959500658646039  1.3947595990740056 16.3776735558679398   F   F   F
 13.8481924260194784 18.1792172673116568 16.5188899162881562   F   F   F
 17.6856620265279965  7.0007271878333714 16.4676766088527700   F   F   F
 13.7537081691091299 12.5042061232117288 16.4694743546924798   F   F   F
  5.9805470014213631 12.4769559079437364 16.3168254970800390   F   F   F
  9.8497060415243158  7.1157518722744149 16.5738545827034685   F   F   F
 13.6515107911456077  9.7337278283361268 16.5467736114020489   F   F   F
  9.8599001410465164  1.4504234054587646 16.4123784964927282   F   F   F
  2.0226432042427613 18.1344707648991808 16.4210542421224766   F   F   F
  2.0058034955206705  6.9947481645776186 16.4142198650145978   F   F   F
 11.8235132959646592 16.8816741469821210 17.7771904924564552   F   F   F
  1.9527261577528763  1.4080018912135206 16.4230192522207332   F   F   F
 21.6451100008559365 15.3695173312117728 16.3672102659951904   F   F   F
 13.8214911566652106 20.9320778947847366 16.3825882534237195   F   F   F
 21.6938549862990264  4.1938634312788645 16.3642336168355200   F   F   F
 21.6681509277131319  9.7628266094079894 16.3712892227237816   F   F   F
 13.7051204940857581 15.3116060507165646 16.4267133794204305   F   F   F
  5.9532116056643956 20.9161604463549651 16.3554541399869002   F   F   F
 11.7645247349070452 11.2656916758720040 18.2565566353115933   F   F   F
 21.7230890965753431 12.5810239317309929 16.4146089709243341   F   F   F
  9.9336122668858629 12.5971459842814131 16.6566199413633562   F   F   F
 21.6731398213998290 18.1343165518078742 16.4052050127902369   F   F   F
  1.9916188894977671 20.9417576243937766 16.3808163378656886   F   F   F
  5.8887230946312563 15.2472684184180665 16.5445687595101703   F   F   F
 17.7134259763074908 20.8528762317149479 16.4102513376709709   F   F   F
 17.7874570910212029 15.1946319907622431 16.5880585311047817   F   F   F
 21.6810456314097877 20.9392246123381653 16.3830133780288456   F   F   F
  9.8855681708714975  1.4582821815981351 19.1954342661669344   F   F   F
 13.7925031714304147 20.9146130148746607 13.6294693899743145   F   F   F
  5.9962037221686817 18.1355409800308252 16.5133281799964529   F   F   F
 13.8242187419315421  6.9467794525036561 16.3849816392886858   F   F   F
 17.8183834245501167  9.7439050166605963 16.4441968798044336   F   F   F
  2.0245530212188596 15.3783034608107965 16.3621189131856291   F   F   F
  1.9631156651595254  9.7935548286725904 16.3445458045626779   F   F   F
  1.9811347292748094  4.2150211246125817 16.3696403508690622   F   F   F
 11.8309677918440617  2.8042122630000517 14.9880725911145873   F   F   F
 23.6576044175167191 11.1150797111940509 17.8199137669814434   F   F   F
 13.7583707704239142  4.1515825521638421 16.4877757768326880   F   F   F
  0.0033274820375241 16.8177584312231652 17.7814477971353178   F   F   F
  7.9065204387887933 22.3144467494969412 17.7577267532672387   F   F   F
 23.6703563979864100 22.2805594434029821 17.7787227697208685   F   F   F
  0.0021380330186042  5.5282066965408649 17.7728284668942678   F   F   F
  7.8839488156314657 11.0602413318312269 17.7369811912678514   F   F   F
  7.9227342330162314 16.5212881559948883 17.7058014853595793   F   F   F
 15.7459199764452524  5.4948550296885754 17.7340486468027549   F   F   F
 15.7625259464617784  0.0006239654568185 17.7545524408794435   F   F   F
 15.7359994533765519 16.5581013926371980 17.7191665644361045   F   F   F
 15.7838512716531465 11.0435957460768073 17.7270800730432683   F   F   F
  3.9628631144886959 22.2841519967952166 17.7666966062165628   F   F   F
  3.9849335020094077  5.5666550799398546 17.7973925555443770   F   F   F
  4.0469509580715410 16.7414103867082460 17.8437419945223645   F   F   F
  5.8709221468451220  9.7201883586730773 16.4856691343352857   F   F   F
  3.9140491705848750 11.2399945744822887 17.6156973944956547   F   F   F
  7.9203672795221483  5.6659844670704400 17.7595454640041801   F   F   F
 11.8262250003471170  0.0004142070593279 17.7298101702970072   F   F   F
 19.7084143984106746 19.5079521179309729 14.9655553928765972   F   F   F
 17.6896916156366402 20.8365273698686266 19.1998399253420544   F   F   F
 19.6990890420278326 22.2660279259465916 17.7666273042728200   F   F   F
 17.7539650828504847  4.1707261606865478 16.4012185132579127   F   F   F
 10.0065275480023619 15.3371548181476136 16.4095201500663599   F   F   F
 10.0172279590349032  9.8925615958664839 16.3825306945959817   F   F   F
  1.9725650740000149  6.9740706679999214 10.8156001569999933   F   F   F
  9.7432649705711505 18.1404735728298157 19.1743486059512236   F   F   F
 21.6666066507527653  1.3813935238410033 19.1975867556774560   F   F   F
 21.6420047192384040 12.5504657191365201 19.2204354204274175   F   F   F
  9.8788358029327359 20.8669818112180998 19.1955458327690494   F   F   F
 17.5453344043046400 18.0915461422605368 19.1859738225414809   F   F   F
 17.7770096445354042  6.8336848730973374 19.3348652681977882   F   F   F
 17.7277576902061256  1.3943575863229534 19.2043462708491965   F   F   F
  1.9719542291824383  6.9532273317479820 19.2122791012231673   F   F   F
 15.7704862469877387 19.5096067201512611 14.9644641263115918   F   F   F
  2.0300163779800111 12.5564756224707033 19.1948203447367298   F   F   F
  2.0656793786966299  9.7381134704771153 19.1884423812880591   F   F   F
  1.9794980065249961  4.1396833283767958 19.2356809239965436   F   F   F
  9.8723605121074858  4.1712802453733415 19.1904373961622916   F   F   F
  9.8480125248826162  9.3303062750612202 18.9057234949416682   F   F   F
  2.0043316552354060 20.8841924327981374 19.2305619869041067   F   F   F
  1.9721966805700675 15.3288626405188051 19.1639753606878784   F   F   F
  1.9796359462540152  1.3557291752588398 19.2476426135570406   F   F   F
 19.7191266398222673 11.2274515126573338 17.6918977201098642   F   F   F
 21.5905562454330280  9.7171399769949556 19.2013490688346522   F   F   F
 19.6641235106549601 16.7686492258242730 17.7725122106214997   F   F   F
 19.6917766422965421  5.5655982157802955 17.7121422864482660   F   F   F
 17.6879015432244238  4.1510518780779915 19.2062799178571417   F   F   F
 21.6982156369999721 18.1325837370000720 10.8156001569999933   F   F   F
 13.7641967357448944 20.8787654779879261 19.1796301465542314   F   F   F
  2.0175658257942573 18.1248353373901203 19.2833996086061816   F   F   F
 13.6686644407788052  4.2650207604208692 19.3288719593633118   F   F   F
  6.0077297498509079 15.1451710698441318 19.8738750192959550   F   F   F
  5.6606463923942574  9.9099277387144529 19.2817145897276063   F   F   F
 21.6722044102313305 20.9034464238488056 19.2477869208403938   F   F   F
 21.6857300635604666 15.3378367199117811 19.1554569579337119   F   F   F
  5.9636597291269462 20.7652701370440020 19.1208796319726417   F   F   F
  6.0014907063738558  4.1675668821899334 19.2384794580448180   F   F   F
  9.4107321909342314 12.2798443259877388 19.5563611607379393   F   F   F
  9.8809311049774244  4.2527967386039203 16.4191322943244558   F   F   F
 17.8146476429667189 12.6959499174017498 19.0687265043788337   F   F   F
 11.8327343558440603 19.4944344446102633 15.0249048113124157   F   F   F
 21.6642723365677696  6.9311221608004319 19.2061930594088146   F   F   F
 21.6399459581937528 18.1332378933002154 19.2775210277370590   F   F   F
 13.7950611186057142  1.4761004882333559 19.1632138476609697   F   F   F
  5.9019304347028116  6.9962326814425877 16.3710281555127324   F   F   F
 13.9814710701815201 12.6316315089379625 19.1596587744576432   F   F   F
  5.8629553384349578 12.8119890276342172 18.8622156411556148   F   F   F
 17.8380891196881883 15.4960165893905852 19.6364497729927407   F   F   F
  6.2143670733261942 17.8802005477901531 19.3718202333122775   F   F   F
  5.9414931723224838  1.3300296829046583 19.2608894087764568   F   F   F
 21.6982156369999721 12.5533272030000536 10.8156001569999933   F   F   F
 11.8290106821563992  8.3227926007210264 15.0229779204992866   F   F   F
 11.8378121241476908 13.8578167618185919 14.9979218889883903   F   F   F
 19.7028773303784916 13.9053703223264051 15.0024995206482554   F   F   F
  5.9577706931735150  4.1943213013222058 16.4212753215649307   F   F   F
 19.7084574058077706  8.3216458544301037 14.9850262145708282   F   F   F
 19.7214258986671815  2.7728722200813571 14.9700377141951630   F   F   F
  3.9408078858879914  8.3874502710116623 14.9351586361536750   F   F   F
  3.9637791139278669 13.9265940451887786 15.0043574037067700   F   F   F
 13.7440370142618846  9.8075770662658623 19.3569714248939100   F   F   F
 13.6489301946504025 15.3164746220441206 19.1964994615628690   F   F   F
 21.6272913852314801  4.1239305030205573 19.1904900446738331   F   F   F
  5.9285390392706327  7.0810903795806190 19.2211998997148434   F   F   F
  3.9701979196419006 19.4894188749304362 14.9948473902564476   F   F   F
 21.6760888963761822  9.7537329395770946 13.6072022327394233   F   F   F
  3.9550868121641112  2.7739593048092743 14.9798499134286622   F   F   F
 17.7438880840405346  1.3742700872820515 16.3832205248638765   F   F   F
  9.9654556638655905  6.7697114555770712 19.6721176915287330   F   F   F
 13.9622158505540135 18.0874799908653792 19.3818161214066436   F   F   F
  9.9444732825357782 15.0875461819559042 19.0194882298388421   F   F   F
 17.8124366135802106  9.6837587154898621 19.1220070319999138   F   F   F
 11.8146578105740687  5.6780088229524441 17.7516353867767265   F   F   F
 13.9403584773745930  7.1350426150013311 19.0347650622235705   F   F   F
 21.6832219297312605  4.1667210903494567 13.5905422465796164   F   F   F
 15.7474162010704610 13.9728637354083514 15.0894473492227181   F   F   F
 13.8370205908480504 12.5526977082306086 13.6501033247274002   F   F   F
 13.8078690901679000  1.4171057829496139 13.6228767108027462   F   F   F
 21.6982156369999721 15.3429554700000619 10.8156001569999933   F   F   F
 21.6982156369999721  9.7636982699999884 10.8156001569999933   F   F   F
 21.6982156369999721  4.1844424010000720 10.8156001569999933   F   F   F
 13.8079546360000549 20.9222120050000342 10.8156001569999933   F   F   F
 13.8079546360000549 15.3429554700000619 10.8156001569999933   F   F   F
 13.8079546360000549  9.7636982699999884 10.8156001569999933   F   F   F
 13.8079546360000549  4.1844424010000720 10.8156001569999933   F   F   F
  5.9176950450000287 20.9222120050000342 10.8156001569999933   F   F   F
 21.6982156369999721 20.9222120050000342 10.8156001569999933   F   F   F
  5.9176950450000287 15.3429554700000619 10.8156001569999933   F   F   F
  5.9176950450000287  4.1844424010000720 10.8156001569999933   F   F   F
 17.7530837259999217 20.9222120050000342 10.8156001569999933   F   F   F
 17.7530837259999217 15.3429554700000619 10.8156001569999933   F   F   F
 17.7530837259999217  9.7636982699999884 10.8156001569999933   F   F   F
 17.7530837259999217  4.1844424010000720 10.8156001569999933   F   F   F
  9.8628241350000643 20.9222120050000342 10.8156001569999933   F   F   F
  9.8628241350000643 15.3429554700000619 10.8156001569999933   F   F   F
  9.8628241350000643  9.7636982699999884 10.8156001569999933   F   F   F
  5.9176950450000287  9.7636982699999884 10.8156001569999933   F   F   F
  1.9725650740000149  1.3948141340000613 10.8156001569999933   F   F   F
 21.6657560473108077 15.3286591733316691 13.5995379432570456   F   F   F
 15.7535829358480726  8.4500908042560603 15.0892712412853918   F   F   F
  7.9158356780666539  8.4443904220238100 15.0944948912825812   F   F   F
  7.9403820305820156 13.9612463684449608 15.1052233635488893   F   F   F
 21.6868288434024450  1.3901978154420558 16.3968103332121444   F   F   F
 17.7443116366739595 20.9221918768085224 13.6467301804937247   F   F   F
  5.9169038694166112 20.8909184565149495 13.6195417286498834   F   F   F
  5.9179453763971157  4.2114328149607951 13.6306557516902433   F   F   F
 17.7305073898939867 15.3696467560524184 13.7156384201696788   F   F   F
  5.9314556852697828  1.3855242212121510 13.6247967142213451   F   F   F
  9.8712184962928031 20.8950119218826060 13.6235574262810388   F   F   F
  9.8431648598245509 20.9060343535299893 16.3856859704355990   F   F   F
  9.8751876915045944 15.2910312613633597 13.6506411908931327   F   F   F
  9.8771919429963262  9.7199706340496412 13.6266197021240085   F   F   F
  1.9956733790837842 15.3306899181381340 13.5943392940301848   F   F   F
  1.9875449424935256 20.9079975911259552 13.6093517832733983   F   F   F
  1.9581341756058916  9.7483556098355120 13.5845663113843305   F   F   F
  1.9846219463090833  4.1642123173169683 13.5894187299645033   F   F   F
 21.6951219846985097 18.1241233278844476 13.6216883246091651   F   F   F
 17.6737770955752076 12.4671241228295724 16.3421024296516109   F   F   F
 21.6849954705830861 12.5470709212211133 13.6220704284478202   F   F   F
 21.6904680161279337  1.3877499515912943 13.6155147354400263   F   F   F
 21.6887171929986486  6.9666122924915417 13.6151151784878817   F   F   F
  9.8719592492036892  4.1810710962869324 13.6158877481537530   F   F   F
 13.7855791338328437  9.7883174315255879 13.6799621540861231   F   F   F
  5.9640258898514382 15.3436154263764255 13.6787855676022616   F   F   F
 13.8051481416963409  4.2308241288748833 13.6586155468150263   F   F   F
  0.0028623554854077  2.7907934565139083 14.9546088103031671   F   F   F
 13.8032607722655829 18.0854463779418779 13.6639009252793802   F   F   F
 23.6666135586939355  8.3421577081828850 14.9441906436964249   F   F   F
 23.6618326140863466 13.9945118111713853 14.9294820033411515   F   F   F
  7.9020371125221676  2.8076717113145992 14.9637855158412947   F   F   F
  0.0033973491915381 19.5257243073672804 14.9832283781296045   F   F   F
  7.8927168557782457 19.5041711838222867 14.9637261383785773   F   F   F
 15.7699207079057526  2.8010130639203963 14.9936213725727097   F   F   F
  5.9468689307850751  9.8099443903600516 13.6553413683852618   F   F   F
  1.9725650740000149 12.5533272030000536 10.8156001569999933   F   F   F
 21.6982156369999721  1.3948141340000613 10.8156001569999933   F   F   F
 17.7361606797759741 18.1459114224867939 13.5918072794484104   F   F   F
 17.7394068691080484  9.7743470355953832 13.6555155532524282   F   F   F
 21.6916804936508285 20.9096361104467050 13.6054562924640479   F   F   F
 21.6810233590037882  6.9721953601181994 16.4043967477635917   F   F   F
  1.9102473767916210 12.5944033410432841 16.3903504979801049   F   F   F
 13.8079546360000549  1.3948141340000613 10.8156001569999933   F   F   F
 13.8260442188539709  7.0212551575818862 13.6284930584572113   F   F   F
 17.7020058950590453 18.0321683912414983 16.3636660789035844   F   F   F
 11.8353900909999528 11.1585130689999925 12.2103998060000407   F   F   F
  1.9725650740000149  4.1844424010000720 10.8156001569999933   F   F   F
  0.0000000000000000  0.0000000000000000 12.2103998060000407   F   F   F
  0.0000000000000000  5.5792565349999723 12.2103998060000407   F   F   F
  0.0000000000000000 11.1585130689999925 12.2103998060000407   F   F   F
 17.7098752155102908 12.5933860678010277 13.6132184908329172   F   F   F
  7.8902602960000570  0.0000000000000000 12.2103998060000407   F   F   F
  7.8902602960000570 11.1585130689999925 12.2103998060000407   F   F   F
  7.8902602960000570 16.7377696039999648 12.2103998060000407   F   F   F
 15.7805205919999434  0.0000000000000000 12.2103998060000407   F   F   F
 15.7805205919999434  5.5792565349999723 12.2103998060000407   F   F   F
 15.7805205919999434 11.1585130689999925 12.2103998060000407   F   F   F
 19.7256482699999580  5.5792565349999723 12.2103998060000407   F   F   F
  3.9451301480000271  0.0000000000000000 12.2103998060000407   F   F   F
  3.9451301480000271 11.1585130689999925 12.2103998060000407   F   F   F
  3.9451301480000271 16.7377696039999648 12.2103998060000407   F   F   F
 11.8353900909999528  0.0000000000000000 12.2103998060000407   F   F   F
 11.8353900909999528  5.5792565349999723 12.2103998060000407   F   F   F
 11.8353900909999528 16.7377696039999648 12.2103998060000407   F   F   F
 21.6982156369999721  6.9740706679999214 10.8156001569999933   F   F   F
  7.8902602960000570  5.5792565349999723 12.2103998060000407   F   F   F
 17.6925965619196823  6.9801985775974753 13.6574244703356040   F   F   F
  0.0000000000000000 16.7377696039999648 12.2103998060000407   F   F   F
  9.8711209602688221 18.0870534558012217 13.6444725547787744   F   F   F
 17.7360150940422336  1.3950056960260566 13.6145239609138216   F   F   F
 19.7256482699999580  0.0000000000000000 12.2103998060000407   F   F   F
 13.7934638564572065 15.3092825136311159 13.6394539505775931   F   F   F
  5.9600799370061530 12.6026442810914254 13.6090274023292714   F   F   F
  3.9451301480000271  5.5792565349999723 12.2103998060000407   F   F   F
  5.9237017347225951 18.0924996936727638 13.6587750990669097   F   F   F
 15.7805205919999434 16.7377696039999648 12.2103998060000407   F   F   F
 13.8079546360000549 18.1325837370000720 10.8156001569999933   F   F   F
  5.9176950450000287 12.5533272030000536 10.8156001569999933   F   F   F
 13.8079546360000549 12.5533272030000536 10.8156001569999933   F   F   F
  5.9176950450000287 18.1325837370000720 10.8156001569999933   F   F   F
  5.9176950450000287  6.9740706679999214 10.8156001569999933   F   F   F
  5.9176950450000287  1.3948141340000613 10.8156001569999933   F   F   F
 17.7530837259999217 12.5533272030000536 10.8156001569999933   F   F   F
 17.7530837259999217  6.9740706679999214 10.8156001569999933   F   F   F
 17.7530837259999217  1.3948141340000613 10.8156001569999933   F   F   F
  9.8628241350000643 18.1325837370000720 10.8156001569999933   F   F   F
  9.8628241350000643  6.9740706679999214 10.8156001569999933   F   F   F
 17.7530837259999217 18.1325837370000720 10.8156001569999933   F   F   F
  1.9749493749941502  6.9628868342409023 13.6208139559907000   F   F   F
  9.8628241350000643  1.3948141340000613 10.8156001569999933   F   F   F
  9.8730710602143290  1.3825928547088475 13.6552242254893201   F   F   F
  1.9774007184149938 18.1229765711467792 13.6247924481547020   F   F   F
  9.8628241350000643 12.5533272030000536 10.8156001569999933   F   F   F
  9.7912143236946054 18.1070317794105797 16.4228554572047152   F   F   F
 13.8079546360000549  6.9740706679999214 10.8156001569999933   F   F   F
  1.9872233751810151 12.5528480916794987 13.6165085796586443   F   F   F
  5.9517828690067605  1.3907446536373516 16.4097084899926742   F   F   F
 19.7256482699999580 11.1585130689999925 12.2103998060000407   F   F   F
  9.8628241350000643  4.1844424010000720 10.8156001569999933   F   F   F
  1.9725650740000149 20.9222120050000342 10.8156001569999933   F   F   F
  1.9725650740000149 18.1325837370000720 10.8156001569999933   F   F   F
  1.9725650740000149  9.7636982699999884 10.8156001569999933   F   F   F
 19.7256482699999580 16.7377696039999648 12.2103998060000407   F   F   F
  9.8366946562738207  6.9501439260801039 13.7197344138214241   F   F   F
  1.9835901742919839  1.3823399566306258 13.6245844559071152   F   F   F
  9.8447229424516287 12.4874872686928118 13.7318479470765133   F   F   F
  1.9725650740000149 15.3429554700000619 10.8156001569999933   F   F   F
  5.9700970088671257  7.0182931544123486 13.6172055211789598   F   F   F
  3.9451301480000271 19.5273965409999306 12.2103998060000407   F   F   F
 11.8353900909999528  2.7896282670000101 12.2103998060000407   F   F   F
 19.7924970476541873 16.7696397115451283 15.0761332249302793   F   F   F
 19.8003203919762178  8.2875450716169912 18.1759964808711700   F   F   F
 19.7133434739064235 19.5468120100857696 18.5704611257311782   F   F   F
  3.8710828076247639 11.1523635145328921 15.0615644182527255   F   F   F
 11.8353900909999528 19.5273965409999306 12.2103998060000407   F   F   F
  7.8423271984040852  2.6733424185010048 18.3526005202613050   F   F   F
 19.8776486632855871 13.9812137487605543 18.1097620831455650   F   F   F
 11.8353900909999528 13.9481413360000008 12.2103998060000407   F   F   F
 15.7787643015580556  2.7205477613441595 18.2761813824174446   F   F   F
 19.7256482699999580  2.7896282670000101 12.2103998060000407   F   F   F
 19.7256482699999580  8.3688848019999824 12.2103998060000407   F   F   F
 23.6684413565855927 19.5099057176354691 18.7441670676469947   F   F   F
  0.0000000000000000  2.7896282670000101 12.2103998060000407   F   F   F
 23.6639098596924526 13.9131737577584982 18.7017051781367947   F   F   F
  3.9451301480000271 13.9481413360000008 12.2103998060000407   F   F   F
  7.9095479329031653 13.9369485844334555 17.8411731962677180   F   F   F
 11.8376579108391482  2.7155104579844154 18.1627993330723072   F   F   F
 19.7104819554913000  2.7171373526415925 18.3645522903037062   F   F   F
 23.6629896506242190  8.3625869170645810 18.7041340617950524   F   F   F
 15.7728762577170176 13.9764813134302788 17.7916411074621230   F   F   F
 15.7211347589960297 19.6370114598284502 18.1984783630895492   F   F   F
  3.8701491817679927  8.2821630051954234 18.2365573400624470   F   F   F
  3.9680302984191655  2.7416723635134295 18.6552101988893817   F   F   F
  3.7777711818803223 13.9942757329049048 18.0437594139480204   F   F   F
 11.9199651167010838  8.2818940985371565 17.8718730725815860   F   F   F
  3.9391027913753036 19.5000178638441390 18.5276250990842364   F   F   F
  7.9193675489380455 19.6159493645883103 18.0824937042960414   F   F   F
 15.9196430252001502  8.3153675110476577 17.9036614673690053   F   F   F
 15.7805205919999434 19.5273965409999306 12.2103998060000407   F   F   F
 11.8353900909999528  8.3688848019999824 12.2103998060000407   F   F   F
 11.9154426282534498 13.9404997848942056 17.8277090656679427   F   F   F
  0.0000000000000000  8.3688848019999824 12.2103998060000407   F   F   F
  3.9451301480000271  2.7896282670000101 12.2103998060000407   F   F   F
 11.8420469844929350 19.5656732888463054 18.2898364758507412   F   F   F
 19.7838636603021847 11.1472034236683974 15.0913537417554551   F   F   F
 23.6558100752361220 11.1536620892118847 15.1989632227282332   F   F   F
 11.8662210425927377 11.1506772091922830 15.0133920409905457   F   F   F
 15.8100349465016770  5.5330177441614010 15.1033930718878100   F   F   F
  7.8868053658099662  0.0213303316459547 15.1687713121969630   F   F   F
  7.8159616945278891  5.5346861453668676 15.0834896141968038   F   F   F
 15.8311857006840597 11.1463326249113290 15.0213634968186369   F   F   F
 19.7256482699999580 13.9481413360000008 12.2103998060000407   F   F   F
  3.8931920380066041 16.7656355468593397 15.1015610017687187   F   F   F
 15.7763126671726788  0.0120556302542682 15.1646208472881376   F   F   F
 11.8587133354140022 16.7986982359492387 15.1152448678366174   F   F   F
 15.7514361916448458 16.7749142068539285 15.0661833596880399   F   F   F
  3.9451301480000271  8.3688848019999824 12.2103998060000407   F   F   F
  7.7333982583765453  8.3248707144529757 17.7758492050840715   F   F   F
 23.6694907530333118  2.7482341687979197 18.5921638765137267   F   F   F
 19.7553461176473100  5.5444356020868222 15.1097566036889326   F   F   F
 15.7805205919999434  8.3688848019999824 12.2103998060000407   F   F   F
  7.8389753472764401 11.1387758214773580 15.0303610112190658   F   F   F
  0.0000000000000000 19.5273965409999306 12.2103998060000407   F   F   F
  3.9289328463687303  0.0245404019436484 15.1937950297860631   F   F   F
  7.9056088663929467 16.7604945362002837 15.0456105169836860   F   F   F
 11.8393554774486063 22.2970815788317402 15.1634010721750876   F   F   F
  3.9335606714275415  5.5413693950195029 15.1899483159751352   F   F   F
  0.0000000000000000 13.9481413360000008 12.2103998060000407   F   F   F
 15.7805205919999434  2.7896282670000101 12.2103998060000407   F   F   F
 19.7378934413506748  0.0024996911839944 15.1823919260022162   F   F   F
  7.8902602960000570  8.3688848019999824 12.2103998060000407   F   F   F
  7.8902602960000570 19.5273965409999306 12.2103998060000407   F   F   F
  7.8902602960000570 13.9481413360000008 12.2103998060000407   F   F   F
 19.7256482699999580 19.5273965409999306 12.2103998060000407   F   F   F
 15.7805205919999434 13.9481413360000008 12.2103998060000407   F   F   F
  0.0036056954432976 22.3118191253630656 15.1926871188598049   F   F   F
  0.0095650351689380  5.5701092670277434 15.1835847043369405   F   F   F
  0.0009503328439296 16.7589054503245656 15.2018541057638519   F   F   F
 11.8699123721469970  5.5364664875508520 15.0683362351622652   F   F   F
  7.8902602960000570  2.7896282670000101 12.2103998060000407   F   F   F
  1.9725650740000149  5.5792565349999723 12.2103998060000407   F   F   F
 17.8154730934020762 16.7906217111331451 17.7164578029130766   F   F   F
  5.9176950450000287  5.5792565349999723 12.2103998060000407   F   F   F
  1.9725650740000149 16.7377696039999648 12.2103998060000407   F   F   F
  1.9725650740000149 11.1585130689999925 12.2103998060000407   F   F   F
  1.9725650740000149  0.0000000000000000 12.2103998060000407   F   F   F
 21.7328482865778589  8.3471362015616357 15.1797779493006662   F   F   F
 21.6982156369999721 16.7377696039999648 12.2103998060000407   F   F   F
 13.8079038300787715  2.7512709071169485 15.1308996545463224   F   F   F
 17.8091485243203422 13.9335803911404845 15.0730798776605415   F   F   F
 13.8184703725630786 19.5455963433607600 15.1722454740985633   F   F   F
 21.7176364134424169  2.7764577927061476 15.1776479465075891   F   F   F
  9.8628241350000643 11.1585130689999925 12.2103998060000407   F   F   F
 21.6982156369999721 11.1585130689999925 12.2103998060000407   F   F   F