Au  O Sr Ti  H                          
   1.00000000000000     
    23.6707801818999997    0.0000000000000000    0.0000000000000000
     0.0000000000000000   22.3170261383000010    0.0000000000000000
     0.0000000000000000    0.0000000000000000   30.0000000000000000
   Au   O    Sr   Ti   H 
    50   264    72    72     1
Selective dynamics
Direct
  0.7164839663609305  0.5266877854270651  0.7536825818992988   T   T   T
  0.6230375818864480  0.5690600252395324  0.7035555368103164   T   T   T
  0.7182441211440621  0.2579070664167386  0.6909431813825910   T   T   T
  0.2951336032691509  0.7460411244929515  0.6966831519079636   T   T   T
  0.5090703635704540  0.6019701871748868  0.7781233213907744   T   T   T
  0.5766468722680614  0.7208867980540509  0.7931032882877986   T   T   T
  0.5481916837871174  0.3798589602569357  0.8252611652033066   T   T   T
  0.2401303774516526  0.4683899282077735  0.7083666028234917   T   T   T
  0.2833878460025138  0.6613978322226691  0.7644336662303197   T   T   T
  0.6061960735036700  0.2839076991837619  0.7861087603198569   T   T   T
  0.5146664662004798  0.4849862180272443  0.6775326282108363   T   T   T
  0.5612296019054690  0.4857218179096617  0.7624674575776242   T   T   T
  0.4632608008325922  0.6945862458882887  0.8309165091379568   T   T   T
  0.7648414213845567  0.4330857058232012  0.7057559012213487   T   T   T
  0.7328005726514411  0.6160997944773279  0.6933242056482793   T   T   T
  0.6329131742713167  0.5859651627026158  0.7980843612421509   T   T   T
  0.5952928107572734  0.7827248797346164  0.7130782287806235   T   T   T
  0.4848688885891582  0.7762279665616578  0.7568462807966239   T   T   T
  0.3490740884108262  0.4999008179180002  0.6977665720449935   T   T   T
  0.4289378398917542  0.3723610145340660  0.8150943937952969   T   T   T
  0.3730379569458107  0.2984066063337615  0.7548771553149864   T   T   T
  0.4461072151829675  0.2299195301270064  0.6963470048517384   T   T   T
  0.3924140476719494  0.8180136954004100  0.7068040034848456   T   T   T
  0.2877062842058578  0.5369427630038155  0.7770365972690918   T   T   T
  0.5597496573312912  0.2078116547382269  0.7127577660222264   T   T   T
  0.4518160400616430  0.5797828297589332  0.7024996586648432   T   T   T
  0.6144291219681925  0.3207550865670687  0.6975169559021448   T   T   T
  0.7065564922501606  0.7582777393342915  0.6882638462139657   T   T   T
  0.6550544512051790  0.4361774691179724  0.8091434572628798   T   T   T
  0.3693534726583344  0.6180114216300812  0.8170015100144289   T   T   T
  0.5774056822738078  0.5071662234261448  0.8556147370923203   T   T   T
  0.6691580081299504  0.1884516253461242  0.7509651282325231   T   T   T
  0.4738501413062884  0.4521218732758876  0.8750737504934033   T   T   T
  0.5148387269174686  0.3779376334082352  0.7300059227613237   T   T   T
  0.2833190870167366  0.3377546172675833  0.7026496303656999   T   T   T
  0.6702418611661330  0.6820400255962301  0.7484729110768341   T   T   T
  0.3973526783209579  0.3824272156571561  0.6900132445521187   T   T   T
  0.3735941677281343  0.4928661163119523  0.8328540838641419   T   T   T
  0.4584369418984160  0.5777778092392292  0.8698882700245137   T   T   T
  0.3253165213366390  0.4138288337954928  0.7689084986414121   T   T   T
  0.4893178180890036  0.2713623704282382  0.7751759933557139   T   T   T
  0.4193853829336971  0.6971848111591963  0.6986201333741389   T   T   T
  0.7023657125828728  0.3448299564783500  0.7556759057320108   T   T   T
  0.7741872974288716  0.4307567580952207  0.7957314631062545   T   T   T
  0.2567596819389794  0.5922681697603465  0.6940686734714132   T   T   T
  0.6473877016826616  0.4430057359335619  0.6975802887852496   T   T   T
  0.5638073200898460  0.6360693455146967  0.8626636637588841   T   T   T
  0.5413014546005694  0.6651139341951003  0.7019864629834653   T   T   T
  0.4427508242727958  0.4754584395976311  0.7568716296703912   T   T   T
  0.3735118387430871  0.7384233748877723  0.7779529480901569   T   T   T
  0.2500100651963671  0.1887242452919053  0.4543677934972136   T   T   T
  0.7495448532189228  0.9384033326101721  0.4553059620167961   T   T   T
  0.7491030704959999  0.6887431280318645  0.4573246115989076   T   T   T
  0.7494581450933547  0.4386169959463538  0.4561420647038125   T   T   T
  0.7502670120155064  0.1896749730975424  0.4556093523242623   T   T   T
  0.4176592014035459  0.9357730340094672  0.4539779254202213   T   T   T
  0.4171125116709795  0.6847203547187910  0.4546263439440871   T   T   T
  0.4164869543889749  0.4354530948476924  0.4538238853770349   T   T   T
  0.0845872445311529  0.6868584032845018  0.4530052794264083   T   T   T
  0.0841651953155737  0.9367659222844580  0.4536262375463024   T   T   T
  0.0827634599384825  0.4367701015860575  0.4528535864616373   T   T   T
  0.0838732721849629  0.1865452764439886  0.4529717786119482   T   T   T
  0.9166003209356319  0.8120931033583291  0.4540707427715912   T   T   T
  0.9161725159507047  0.5623701453776251  0.4538890464559541   T   T   T
  0.2511809026848815  0.4393415807503038  0.4548788579980158   T   T   T
  0.9161365147581551  0.0621613886644716  0.4541009926313878   T   T   T
  0.9160791678883694  0.3121573471180868  0.4539293996565906   T   T   T
  0.4172813901397638  0.1871341225722055  0.4535431668197611   T   T   T
  0.2520674416815461  0.6876650357317096  0.4560999453484287   T   T   T
  0.9164896782947686  0.9369875295878308  0.4535738525504400   T   T   T
  0.5827368760234430  0.1895126572588473  0.4552498567984026   T   T   T
  0.0000596419606008  0.1250662396752070  0.4984117505010550   T   T   T
  0.5837523276145579  0.8099868411071128  0.4555292951529914   T   T   T
  0.9998541014374149  0.3732997611326397  0.4982698090175699   T   T   T
 -0.0001996639078803  0.6272356666390360  0.4976685011669180   T   T   T
  0.3336316819171029  0.1256324328555933  0.4985377126120847   T   T   T
  0.0001243200698918  0.8752178850363955  0.4995507497982051   T   T   T
  0.3336358574335059  0.8741799343131703  0.4992121021031396   T   T   T
  0.6659869493938613  0.1260169164946770  0.4991321681388778   T   T   T
  0.3356807179615227  0.6258778068865923  0.5037849861141367   T   T   T
  0.3343670868862826  0.3783485071060084  0.5028501055010767   T   T   T
  0.6654086762390734  0.3786000058792606  0.5031933614695944   T   T   T
  0.9153578205446888  0.6867754190059043  0.4530451086531616   T   T   T
  0.9157579784279967  0.4370008341371551  0.4536756891523571   T   T   T
  0.9158700367644158  0.1868193296764967  0.4531621834341595   T   T   T
  0.5830094441043699  0.9363841472910883  0.4538476681126859   T   T   T
  0.5827945334936394  0.6860471463308427  0.4545779335290476   T   T   T
  0.5827280420644997  0.4392897370656026  0.4561238010368169   T   T   T
  0.2499949135169241  0.9360120871390850  0.4540804652601476   T   T   T
  0.6654126355308914  0.6258560780490597  0.5029060894365649   T   T   T
  0.5845197330654219  0.5627894098258173  0.4548955095677446   T   T   T
  0.5829987060551901  0.0626814519260592  0.4546323282040197   T   T   T
  0.9166666865332829  0.6874999999963620  0.3605200052333331   F   F   F
  0.9166666865332829  0.4374999701794380  0.3605200052333331   F   F   F
  0.9166666865332829  0.1875000000030838  0.3605200052333331   F   F   F
  0.5833333134730552  0.9375000000154046  0.3605200052333331   F   F   F
  0.5833333134730552  0.6874999999963620  0.3605200052333331   F   F   F
  0.5833333134730552  0.4374999701794380  0.3605200052333331   F   F   F
  0.5833333134730552  0.1875000000030838  0.3605200052333331   F   F   F
  0.2499999999799343  0.9375000000154046  0.3605200052333331   F   F   F
  0.9166666865332829  0.9375000000154046  0.3605200052333331   F   F   F
  0.2499999999799343  0.6874999999963620  0.3605200052333331   F   F   F
  0.2499999999799343  0.1875000000030838  0.3605200052333331   F   F   F
  0.7499999404149307  0.9375000000154046  0.3605200052333331   F   F   F
  0.7499999404149307  0.6874999999963620  0.3605200052333331   F   F   F
  0.7499999404149307  0.4374999701794380  0.3605200052333331   F   F   F
  0.7499999404149307  0.1875000000030838  0.3605200052333331   F   F   F
  0.4166666269218169  0.9375000000154046  0.3605200052333331   F   F   F
  0.4166666269218169  0.6874999999963620  0.3605200052333331   F   F   F
  0.4166666269218169  0.4374999701794380  0.3605200052333331   F   F   F
  0.2499999999799343  0.4374999701794380  0.3605200052333331   F   F   F
  0.0833333358191695  0.0625000000159659  0.3605200052333331   F   F   F
  0.0833333358191695  0.3124999999901945  0.3605200052333331   F   F   F
  0.0833333358191695  0.5625000000092442  0.3605200052333331   F   F   F
  0.9166666865332829  0.3124999999901945  0.3605200052333331   F   F   F
  0.9166666865332829  0.0625000000159659  0.3605200052333331   F   F   F
  0.5833333134730552  0.8124999999834799  0.3605200052333331   F   F   F
  0.5833333134730552  0.5625000000092442  0.3605200052333331   F   F   F
  0.5833333134730552  0.3124999999901945  0.3605200052333331   F   F   F
  0.5833333134730552  0.0625000000159659  0.3605200052333331   F   F   F
  0.2499999999799343  0.8124999999834799  0.3605200052333331   F   F   F
  0.2499999999799343  0.5625000000092442  0.3605200052333331   F   F   F
  0.2499999999799343  0.3124999999901945  0.3605200052333331   F   F   F
  0.2499999999799343  0.0625000000159659  0.3605200052333331   F   F   F
  0.7499999404149307  0.8124999999834799  0.3605200052333331   F   F   F
  0.7499999404149307  0.5625000000092442  0.3605200052333331   F   F   F
  0.7499999404149307  0.3124999999901945  0.3605200052333331   F   F   F
  0.7499999404149307  0.0625000000159659  0.3605200052333331   F   F   F
  0.4166666269218169  0.8124999999834799  0.3605200052333331   F   F   F
  0.4166666269218169  0.5625000000092442  0.3605200052333331   F   F   F
  0.4166666269218169  0.3124999999901945  0.3605200052333331   F   F   F
  0.4166666269218169  0.0625000000159659  0.3605200052333331   F   F   F
  0.0833333358191695  0.8124999999834799  0.3605200052333331   F   F   F
  0.4166666269218169  0.1875000000030838  0.3605200052333331   F   F   F
  0.0833333358191695  0.9375000000154046  0.3605200052333331   F   F   F
  0.0833333358191695  0.6874999999963620  0.3605200052333331   F   F   F
  0.0833333358191695  0.4374999701794380  0.3605200052333331   F   F   F
  0.8333332538436267  0.4999999999932783  0.4070133268666680   F   F   F
  0.8333332538436267  0.7500000000123208  0.4070133268666680   F   F   F
  0.0836856156196922  0.0618890121418690  0.4542154775765645   T   T   T
  0.0835719199758603  0.3119957932074334  0.4539841187528317   T   T   T
  0.0839221787015357  0.5624922773985755  0.4538677442241354   T   T   T
  0.0834950257547136  0.8121204625901889  0.4541710297071576   T   T   T
  0.4168729061768713  0.0615344535224339  0.4553687749233697   T   T   T
  0.4155268382573521  0.3113207882310483  0.4573625816884976   T   T   T
  0.4160850950013192  0.5595137328271960  0.4578583586093309   T   T   T
  0.4166171883974451  0.8099561579888386  0.4551030524900379   T   T   T
  0.7496054687184608  0.0640541700379878  0.4533693622470735   T   T   T
  0.7474292259054914  0.3142156039069442  0.4546682870490631   T   T   T
  0.7481483902855854  0.5644393455905730  0.4535820644475190   T   T   T
  0.7490470634377189  0.8134506724322274  0.4528630034728750   T   T   T
  0.2505217996906826  0.0620309899900517  0.4542286211749675   T   T   T
  0.9153906066785283  0.3128121794599509  0.5468582785443202   T   T   T
  0.2522039802693344  0.3143842576853232  0.4539328167987285   T   T   T
  0.2518895005253101  0.5647655391162011  0.4536506070206207   T   T   T
  0.2506031401339551  0.8107478725802562  0.4553587382231962   T   T   T
  0.8333332538436267  0.2500000000190425  0.4070133268666680   F   F   F
  0.5841473392626508  0.3148005299985636  0.4540394498469764   T   T   T
  0.8333332538436267  0.0000000000000000  0.4070133268666680   F   F   F
  0.5000000000021103  0.4999999999932783  0.4070133268666680   F   F   F
  0.0833333358191695  0.1875000000030838  0.3605200052333331   F   F   F
  0.0000000000000000  0.0000000000000000  0.4070133268666680   F   F   F
  0.0000000000000000  0.2500000000190425  0.4070133268666680   F   F   F
  0.0000000000000000  0.4999999999932783  0.4070133268666680   F   F   F
  0.0000000000000000  0.7500000000123208  0.4070133268666680   F   F   F
  0.3333333432766779  0.0000000000000000  0.4070133268666680   F   F   F
  0.3333333432766779  0.2500000000190425  0.4070133268666680   F   F   F
  0.3333333432766779  0.4999999999932783  0.4070133268666680   F   F   F
  0.3333333432766779  0.7500000000123208  0.4070133268666680   F   F   F
  0.6666666865533486  0.0000000000000000  0.4070133268666680   F   F   F
  0.6666666865533486  0.2500000000190425  0.4070133268666680   F   F   F
  0.6666666865533486  0.4999999999932783  0.4070133268666680   F   F   F
  0.6666666865533486  0.7500000000123208  0.4070133268666680   F   F   F
  0.1666666716383389  0.0000000000000000  0.4070133268666680   F   F   F
  0.1666666716383389  0.2500000000190425  0.4070133268666680   F   F   F
  0.1666666716383389  0.4999999999932783  0.4070133268666680   F   F   F
  0.1666666716383389  0.7500000000123208  0.4070133268666680   F   F   F
  0.5000000000021103  0.0000000000000000  0.4070133268666680   F   F   F
  0.5000000000021103  0.2500000000190425  0.4070133268666680   F   F   F
  0.5000000000021103  0.7500000000123208  0.4070133268666680   F   F   F
  0.1670653198850326  0.1243115488169862  0.4993367971289293   T   T   T
  0.9177337373160516  0.0632880187041451  0.5475226265911999   T   T   T
  0.1678514630149935  0.8732148201900062  0.4999296399361198   T   T   T
  0.2519013953551560  0.1880561028432200  0.5474172606586796   T   T   T
  0.7495081048848584  0.9341208513909479  0.5476200435951963   T   T   T
  0.7517695116556612  0.6803105000200782  0.5530112374163267   T   T   T
  0.7524366917189106  0.4343907801687720  0.5499155302121000   T   T   T
  0.4231302181141222  0.4439111057677372  0.5454998574067346   T   T   T
  0.4235086859621948  0.6880494348125838  0.5464890813888211   T   T   T
  0.7484024244118106  0.1836158895287999  0.5506993279047678   T   T   T
  0.4160976737463359  0.9369080953741094  0.5461111841457622   T   T   T
  0.0841057992796647  0.9384112891412117  0.5461140902919619   T   T   T
  0.4157166954985039  0.1914808906466525  0.5465360704322112   T   T   T
  0.0865263758267131  0.6896890098607693  0.5451033494305124   T   T   T
  0.0821440006671121  0.4387438293761460  0.5448441267310491   T   T   T
  0.0836174159697023  0.1889833171751272  0.5454784519959534   T   T   T
  0.4994741596856531  0.1255781297863281  0.4996327553478624   T   T   T
  0.9995094448740448  0.5011049091710088  0.5943309598650666   T   T   T
  0.9993977836536169  0.7527822337513200  0.5922178226062463   T   T   T
  0.3347935715400885  0.2542771694986961  0.5928456195964447   T   T   T
  0.3340132768461260  0.9997708939407925  0.5920761366020594   T   T   T
 -0.0001345393383071  0.9991683503655817  0.5931609696417048   T   T   T
  0.0007600494369623  0.2499973285081134  0.5918886479458941   T   T   T
  0.3331546580146202  0.4964708432607811  0.5906058146224131   T   T   T
  0.3361325905989975  0.7411394393682802  0.5904626313123453   T   T   T
  0.6632759499029564  0.2472595045232311  0.5909374791777332   T   T   T
  0.6657386444902842  0.0003370018483681  0.5918895058281480   T   T   T
  0.6663950579826921  0.7414198312740490  0.5910220316020903   T   T   T
  0.6667973264006352  0.4941629014774386  0.5911373960078860   T   T   T
  0.1674833042548444  0.9984099633982565  0.5923492967113090   T   T   T
  0.1684498090578700  0.2489650463945341  0.5931747298230248   T   T   T
  0.1708206202698891  0.7501333731220547  0.5950634001891103   T   T   T
  0.2486665314579935  0.4357953341219566  0.5487793010429088   T   T   T
  0.1653669561468015  0.5023307717713703  0.5868244751168392   T   T   T
  0.2493249662744201  0.6832583852466519  0.5520368271481270   T   T   T
  0.5808281632075630  0.1860100417339356  0.5494504334544419   T   T   T
  0.9155514158846693  0.8129322055157014  0.5468284150344467   T   T   T
  0.9170173580763421  0.5639616322285317  0.5467223153536275   T   T   T
  0.5812079589052741  0.5602844878175106  0.5490174594534803   T   T   T
  0.5868537493986772  0.8150451084551158  0.5509032606609658   T   T   T
  0.5830827508544818  0.3118042643060785  0.5456075061487355   T   T   T
  0.5826485192380589  0.0632992633576503  0.5468672639953027   T   T   T
  0.2534248020051773  0.8125119786786200  0.5507973439269744   T   T   T
  0.2523287497767314  0.5590375243727139  0.5436886640352389   T   T   T
  0.2495464549199218  0.3137155654065333  0.5459744376831271   T   T   T
  0.2511422249624760  0.0623447430417087  0.5471978839637561   T   T   T
  0.7479537745999628  0.8079402726092089  0.5453488812516155   T   T   T
  0.7465723359658719  0.5574957945220381  0.5443453540204488   T   T   T
  0.4146715098969834  0.8115795098176913  0.5478088502292103   T   T   T
  0.7482494295654254  0.0596871991581019  0.5445156638509813   T   T   T
  0.7477398268403704  0.3111114828643259  0.5478627382170790   T   T   T
  0.4159673325918329  0.3197416322898308  0.5525899976957128   T   T   T
  0.4199830337460586  0.5651037781889421  0.5551822230760587   T   T   T
  0.4165333411653741  0.0653208538551878  0.5473406962318551   T   T   T
  0.0848648239314876  0.8127471577461617  0.5473052652153977   T   T   T
  0.0821745808945559  0.5644023398857999  0.5461896899552960   T   T   T
  0.0863988838584568  0.3135303899423891  0.5469005063166172   T   T   T
  0.0823641834872936  0.0631531801305409  0.5475795965040214   T   T   T
  0.9157440024567257  0.9385816242949488  0.5463646067569408   T   T   T
  0.9133184632369111  0.6894096846429721  0.5449866392241985   T   T   T
  0.5832478493127545  0.9386471049927799  0.5455863197983752   T   T   T
  0.9168999538574334  0.1889957140062928  0.5454018379519482   T   T   T
  0.9159465313913099  0.4376569215337852  0.5457725468680502   T   T   T
  0.5764674366930429  0.4363016044173633  0.5516628758083203   T   T   T
  0.5797640768665815  0.6864867281563805  0.5474085546090367   T   T   T
  0.2515169709963054  0.9372587086204471  0.5453102311385408   T   T   T
  0.4974499882517673  0.5046743317468020  0.6086661052857057   T   T   T
  0.4987742126762102  0.2533386320985961  0.5903091372562036   T   T   T
  0.4994971109855456  0.0000726635730003  0.5911417887312497   T   T   T
  0.7545544669502663  0.6933637445276279  0.6576177396577196   T   T   T
  0.7483400275584319  0.9368275125739546  0.6399605390900031   T   T   T
  0.2534021061571762  0.1864837304013719  0.6414486170640745   T   T   T
  0.7457794798738376  0.1939252474992063  0.6465218031451091   T   T   T
  0.7555320033076185  0.4360698361754354  0.6394471425343216   T   T   T
  0.4174116118825974  0.9347552787591881  0.6398978104594460   T   T   T
  0.4214027740317396  0.6754301011318524  0.6329554750930158   T   T   T
  0.5910181874899288  0.8098743035949367  0.6468540241233590   T   T   T
  0.9160117250797362  0.0625746114515985  0.6417746369908551   T   T   T
  0.9125140228938771  0.5616446029735976  0.6419957507045841   T   T   T
  0.9150326368992747  0.3118390234012801  0.6396324928802658   T   T   T
  0.9141551494568809  0.8132546730844490  0.6415077637259355   T   T   T
  0.5821648075447853  0.0654905820884461  0.6398297708392768   T   T   T
  0.5833600124160752  0.3202459477392018  0.6342187653997371   T   T   T
  0.5912975249648241  0.5650487908927364  0.6391760361679432   T   T   T
  0.2468968923487120  0.5733213503373857  0.6284404565884749   T   T   T
  0.2621656816396876  0.7988691748019513  0.6465316157225083   T   T   T
  0.2493571703259462  0.3161110068639582  0.6417136084931323   T   T   T
  0.2510059152173820  0.0594291740916125  0.6423178791462524   T   T   T
  0.9166666865332829  0.5625000000092442  0.3605200052333331   F   F   F
  0.4995626588695807  0.3741651779552868  0.4997274080080879   T   T   T
  0.5001857327489824  0.8727718729790420  0.5008698078327765   T   T   T
  0.5004407374316442  0.6212088367285498  0.5000221715004849   T   T   T
  0.8323130559826578  0.6230261150450254  0.4999726341227410   T   T   T
  0.8327222243639455  0.8742366283003299  0.4985970987118496   T   T   T
  0.8324023490187479  0.3731453124683228  0.4997653614962166   T   T   T
  0.8329144206036500  0.1244993222655456  0.4997797082580356   T   T   T
  0.1667024042679260  0.3762572214374776  0.4978448319446566   T   T   T
  0.1677525075390805  0.6243321439032170  0.5000023716595230   T   T   T
  0.5815106623661349  0.4391845600585982  0.6459039042667666   T   T   T
  0.5791304854767915  0.6850947138356438  0.6396619656871573   T   T   T
  0.9170589734834221  0.1865595679436047  0.6406067352910614   T   T   T
  0.5816946295606109  0.9351546535573158  0.6389912885390443   T   T   T
  0.8303633230266991  0.7507879919137040  0.5927364029450145   T   T   T
  0.8314837046228173  0.2481830059253041  0.5913912779300887   T   T   T
  0.8330769682210837  0.5033194965525031  0.5890215143664356   T   T   T
  0.8322084428622697  0.0020653008446204  0.5922972632556178   T   T   T
  0.5019736400995670  0.7566147966967504  0.5928617618888764   T   T   T
  0.4177001468669136  0.0652781659154026  0.6401283474594222   T   T   T
  0.4273861596682090  0.3054051855963997  0.6548225821805351   T   T   T
  0.4136246709458051  0.8122148559474169  0.6396814104407622   T   T   T
  0.3968587336163511  0.5506360450157710  0.6517894768791446   T   T   T
  0.7518549673509418  0.5710367942472447  0.6340647992869727   T   T   T
  0.7417568864911309  0.8106243566746992  0.6397700479632731   T   T   T
  0.7462072067533099  0.3123592712956175  0.6402555856850579   T   T   T
  0.7475892054376706  0.0671367409667078  0.6389508052576794   T   T   T
  0.0837655129260607  0.3117771211529751  0.6403975788978686   T   T   T
  0.6665910712246987  0.8750157976729118  0.4991672353282441   T   T   T
  0.0874183953461804  0.5621936464469228  0.6409211772208775   T   T   T
  0.0843036735949975  0.0604488056491585  0.6421717595919316   T   T   T
  0.0865296598656722  0.4364254976403510  0.6391597621854360   T   T   T
  0.0835313101167107  0.1857095812467307  0.6409787714085299   T   T   T
  0.4193460767269290  0.1888304542636990  0.6402412992366195   T   T   T
  0.4148386204431490  0.4192851456351541  0.6297777366217064   T   T   T
  0.0842813994097536  0.9354864239656693  0.6408297852356724   T   T   T
  0.0831357022648978  0.6869068836417815  0.6391063006608488   T   T   T
  0.9126380379380742  0.4359193518367251  0.6395529159180133   T   T   T
  0.9159784669325500  0.6873432611633149  0.6391715002519106   T   T   T
  0.9144231761350966  0.9371663612793686  0.6410049624021484   T   T   T
  0.2404827406453024  0.4416727876658330  0.6409678651674664   T   T   T
  0.2581381851459877  0.6765961045485229  0.6617624179287215   T   T   T
  0.5781175839896180  0.1907964993162934  0.6444401961996391   T   T   T
  0.2519413644022592  0.9301250477240495  0.6373906307781032   T   T   T
  0.0839507949048071  0.8120093817519586  0.6419017754114292   T   T   T
  0.9166666865332829  0.8124999999834799  0.3605200052333331   F   F   F
  0.0007082082363337  0.1225603358238900  0.6197677198951774   T   T   T
  0.8333332538436267  0.6249999999803961  0.4070133268666680   F   F   F
  0.9994588538482395  0.5007051493179372  0.5069582235750090   T   T   T
  0.3311890795587010  0.4992187502522458  0.5007260734171517   T   T   T
  0.3300517418009541  0.2480041470675849  0.5028385946412257   T   T   T
  0.3331871790154527  0.0010223362045678  0.5059006463058739   T   T   T
  0.3338025590559612  0.7511450981534300  0.5014193233359634   T   T   T
  0.6658110997490128  0.0001284007149543  0.5055509103436115   T   T   T
  0.6684666636985915  0.4997332435757157  0.5005559999868732   T   T   T
  0.6669180820583368  0.2477205629112350  0.5030269672685033   T   T   T
  0.6652121215519134  0.7518566802195510  0.5023481170419666   T   T   T
  0.1659677948188370  0.0011119937587149  0.5065548547826569   T   T   T
  0.1662966966067331  0.2481865181379979  0.5062689684347115   T   T   T
  0.1632960818297778  0.4998136262779884  0.5017770999703698   T   T   T
  0.5001223312991374  0.9994328591564817  0.5055237130471970   T   T   T
  0.1643469004915465  0.7515882787531030  0.5032152716263564   T   T   T
  0.5010499691408250  0.7527527768485686  0.5038882676828058   T   T   T
  0.8342557518771190  0.0003690376008595  0.5065002206179716   T   T   T
  0.5012711403103791  0.4997806207818650  0.5001888967914524   T   T   T
  0.5010716145534984  0.2478551302848543  0.5020342303537897   T   T   T
  0.8355049690499096  0.2484539994635244  0.5031518517953154   T   T   T
  0.9997037396795138  0.7509244416550884  0.5065097341878363   T   T   T
  0.0007533506005038  0.2497660081983858  0.5058755381817641   T   T   T
  0.0000694025270754  0.9999560963444361  0.5066837946092668   T   T   T
  0.8333332538436267  0.8749999404036828  0.4070133268666680   F   F   F
  0.0000000000000000  0.6249999999803961  0.4070133268666680   F   F   F
  0.0000000000000000  0.8749999404036828  0.4070133268666680   F   F   F
  0.3333333432766779  0.1249999999871179  0.4070133268666680   F   F   F
  0.3333333432766779  0.3750000000061604  0.4070133268666680   F   F   F
  0.3333333432766779  0.6249999999803961  0.4070133268666680   F   F   F
  0.3333333432766779  0.8749999404036828  0.4070133268666680   F   F   F
  0.6666666865533486  0.1249999999871179  0.4070133268666680   F   F   F
  0.6666666865533486  0.3750000000061604  0.4070133268666680   F   F   F
  0.6666666865533486  0.6249999999803961  0.4070133268666680   F   F   F
  0.8360856698538464  0.4999442170689560  0.5028397763773914   T   T   T
  0.6666666865533486  0.8749999404036828  0.4070133268666680   F   F   F
  0.1666666716383389  0.3750000000061604  0.4070133268666680   F   F   F
  0.1666666716383389  0.6249999999803961  0.4070133268666680   F   F   F
  0.1666666716383389  0.8749999404036828  0.4070133268666680   F   F   F
  0.5000000000021103  0.1249999999871179  0.4070133268666680   F   F   F
  0.5000000000021103  0.3750000000061604  0.4070133268666680   F   F   F
  0.5000000000021103  0.6249999999803961  0.4070133268666680   F   F   F
  0.5000000000021103  0.8749999404036828  0.4070133268666680   F   F   F
  0.8333332538436267  0.1249999999871179  0.4070133268666680   F   F   F
  0.8333332538436267  0.3750000000061604  0.4070133268666680   F   F   F
  0.1666666716383389  0.1249999999871179  0.4070133268666680   F   F   F
  0.0000000000000000  0.3750000000061604  0.4070133268666680   F   F   F
  0.8357903202064104  0.7518294743309579  0.5025979165565282   T   T   T
  0.8368263807719187  0.3724691673387754  0.6045178406342893   T   T   T
  0.8321200464423462  0.8761806621363669  0.6181652117012948   T   T   T
  0.8396987283438545  0.6269661532511364  0.6030664713016327   T   T   T
  0.9990321465443603  0.8750917021154445  0.6220947655229451   T   T   T
  0.3317759132530615  0.1201065948025908  0.6138221531364357   T   T   T
  0.3338461190531508  0.6243214718181080  0.5951956873867368   T   T   T
  0.3257833652847297  0.3735738397109930  0.5927121567764931   T   T   T
  0.6707075873159923  0.3721074678422069  0.5940407915002187   T   T   T
  0.6650841076035457  0.1244012770140705  0.6113831130209380   T   T   T
  0.3346041352195498  0.8784936574330439  0.6031632118433751   T   T   T
  0.1591425458176743  0.6271654964221075  0.6009488875591450   T   T   T
  0.1659240873473041  0.8733212732690329  0.6179259379655541   T   T   T
  0.5016506052214240  0.3715005007205041  0.5949851228402998   T   T   T
  0.5001911562174566  0.1219400509824534  0.6061392680666959   T   T   T
  0.1676243922465969  0.1227789392179175  0.6220935032772156   T   T   T
  0.1631705608219984  0.3712146948678243  0.6076499027180685   T   T   T
  0.6650454614696766  0.8807718177534454  0.6072345808717624   T   T   T
  0.6661301332514398  0.6262430323969023  0.5930491520238108   T   T   T
  0.9999392220933354  0.3745179606504997  0.6226617407734162   T   T   T
  0.9994984023918692  0.6219256260979831  0.6325213825420800   T   T   T
  0.8336137861737932  0.1248282784694657  0.6193626150129646   T   T   T
  0.5003807689270476  0.8765696341767142  0.6091276299660863   T   T   T
  0.0000000000000000  0.1249999999871179  0.4070133268666680   F   F   F
  0.5039181588161599  0.6247402282574051  0.5936076497975498   T   T   T
  0.9162539569053887  0.0003199294199456  0.6038577829126107   T   T   T
  0.5836953622743625  0.7493188320662247  0.6000399131872339   T   T   T
  0.5905131907828074  0.5009039092064288  0.5933814709417545   T   T   T
  0.2422904386533365  0.4976992049416721  0.5934039186991491   T   T   T
  0.2489975433387801  0.7525493819313315  0.5920421393275567   T   T   T
  0.5839040137958034  0.2475143194673184  0.5971122577126292   T   T   T
  0.5824769544018719  0.0008983574823214  0.6043645711550770   T   T   T
  0.2497387111948806  0.9976872521371590  0.6042176005766486   T   T   T
  0.2489346135182884  0.2456543428099398  0.6037342429515742   T   T   T
  0.4170465899212135  0.0000698497696250  0.6050114619157348   T   T   T
  0.4146809162925970  0.2488294211524420  0.5911921290234886   T   T   T
  0.4156080198380835  0.7501290095845428  0.5941533421234287   T   T   T
  0.7563188636348113  0.5025871352282690  0.5949294792831418   T   T   T
  0.7512660024040809  0.7527657277552336  0.5904548508531203   T   T   T
  0.7537609227458529  0.2480655475981780  0.5938026375598285   T   T   T
  0.7494884844970011  0.0017083516567253  0.6041679909638222   T   T   T
  0.0833340702286129  0.2480710848687898  0.6035790168506501   T   T   T
  0.0814071828428357  0.5001363830342689  0.6030509837095233   T   T   T
  0.0802455226530154  0.7510596332963815  0.6031273845206163   T   T   T
  0.0835586002708088  0.9986801733720189  0.6037367417568714   T   T   T