Au  O Sr Ti  H                          
   1.00000000000000     
    23.6707801818999997    0.0000000000000000    0.0000000000000000
     0.0000000000000000   22.3170261383000010    0.0000000000000000
     0.0000000000000000    0.0000000000000000   30.0000000000000000
   Au   O    Sr   Ti   H 
    50   264    72    72     1
Selective dynamics
Direct
  0.7177713200607138  0.5274680581767246  0.7542779109113265   T   T   T
  0.6240986694603052  0.5682179191458030  0.7032197805389424   T   T   T
  0.7180360237362589  0.2575878645180180  0.6908150809303868   T   T   T
  0.2945771652996826  0.7462161258322593  0.6970771172260154   T   T   T
  0.5086961345829567  0.6019416095069879  0.7776726645319177   T   T   T
  0.5765776745519468  0.7208021957862530  0.7930470159820446   T   T   T
  0.5479588117785058  0.3805679693919599  0.8250730162648171   T   T   T
  0.2402636936120066  0.4687651986116644  0.7082632545679355   T   T   T
  0.2836049061109937  0.6614768339355740  0.7647049198194200   T   T   T
  0.6057807841620105  0.2849076032925384  0.7858333038192739   T   T   T
  0.5146573138484848  0.4853066992481803  0.6774783016799331   T   T   T
  0.5615159083992290  0.4851743643464858  0.7620583805694563   T   T   T
  0.4630738075982789  0.6948962498810934  0.8307859189182060   T   T   T
  0.7646653835793608  0.4332158103432471  0.7060205437759028   T   T   T
  0.7331866599001826  0.6164959772468980  0.6930376278816592   T   T   T
  0.6327406276655253  0.5848722029727703  0.7977682656932165   T   T   T
  0.5959898550077669  0.7827819138195441  0.7137594549116788   T   T   T
  0.4847155507803747  0.7763066555400048  0.7570014804156695   T   T   T
  0.3497149546074164  0.4989081495821501  0.6979813227020444   T   T   T
  0.4293286222544576  0.3729230751236528  0.8153216923975862   T   T   T
  0.3728589662463484  0.2991002542881347  0.7553659967204145   T   T   T
  0.4475023461595358  0.2299677683033093  0.6957800760890245   T   T   T
  0.3918646284051611  0.8178939579251155  0.7071678086553729   T   T   T
  0.2876408823245299  0.5368930423540430  0.7774585407858783   T   T   T
  0.5592099188575258  0.2077548941748792  0.7128595991081358   T   T   T
  0.4514108234070124  0.5798866639911826  0.7018761354731314   T   T   T
  0.6140861210697522  0.3207610540535656  0.6971908396378352   T   T   T
  0.7061187089988543  0.7578186221007087  0.6885711906565688   T   T   T
  0.6539179092628642  0.4355333189642198  0.8085199323946136   T   T   T
  0.3696614971109257  0.6172408510927558  0.8170785158251497   T   T   T
  0.5773746760091276  0.5078774741439745  0.8552391136382796   T   T   T
  0.6676222850278126  0.1886749722983263  0.7504592925396028   T   T   T
  0.4738099783524322  0.4496156181712676  0.8770021570984926   T   T   T
  0.5146165429984847  0.3781817885191742  0.7294778705988134   T   T   T
  0.2839091727393828  0.3379044243381457  0.7026932149243936   T   T   T
  0.6697199085901395  0.6815744036730735  0.7489307085009747   T   T   T
  0.3971654809194031  0.3822171501627086  0.6900584785328174   T   T   T
  0.3741052349404035  0.4922470064551467  0.8329286406683910   T   T   T
  0.4602273564520225  0.5733689547773554  0.8685831834587232   T   T   T
  0.3253994195486794  0.4140661630587876  0.7686174130215481   T   T   T
  0.4885538218700806  0.2717334599147567  0.7747334521116520   T   T   T
  0.4208978391331142  0.6981100344248575  0.6984548198718248   T   T   T
  0.7025141758953437  0.3446068737000045  0.7556746686096825   T   T   T
  0.7735104792971740  0.4307635714178358  0.7957796762221158   T   T   T
  0.2566741192291686  0.5919877272155222  0.6942593617016679   T   T   T
  0.6475693661245749  0.4425152163363259  0.6977015379244280   T   T   T
  0.5633011407203220  0.6373485648002710  0.8626742485879119   T   T   T
  0.5421376153012828  0.6636368125022246  0.7019143442127146   T   T   T
  0.4428306383625454  0.4763158202352266  0.7569442412448478   T   T   T
  0.3727748018190405  0.7380890617687639  0.7776998322431465   T   T   T
  0.2499442799231652  0.1885762833472313  0.4542869564546884   T   T   T
  0.7495983832779209  0.9383407814684658  0.4551468832672457   T   T   T
  0.7493042102937962  0.6891542446441642  0.4571384989312934   T   T   T
  0.7493234819252887  0.4385176120230705  0.4562667550369853   T   T   T
  0.7503160734514533  0.1897167281226290  0.4555074015704038   T   T   T
  0.4176864090717748  0.9360480730185817  0.4539831780285474   T   T   T
  0.4172600531406120  0.6847100819979109  0.4546494631973460   T   T   T
  0.4167793240443545  0.4350354143698698  0.4538253793163886   T   T   T
  0.0846439157805316  0.6866484340248220  0.4528347310414858   T   T   T
  0.0838304229926583  0.9368515258238049  0.4536136978026150   T   T   T
  0.0828656983398112  0.4367000779628507  0.4527189939599942   T   T   T
  0.0842267056852221  0.1867026577454206  0.4528275796569123   T   T   T
  0.9172415884105736  0.8122009764712703  0.4541309797514234   T   T   T
  0.9162373334378420  0.5622206936670676  0.4542320502122834   T   T   T
  0.2511007400526870  0.4392278701848836  0.4549652808047857   T   T   T
  0.9164079465573688  0.0617288196377520  0.4542456918379383   T   T   T
  0.9164903506134737  0.3125877381142663  0.4538342836329089   T   T   T
  0.4168967508818969  0.1869790114176461  0.4533378226595153   T   T   T
  0.2521123368852355  0.6876621464922563  0.4559628164733575   T   T   T
  0.9164379438870565  0.9367126024697747  0.4535581421632190   T   T   T
  0.5830931775468291  0.1892847915074920  0.4551593918763443   T   T   T
 -0.0000454944528961  0.1249603231230896  0.4983312247939146   T   T   T
  0.5835498148956013  0.8099309375473948  0.4557635514592772   T   T   T
 -0.0001706284242138  0.3739335653412411  0.4985654800865792   T   T   T
  0.0002768730666838  0.6276195474369252  0.4976016734210295   T   T   T
  0.3336055966425600  0.1255976887312151  0.4983449058639500   T   T   T
 -0.0002751990379034  0.8751843810620720  0.4997389612024631   T   T   T
  0.3332150534798192  0.8742966581946343  0.4991738317509263   T   T   T
  0.6659113421688647  0.1261640811743192  0.4991079431788732   T   T   T
  0.3356121105132898  0.6254952978765453  0.5033312266967352   T   T   T
  0.3341709979232990  0.3781169945022672  0.5027096281478680   T   T   T
  0.6652647438671178  0.3784379333659244  0.5029489505826549   T   T   T
  0.9152371357006333  0.6868434818700322  0.4531727774747940   T   T   T
  0.9156656386851794  0.4368424155010147  0.4536516773647650   T   T   T
  0.9156106904422934  0.1864458835718225  0.4534156580188793   T   T   T
  0.5829302088252296  0.9363203240184634  0.4541417203149845   T   T   T
  0.5824880064386254  0.6858481053325123  0.4546739844898418   T   T   T
  0.5828884184290805  0.4396021015792466  0.4564887704647251   T   T   T
  0.2501571769794168  0.9361475014300790  0.4542378414445432   T   T   T
  0.6654043816343591  0.6260046210419741  0.5029363256501197   T   T   T
  0.5845162726390101  0.5629949693595491  0.4549863534682455   T   T   T
  0.5832273774600906  0.0628081282160077  0.4543924580136771   T   T   T
  0.9166666865332829  0.6874999999963620  0.3605200052333331   F   F   F
  0.9166666865332829  0.4374999701794380  0.3605200052333331   F   F   F
  0.9166666865332829  0.1875000000030838  0.3605200052333331   F   F   F
  0.5833333134730552  0.9375000000154046  0.3605200052333331   F   F   F
  0.5833333134730552  0.6874999999963620  0.3605200052333331   F   F   F
  0.5833333134730552  0.4374999701794380  0.3605200052333331   F   F   F
  0.5833333134730552  0.1875000000030838  0.3605200052333331   F   F   F
  0.2499999999799343  0.9375000000154046  0.3605200052333331   F   F   F
  0.9166666865332829  0.9375000000154046  0.3605200052333331   F   F   F
  0.2499999999799343  0.6874999999963620  0.3605200052333331   F   F   F
  0.2499999999799343  0.1875000000030838  0.3605200052333331   F   F   F
  0.7499999404149307  0.9375000000154046  0.3605200052333331   F   F   F
  0.7499999404149307  0.6874999999963620  0.3605200052333331   F   F   F
  0.7499999404149307  0.4374999701794380  0.3605200052333331   F   F   F
  0.7499999404149307  0.1875000000030838  0.3605200052333331   F   F   F
  0.4166666269218169  0.9375000000154046  0.3605200052333331   F   F   F
  0.4166666269218169  0.6874999999963620  0.3605200052333331   F   F   F
  0.4166666269218169  0.4374999701794380  0.3605200052333331   F   F   F
  0.2499999999799343  0.4374999701794380  0.3605200052333331   F   F   F
  0.0833333358191695  0.0625000000159659  0.3605200052333331   F   F   F
  0.0833333358191695  0.3124999999901945  0.3605200052333331   F   F   F
  0.0833333358191695  0.5625000000092442  0.3605200052333331   F   F   F
  0.9166666865332829  0.3124999999901945  0.3605200052333331   F   F   F
  0.9166666865332829  0.0625000000159659  0.3605200052333331   F   F   F
  0.5833333134730552  0.8124999999834799  0.3605200052333331   F   F   F
  0.5833333134730552  0.5625000000092442  0.3605200052333331   F   F   F
  0.5833333134730552  0.3124999999901945  0.3605200052333331   F   F   F
  0.5833333134730552  0.0625000000159659  0.3605200052333331   F   F   F
  0.2499999999799343  0.8124999999834799  0.3605200052333331   F   F   F
  0.2499999999799343  0.5625000000092442  0.3605200052333331   F   F   F
  0.2499999999799343  0.3124999999901945  0.3605200052333331   F   F   F
  0.2499999999799343  0.0625000000159659  0.3605200052333331   F   F   F
  0.7499999404149307  0.8124999999834799  0.3605200052333331   F   F   F
  0.7499999404149307  0.5625000000092442  0.3605200052333331   F   F   F
  0.7499999404149307  0.3124999999901945  0.3605200052333331   F   F   F
  0.7499999404149307  0.0625000000159659  0.3605200052333331   F   F   F
  0.4166666269218169  0.8124999999834799  0.3605200052333331   F   F   F
  0.4166666269218169  0.5625000000092442  0.3605200052333331   F   F   F
  0.4166666269218169  0.3124999999901945  0.3605200052333331   F   F   F
  0.4166666269218169  0.0625000000159659  0.3605200052333331   F   F   F
  0.0833333358191695  0.8124999999834799  0.3605200052333331   F   F   F
  0.4166666269218169  0.1875000000030838  0.3605200052333331   F   F   F
  0.0833333358191695  0.9375000000154046  0.3605200052333331   F   F   F
  0.0833333358191695  0.6874999999963620  0.3605200052333331   F   F   F
  0.0833333358191695  0.4374999701794380  0.3605200052333331   F   F   F
  0.8333332538436267  0.4999999999932783  0.4070133268666680   F   F   F
  0.8333332538436267  0.7500000000123208  0.4070133268666680   F   F   F
  0.0834604677683464  0.0618532245313719  0.4542017605118033   T   T   T
  0.0832074432676999  0.3119769511668515  0.4537861080073366   T   T   T
  0.0842704629984508  0.5623102048053301  0.4538336771798615   T   T   T
  0.0835417804566123  0.8120591311418035  0.4541631336739356   T   T   T
  0.4168150110526248  0.0616629530950448  0.4553412290553616   T   T   T
  0.4153598376939074  0.3116245594659004  0.4573517859088273   T   T   T
  0.4163399286208207  0.5596678114404099  0.4578810391384081   T   T   T
  0.4167941074881752  0.8099814604552574  0.4547193374389793   T   T   T
  0.7492844749671722  0.0639299959337335  0.4532957634856478   T   T   T
  0.7476005100045314  0.3143703782690589  0.4549404868806195   T   T   T
  0.7481425571810637  0.5644106914621241  0.4534768429159776   T   T   T
  0.7489006679599897  0.8132616666475270  0.4528111642138784   T   T   T
  0.2506005543802496  0.0619585039091766  0.4541055490072073   T   T   T
  0.9150568520162859  0.3129448869498326  0.5469176175829438   T   T   T
  0.2523329441454755  0.3139648955825616  0.4539406347420952   T   T   T
  0.2517065234501394  0.5648588597384748  0.4536724308667283   T   T   T
  0.2509733824425320  0.8112675634150867  0.4551981692167335   T   T   T
  0.8333332538436267  0.2500000000190425  0.4070133268666680   F   F   F
  0.5845294448492854  0.3146159061278883  0.4540032620091750   T   T   T
  0.8333332538436267  0.0000000000000000  0.4070133268666680   F   F   F
  0.5000000000021103  0.4999999999932783  0.4070133268666680   F   F   F
  0.0833333358191695  0.1875000000030838  0.3605200052333331   F   F   F
  0.0000000000000000  0.0000000000000000  0.4070133268666680   F   F   F
  0.0000000000000000  0.2500000000190425  0.4070133268666680   F   F   F
  0.0000000000000000  0.4999999999932783  0.4070133268666680   F   F   F
  0.0000000000000000  0.7500000000123208  0.4070133268666680   F   F   F
  0.3333333432766779  0.0000000000000000  0.4070133268666680   F   F   F
  0.3333333432766779  0.2500000000190425  0.4070133268666680   F   F   F
  0.3333333432766779  0.4999999999932783  0.4070133268666680   F   F   F
  0.3333333432766779  0.7500000000123208  0.4070133268666680   F   F   F
  0.6666666865533486  0.0000000000000000  0.4070133268666680   F   F   F
  0.6666666865533486  0.2500000000190425  0.4070133268666680   F   F   F
  0.6666666865533486  0.4999999999932783  0.4070133268666680   F   F   F
  0.6666666865533486  0.7500000000123208  0.4070133268666680   F   F   F
  0.1666666716383389  0.0000000000000000  0.4070133268666680   F   F   F
  0.1666666716383389  0.2500000000190425  0.4070133268666680   F   F   F
  0.1666666716383389  0.4999999999932783  0.4070133268666680   F   F   F
  0.1666666716383389  0.7500000000123208  0.4070133268666680   F   F   F
  0.5000000000021103  0.0000000000000000  0.4070133268666680   F   F   F
  0.5000000000021103  0.2500000000190425  0.4070133268666680   F   F   F
  0.5000000000021103  0.7500000000123208  0.4070133268666680   F   F   F
  0.1668619200589301  0.1244083139894706  0.4992930312760219   T   T   T
  0.9178756254833071  0.0630116130618811  0.5475197990998588   T   T   T
  0.1675802162433462  0.8729439989065828  0.4999225543945721   T   T   T
  0.2520889143751679  0.1880185769171356  0.5474281185493804   T   T   T
  0.7495219898218608  0.9341013682719592  0.5477541252104828   T   T   T
  0.7515330964650605  0.6804077104172287  0.5527339631722826   T   T   T
  0.7522571703892704  0.4342456906947635  0.5501360422066242   T   T   T
  0.4228448625086996  0.4437435821814167  0.5454999554504671   T   T   T
  0.4236143560467969  0.6882373583300265  0.5465060934457916   T   T   T
  0.7480211559581417  0.1833573452178279  0.5507978998667109   T   T   T
  0.4162051697415438  0.9368335713634302  0.5458317151734466   T   T   T
  0.0837233686327490  0.9384972331105718  0.5458462481155880   T   T   T
  0.4154493037834887  0.1911009427291253  0.5466100235571791   T   T   T
  0.0869674037587265  0.6896801206288132  0.5447048757962226   T   T   T
  0.0812211726655072  0.4389225148389027  0.5444281436679729   T   T   T
  0.0840937287402201  0.1885915800651557  0.5457022227428318   T   T   T
  0.4998293296853292  0.1258073079310325  0.4996449210625825   T   T   T
  0.9997137141241967  0.5026895810553993  0.5945892528887020   T   T   T
  0.9992398935201176  0.7522944098753223  0.5923795903226423   T   T   T
  0.3346884902602685  0.2545926636833877  0.5925717039447854   T   T   T
  0.3342630182482623  0.9998267117873422  0.5920401598467611   T   T   T
  0.0001192232622231  0.9992182984383994  0.5934178546294975   T   T   T
  0.0005296118418987  0.2502249570006778  0.5918664040097399   T   T   T
  0.3332072807466064  0.4961255303149151  0.5905293551728010   T   T   T
  0.3359342294967895  0.7419192031834333  0.5906248830846076   T   T   T
  0.6635418089960492  0.2468563606139400  0.5911418779156500   T   T   T
  0.6655644702391679  0.0002757076433071  0.5919094378479685   T   T   T
  0.6662241418299716  0.7412338186073741  0.5910316551191058   T   T   T
  0.6669348338128228  0.4949353193131806  0.5911744266358159   T   T   T
  0.1673906421591493  0.9982774915980696  0.5921934921153214   T   T   T
  0.1684240347736882  0.2491679096576625  0.5931466359031222   T   T   T
  0.1705932820462930  0.7501467002396291  0.5950144425553128   T   T   T
  0.2484813400174439  0.4355751803501082  0.5484327700051866   T   T   T
  0.1654065045872494  0.5016329544269079  0.5866347020745688   T   T   T
  0.2491678816024447  0.6832249177345983  0.5519761271794185   T   T   T
  0.5810001785300005  0.1860533048364636  0.5493283816333163   T   T   T
  0.9156140180972220  0.8126088550523305  0.5469580168049039   T   T   T
  0.9167794649222361  0.5639096156597817  0.5467578043885331   T   T   T
  0.5812871456808937  0.5600868399722762  0.5488227567448420   T   T   T
  0.5874663035244361  0.8146210527261970  0.5511878394759836   T   T   T
  0.5829260437227610  0.3116195536242211  0.5453296201194665   T   T   T
  0.5825630101095739  0.0633404118435885  0.5470645424641301   T   T   T
  0.2532856406540365  0.8126783455482357  0.5509168214413510   T   T   T
  0.2523039344238537  0.5586264276439774  0.5438560949808919   T   T   T
  0.2491915850823806  0.3135740546419569  0.5459410175946913   T   T   T
  0.2512208811440061  0.0621728153893000  0.5472155091818685   T   T   T
  0.7476141182148154  0.8082770900441443  0.5456180571396243   T   T   T
  0.7469855372028463  0.5578953067202053  0.5441471594277566   T   T   T
  0.4140796151413107  0.8121082656378887  0.5480121662765125   T   T   T
  0.7482949311222654  0.0594415864351157  0.5445184252291349   T   T   T
  0.7478630692764793  0.3110418254063280  0.5477419211863070   T   T   T
  0.4159999083879874  0.3199105978843113  0.5524713246768925   T   T   T
  0.4198623113555546  0.5650353535247270  0.5551483466430355   T   T   T
  0.4160385072057610  0.0656018023062388  0.5471985517751630   T   T   T
  0.0848938505187745  0.8126965208715797  0.5474798418242940   T   T   T
  0.0821874749305801  0.5642689298617073  0.5462111552130369   T   T   T
  0.0864883494525409  0.3134855893644130  0.5467520971744361   T   T   T
  0.0821924727111101  0.0631806429753601  0.5478845330426616   T   T   T
  0.9159374990681499  0.9384060843217724  0.5461594453664990   T   T   T
  0.9129632293515934  0.6893717914218782  0.5449845176552601   T   T   T
  0.5833361601144088  0.9384311949864860  0.5455190021381140   T   T   T
  0.9169564069567899  0.1888141525051993  0.5456932918475943   T   T   T
  0.9159198092294464  0.4382555458191991  0.5455838005509076   T   T   T
  0.5769367738694656  0.4361886982584421  0.5516412795978928   T   T   T
  0.5798539341886537  0.6864739765133503  0.5475408537449911   T   T   T
  0.2517045449917396  0.9377691386313322  0.5451852995850087   T   T   T
  0.4975521603339950  0.5049409186680428  0.6082352491461491   T   T   T
  0.4985428955187987  0.2532517778116228  0.5903058743430045   T   T   T
  0.4995832001302813 -0.0002096496542824  0.5907655889468926   T   T   T
  0.7548116502279981  0.6936606089678924  0.6575241839049438   T   T   T
  0.7483835379802977  0.9368276138478311  0.6396547835458737   T   T   T
  0.2535626395426171  0.1865451894069642  0.6416342148662659   T   T   T
  0.7457862730785599  0.1936198649108183  0.6467406775274064   T   T   T
  0.7556108414610181  0.4360445677072323  0.6397638175408050   T   T   T
  0.4173802527743162  0.9345819230614936  0.6398597376664186   T   T   T
  0.4208367624432236  0.6757310184442947  0.6328154164464173   T   T   T
  0.5910822454193068  0.8095720262393422  0.6474825746945511   T   T   T
  0.9160242977611380  0.0623487244506039  0.6419564414140791   T   T   T
  0.9119754967390808  0.5614329942135140  0.6423951698498436   T   T   T
  0.9147187260468315  0.3118894165710644  0.6394824801457858   T   T   T
  0.9139136632468123  0.8131547077393437  0.6412278278865535   T   T   T
  0.5823287661669824  0.0656705593356390  0.6398169362282160   T   T   T
  0.5829307643483924  0.3202912266790645  0.6338987288134087   T   T   T
  0.5912631839078657  0.5646074503193288  0.6394526108348247   T   T   T
  0.2469711277220043  0.5737066193692425  0.6284920463438808   T   T   T
  0.2621522849832416  0.7987192360324034  0.6465359413935863   T   T   T
  0.2492725223690738  0.3162491895245831  0.6420904254629335   T   T   T
  0.2508801492548150  0.0595554423880120  0.6422116821222479   T   T   T
  0.9166666865332829  0.5625000000092442  0.3605200052333331   F   F   F
  0.4993863673647206  0.3739078565448868  0.4997619303052520   T   T   T
  0.5003198779282368  0.8727336038171095  0.5011025634813064   T   T   T
  0.5000615352852684  0.6210674312385892  0.5004010182937267   T   T   T
  0.8323812518592193  0.6230831845573997  0.5002127866571947   T   T   T
  0.8323809905360399  0.8734543277499487  0.4986009092618244   T   T   T
  0.8324540506470722  0.3732721092782932  0.4995999330640440   T   T   T
  0.8328043650768542  0.1243191995916572  0.4997200678255398   T   T   T
  0.1665744270498482  0.3762889648954652  0.4975982342352215   T   T   T
  0.1679054133679539  0.6243034278226738  0.5001658705553624   T   T   T
  0.5818271216840402  0.4396467575405757  0.6456651350182037   T   T   T
  0.5796484922239076  0.6852826047841722  0.6400598231648507   T   T   T
  0.9173033784859682  0.1870931182802842  0.6404998491340950   T   T   T
  0.5816559857489746  0.9352560947497747  0.6389383524788805   T   T   T
  0.8302593359313672  0.7510663052633972  0.5928505689488625   T   T   T
  0.8315779488928027  0.2484431549803331  0.5915182622745569   T   T   T
  0.8333170519792144  0.5033201562358524  0.5887098138884226   T   T   T
  0.8322968581121725  0.0017989532946545  0.5922971794328179   T   T   T
  0.5023378904451238  0.7569871007902462  0.5927359426207038   T   T   T
  0.4176839933476530  0.0648435431818073  0.6400462667201374   T   T   T
  0.4269013950048008  0.3053681993816025  0.6547349414315058   T   T   T
  0.4136095138545591  0.8119567832074307  0.6398348262087181   T   T   T
  0.3966413454047522  0.5503163953742372  0.6515637011447142   T   T   T
  0.7520646993288370  0.5711183401331347  0.6340803600520252   T   T   T
  0.7414769528456239  0.8102044504180255  0.6401019353007774   T   T   T
  0.7462479897896022  0.3121841185997931  0.6403029375924557   T   T   T
  0.7475309908840635  0.0672027620646687  0.6386676060958303   T   T   T
  0.0837833867890895  0.3116015629726825  0.6405235266971194   T   T   T
  0.6667271432725821  0.8748268975413481  0.4991893155842825   T   T   T
  0.0873848944499256  0.5619940908032250  0.6414530518948871   T   T   T
  0.0845660493947481  0.0595060517467713  0.6429746397910471   T   T   T
  0.0866115741279046  0.4366172205735129  0.6391644031399221   T   T   T
  0.0839478056237484  0.1856846773695097  0.6407787378968662   T   T   T
  0.4194033402205514  0.1892780005949495  0.6403178728301526   T   T   T
  0.4146929236600643  0.4194617537703353  0.6299712101582464   T   T   T
  0.0846528998310255  0.9355053354009177  0.6410272492893829   T   T   T
  0.0832214487816639  0.6869050274507607  0.6388974402439844   T   T   T
  0.9127587155389061  0.4365070482337025  0.6389882160506505   T   T   T
  0.9159710671603293  0.6873518588254285  0.6395731752449308   T   T   T
  0.9144788891619290  0.9369487375284535  0.6409329009641889   T   T   T
  0.2407601114307543  0.4419303831175421  0.6410614729802468   T   T   T
  0.2573592490248440  0.6772493131881347  0.6625700183788152   T   T   T
  0.5778767008345301  0.1904962468659579  0.6447211121725882   T   T   T
  0.2518895705401231  0.9297837445509071  0.6371069410530708   T   T   T
  0.0834239918004931  0.8116915102395031  0.6420094932136911   T   T   T
  0.9166666865332829  0.8124999999834799  0.3605200052333331   F   F   F
  0.0008990857781107  0.1225391247248787  0.6196155851131427   T   T   T
  0.8333332538436267  0.6249999999803961  0.4070133268666680   F   F   F
  0.9997269482820892  0.5010205758443080  0.5067063397057331   T   T   T
  0.3310603842081318  0.4993657478238565  0.5007366146707483   T   T   T
  0.3301509133080422  0.2479540003795103  0.5028503616684642   T   T   T
  0.3331344019310417  0.0011570673754726  0.5059088316207396   T   T   T
  0.3337526135884066  0.7510094302863657  0.5015579856444934   T   T   T
  0.6658608198719846  0.0000190805580375  0.5056058257707589   T   T   T
  0.6685177793858887  0.4997369609198281  0.5005936879029355   T   T   T
  0.6667169920468365  0.2479621939388152  0.5030897606992820   T   T   T
  0.6652624879476401  0.7518721767702988  0.5025764199555108   T   T   T
  0.1659847498850096  0.0013612464391213  0.5066053233057054   T   T   T
  0.1662867444872846  0.2482441011472298  0.5063341760686622   T   T   T
  0.1633372654692231  0.4997956850129933  0.5015748932861884   T   T   T
  0.5002050344766530  0.9996399086837451  0.5054842024700147   T   T   T
  0.1644648955738740  0.7520138068603492  0.5032328635926147   T   T   T
  0.5011234164675551  0.7526246247186731  0.5040217962857847   T   T   T
  0.8341267085970852  0.0004033277029707  0.5065150502580409   T   T   T
  0.5013211724597909  0.4995958928605283  0.5002707736657133   T   T   T
  0.5010766493887874  0.2478600728957115  0.5020311219163325   T   T   T
  0.8356359349062585  0.2484228621431900  0.5031595950222337   T   T   T
  0.9999188915126144  0.7509342314444249  0.5066696751130625   T   T   T
  0.0006609762689435  0.2497255177730251  0.5058219359623320   T   T   T
  0.0001657972321012  0.9999559288821268  0.5067699605397874   T   T   T
  0.8333332538436267  0.8749999404036828  0.4070133268666680   F   F   F
  0.0000000000000000  0.6249999999803961  0.4070133268666680   F   F   F
  0.0000000000000000  0.8749999404036828  0.4070133268666680   F   F   F
  0.3333333432766779  0.1249999999871179  0.4070133268666680   F   F   F
  0.3333333432766779  0.3750000000061604  0.4070133268666680   F   F   F
  0.3333333432766779  0.6249999999803961  0.4070133268666680   F   F   F
  0.3333333432766779  0.8749999404036828  0.4070133268666680   F   F   F
  0.6666666865533486  0.1249999999871179  0.4070133268666680   F   F   F
  0.6666666865533486  0.3750000000061604  0.4070133268666680   F   F   F
  0.6666666865533486  0.6249999999803961  0.4070133268666680   F   F   F
  0.8358343616973662  0.5002195349351584  0.5029120034480715   T   T   T
  0.6666666865533486  0.8749999404036828  0.4070133268666680   F   F   F
  0.1666666716383389  0.3750000000061604  0.4070133268666680   F   F   F
  0.1666666716383389  0.6249999999803961  0.4070133268666680   F   F   F
  0.1666666716383389  0.8749999404036828  0.4070133268666680   F   F   F
  0.5000000000021103  0.1249999999871179  0.4070133268666680   F   F   F
  0.5000000000021103  0.3750000000061604  0.4070133268666680   F   F   F
  0.5000000000021103  0.6249999999803961  0.4070133268666680   F   F   F
  0.5000000000021103  0.8749999404036828  0.4070133268666680   F   F   F
  0.8333332538436267  0.1249999999871179  0.4070133268666680   F   F   F
  0.8333332538436267  0.3750000000061604  0.4070133268666680   F   F   F
  0.1666666716383389  0.1249999999871179  0.4070133268666680   F   F   F
  0.0000000000000000  0.3750000000061604  0.4070133268666680   F   F   F
  0.8358634094501405  0.7516097808057435  0.5027779315320539   T   T   T
  0.8366746261374776  0.3724900885300878  0.6044874420217249   T   T   T
  0.8318992481614279  0.8761810303810786  0.6181948884640123   T   T   T
  0.8394403329387593  0.6264866489637994  0.6026537070633452   T   T   T
  0.9988610124246868  0.8751674298968840  0.6220777687438632   T   T   T
  0.3318415245214129  0.1198546541621593  0.6138567917202321   T   T   T
  0.3332893689730054  0.6245486178332607  0.5952325444360481   T   T   T
  0.3256419529808307  0.3737225585170040  0.5925778098498259   T   T   T
  0.6708923425759776  0.3720568642228754  0.5938746036564954   T   T   T
  0.6650937220056425  0.1241891720233286  0.6115963055577640   T   T   T
  0.3347150300430491  0.8785101097644887  0.6033606146101891   T   T   T
  0.1590270113285404  0.6273284716131736  0.6009235210904772   T   T   T
  0.1660463630456193  0.8732507046696154  0.6178898647337734   T   T   T
  0.5011845539091390  0.3719392167253169  0.5948656903957403   T   T   T
  0.5002521287659877  0.1219829431798498  0.6061394981886351   T   T   T
  0.1677772605438966  0.1226318146390084  0.6222739759201372   T   T   T
  0.1629635805463628  0.3715301854390948  0.6074505121543364   T   T   T
  0.6650157422772911  0.8809526987157845  0.6070816389415145   T   T   T
  0.6665457606090869  0.6257822050716285  0.5929352263093909   T   T   T
 -0.0002412720957791  0.3743793376417812  0.6227332084089539   T   T   T
  0.9995157593529235  0.6215203602764081  0.6332022116620429   T   T   T
  0.8337700001167625  0.1248128690867592  0.6194355943064220   T   T   T
  0.5004410094863078  0.8764230172279650  0.6090294593773019   T   T   T
  0.0000000000000000  0.1249999999871179  0.4070133268666680   F   F   F
  0.5034776785153543  0.6251584941919607  0.5933103531288740   T   T   T
  0.9159423392852941  0.0005454803386573  0.6040725572559807   T   T   T
  0.5838977717158336  0.7498116115449980  0.6000054347669721   T   T   T
  0.5908034366404596  0.5013112153700843  0.5929891080584136   T   T   T
  0.2423908722180744  0.4974217610052292  0.5932730742136297   T   T   T
  0.2492765676597960  0.7522029538953138  0.5920055272426152   T   T   T
  0.5840488164447690  0.2476122696944362  0.5975519861751981   T   T   T
  0.5823778188413421  0.0012763324107644  0.6044578449482380   T   T   T
  0.2498007765208802  0.9974360305610465  0.6041180729259628   T   T   T
  0.2486684747139555  0.2462124954442077  0.6034434920023345   T   T   T
  0.4170535424610258 -0.0000758610064899  0.6051241481109347   T   T   T
  0.4144531941573051  0.2494368012605623  0.5911091323717800   T   T   T
  0.4157638764680676  0.7502505350558853  0.5943117451801820   T   T   T
  0.7564105870598405  0.5026951512982943  0.5948526398360812   T   T   T
  0.7512903213001697  0.7527427835514205  0.5904092361320246   T   T   T
  0.7540794629160812  0.2482844819090113  0.5939724385140172   T   T   T
  0.7493450700471124  0.0016173531028584  0.6042430512517813   T   T   T
  0.0836463730536831  0.2479122935266748  0.6034080291165916   T   T   T
  0.0811616113788820  0.5004058927811308  0.6030920669509386   T   T   T
  0.0799909037729757  0.7509983802220715  0.6031757354043137   T   T   T
  0.0836452766363884  0.9984846719110424  0.6039312801517157   T   T   T