Au  O Sr Ti                             
   1.00000000000000     
    23.6707801818999997    0.0000000000000000    0.0000000000000000
     0.0000000000000000   22.3170261383000010    0.0000000000000000
     0.0000000000000000    0.0000000000000000   30.0000000000000000
   Au   O    Sr   Ti
    50   264    72    72
Selective dynamics
Direct
  0.7637162110027033  0.5021719683866872  0.7863635785986361   T   T   T
  0.6530601994419193  0.5106584384993132  0.7506505133555302   T   T   T
  0.6754928545622418  0.2254785327808101  0.7582480920227835   T   T   T
  0.3978652795127266  0.7394770504410382  0.6901767860123543   T   T   T
  0.5583944748419207  0.6148111055453583  0.7823629797785795   T   T   T
  0.6388346710351327  0.7154604520873594  0.7790251622537456   T   T   T
  0.5328635060153384  0.3797414269710550  0.8385554356619671   T   T   T
  0.2885899047023400  0.5586143391767986  0.7020913239735970   T   T   T
  0.3481491468434119  0.7503722636450498  0.7739913229525857   T   T   T
  0.6178247006390538  0.3054675601825909  0.8090360617743574   T   T   T
  0.5254808411741168  0.4272413364688236  0.6974315812848322   T   T   T
  0.5499308694935279  0.4833210763548448  0.7844583190857197   T   T   T
  0.5372449684587479  0.7149934134517670  0.8405190164043019   T   T   T
  0.7403831728050776  0.4401781166191859  0.7060452790110667   T   T   T
  0.7459022646212727  0.5668861900275591  0.7070157717238700   T   T   T
  0.6926227395400876  0.5331105480748818  0.8590414705105006   T   T   T
  0.6254428105544055  0.7791451736939239  0.7004644672456805   T   T   T
  0.4571307705078781  0.6815633705951422  0.7590216475174605   T   T   T
  0.4249080761933257  0.5013322207763314  0.6943404905021879   T   T   T
  0.4452472981673595  0.4227090360683868  0.7681106935028876   T   T   T
  0.2942301111248642  0.3137222772390681  0.6981890919807832   T   T   T
  0.3384383293000434  0.3671906515798312  0.7714642806996612   T   T   T
  0.5384141962158205  0.7837786547841831  0.7605249756756279   T   T   T
  0.3426535093480105  0.6225158306290888  0.7718496383322827   T   T   T
  0.4927845828729927  0.2425650251131193  0.6825552613481995   T   T   T
  0.5558813594524852  0.5528998347641491  0.7035690988468013   T   T   T
  0.6098427927850418  0.2766144095647849  0.6952554206355557   T   T   T
  0.7123233900187230  0.6933163686691654  0.7083015719004486   T   T   T
  0.7613244223188308  0.4294797080700954  0.8622284093799001   T   T   T
  0.4033837446371507  0.6792238182936672  0.8447928144401315   T   T   T
  0.5788683484760144  0.5133885493403232  0.8772689213391597   T   T   T
  0.7233202180019465  0.3720562921230783  0.7862709073134982   T   T   T
  0.4692618042650405  0.4779485584591588  0.8636387004863781   T   T   T
  0.5186644658337956  0.3206464335569018  0.7542249951046642   T   T   T
  0.2880877674274935  0.4371074188233773  0.7018765731291833   T   T   T
  0.7077712980568008  0.6167988072238451  0.7867571019188265   T   T   T
  0.3639373240339260  0.4317222461088339  0.8488471024972845   T   T   T
  0.3785391877617985  0.5584759970481278  0.8531250929369992   T   T   T
  0.4951036881244634  0.6022091259772685  0.8679316772289355   T   T   T
  0.3367409356038430  0.4976556544478549  0.7730066232399037   T   T   T
  0.4143772209420681  0.3309019992641129  0.7022445559848559   T   T   T
  0.2939792398180909  0.8029997636085727  0.7037814401173692   T   T   T
  0.7256255900198918  0.3141474118715735  0.7046727915430643   T   T   T
  0.6445133116583752  0.4140996062899779  0.8539121252226475   T   T   T
  0.2880299656852593  0.6810103410731730  0.7035174259287890   T   T   T
  0.6272399609344469  0.3895081433412610  0.7331906731135424   T   T   T
  0.6232203544408362  0.6329443654026360  0.8580600273809211   T   T   T
  0.5442204264942615  0.6796917051933098  0.6995845628600433   T   T   T
  0.4507907623080349  0.5565877885864043  0.7715370692686778   T   T   T
  0.4466512057776535  0.7903780087861536  0.8168214774052317   T   T   T
  0.2505142958788233  0.1876702555060608  0.4535955725539216   T   T   T
  0.7504780614512726  0.9375051144778163  0.4538146671604887   T   T   T
  0.7494532637359442  0.6877915351728863  0.4552064454161988   T   T   T
  0.7502699300478735  0.4380399670875421  0.4546537437951154   T   T   T
  0.7492920762546544  0.1881668963681678  0.4539919780298270   T   T   T
  0.4171268290590378  0.9362782956099635  0.4532370925766026   T   T   T
  0.4171264565809373  0.6864098167414762  0.4546168838606122   T   T   T
  0.4180989841665347  0.4382143830508244  0.4555640257524792   T   T   T
  0.0837423917215719  0.6875927155652815  0.4538957090975192   T   T   T
  0.0838756225257944  0.9371700103919928  0.4537256601723858   T   T   T
  0.0839878824742746  0.4373686965712867  0.4537751627428726   T   T   T
  0.0832881194341442  0.1872857940000327  0.4536871057216915   T   T   T
  0.9169220855099181  0.8127382630260988  0.4536378212666243   T   T   T
  0.9167807284288513  0.5630636930568342  0.4532343480016843   T   T   T
  0.2496238245489028  0.4379871954349686  0.4543081493036255   T   T   T
  0.9163697726073318  0.0626019994131050  0.4536444213328928   T   T   T
  0.9165724517746742  0.3125764057977978  0.4538256983205377   T   T   T
  0.4169070970936958  0.1890217087150974  0.4550287252772605   T   T   T
  0.2513576092294427  0.6869849373582543  0.4548264996641168   T   T   T
  0.9163268908111591  0.9374149469945816  0.4536929880655455   T   T   T
  0.5838612298103046  0.1899484216489278  0.4556441887062310   T   T   T
  0.0000520272191466  0.1246688064245865  0.4990966474063572   T   T   T
  0.5834276062766086  0.8119889471709344  0.4541186739687974   T   T   T
 -0.0000485091920732  0.3751171642028832  0.4991015210738073   T   T   T
  0.0001269177797572  0.6265838409997827  0.4990962028569090   T   T   T
  0.3339053151162033  0.1252559596268341  0.4992215027165800   T   T   T
  0.0000841041256822  0.8753894722506056  0.4992576757451345   T   T   T
  0.3340151109177813  0.8749309322238462  0.4993893177137475   T   T   T
  0.6664148634245211  0.1258428523045114  0.5003076485835194   T   T   T
  0.3344360605386277  0.6271799320510814  0.5026028171211798   T   T   T
  0.3337918781423412  0.3776296634725536  0.4994166175214075   T   T   T
  0.6660149720600717  0.3772111974200388  0.4993284441536869   T   T   T
  0.9164491450642400  0.6875854796837138  0.4540050828758614   T   T   T
  0.9158838796019332  0.4374074216340325  0.4538224980467036   T   T   T
  0.9169620533778061  0.1873070625183225  0.4535543831012952   T   T   T
  0.5831143107082640  0.9383423155177363  0.4544675315624885   T   T   T
  0.5826691174210248  0.6867212745754206  0.4543681993823006   T   T   T
  0.5818386427273239  0.4379350629892610  0.4550819925502863   T   T   T
  0.2502100189158629  0.9365607899069965  0.4540899341837183   T   T   T
  0.6662002230908028  0.6264935386006433  0.5009873691171397   T   T   T
  0.5842020374436317  0.5622304815989680  0.4548076907486174   T   T   T
  0.5837865979471015  0.0646585143199877  0.4530101078484221   T   T   T
  0.9166666865332829  0.6874999999963620  0.3605200052333331   F   F   F
  0.9166666865332829  0.4374999701794380  0.3605200052333331   F   F   F
  0.9166666865332829  0.1875000000030838  0.3605200052333331   F   F   F
  0.5833333134730552  0.9375000000154046  0.3605200052333331   F   F   F
  0.5833333134730552  0.6874999999963620  0.3605200052333331   F   F   F
  0.5833333134730552  0.4374999701794380  0.3605200052333331   F   F   F
  0.5833333134730552  0.1875000000030838  0.3605200052333331   F   F   F
  0.2499999999799343  0.9375000000154046  0.3605200052333331   F   F   F
  0.9166666865332829  0.9375000000154046  0.3605200052333331   F   F   F
  0.2499999999799343  0.6874999999963620  0.3605200052333331   F   F   F
  0.2499999999799343  0.1875000000030838  0.3605200052333331   F   F   F
  0.7499999404149307  0.9375000000154046  0.3605200052333331   F   F   F
  0.7499999404149307  0.6874999999963620  0.3605200052333331   F   F   F
  0.7499999404149307  0.4374999701794380  0.3605200052333331   F   F   F
  0.7499999404149307  0.1875000000030838  0.3605200052333331   F   F   F
  0.4166666269218169  0.9375000000154046  0.3605200052333331   F   F   F
  0.4166666269218169  0.6874999999963620  0.3605200052333331   F   F   F
  0.4166666269218169  0.4374999701794380  0.3605200052333331   F   F   F
  0.2499999999799343  0.4374999701794380  0.3605200052333331   F   F   F
  0.0833333358191695  0.0625000000159659  0.3605200052333331   F   F   F
  0.0833333358191695  0.3124999999901945  0.3605200052333331   F   F   F
  0.0833333358191695  0.5625000000092442  0.3605200052333331   F   F   F
  0.9166666865332829  0.3124999999901945  0.3605200052333331   F   F   F
  0.9166666865332829  0.0625000000159659  0.3605200052333331   F   F   F
  0.5833333134730552  0.8124999999834799  0.3605200052333331   F   F   F
  0.5833333134730552  0.5625000000092442  0.3605200052333331   F   F   F
  0.5833333134730552  0.3124999999901945  0.3605200052333331   F   F   F
  0.5833333134730552  0.0625000000159659  0.3605200052333331   F   F   F
  0.2499999999799343  0.8124999999834799  0.3605200052333331   F   F   F
  0.2499999999799343  0.5625000000092442  0.3605200052333331   F   F   F
  0.2499999999799343  0.3124999999901945  0.3605200052333331   F   F   F
  0.2499999999799343  0.0625000000159659  0.3605200052333331   F   F   F
  0.7499999404149307  0.8124999999834799  0.3605200052333331   F   F   F
  0.7499999404149307  0.5625000000092442  0.3605200052333331   F   F   F
  0.7499999404149307  0.3124999999901945  0.3605200052333331   F   F   F
  0.7499999404149307  0.0625000000159659  0.3605200052333331   F   F   F
  0.4166666269218169  0.8124999999834799  0.3605200052333331   F   F   F
  0.4166666269218169  0.5625000000092442  0.3605200052333331   F   F   F
  0.4166666269218169  0.3124999999901945  0.3605200052333331   F   F   F
  0.4166666269218169  0.0625000000159659  0.3605200052333331   F   F   F
  0.0833333358191695  0.8124999999834799  0.3605200052333331   F   F   F
  0.4166666269218169  0.1875000000030838  0.3605200052333331   F   F   F
  0.0833333358191695  0.9375000000154046  0.3605200052333331   F   F   F
  0.0833333358191695  0.6874999999963620  0.3605200052333331   F   F   F
  0.0833333358191695  0.4374999701794380  0.3605200052333331   F   F   F
  0.8333332538436267  0.4999999999932783  0.4070133268666680   F   F   F
  0.8333332538436267  0.7500000000123208  0.4070133268666680   F   F   F
  0.0835637295670979  0.0624250791339058  0.4537368995550837   T   T   T
  0.0833576518532780  0.3126627307407694  0.4538243521415922   T   T   T
  0.0834263994083981  0.5627064152257190  0.4536079766061837   T   T   T
  0.0834305798814943  0.8127212856213473  0.4536888341638915   T   T   T
  0.4169227625252103  0.0623407596941062  0.4546516153490988   T   T   T
  0.4170998725365890  0.3137537765440653  0.4544138982948999   T   T   T
  0.4156534255944533  0.5623808061509016  0.4554785932068791   T   T   T
  0.4169360207107148  0.8108364966904021  0.4549127509570129   T   T   T
  0.7494525040415467  0.0632128214014507  0.4540107540450454   T   T   T
  0.7487295353707324  0.3131580361986839  0.4542065630672703   T   T   T
  0.7486871156750414  0.5627800557719627  0.4537296374314438   T   T   T
  0.7501334860706181  0.8127574543519218  0.4534347265899650   T   T   T
  0.2505510222719656  0.0625767353797117  0.4539194287594980   T   T   T
  0.9155691516897907  0.3125502154625576  0.5468033265909048   T   T   T
  0.2508862771720534  0.3132861088558665  0.4541590327020228   T   T   T
  0.2518494283099210  0.5626736009926590  0.4550300782193991   T   T   T
  0.2507907555439728  0.8112759754562955  0.4546497620878577   T   T   T
  0.8333332538436267  0.2500000000190425  0.4070133268666680   F   F   F
  0.5827989477469094  0.3138735146302449  0.4544132788243915   T   T   T
  0.8333332538436267  0.0000000000000000  0.4070133268666680   F   F   F
  0.5000000000021103  0.4999999999932783  0.4070133268666680   F   F   F
  0.0833333358191695  0.1875000000030838  0.3605200052333331   F   F   F
  0.0000000000000000  0.0000000000000000  0.4070133268666680   F   F   F
  0.0000000000000000  0.2500000000190425  0.4070133268666680   F   F   F
  0.0000000000000000  0.4999999999932783  0.4070133268666680   F   F   F
  0.0000000000000000  0.7500000000123208  0.4070133268666680   F   F   F
  0.3333333432766779  0.0000000000000000  0.4070133268666680   F   F   F
  0.3333333432766779  0.2500000000190425  0.4070133268666680   F   F   F
  0.3333333432766779  0.4999999999932783  0.4070133268666680   F   F   F
  0.3333333432766779  0.7500000000123208  0.4070133268666680   F   F   F
  0.6666666865533486  0.0000000000000000  0.4070133268666680   F   F   F
  0.6666666865533486  0.2500000000190425  0.4070133268666680   F   F   F
  0.6666666865533486  0.4999999999932783  0.4070133268666680   F   F   F
  0.6666666865533486  0.7500000000123208  0.4070133268666680   F   F   F
  0.1666666716383389  0.0000000000000000  0.4070133268666680   F   F   F
  0.1666666716383389  0.2500000000190425  0.4070133268666680   F   F   F
  0.1666666716383389  0.4999999999932783  0.4070133268666680   F   F   F
  0.1666666716383389  0.7500000000123208  0.4070133268666680   F   F   F
  0.5000000000021103  0.0000000000000000  0.4070133268666680   F   F   F
  0.5000000000021103  0.2500000000190425  0.4070133268666680   F   F   F
  0.5000000000021103  0.7500000000123208  0.4070133268666680   F   F   F
  0.1669707785496675  0.1248283197486739  0.4988379338743982   T   T   T
  0.9162736653194773  0.0620488471492891  0.5462284698703274   T   T   T
  0.1675994532109651  0.8732962469322990  0.4998849626073183   T   T   T
  0.2509589401744065  0.1887671035842803  0.5464298070386802   T   T   T
  0.7490610574285191  0.9375408605906931  0.5462476588423719   T   T   T
  0.7521209178083780  0.6836712566958584  0.5491582495790247   T   T   T
  0.7492357575961645  0.4363592763534824  0.5484702980824537   T   T   T
  0.4171001542072149  0.4344322291431184  0.5493227449958303   T   T   T
  0.4228769187452084  0.6874232267968411  0.5474955487936531   T   T   T
  0.7492669077801077  0.1876620579788887  0.5472640508675153   T   T   T
  0.4169624672907865  0.9390867460467224  0.5445788395331059   T   T   T
  0.0848657475252792  0.9375713739108115  0.5463309933920704   T   T   T
  0.4191859478787106  0.1863064349569915  0.5491861873738768   T   T   T
  0.0869161043977064  0.6876470700659369  0.5467828739659618   T   T   T
  0.0849151180212602  0.4379287589442859  0.5461473652665352   T   T   T
  0.0829643661403098  0.1882709175338420  0.5463143514452353   T   T   T
  0.5003176678462281  0.1255145415146137  0.4988794170825041   T   T   T
  0.9998532711729787  0.4999115735569893  0.5934604553113824   T   T   T
  0.9994696168980401  0.7475066454478049  0.5932010099410276   T   T   T
  0.3367002040016772  0.2427288961385667  0.5944961605802458   T   T   T
  0.3342722837641645  0.0015550326700797  0.5911944848201728   T   T   T
  0.0001597495870752  0.9988653754203092  0.5917565461200324   T   T   T
 -0.0004025941440984  0.2499688297071763  0.5929697710411824   T   T   T
  0.3339905502151066  0.4986318762890184  0.5884319359064314   T   T   T
  0.3359594498928447  0.7466551549492760  0.5884776497858796   T   T   T
  0.6635096961768782  0.2423145535751439  0.5945294414247312   T   T   T
  0.6663351246627626  0.0020830390723436  0.5908064380560080   T   T   T
  0.6661235293517287  0.7442597397170863  0.5896558369545786   T   T   T
  0.6637687183626638  0.4972092156133415  0.5919224041786770   T   T   T
  0.1673532370708687  0.0030328861802749  0.5927331131616521   T   T   T
  0.1682462812491897  0.2494612262967828  0.5924177942925281   T   T   T
  0.1700120113498909  0.7533612247475610  0.5926447407588871   T   T   T
  0.2495383723050891  0.4377004651448412  0.5477064243658141   T   T   T
  0.1691124800145687  0.5026158685961563  0.5914883436568931   T   T   T
  0.2485205831662356  0.6871314401502294  0.5483163171805254   T   T   T
  0.5813207094077518  0.1837828595826967  0.5513117601102747   T   T   T
  0.9166323024932336  0.8112031570868645  0.5463625644104627   T   T   T
  0.9170625646911340  0.5612202461531757  0.5453186645263642   T   T   T
  0.5840346306467257  0.5632860171094821  0.5480124367203946   T   T   T
  0.5870398212885588  0.8135237283894040  0.5476499612884486   T   T   T
  0.5878471804512001  0.3123687487779089  0.5474254131647339   T   T   T
  0.5825374499080025  0.0601318135305883  0.5437927732063312   T   T   T
  0.2532312211535397  0.8132520669562582  0.5488520763380601   T   T   T
  0.2516293018588037  0.5641730095005246  0.5484701723822637   T   T   T
  0.2541996500709793  0.3136941791200628  0.5469527432621367   T   T   T
  0.2506966002589723  0.0626288416502447  0.5467020448061511   T   T   T
  0.7478499011044452  0.8116640330674564  0.5466175271608040   T   T   T
  0.7462576626912379  0.5605284804216607  0.5463743395611035   T   T   T
  0.4163816134452040  0.8149634969885137  0.5488046697035474   T   T   T
  0.7499878996798724  0.0628956451627664  0.5463153484918802   T   T   T
  0.7457103326197754  0.3132471532610663  0.5471264653568095   T   T   T
  0.4126118363232228  0.3120831074162990  0.5468543475447112   T   T   T
  0.4158825765746464  0.5649671056043886  0.5491452671561767   T   T   T
  0.4182282578714044  0.0631771275084745  0.5466223278295784   T   T   T
  0.0829473106886725  0.8116149215871420  0.5462874745280022   T   T   T
  0.0839455123981953  0.5620483099217131  0.5460251505182423   T   T   T
  0.0841996571626864  0.3124961218755944  0.5468359888598948   T   T   T
  0.0834127035013792  0.0622617170220805  0.5467314626478472   T   T   T
  0.9166389893812880  0.9375122001392853  0.5465669868626016   T   T   T
  0.9129236692468113  0.6866599479318951  0.5473341466980901   T   T   T
  0.5838426203412462  0.9368939254640898  0.5466462877246581   T   T   T
  0.9166242896224460  0.1878624221345231  0.5465079479650243   T   T   T
  0.9151031867454983  0.4376010363250674  0.5461981526123385   T   T   T
  0.5822312781448722  0.4360782462608841  0.5474312914922309   T   T   T
  0.5802696080835658  0.6874977779227589  0.5466740009948324   T   T   T
  0.2508747212915882  0.9376282027919698  0.5459968891799531   T   T   T
  0.4986431745588725  0.5010258134469506  0.5875665664222678   T   T   T
  0.5015287359371648  0.2554653214885510  0.5870697231825170   T   T   T
  0.5001821229780169  0.0001341945913041  0.5911259491489969   T   T   T
  0.7458143042736387  0.6871122244000244  0.6450225380706310   T   T   T
  0.7481668387739860  0.9376132422606961  0.6399815917547387   T   T   T
  0.2511092698698525  0.1867225413782531  0.6424714129636779   T   T   T
  0.7489633302059304  0.1865379120043402  0.6421691818311698   T   T   T
  0.7506896320010646  0.4362946908357189  0.6384590741230358   T   T   T
  0.4165513928864247  0.9326500334283157  0.6368455904361320   T   T   T
  0.4227290589612839  0.6859948556669535  0.6380083046025644   T   T   T
  0.5909479576307965  0.8121942113621320  0.6422962877972394   T   T   T
  0.9172691360203906  0.0622263308964783  0.6403796806421623   T   T   T
  0.9132137864524620  0.5643538023000626  0.6399059949169044   T   T   T
  0.9142965051928458  0.3134524365370671  0.6400506880222071   T   T   T
  0.9164349898164711  0.8136593530082549  0.6414359684393071   T   T   T
  0.5830771308923335  0.0709347118505440  0.6351577021140741   T   T   T
  0.5854176940789645  0.3196363951804023  0.6368573329133814   T   T   T
  0.5804212283129588  0.5632633450664636  0.6382720481961819   T   T   T
  0.2541701412372251  0.5648120812301307  0.6399015408185744   T   T   T
  0.2553787852388713  0.8133928788847509  0.6423233356645300   T   T   T
  0.2529921553391500  0.3136095985021103  0.6386504429047205   T   T   T
  0.2523567733716647  0.0619482556026501  0.6428079859067495   T   T   T
  0.9166666865332829  0.5625000000092442  0.3605200052333331   F   F   F
  0.4999714571851341  0.3729446693726566  0.5020886686390417   T   T   T
  0.5006233635096841  0.8742996374912640  0.4990048033279179   T   T   T
  0.5001565374938413  0.6221063006142939  0.4997128466929576   T   T   T
  0.8327438007762633  0.6230043909911317  0.4990809767947391   T   T   T
  0.8332901850383893  0.8746528434357316  0.4992807170249070   T   T   T
  0.8323916326649049  0.3734487514324586  0.5000491138545460   T   T   T
  0.8332308432610818  0.1257525510555449  0.4985848267308582   T   T   T
  0.1672533803790728  0.3735584392815673  0.4997235833017787   T   T   T
  0.1674228275986968  0.6237481215316729  0.4986482720199650   T   T   T
  0.5745931086204560  0.4363473383581197  0.6398976303791392   T   T   T
  0.5798365397175663  0.6841133140511351  0.6364362532815081   T   T   T
  0.9161508416612091  0.1872700241493794  0.6414329118588200   T   T   T
  0.5830957180781620  0.9386510787679069  0.6396732261368858   T   T   T
  0.8302480330616403  0.7521742703064253  0.5942400640116881   T   T   T
  0.8316449952795770  0.2490732863553057  0.5920474204760335   T   T   T
  0.8313166502904267  0.5028784448200828  0.5897706430879649   T   T   T
  0.8331809075262254 -0.0000790122931224  0.5920605088440010   T   T   T
  0.5025806384818743  0.7583917240292312  0.5906573318011089   T   T   T
  0.4183739062213890  0.0652618106639539  0.6393273428334948   T   T   T
  0.4175213234865788  0.3224581095418190  0.6339836157387247   T   T   T
  0.4143601553662559  0.8057428349935113  0.6441463149345973   T   T   T
  0.4160252425902662  0.5601748270532353  0.6420861130833572   T   T   T
  0.7484150482154642  0.5655159144818283  0.6383241343922781   T   T   T
  0.7420805468390380  0.8137457450030570  0.6409870030489685   T   T   T
  0.7475462907960390  0.3141695915912544  0.6387446735618216   T   T   T
  0.7490957455343593  0.0636359228599152  0.6403145359713832   T   T   T
  0.0842088519544300  0.3131736980664105  0.6399603214164088   T   T   T
  0.6669759578667791  0.8762799136326759  0.4979995087716217   T   T   T
  0.0849962624677506  0.5636959756935170  0.6405452745170434   T   T   T
  0.0812757977048794  0.0617808217543618  0.6423576870891716   T   T   T
  0.0866615832423090  0.4372101748239543  0.6394696461076067   T   T   T
  0.0833661340876640  0.1871479013853317  0.6413778638535672   T   T   T
  0.4322588070761070  0.1979899328377851  0.6452663375985186   T   T   T
  0.4161279050442937  0.4413929285867656  0.6428665372193453   T   T   T
  0.0851184614600911  0.9368677052259985  0.6398086694230909   T   T   T
  0.0870443701083047  0.6880054504770934  0.6404081796197634   T   T   T
  0.9124021189868009  0.4378709944226195  0.6392853425492886   T   T   T
  0.9132316711864138  0.6883733521359415  0.6415140347058756   T   T   T
  0.9160385859890290  0.9373687575737688  0.6413793772171320   T   T   T
  0.2517582439263815  0.4367353544029587  0.6399491508227290   T   T   T
  0.2533257962214241  0.6856931621307830  0.6399474527657265   T   T   T
  0.5691698078824112  0.2042981917790236  0.6549438666225337   T   T   T
  0.2518692768478184  0.9352927545114004  0.6381617818727213   T   T   T
  0.0840088908694911  0.8135604671963753  0.6399213223337734   T   T   T
  0.9166666865332829  0.8124999999834799  0.3605200052333331   F   F   F
 -0.0002965311334416  0.1255076011023556  0.6186550784084460   T   T   T
  0.8333332538436267  0.6249999999803961  0.4070133268666680   F   F   F
  0.0001567069953029  0.4998838260985172  0.5064848958472924   T   T   T
  0.3311681464202219  0.5002736215940206  0.5013491208955702   T   T   T
  0.3314934934971458  0.2476883402473792  0.5033278697113400   T   T   T
  0.3329115549448551  0.0009895219861638  0.5052116091725618   T   T   T
  0.3318033737088864  0.7517397766734166  0.5015732701130674   T   T   T
  0.6674411020319156  0.0003401757492470  0.5045254055447590   T   T   T
  0.6678176573924178  0.5003821201309557  0.5028441722944543   T   T   T
  0.6686426174177138  0.2485021162455605  0.5032980078414129   T   T   T
  0.6679715081089169  0.7508667960369194  0.5035770825060816   T   T   T
  0.1663490741988102  0.0005094669930541  0.5061775776522102   T   T   T
  0.1659784144263831  0.2487769314971483  0.5057602185795150   T   T   T
  0.1650821833085281  0.4998592053145201  0.5039961098016534   T   T   T
  0.5003549171129398  0.9995762982165112  0.5049144870575314   T   T   T
  0.1655646322332947  0.7511300471558546  0.5048014442946572   T   T   T
  0.5014317467170919  0.7523467114948456  0.5022308315279789   T   T   T
  0.8339822703708931  0.9996853286894235  0.5058420197849347   T   T   T
  0.5010047719289126  0.5004103398233840  0.5014571928941173   T   T   T
  0.4994942884380347  0.2485623680267134  0.5011615042381976   T   T   T
  0.8339895915103273  0.2489736673132834  0.5054638083201011   T   T   T
  0.9994391688448742  0.7497865840744854  0.5065188875122902   T   T   T
 -0.0001067625623285  0.2499350145039888  0.5062883035823950   T   T   T
  0.0001389639606650  0.9998263233401722  0.5057732759440828   T   T   T
  0.8333332538436267  0.8749999404036828  0.4070133268666680   F   F   F
  0.0000000000000000  0.6249999999803961  0.4070133268666680   F   F   F
  0.0000000000000000  0.8749999404036828  0.4070133268666680   F   F   F
  0.3333333432766779  0.1249999999871179  0.4070133268666680   F   F   F
  0.3333333432766779  0.3750000000061604  0.4070133268666680   F   F   F
  0.3333333432766779  0.6249999999803961  0.4070133268666680   F   F   F
  0.3333333432766779  0.8749999404036828  0.4070133268666680   F   F   F
  0.6666666865533486  0.1249999999871179  0.4070133268666680   F   F   F
  0.6666666865533486  0.3750000000061604  0.4070133268666680   F   F   F
  0.6666666865533486  0.6249999999803961  0.4070133268666680   F   F   F
  0.8347439326322493  0.4999696339698577  0.5030888477535050   T   T   T
  0.6666666865533486  0.8749999404036828  0.4070133268666680   F   F   F
  0.1666666716383389  0.3750000000061604  0.4070133268666680   F   F   F
  0.1666666716383389  0.6249999999803961  0.4070133268666680   F   F   F
  0.1666666716383389  0.8749999404036828  0.4070133268666680   F   F   F
  0.5000000000021103  0.1249999999871179  0.4070133268666680   F   F   F
  0.5000000000021103  0.3750000000061604  0.4070133268666680   F   F   F
  0.5000000000021103  0.6249999999803961  0.4070133268666680   F   F   F
  0.5000000000021103  0.8749999404036828  0.4070133268666680   F   F   F
  0.8333332538436267  0.1249999999871179  0.4070133268666680   F   F   F
  0.8333332538436267  0.3750000000061604  0.4070133268666680   F   F   F
  0.1666666716383389  0.1249999999871179  0.4070133268666680   F   F   F
  0.0000000000000000  0.3750000000061604  0.4070133268666680   F   F   F
  0.8333187198127789  0.7511234909892700  0.5064499616834046   T   T   T
  0.8349523424193729  0.3735002368744337  0.6061821538964350   T   T   T
  0.8319039414077738  0.8751429393077348  0.6218175234918032   T   T   T
  0.8338832316259256  0.6286257154575244  0.6087513874679447   T   T   T
 -0.0000348844055948  0.8760862472211556  0.6192442266972166   T   T   T
  0.3339558073581177  0.1228248842823770  0.6180619836231568   T   T   T
  0.3333276156779387  0.6254639562763441  0.5966460795037667   T   T   T
  0.3313356411199850  0.3759026444464976  0.5947246989697463   T   T   T
  0.6687855032113365  0.3763306083644709  0.5983200043876202   T   T   T
  0.6687792180790686  0.1229464590970410  0.6081788379978825   T   T   T
  0.3338000968879008  0.8785993514402578  0.6029293890094229   T   T   T
  0.1654638654796026  0.6254349379969210  0.6100726870252496   T   T   T
  0.1667174079173442  0.8758370226056998  0.6139103454859324   T   T   T
  0.4997169274061990  0.3753620950381936  0.5928756625928360   T   T   T
  0.4987165552246040  0.1222419511326038  0.6040835592975867   T   T   T
  0.1661727689518799  0.1222872678770092  0.6245660841246947   T   T   T
  0.1652159630119099  0.3734919014386025  0.6098105193740490   T   T   T
  0.6663915507537725  0.8813964098940542  0.6065675389198633   T   T   T
  0.6659801306215877  0.6251175619586188  0.6012163790390115   T   T   T
  0.9994462927702707  0.3761536296047621  0.6230542940998376   T   T   T
  0.9995562734628407  0.6271731890320008  0.6261803365072908   T   T   T
  0.8343192940614513  0.1238754233529596  0.6187489094278142   T   T   T
  0.5017778255685590  0.8763794813883224  0.6134883621008893   T   T   T
  0.0000000000000000  0.1249999999871179  0.4070133268666680   F   F   F
  0.5001319986685780  0.6227649638678022  0.5965853065350057   T   T   T
  0.9169281096011767 -0.0008482604206196  0.6030359539201424   T   T   T
  0.5827162750467100  0.7512738259104798  0.5960463324730411   T   T   T
  0.5841561928326304  0.4986254492165785  0.5960437106175327   T   T   T
  0.2482625677507939  0.5003309768599047  0.5961302527864401   T   T   T
  0.2482992212695063  0.7518932032919368  0.5977187402672899   T   T   T
  0.5832311097026186  0.2526009567654309  0.5923928310582957   T   T   T
  0.5833860132921005  0.0025683805900080  0.6029992355225383   T   T   T
  0.2503169259107828  0.0015221433757865  0.6036982663713596   T   T   T
  0.2479623461289065  0.2429250931377274  0.6015546307591237   T   T   T
  0.4171157366943420  0.0002611843656887  0.6037571628819295   T   T   T
  0.4149921150690191  0.2494209507637063  0.5936207437499847   T   T   T
  0.4153904194763836  0.7510013236930076  0.5912534819236391   T   T   T
  0.7535879920330840  0.5012047169943619  0.5955980726450483   T   T   T
  0.7479849916270681  0.7540968360920456  0.6029510096952824   T   T   T
  0.7509832640710564  0.2433370317312552  0.6016735860054824   T   T   T
  0.7507778855829502  0.0008380301939538  0.6029875322870220   T   T   T
  0.0824953483611637  0.2491773337924723  0.6034646420808536   T   T   T
  0.0822097682007114  0.5011711115144639  0.6031887917288539   T   T   T
  0.0813849815027081  0.7505957985686725  0.6029657018917565   T   T   T
  0.0830418585526063  0.0009572270590372  0.6033739274629586   T   T   T