Au  C  O Sr Ti                          
   1.00000000000000     
    23.6707801818999997    0.0000000000000000    0.0000000000000000
     0.0000000000000000   22.3170261383000010    0.0000000000000000
     0.0000000000000000    0.0000000000000000   30.0000000000000000
   Au   C    O    Sr   Ti
    50     2   265    72    72
Selective dynamics
Direct
  0.7155144523381821  0.5245616620402251  0.7529528804938296   T   T   T
  0.5543018577462738  0.2130771545370421  0.7114809937965979   T   T   T
  0.6209855613893914  0.5709009852255736  0.7039312011782914   T   T   T
  0.7216431581265765  0.2567555209252018  0.6915817826616121   T   T   T
  0.2934989755960682  0.7468440334246187  0.6972023363604493   T   T   T
  0.5119371373808697  0.6033010991188206  0.7767872921961494   T   T   T
  0.5785613914675954  0.7257494637491566  0.7939315955002250   T   T   T
  0.2405240919373547  0.4694509721819491  0.7092132960700864   T   T   T
  0.2850673539944471  0.6621666941396658  0.7645996762463886   T   T   T
  0.5979054605071187  0.2927744372254686  0.7851221638872984   T   T   T
  0.5142642603341960  0.4842706913853424  0.6779835701030655   T   T   T
  0.5630640217746681  0.4860963374661789  0.7621563902968692   T   T   T
  0.5469522347098360  0.3875753130663298  0.8287695317414738   T   T   T
  0.7633359628971906  0.4305993275206860  0.7044392271955342   T   T   T
  0.3917576535048989  0.8171674259171212  0.7065052993660673   T   T   T
  0.4637703410872189  0.6952170951854392  0.8299275769171405   T   T   T
  0.4379156565064087  0.2269940899610013  0.6976644403166130   T   T   T
  0.3699059771087669  0.2987216956826735  0.7554860117485969   T   T   T
  0.3494417363047029  0.4996725165301806  0.6977409121252025   T   T   T
  0.4279390801121887  0.3718667926780646  0.8162244588263429   T   T   T
  0.5964439427338303  0.7845897014003210  0.7130057306989678   T   T   T
  0.6348237097408721  0.5839076570452222  0.8000733772988393   T   T   T
  0.2893900117920233  0.5380750866812677  0.7775252036019940   T   T   T
  0.4837576196821869  0.2697386509347395  0.7751901744126432   T   T   T
  0.4521984452399784  0.5795837268461476  0.7027512425015136   T   T   T
  0.4625693451649091  0.5737068320166664  0.8640272732545285   T   T   T
  0.7065183329815928  0.7568341211942675  0.6883653358947831   T   T   T
  0.6556285099100950  0.4404193313397190  0.8123295448133057   T   T   T
  0.3682769035009207  0.6189547185415465  0.8202619776426927   T   T   T
  0.5695666988261840  0.5101291800647165  0.8568859171784254   T   T   T
  0.6615977771843882  0.1978846505104318  0.7534550385063661   T   T   T
  0.4696057281038842  0.4515423248494906  0.8802139070426421   T   T   T
  0.5174966461771836  0.3770107459660774  0.7325418332419414   T   T   T
  0.2821457359313942  0.3398773455237070  0.7022997583890911   T   T   T
  0.6694561924207769  0.6811092362100494  0.7487871796732802   T   T   T
  0.3976346548422234  0.3817096224978092  0.6900604764167587   T   T   T
  0.7327886337642242  0.6145910275805292  0.6940523831571768   T   T   T
  0.6169388038307662  0.3202144609134607  0.6960764044663815   T   T   T
  0.3253385222840836  0.4147372006908238  0.7692582338140156   T   T   T
  0.4153044353372918  0.6951630086059062  0.6994500926122524   T   T   T
  0.7007249388273534  0.3432656923921028  0.7572819571561842   T   T   T
  0.7737337559222902  0.4283408529672210  0.7944258876450074   T   T   T
  0.2568087469832511  0.5928472055898425  0.6945773991016786   T   T   T
  0.6484148944179553  0.4453456139021941  0.6945180938901507   T   T   T
  0.5646367040020354  0.6394793587283442  0.8610502126767284   T   T   T
  0.5401373847409736  0.6678297821067032  0.7017391802509364   T   T   T
  0.4437712465914219  0.4733891590051913  0.7560928498730389   T   T   T
  0.3740688675200177  0.7397254304323722  0.7787830335220445   T   T   T
  0.3752583921435841  0.4931113451556451  0.8325905138614438   T   T   T
  0.4857785952406707  0.7752202544732436  0.7544788485924530   T   T   T
  0.7672296362747622  0.1264869683222327  0.7384787049638211   T   T   T
  0.7202874752460093  0.1379048227244135  0.7600977336282677   T   T   T
  0.4143456039512891  0.8117454277549101  0.5479563900990067   T   T   T
  0.7490802102486197  0.6886629081852262  0.4574497413824252   T   T   T
  0.7498847645674925  0.4382231440271559  0.4557245359591295   T   T   T
  0.7507595411097628  0.1895579126447805  0.4552828637352079   T   T   T
  0.4171692245232392  0.9358247846787209  0.4540299089321914   T   T   T
  0.4171303527020803  0.6847299735398124  0.4547043464861820   T   T   T
  0.4164419909029933  0.4354534312644988  0.4538125041517691   T   T   T
  0.0845319453761492  0.6868736488447961  0.4530947332590261   T   T   T
  0.0838812028428111  0.9366538140196768  0.4535042662501084   T   T   T
  0.0827745013687231  0.4367745364068268  0.4528490402215033   T   T   T
  0.0838652226921109  0.1865778558996201  0.4529641599316856   T   T   T
  0.8108203417182830  0.1090828201159542  0.7232600378716512   T   T   T
  0.0833333358191695  0.3124999999901945  0.3605200052333331   F   F   F
  0.9161262096954342  0.5621688112746336  0.4540740562878798   T   T   T
  0.9163193660805022  0.0618804793562875  0.4542021371792690   T   T   T
  0.9162216430538265  0.3121537267686925  0.4538819438630330   T   T   T
  0.4171023530237694  0.1871319029633181  0.4535072177031099   T   T   T
  0.2520886504775229  0.6876240061002579  0.4561040691664319   T   T   T
  0.9165029944962477  0.9368113769323756  0.4535123092378740   T   T   T
  0.5826873737294271  0.1903166386322059  0.4555664665546096   T   T   T
  0.0001651451466697  0.1249434561376318  0.4983212267516725   T   T   T
  0.5828780109583298  0.8106324993613234  0.4552614360608629   T   T   T
  0.0000451246262066  0.3734279956835313  0.4984061841553957   T   T   T
  0.9998569837779254  0.6271164153397545  0.4977053863147518   T   T   T
  0.3336215209041848  0.1256628217131428  0.4984988408905308   T   T   T
  0.0001068618421156  0.8752030834378833  0.4996500827164539   T   T   T
  0.3333979675614310  0.8736500172434153  0.4992213226812574   T   T   T
  0.6659605955125935  0.1263474423040544  0.4989169492195963   T   T   T
  0.2511635638952733  0.4392690190706868  0.4549236485519271   T   T   T
  0.7495015017708613  0.9384100031765715  0.4553296815761276   T   T   T
  0.2498621122368537  0.1884980106961601  0.4541002194684891   T   T   T
  0.9179295000891690  0.0632212556755169  0.5475252953640325   T   T   T
  0.3356179042369892  0.6257877996028156  0.5037688499036115   T   T   T
  0.5827367910503622  0.9371599426602473  0.4543266177233444   T   T   T
  0.5828088614796987  0.6861572667374816  0.4546088095075237   T   T   T
  0.5827943018660113  0.4396284846279558  0.4563976300500618   T   T   T
  0.2500481385670403  0.9360810367436346  0.4540320276749832   T   T   T
  0.6653974233383587  0.6259542941756202  0.5029994992004750   T   T   T
  0.5844898881722496  0.5628476926873666  0.4548315196894329   T   T   T
  0.5832112919663442  0.0636431699037233  0.4538337778671671   T   T   T
  0.9166666865332829  0.6874999999963620  0.3605200052333331   F   F   F
  0.9166666865332829  0.4374999701794380  0.3605200052333331   F   F   F
  0.9166666865332829  0.1875000000030838  0.3605200052333331   F   F   F
  0.5833333134730552  0.9375000000154046  0.3605200052333331   F   F   F
  0.5833333134730552  0.6874999999963620  0.3605200052333331   F   F   F
  0.5833333134730552  0.4374999701794380  0.3605200052333331   F   F   F
  0.5833333134730552  0.1875000000030838  0.3605200052333331   F   F   F
  0.0833333358191695  0.5625000000092442  0.3605200052333331   F   F   F
  0.2499999999799343  0.9375000000154046  0.3605200052333331   F   F   F
  0.2499999999799343  0.6874999999963620  0.3605200052333331   F   F   F
  0.2499999999799343  0.1875000000030838  0.3605200052333331   F   F   F
  0.7499999404149307  0.9375000000154046  0.3605200052333331   F   F   F
  0.7499999404149307  0.6874999999963620  0.3605200052333331   F   F   F
  0.7499999404149307  0.4374999701794380  0.3605200052333331   F   F   F
  0.7499999404149307  0.1875000000030838  0.3605200052333331   F   F   F
  0.4166666269218169  0.9375000000154046  0.3605200052333331   F   F   F
  0.4166666269218169  0.6874999999963620  0.3605200052333331   F   F   F
  0.4166666269218169  0.4374999701794380  0.3605200052333331   F   F   F
  0.2499999999799343  0.4374999701794380  0.3605200052333331   F   F   F
  0.0833333358191695  0.0625000000159659  0.3605200052333331   F   F   F
  0.9153899846161216  0.6867033425528098  0.4531845840089473   T   T   T
  0.6656096551602583  0.3784572533608637  0.5031264878738055   T   T   T
  0.3343529569907927  0.3784536761474104  0.5029598827910269   T   T   T
  0.9166666865332829  0.9375000000154046  0.3605200052333331   F   F   F
  0.9166666865332829  0.0625000000159659  0.3605200052333331   F   F   F
  0.7494253146627663  0.8131715876400294  0.4530483715500584   T   T   T
  0.2505284758151933  0.0620083654710104  0.4542444786016372   T   T   T
  0.5833333134730552  0.8124999999834799  0.3605200052333331   F   F   F
  0.5833333134730552  0.3124999999901945  0.3605200052333331   F   F   F
  0.5833333134730552  0.0625000000159659  0.3605200052333331   F   F   F
  0.2499999999799343  0.8124999999834799  0.3605200052333331   F   F   F
  0.2499999999799343  0.5625000000092442  0.3605200052333331   F   F   F
  0.2499999999799343  0.3124999999901945  0.3605200052333331   F   F   F
  0.2499999999799343  0.0625000000159659  0.3605200052333331   F   F   F
  0.7499999404149307  0.5625000000092442  0.3605200052333331   F   F   F
  0.7499999404149307  0.3124999999901945  0.3605200052333331   F   F   F
  0.7499999404149307  0.0625000000159659  0.3605200052333331   F   F   F
  0.4166666269218169  0.8124999999834799  0.3605200052333331   F   F   F
  0.4166666269218169  0.5625000000092442  0.3605200052333331   F   F   F
  0.4166666269218169  0.3124999999901945  0.3605200052333331   F   F   F
  0.7499999404149307  0.8124999999834799  0.3605200052333331   F   F   F
  0.0835558096679455  0.3120437765126503  0.4539737439858254   T   T   T
  0.4166666269218169  0.0625000000159659  0.3605200052333331   F   F   F
  0.4168690674793835  0.0615408330308037  0.4553540749560277   T   T   T
  0.0835381334586600  0.8120246903370568  0.4541813650589748   T   T   T
  0.0839577287305372  0.5624881561149543  0.4538871828397477   T   T   T
  0.4160678895084029  0.5595098943442223  0.4578704045284777   T   T   T
  0.0837710887626328  0.0618709080301630  0.4541658020991772   T   T   T
  0.4155708962012090  0.3113521050462553  0.4573730646441804   T   T   T
  0.8333332538436267  0.7500000000123208  0.4070133268666680   F   F   F
  0.0833333358191695  0.4374999701794380  0.3605200052333331   F   F   F
  0.0833333358191695  0.6874999999963620  0.3605200052333331   F   F   F
  0.0833333358191695  0.9375000000154046  0.3605200052333331   F   F   F
  0.4166666269218169  0.1875000000030838  0.3605200052333331   F   F   F
  0.0833333358191695  0.8124999999834799  0.3605200052333331   F   F   F
  0.8333332538436267  0.4999999999932783  0.4070133268666680   F   F   F
  0.7494567120604489  0.0640409953745546  0.4533170645521354   T   T   T
  0.9159961548874465  0.1866311287743323  0.4529731126018528   T   T   T
  0.5833333134730552  0.5625000000092442  0.3605200052333331   F   F   F
  0.0000000000000000  0.7500000000123208  0.4070133268666680   F   F   F
  0.9153846905154038  0.3127567981092246  0.5467403218703784   T   T   T
  0.2522557762995472  0.3141355463406839  0.4541528894442793   T   T   T
  0.2518813666771961  0.5645996369319652  0.4537526562363985   T   T   T
  0.8333332538436267  0.2500000000190425  0.4070133268666680   F   F   F
  0.5843687034667866  0.3154582683340884  0.4535745481396292   T   T   T
  0.8333332538436267  0.0000000000000000  0.4070133268666680   F   F   F
  0.5000000000021103  0.4999999999932783  0.4070133268666680   F   F   F
  0.0833333358191695  0.1875000000030838  0.3605200052333331   F   F   F
  0.0000000000000000  0.0000000000000000  0.4070133268666680   F   F   F
  0.0000000000000000  0.2500000000190425  0.4070133268666680   F   F   F
  0.0000000000000000  0.4999999999932783  0.4070133268666680   F   F   F
  0.7482514869206430  0.5642641009374882  0.4538185224533083   T   T   T
  0.3333333432766779  0.0000000000000000  0.4070133268666680   F   F   F
  0.3333333432766779  0.4999999999932783  0.4070133268666680   F   F   F
  0.3333333432766779  0.7500000000123208  0.4070133268666680   F   F   F
  0.6666666865533486  0.0000000000000000  0.4070133268666680   F   F   F
  0.6666666865533486  0.2500000000190425  0.4070133268666680   F   F   F
  0.6666666865533486  0.4999999999932783  0.4070133268666680   F   F   F
  0.6666666865533486  0.7500000000123208  0.4070133268666680   F   F   F
  0.1666666716383389  0.0000000000000000  0.4070133268666680   F   F   F
  0.1666666716383389  0.2500000000190425  0.4070133268666680   F   F   F
  0.1666666716383389  0.4999999999932783  0.4070133268666680   F   F   F
  0.1666666716383389  0.7500000000123208  0.4070133268666680   F   F   F
  0.5000000000021103  0.0000000000000000  0.4070133268666680   F   F   F
  0.5000000000021103  0.2500000000190425  0.4070133268666680   F   F   F
  0.5000000000021103  0.7500000000123208  0.4070133268666680   F   F   F
  0.9166666865332829  0.3124999999901945  0.3605200052333331   F   F   F
  0.3333333432766779  0.2500000000190425  0.4070133268666680   F   F   F
  0.7473446045625809  0.3140043894665177  0.4548477057240633   T   T   T
  0.4166987448366332  0.8099009021743605  0.4551430333085899   T   T   T
  0.9159216973272111  0.4368980217378129  0.4535896921545536   T   T   T
  0.2503267515884371  0.8108141079006963  0.4552967497803534   T   T   T
  0.7476802483098673  0.0599495287161345  0.5444545024748852   T   T   T
  0.7519139169006860  0.4353438474372313  0.5488954897826390   T   T   T
  0.4231187527493763  0.4439318247969152  0.5455118013271432   T   T   T
  0.4230343983563325  0.6881085934038761  0.5466191860878958   T   T   T
  0.7477129931200936  0.1851712744836432  0.5494345479406328   T   T   T
  0.4158192243573396  0.9370372839121616  0.5460306483560765   T   T   T
  0.4986109793694425  0.2529139810459925  0.5906311041736146   T   T   T
  0.4157256454954463  0.1914793006400273  0.5464831472816102   T   T   T
  0.0860165566611814  0.6892035305761711  0.5453762033235626   T   T   T
  0.0828779558554933  0.4389075644691633  0.5448639472168670   T   T   T
  0.0835330727521965  0.1889082899607941  0.5454404346157828   T   T   T
  0.4994711697544367  0.1256456198525115  0.4995513658004862   T   T   T
  0.9997539866068101  0.4993800965828803  0.5941862318912263   T   T   T
  0.5806492673592795  0.1849814282445269  0.5501310749720311   T   T   T
  0.9998375469488476  0.7531765802988274  0.5923346091626378   T   T   T
  0.3340247479617218  0.9998495335637172  0.5919995578604741   T   T   T
  0.0002664256907876  0.9981028562512418  0.5924652105828974   T   T   T
  0.0012346252686549  0.2502293947731589  0.5918652674778947   T   T   T
  0.3332939875397455  0.4963905092241402  0.5908827026377690   T   T   T
  0.3354110191451050  0.7411667228885667  0.5904989190597806   T   T   T
  0.6633065073971322  0.2473815064378890  0.5906925569322707   T   T   T
  0.6658462059915103  0.0002173553624320  0.5918910117103510   T   T   T
  0.6657697954615459  0.7413501635381697  0.5904510593154116   T   T   T
  0.6666568024519840  0.4946649213308490  0.5912565223660952   T   T   T
  0.1675216230442173  0.9983023652863993  0.5923225197524542   T   T   T
  0.1685405835168856  0.2483119128798319  0.5930027552425811   T   T   T
  0.1707606618633279  0.7500396822386680  0.5950199405622407   T   T   T
  0.2484865304357610  0.4358113950401402  0.5491348110543742   T   T   T
  0.1657513957874139  0.5027615813986770  0.5874013490447471   T   T   T
  0.3346381825318604  0.2544925060526350  0.5926365836467463   T   T   T
  0.7519328094773450  0.6802282658305853  0.5533166333617007   T   T   T
  0.7495932056036211  0.9342980903717866  0.5475678546990520   T   T   T
  0.2491584446800998  0.6831493400336545  0.5520052666154253   T   T   T
  0.0844360496184911  0.9383659466406067  0.5459450360290543   T   T   T
  0.1670828609614148  0.1243049857334517  0.4993213644452064   T   T   T
  0.2510910218124632  0.0625194232508079  0.5472625020978688   T   T   T
  0.7465748960132397  0.5580207852038737  0.5447833977194774   T   T   T
  0.7480900283432301  0.8080547035199366  0.5456173076969285   T   T   T
  0.2492756204394010  0.3137144987809155  0.5459095804360411   T   T   T
  0.5828603741438920  0.3109684462506878  0.5448847788120913   T   T   T
  0.2530341399473477  0.8125409080132251  0.5506952922792743   T   T   T
  0.5829392706440611  0.0618014790508752  0.5454220680652356   T   T   T
  0.5859476479722798  0.8143269658911190  0.5503946511205412   T   T   T
  0.7484186579019546  0.3118607619854335  0.5485904263356999   T   T   T
  0.5811387376659720  0.5600381684183807  0.5488586904577327   T   T   T
  0.2525546510982203  0.5590843977355527  0.5439193689267737   T   T   T
  0.4159709261166201  0.3197168352612022  0.5525697500822140   T   T   T
  0.5767148520205140  0.4357680587318001  0.5521200920342448   T   T   T
  0.4996047525042194  0.0000112959479936  0.5909701657953186   T   T   T
  0.4164971942627082  0.0653629048268701  0.5473271840153113   T   T   T
  0.0818490097729768  0.5643288976777057  0.5463242789129139   T   T   T
  0.0867108798791885  0.3135378069450277  0.5470282759211454   T   T   T
  0.0823302034178016  0.0632042001565792  0.5475772412718000   T   T   T
  0.9151956348334956  0.9385328230874863  0.5462752418915096   T   T   T
  0.9140251858487285  0.6890016350991410  0.5453534740148660   T   T   T
  0.5838153145381206  0.9377033054378198  0.5461275014445170   T   T   T
  0.9178549732765977  0.1893813979883021  0.5450575092041273   T   T   T
  0.9157364986892272  0.4376321680312668  0.5456563694940951   T   T   T
  0.5795417767762392  0.6861208772159845  0.5474159162198511   T   T   T
  0.2515538715685444  0.9373043753080835  0.5452152106832862   T   T   T
  0.4974928443446741  0.5043938561404880  0.6088510745239974   T   T   T
  0.9177295129613903  0.5638650904092743  0.5471507144102655   T   T   T
  0.4200601134818147  0.5650464419372776  0.5553078806729870   T   T   T
  0.9155365886163561  0.8127588439408046  0.5468499104405569   T   T   T
  0.0851048963722752  0.8125977352442803  0.5473185057431252   T   T   T
  0.8326630363345521  0.8741513701729037  0.4985828600688379   T   T   T
  0.9165622183184728  0.8120367598970335  0.4540524311108339   T   T   T
  0.8324804224143061  0.0036014164651990  0.5934938370121676   T   T   T
  0.7543826591253587  0.4331919492370169  0.6378370045850054   T   T   T
  0.4174764874180587  0.9348779639068580  0.6397869292297067   T   T   T
  0.4204275350842579  0.6756581956046652  0.6335062701237799   T   T   T
  0.5911928157217924  0.8100054589797732  0.6460656915541955   T   T   T
  0.9194326883057876  0.0612250677485225  0.6428149882585137   T   T   T
  0.9133539570459172  0.5622325072836359  0.6411514397421865   T   T   T
  0.9151303219734537  0.3117334881942656  0.6394125292330927   T   T   T
  0.9140135463797868  0.8129591603450498  0.6417592590388886   T   T   T
  0.5821977497599583  0.0663423078414324  0.6386848667431327   T   T   T
  0.5837220120060531  0.3208224326121075  0.6334352447489102   T   T   T
  0.5906673321580790  0.5659645502854894  0.6387578053405637   T   T   T
  0.2476830669255570  0.5737842937815826  0.6288504888926331   T   T   T
  0.7537124620778972  0.6918978041992045  0.6570590811958961   T   T   T
  0.2619207169642024  0.7996370750542072  0.6463216461236068   T   T   T
  0.7461280983951808  0.1935869552700334  0.6459157412299273   T   T   T
  0.9166666865332829  0.5625000000092442  0.3605200052333331   F   F   F
  0.4999548575099816  0.8733415146589243  0.5009961452094129   T   T   T
  0.5003156135052547  0.6211698437997925  0.5000328866612307   T   T   T
  0.8324121807635508  0.6230461642163986  0.5000226489082567   T   T   T
  0.2519998252909779  0.1882197529899051  0.5471665813107919   T   T   T
  0.8325104841588834  0.3730880630261283  0.4997418018127904   T   T   T
  0.8329526634815178  0.1243214591915642  0.4993165212538599   T   T   T
  0.1667509904160080  0.3762648219964859  0.4977515322245393   T   T   T
  0.1677253699644399  0.6242814789387305  0.5000908406723308   T   T   T
  0.5813999237441425  0.4389894808886066  0.6460856354247155   T   T   T
  0.5782547954227427  0.6858633368809589  0.6395651982186419   T   T   T
  0.9184339444839473  0.1868079124733570  0.6408615332975895   T   T   T
  0.2491669269584894  0.3161545486293592  0.6412430120442227   T   T   T
  0.1677883312321012  0.8732392970202799  0.4998277209315912   T   T   T
  0.7487176875128143  0.9367475107225107  0.6396903482592601   T   T   T
  0.4996063781546717  0.3742624794372312  0.4997599960398738   T   T   T
  0.2535690511604344  0.1864620202449269  0.6412231448398326   T   T   T
  0.2510107137755228  0.0594000187466684  0.6423269525858141   T   T   T
  0.8304528313189702  0.7509195018274939  0.5928306969895224   T   T   T
  0.4177129935817454  0.0651318391059000  0.6400585839386126   T   T   T
  0.5816770684652178  0.9355510611861694  0.6392315859394109   T   T   T
  0.5008025176859524  0.7562846703752057  0.5927510187271702   T   T   T
  0.4269172672423248  0.3044299903269928  0.6554180528880544   T   T   T
  0.4128863270555312  0.8126017442710664  0.6396739817800889   T   T   T
  0.3972964187197501  0.5505168578569297  0.6518962607298840   T   T   T
  0.7533995531682895  0.5681436008746555  0.6357898830148201   T   T   T
  0.7411494937352011  0.8097594405426813  0.6400083287686442   T   T   T
  0.7464999582697083  0.3108899674981774  0.6409990338133069   T   T   T
  0.0844542273192852  0.3116123730895048  0.6405660670449240   T   T   T
  0.6665040480852715  0.8743042286365322  0.4987872787224410   T   T   T
  0.0868538253245256  0.5627148802670342  0.6401702467995504   T   T   T
  0.0841446942428720  0.0601482079381525  0.6420403414681594   T   T   T
  0.0871702873517168  0.4365581997407873  0.6397169118517129   T   T   T
  0.0836629881663657  0.1856577478841175  0.6409078048925001   T   T   T
  0.7458258033247710  0.0664509599785228  0.6398032744884310   T   T   T
  0.5790398039340552  0.1920621802086103  0.6456709918031034   T   T   T
  0.4179727225057046  0.1873496959760717  0.6396109424934001   T   T   T
  0.9166666865332829  0.8124999999834799  0.3605200052333331   F   F   F
  0.0844247749464655  0.8122978651539191  0.6422779386492385   T   T   T
  0.2520904694072003  0.9302445064330951  0.6373806917287002   T   T   T
  0.8321127084864464  0.2477384869993452  0.5915408107792033   T   T   T
  0.2544993238201640  0.6775261906574978  0.6635416399300074   T   T   T
  0.8331741220881175  0.5024260270869542  0.5889964861368764   T   T   T
  0.2408224466255443  0.4420410370372778  0.6416757274726442   T   T   T
  0.9164663259173336  0.6872476025821811  0.6388322223446498   T   T   T
  0.9124686008280017  0.4360032147123676  0.6398808576544887   T   T   T
  0.0831336829105270  0.6869981337815535  0.6389615735531439   T   T   T
  0.0844229168103351  0.9353883785040561  0.6409214606292118   T   T   T
  0.4152651254309266  0.4188678788635264  0.6298107126732075   T   T   T
  0.9147219470149164  0.9366309681700574  0.6405830895288036   T   T   T
  0.8333332538436267  0.6249999999803961  0.4070133268666680   F   F   F
  0.0013965398239408  0.1227579266366310  0.6183957444466215   T   T   T
  0.1660643064416278  0.0010861850124623  0.5065496520138666   T   T   T
  0.1645296548366612  0.7513881702067582  0.5034206885385868   T   T   T
  0.5011163122409301  0.7528161042677717  0.5038381199212922   T   T   T
  0.1666666716383389  0.3750000000061604  0.4070133268666680   F   F   F
  0.9997147965357770  0.5001495017611005  0.5068359919880260   T   T   T
  0.6671186604343740  0.2477982516052164  0.5028082354477182   T   T   T
  0.3301882062056131  0.2480090580842104  0.5027940892435124   T   T   T
  0.3331640190634988  0.0011345127001391  0.5057759384606291   T   T   T
  0.3339087443009383  0.7510991505099947  0.5015539490054908   T   T   T
  0.6687042621868524  0.4997090526151318  0.5006855685815307   T   T   T
  0.6659207887174645  0.0000322762052468  0.5053814275794609   T   T   T
  0.3312390124692013  0.4991819921002127  0.5009374759827048   T   T   T
  0.5012557820199137  0.4997683270060010  0.5002400114280356   T   T   T
  0.8359242706085970  0.2479323383619613  0.5030102997950902   T   T   T
  0.6666666865533486  0.6249999999803961  0.4070133268666680   F   F   F
  0.1664185192015494  0.2481416644371136  0.5061315440112146   T   T   T
  0.0000000000000000  0.8749999404036828  0.4070133268666680   F   F   F
  0.5011969395206723  0.2478559254863277  0.5021710400803401   T   T   T
  0.9999136288314704  0.7509650308274947  0.5065385752733556   T   T   T
  0.0009808957724031  0.2498835330184425  0.5058046851411443   T   T   T
  0.0001307330406367  0.9996904668368457  0.5064353240368726   T   T   T
  0.8333332538436267  0.8749999404036828  0.4070133268666680   F   F   F
  0.0000000000000000  0.6249999999803961  0.4070133268666680   F   F   F
  0.3333333432766779  0.6249999999803961  0.4070133268666680   F   F   F
  0.3333333432766779  0.1249999999871179  0.4070133268666680   F   F   F
  0.3333333432766779  0.3750000000061604  0.4070133268666680   F   F   F
  0.8342523334432581  0.0008052254989515  0.5071401889545896   T   T   T
  0.3333333432766779  0.8749999404036828  0.4070133268666680   F   F   F
  0.6666666865533486  0.1249999999871179  0.4070133268666680   F   F   F
  0.6666666865533486  0.3750000000061604  0.4070133268666680   F   F   F
  0.8360910334306967  0.4999388176984268  0.5028047539953830   T   T   T
  0.1636917345259995  0.4998729990835900  0.5020770483684868   T   T   T
  0.6653875446223203  0.7519445199521910  0.5021940312539450   T   T   T
  0.6666666865533486  0.8749999404036828  0.4070133268666680   F   F   F
  0.3260958786831015  0.3734607497642173  0.5926887259197634   T   T   T
  0.0000000000000000  0.3750000000061604  0.4070133268666680   F   F   F
  0.3341457979398189  0.6243795707189042  0.5950557164006317   T   T   T
  0.5000000000021103  0.8749999404036828  0.4070133268666680   F   F   F
  0.8333332538436267  0.1249999999871179  0.4070133268666680   F   F   F
  0.8333332538436267  0.3750000000061604  0.4070133268666680   F   F   F
  0.1666666716383389  0.1249999999871179  0.4070133268666680   F   F   F
  0.8360234239353915  0.7516704844794185  0.5026032214822165   T   T   T
  0.8395152950470507  0.6268755897974305  0.6038687741985641   T   T   T
  0.3316729917534165  0.1198000227995613  0.6133138957953045   T   T   T
  0.9992740167164939  0.8747024347542049  0.6226922896985413   T   T   T
  0.5000000000021103  0.1249999999871179  0.4070133268666680   F   F   F
  0.8320949714363568  0.8757741472183851  0.6185925145810822   T   T   T
  0.8376152677204316  0.3723828465379392  0.6034916529458426   T   T   T
  0.5001889279561714  0.9993262383329778  0.5054571942699518   T   T   T
  0.5005777693591961  0.8767191100492160  0.6094191526395556   T   T   T
  0.6649856788777739  0.1246894588314414  0.6111216226713168   T   T   T
  0.5000000000021103  0.6249999999803961  0.4070133268666680   F   F   F
  0.5037598145936806  0.6249594606156722  0.5940484733386633   T   T   T
  0.5000000000021103  0.3750000000061604  0.4070133268666680   F   F   F
  0.1666666716383389  0.6249999999803961  0.4070133268666680   F   F   F
  0.6711729297601323  0.3720401606560917  0.5934982118200456   T   T   T
  0.3346067277513311  0.8785809141830553  0.6029663223640874   T   T   T
  0.1596891970663149  0.6273276095449056  0.6015647877748803   T   T   T
  0.1666666716383389  0.8749999404036828  0.4070133268666680   F   F   F
  0.5016473622614503  0.3712419246590259  0.5949133522979432   T   T   T
  0.5001709013746907  0.1223580214661879  0.6063600535058816   T   T   T
  0.1664534845274253  0.8732657894472923  0.6182964026499779   T   T   T
  0.1635198117192743  0.3715078468867393  0.6075436979459361   T   T   T
  0.6652778852770871  0.8810842042058876  0.6073777075712921   T   T   T
  0.6666414114700795  0.6260455711519344  0.5933987620091360   T   T   T
  0.0002380743786068  0.3747824229163616  0.6245485985124964   T   T   T
  0.9997536893194579  0.6228345921063492  0.6258451705541810   T   T   T
  0.8346662352492216  0.1229598668386416  0.6320086508261094   T   T   T
  0.0000000000000000  0.1249999999871179  0.4070133268666680   F   F   F
  0.1677450632226854  0.1226908600663959  0.6223167624457365   T   T   T
  0.7496345608675297  0.0018725748841736  0.6041148518220490   T   T   T
  0.5824438172391393  0.0008509173146187  0.6041364932843183   T   T   T
  0.9167584725300747  0.0003216940565235  0.6038360809500708   T   T   T
  0.5847840992113987  0.7497743394928789  0.5996873350189788   T   T   T
  0.5902838363106009  0.5013625902398673  0.5934904365288948   T   T   T
  0.2426530241479198  0.4977668671589524  0.5940731147349432   T   T   T
  0.4167140237398186  0.7503591657406964  0.5942314592165578   T   T   T
  0.5846956847544752  0.2477412861630543  0.5970825564271999   T   T   T
  0.2497534349756914  0.9976911570118279  0.6042065810809487   T   T   T
  0.7549115288661477  0.2474680869660924  0.5929730800835906   T   T   T
  0.2493086038714641  0.2456445563070838  0.6035762284595979   T   T   T
  0.4170944739582624  0.0000811466727116  0.6047421906789014   T   T   T
  0.4148350451056592  0.2486356882825248  0.5912230461211178   T   T   T
  0.2496721742402536  0.7528776664140518  0.5920505145356267   T   T   T
  0.0838580274554993  0.2481704035364792  0.6035608815898919   T   T   T
  0.4169989169993431  0.6260655740212080  0.5009808125000188   T   T   T
  0.0820898286381779  0.3747652045381034  0.5060581850589339   T   T   T