Au  C  O Sr Ti                          
   1.00000000000000     
    23.6707801818999997    0.0000000000000000    0.0000000000000000
     0.0000000000000000   22.3170261383000010    0.0000000000000000
     0.0000000000000000    0.0000000000000000   30.0000000000000000
   Au   C    O    Sr   Ti
    50     2   265    72    72
Selective dynamics
Direct
  0.7155387838905530  0.5245584619586385  0.7529446513474605   T   T   T
  0.5544042474361763  0.2130112604848220  0.7114354560190626   T   T   T
  0.6210083966646396  0.5708882140202923  0.7039235351641574   T   T   T
  0.7216034185282684  0.2567103093019543  0.6916010408935073   T   T   T
  0.2935004577679833  0.7468491956534090  0.6971997704580876   T   T   T
  0.5119459747884840  0.6032996721200935  0.7767973489765220   T   T   T
  0.5785566150381786  0.7257411573917204  0.7939353734732927   T   T   T
  0.2405558387915832  0.4694517321381043  0.7092125773355205   T   T   T
  0.2850667827512338  0.6621587668558856  0.7645981156492544   T   T   T
  0.5979775783035856  0.2927136156825916  0.7850637594274221   T   T   T
  0.5142580827209180  0.4842705041696377  0.6779970551038313   T   T   T
  0.5630844968334764  0.4861122680585008  0.7621556323449720   T   T   T
  0.5470334925210244  0.3875732881268139  0.8287002977342652   T   T   T
  0.7633753407466121  0.4306579455378448  0.7044214373174750   T   T   T
  0.3917470245892443  0.8171899207865720  0.7065059082513080   T   T   T
  0.4637664021144354  0.6952088896384088  0.8299212724104689   T   T   T
  0.4380627544137514  0.2269750881393662  0.6976122817987793   T   T   T
  0.3699481088560284  0.2986873814640849  0.7554724991382650   T   T   T
  0.3494674818982165  0.4996685223285513  0.6977355048226256   T   T   T
  0.4279791098268517  0.3718592532271742  0.8162190448133951   T   T   T
  0.5964472958698993  0.7845954548440117  0.7130102345033537   T   T   T
  0.6348261021073205  0.5838963386768413  0.8000705723890645   T   T   T
  0.2894050153490189  0.5380469826422192  0.7775294060414040   T   T   T
  0.4837989994645857  0.2697221739577391  0.7751593164957140   T   T   T
  0.4522152636796120  0.5796116355409133  0.7027633422369802   T   T   T
  0.4625706795026902  0.5737093062282990  0.8640286357063414   T   T   T
  0.7065193318397041  0.7568332092623162  0.6883657166939200   T   T   T
  0.6556323089077288  0.4404280188513954  0.8123227309698988   T   T   T
  0.3682716677281770  0.6189336090365314  0.8202689263033401   T   T   T
  0.5696017461638097  0.5101637278821194  0.8569220786904460   T   T   T
  0.6616586612555994  0.1977272325261831  0.7535120226814666   T   T   T
  0.4696731750672573  0.4515361479611482  0.8801944308203228   T   T   T
  0.5175032410096673  0.3769913481845253  0.7325461823710373   T   T   T
  0.2822121327610826  0.3398573010119718  0.7022827346937703   T   T   T
  0.6694541593899551  0.6811072092109722  0.7487877369108138   T   T   T
  0.3976459508547017  0.3817164154944507  0.6900552905044053   T   T   T
  0.7327913949487226  0.6145942300329585  0.6940546671049447   T   T   T
  0.6169436796281529  0.3202300199426248  0.6960437063981683   T   T   T
  0.3254628834834147  0.4146870693656516  0.7691991456038795   T   T   T
  0.4153637106763651  0.6952091074452950  0.6994128266824337   T   T   T
  0.7007410256681135  0.3432539303054342  0.7572487303982471   T   T   T
  0.7737309604190976  0.4283309777806652  0.7944250329030282   T   T   T
  0.2568143732559845  0.5928328351312530  0.6945718977174341   T   T   T
  0.6484126643727643  0.4453346633844317  0.6945146842877726   T   T   T
  0.5646287703063161  0.6394756234228306  0.8610501842954196   T   T   T
  0.5401531630826725  0.6678219604323089  0.7017511428300727   T   T   T
  0.4437823648419729  0.4733722695237009  0.7560854215999274   T   T   T
  0.3740834329420170  0.7397140405128493  0.7787675393095026   T   T   T
  0.3753108996596783  0.4930655683128555  0.8325862491167412   T   T   T
  0.4857969526565546  0.7752613164356132  0.7544528398681971   T   T   T
  0.7672425483142452  0.1264171870245438  0.7384910973616146   T   T   T
  0.7202617791567913  0.1377423350960059  0.7601263027875037   T   T   T
  0.4143487670690651  0.8117417224678426  0.5479455419788987   T   T   T
  0.7490726383930477  0.6886771519414850  0.4574519553852158   T   T   T
  0.7498640864023196  0.4382486063101689  0.4557267560224331   T   T   T
  0.7507577203568614  0.1895680022468976  0.4552908182552395   T   T   T
  0.4171614206489183  0.9358219354326481  0.4540287699339790   T   T   T
  0.4171291757824027  0.6847308504335824  0.4546973411763794   T   T   T
  0.4164422784312009  0.4354630497498502  0.4538095128784420   T   T   T
  0.0845343753306793  0.6868800195678402  0.4530943145771755   T   T   T
  0.0838814719537014  0.9366475176590954  0.4534997112920634   T   T   T
  0.0828093426494289  0.4367908288445595  0.4528567780814058   T   T   T
  0.0838443470262315  0.1865585105205542  0.4529712412725708   T   T   T
  0.8107769404488852  0.1091006384724808  0.7232587594332596   T   T   T
  0.0833333358191695  0.3124999999901945  0.3605200052333331   F   F   F
  0.9161051266668627  0.5622009834761390  0.4540810856323156   T   T   T
  0.9163228522772695  0.0618929154129881  0.4541887578841814   T   T   T
  0.9162307215926396  0.3121433972162205  0.4538871864893815   T   T   T
  0.4171107510189004  0.1871339583059533  0.4535126997331707   T   T   T
  0.2521094412871764  0.6876348957383196  0.4561047582304937   T   T   T
  0.9165223307197284  0.9368329871352882  0.4535170910251378   T   T   T
  0.5826825543336709  0.1903213890919191  0.4555651290260199   T   T   T
  0.0001646557256061  0.1249245191662314  0.4983323813890469   T   T   T
  0.5828625719463342  0.8106284778184811  0.4552551386266430   T   T   T
  0.0000088012118477  0.3734274510992697  0.4984225124150380   T   T   T
  0.9998507933644355  0.6271139634374252  0.4977054430051005   T   T   T
  0.3336196353860493  0.1256532429337051  0.4984911778601786   T   T   T
  0.0001115887314373  0.8751942697708743  0.4996467051139122   T   T   T
  0.3333681046911054  0.8736313450471038  0.4992141604525560   T   T   T
  0.6659591311530951  0.1263407776740907  0.4989204067798171   T   T   T
  0.2511612794153480  0.4392693869143459  0.4549298499014396   T   T   T
  0.7495060055771062  0.9384032713742770  0.4553305832207913   T   T   T
  0.2498598560426702  0.1884897695753801  0.4541011571573866   T   T   T
  0.9179208080042190  0.0632038392908977  0.5475525401090285   T   T   T
  0.3356290434820876  0.6257690074250981  0.5037730167143909   T   T   T
  0.5827334685848459  0.9371597147892243  0.4543324210983461   T   T   T
  0.5828168854550552  0.6861543775861491  0.4546087668731330   T   T   T
  0.5827848245859083  0.4396307987604767  0.4563943214260869   T   T   T
  0.2500502910745037  0.9360802435853729  0.4540339985765299   T   T   T
  0.6653893051853191  0.6259473919207715  0.5029948027372169   T   T   T
  0.5844907561451983  0.5628443176019505  0.4548359098852955   T   T   T
  0.5832088719797003  0.0636458456530988  0.4538406090324522   T   T   T
  0.9166666865332829  0.6874999999963620  0.3605200052333331   F   F   F
  0.9166666865332829  0.4374999701794380  0.3605200052333331   F   F   F
  0.9166666865332829  0.1875000000030838  0.3605200052333331   F   F   F
  0.5833333134730552  0.9375000000154046  0.3605200052333331   F   F   F
  0.5833333134730552  0.6874999999963620  0.3605200052333331   F   F   F
  0.5833333134730552  0.4374999701794380  0.3605200052333331   F   F   F
  0.5833333134730552  0.1875000000030838  0.3605200052333331   F   F   F
  0.0833333358191695  0.5625000000092442  0.3605200052333331   F   F   F
  0.2499999999799343  0.9375000000154046  0.3605200052333331   F   F   F
  0.2499999999799343  0.6874999999963620  0.3605200052333331   F   F   F
  0.2499999999799343  0.1875000000030838  0.3605200052333331   F   F   F
  0.7499999404149307  0.9375000000154046  0.3605200052333331   F   F   F
  0.7499999404149307  0.6874999999963620  0.3605200052333331   F   F   F
  0.7499999404149307  0.4374999701794380  0.3605200052333331   F   F   F
  0.7499999404149307  0.1875000000030838  0.3605200052333331   F   F   F
  0.4166666269218169  0.9375000000154046  0.3605200052333331   F   F   F
  0.4166666269218169  0.6874999999963620  0.3605200052333331   F   F   F
  0.4166666269218169  0.4374999701794380  0.3605200052333331   F   F   F
  0.2499999999799343  0.4374999701794380  0.3605200052333331   F   F   F
  0.0833333358191695  0.0625000000159659  0.3605200052333331   F   F   F
  0.9153875073089092  0.6867116405978360  0.4531842682576819   T   T   T
  0.6656022383383045  0.3784645433320896  0.5031339596693101   T   T   T
  0.3343498026612592  0.3784707376908875  0.5029431466462668   T   T   T
  0.9166666865332829  0.9375000000154046  0.3605200052333331   F   F   F
  0.9166666865332829  0.0625000000159659  0.3605200052333331   F   F   F
  0.7494309094589051  0.8131734633298103  0.4530531687047685   T   T   T
  0.2505466195560724  0.0620050763997850  0.4542416807179109   T   T   T
  0.5833333134730552  0.8124999999834799  0.3605200052333331   F   F   F
  0.5833333134730552  0.3124999999901945  0.3605200052333331   F   F   F
  0.5833333134730552  0.0625000000159659  0.3605200052333331   F   F   F
  0.2499999999799343  0.8124999999834799  0.3605200052333331   F   F   F
  0.2499999999799343  0.5625000000092442  0.3605200052333331   F   F   F
  0.2499999999799343  0.3124999999901945  0.3605200052333331   F   F   F
  0.2499999999799343  0.0625000000159659  0.3605200052333331   F   F   F
  0.7499999404149307  0.5625000000092442  0.3605200052333331   F   F   F
  0.7499999404149307  0.3124999999901945  0.3605200052333331   F   F   F
  0.7499999404149307  0.0625000000159659  0.3605200052333331   F   F   F
  0.4166666269218169  0.8124999999834799  0.3605200052333331   F   F   F
  0.4166666269218169  0.5625000000092442  0.3605200052333331   F   F   F
  0.4166666269218169  0.3124999999901945  0.3605200052333331   F   F   F
  0.7499999404149307  0.8124999999834799  0.3605200052333331   F   F   F
  0.0835475960352333  0.3120415982688240  0.4539765799366378   T   T   T
  0.4166666269218169  0.0625000000159659  0.3605200052333331   F   F   F
  0.4168768245753013  0.0615440400039714  0.4553485642208196   T   T   T
  0.0835236368982404  0.8120290073157560  0.4541789618828976   T   T   T
  0.0839443758413927  0.5624815675505735  0.4538740545128215   T   T   T
  0.4160494461465289  0.5595197146109057  0.4578652032084402   T   T   T
  0.0837583103914846  0.0618657819147267  0.4541728314805835   T   T   T
  0.4155640181267837  0.3113710808937430  0.4573596735088905   T   T   T
  0.8333332538436267  0.7500000000123208  0.4070133268666680   F   F   F
  0.0833333358191695  0.4374999701794380  0.3605200052333331   F   F   F
  0.0833333358191695  0.6874999999963620  0.3605200052333331   F   F   F
  0.0833333358191695  0.9375000000154046  0.3605200052333331   F   F   F
  0.4166666269218169  0.1875000000030838  0.3605200052333331   F   F   F
  0.0833333358191695  0.8124999999834799  0.3605200052333331   F   F   F
  0.8333332538436267  0.4999999999932783  0.4070133268666680   F   F   F
  0.7494635604076304  0.0640256547583041  0.4533134504160458   T   T   T
  0.9159764925503401  0.1866331229355956  0.4529889476977618   T   T   T
  0.5833333134730552  0.5625000000092442  0.3605200052333331   F   F   F
  0.0000000000000000  0.7500000000123208  0.4070133268666680   F   F   F
  0.9153791366325261  0.3127545422888892  0.5467502708142656   T   T   T
  0.2522522191274339  0.3141217464386869  0.4541444533074144   T   T   T
  0.2519023496147129  0.5646019751928293  0.4537419242443196   T   T   T
  0.8333332538436267  0.2500000000190425  0.4070133268666680   F   F   F
  0.5843531926204241  0.3154447069043212  0.4535678087399054   T   T   T
  0.8333332538436267  0.0000000000000000  0.4070133268666680   F   F   F
  0.5000000000021103  0.4999999999932783  0.4070133268666680   F   F   F
  0.0833333358191695  0.1875000000030838  0.3605200052333331   F   F   F
  0.0000000000000000  0.0000000000000000  0.4070133268666680   F   F   F
  0.0000000000000000  0.2500000000190425  0.4070133268666680   F   F   F
  0.0000000000000000  0.4999999999932783  0.4070133268666680   F   F   F
  0.7482458136574396  0.5642592528868176  0.4538152714392108   T   T   T
  0.3333333432766779  0.0000000000000000  0.4070133268666680   F   F   F
  0.3333333432766779  0.4999999999932783  0.4070133268666680   F   F   F
  0.3333333432766779  0.7500000000123208  0.4070133268666680   F   F   F
  0.6666666865533486  0.0000000000000000  0.4070133268666680   F   F   F
  0.6666666865533486  0.2500000000190425  0.4070133268666680   F   F   F
  0.6666666865533486  0.4999999999932783  0.4070133268666680   F   F   F
  0.6666666865533486  0.7500000000123208  0.4070133268666680   F   F   F
  0.1666666716383389  0.0000000000000000  0.4070133268666680   F   F   F
  0.1666666716383389  0.2500000000190425  0.4070133268666680   F   F   F
  0.1666666716383389  0.4999999999932783  0.4070133268666680   F   F   F
  0.1666666716383389  0.7500000000123208  0.4070133268666680   F   F   F
  0.5000000000021103  0.0000000000000000  0.4070133268666680   F   F   F
  0.5000000000021103  0.2500000000190425  0.4070133268666680   F   F   F
  0.5000000000021103  0.7500000000123208  0.4070133268666680   F   F   F
  0.9166666865332829  0.3124999999901945  0.3605200052333331   F   F   F
  0.3333333432766779  0.2500000000190425  0.4070133268666680   F   F   F
  0.7473448023371378  0.3140199456052282  0.4548480055815241   T   T   T
  0.4166954903897948  0.8098867769285034  0.4551326419459395   T   T   T
  0.9159236849502804  0.4368950927847129  0.4535917134308031   T   T   T
  0.2503315233271466  0.8108141801704339  0.4552960453946241   T   T   T
  0.7477096107163165  0.0599429984548427  0.5444580605116449   T   T   T
  0.7519096610189424  0.4353479613982775  0.5489042606963574   T   T   T
  0.4231208471255939  0.4439386663209987  0.5455048258851908   T   T   T
  0.4230275673085856  0.6881073313873451  0.5466116813332869   T   T   T
  0.7477001782792355  0.1851675929625404  0.5494582865855457   T   T   T
  0.4158169523824331  0.9370211406017835  0.5460358033563394   T   T   T
  0.4986058692114904  0.2529093381681391  0.5906582775658745   T   T   T
  0.4157298159119080  0.1914829891239310  0.5464780416372615   T   T   T
  0.0859923312134039  0.6891960117963915  0.5453707220638504   T   T   T
  0.0828814950681045  0.4389189697178651  0.5448600728703048   T   T   T
  0.0835318089592819  0.1889030913778168  0.5454517340390184   T   T   T
  0.4994673592356184  0.1256393103485233  0.4995630648831618   T   T   T
  0.9997560813477612  0.4993768797783776  0.5941813136401698   T   T   T
  0.5806380278435445  0.1849879988374943  0.5501238405268855   T   T   T
  0.9998345359933949  0.7531681618717760  0.5923341953590440   T   T   T
  0.3340247651662857  0.9998397892804372  0.5920008967294657   T   T   T
  0.0002535043469348  0.9981478732294056  0.5924620819436818   T   T   T
  0.0012361199674819  0.2502171159620324  0.5918659839875626   T   T   T
  0.3332880453058382  0.4963864455521003  0.5908720823257361   T   T   T
  0.3353984529867081  0.7411834788957133  0.5904947780633023   T   T   T
  0.6633203799042486  0.2474011578487908  0.5906835775897276   T   T   T
  0.6658366410639809  0.0002339448762650  0.5919046378765432   T   T   T
  0.6657512641116812  0.7413527163625933  0.5904532309689438   T   T   T
  0.6666589816466990  0.4946251638369724  0.5912761079945409   T   T   T
  0.1675312627290884  0.9982983056334108  0.5923326099701710   T   T   T
  0.1685430468493737  0.2483320988153093  0.5930222216545221   T   T   T
  0.1707694939842127  0.7500439038532699  0.5950339315862142   T   T   T
  0.2484858272482523  0.4358118344278043  0.5491538877663581   T   T   T
  0.1657517459923069  0.5027823232507369  0.5873961955643722   T   T   T
  0.3346446787576419  0.2544885951990202  0.5926308538026418   T   T   T
  0.7519296310914400  0.6802231710248012  0.5533169272811078   T   T   T
  0.7495985437545966  0.9342976339697883  0.5475670459874106   T   T   T
  0.2491591953126533  0.6831423188980869  0.5520087951503246   T   T   T
  0.0844358330334025  0.9383211591716610  0.5459539352165355   T   T   T
  0.1670736489536271  0.1243074091615223  0.4993216548275718   T   T   T
  0.2510588155957059  0.0625248491637355  0.5472778876132640   T   T   T
  0.7465738539089248  0.5580307609405061  0.5447787692038063   T   T   T
  0.7480848590697967  0.8080508545386135  0.5456263009966212   T   T   T
  0.2492583211614487  0.3137047270711021  0.5459068830849608   T   T   T
  0.5828620222638257  0.3109823416809411  0.5448984055964508   T   T   T
  0.2530161751836602  0.8125289561247466  0.5506944705716881   T   T   T
  0.5829376336627078  0.0618038479693922  0.5454294539016339   T   T   T
  0.5859556806467086  0.8143277927036767  0.5503915573703325   T   T   T
  0.7484191300480111  0.3118736502562712  0.5486068753961073   T   T   T
  0.5811378115627202  0.5600364201098453  0.5488630686606797   T   T   T
  0.2525536672643708  0.5590737639277670  0.5439136978349178   T   T   T
  0.4159757773460197  0.3197215447654541  0.5525722954494283   T   T   T
  0.5767235831791816  0.4357759346757419  0.5521352706769134   T   T   T
  0.4996043772350537  0.0000011734796851  0.5909748136967793   T   T   T
  0.4165151088468834  0.0653606314236683  0.5473329114431759   T   T   T
  0.0818564900200836  0.5643333331227239  0.5463308195450098   T   T   T
  0.0866875214187591  0.3135227027691296  0.5470158877584432   T   T   T
  0.0823296632298970  0.0631845770675107  0.5475742381567822   T   T   T
  0.9152157591700416  0.9385321664461491  0.5462799156129258   T   T   T
  0.9140400323637038  0.6889945470213537  0.5453625459330457   T   T   T
  0.5837941818976520  0.9376832453979695  0.5461369711033238   T   T   T
  0.9178696625058806  0.1893659222256582  0.5450509292486768   T   T   T
  0.9157380771043496  0.4376256655661087  0.5456590865059334   T   T   T
  0.5795389429129159  0.6861145024592599  0.5474288659890467   T   T   T
  0.2515557829792299  0.9373060470357472  0.5452177891406708   T   T   T
  0.4975068556316453  0.5044049714788490  0.6088483432315634   T   T   T
  0.9177253084713215  0.5638634129777951  0.5471512063441250   T   T   T
  0.4200740245617593  0.5650409312594027  0.5553018618813458   T   T   T
  0.9155349209753832  0.8127674108904861  0.5468446377048487   T   T   T
  0.0851205026633256  0.8126070529418558  0.5473354537241628   T   T   T
  0.8326779491159552  0.8741671678803706  0.4985903546894452   T   T   T
  0.9165753550666730  0.8120321067142819  0.4540438663525850   T   T   T
  0.8324538125674008  0.0035689599944015  0.5934897390517303   T   T   T
  0.7543863285062888  0.4331542981605970  0.6378337859681789   T   T   T
  0.4174798492178378  0.9348803103140766  0.6397936184924015   T   T   T
  0.4204153478512931  0.6756314894944012  0.6334770339857350   T   T   T
  0.5911813910853650  0.8099911516826375  0.6460428619196261   T   T   T
  0.9194398949157557  0.0612254350769451  0.6428293398788560   T   T   T
  0.9133547539711550  0.5622238262921098  0.6411477194878724   T   T   T
  0.9151145150301122  0.3117279784461328  0.6394232157274616   T   T   T
  0.9140193030238470  0.8129725768977839  0.6417475224049787   T   T   T
  0.5821781568310485  0.0663298512147920  0.6386828496850259   T   T   T
  0.5836875939320729  0.3208435389041063  0.6334112461775433   T   T   T
  0.5906501812508712  0.5659512777620308  0.6387795489690573   T   T   T
  0.2476798322275550  0.5737768401594814  0.6288482485032949   T   T   T
  0.7537178042578259  0.6919073016517350  0.6570773488266302   T   T   T
  0.2619067759367085  0.7996190934754921  0.6463258539148808   T   T   T
  0.7460992024808417  0.1935731507641225  0.6459147705576749   T   T   T
  0.9166666865332829  0.5625000000092442  0.3605200052333331   F   F   F
  0.4999352660565109  0.8733414276634495  0.5009853003736447   T   T   T
  0.5003203550655515  0.6211688010146460  0.5000323893334548   T   T   T
  0.8324142139169722  0.6230539887370734  0.5000213988223743   T   T   T
  0.2519979127902187  0.1882176493875151  0.5471805673944249   T   T   T
  0.8324918742558349  0.3731038639311730  0.4997550109127820   T   T   T
  0.8329386274019427  0.1242828355630619  0.4993037812581665   T   T   T
  0.1667670549374683  0.3762770411727293  0.4977456239711180   T   T   T
  0.1677312045249005  0.6242885176912343  0.5000915152232852   T   T   T
  0.5814210735458875  0.4389614368693878  0.6460878466000591   T   T   T
  0.5782435182362023  0.6858467820820439  0.6395722945739167   T   T   T
  0.9184545073486891  0.1868065784803012  0.6408679936017305   T   T   T
  0.2491833825978615  0.3161593709045425  0.6412421657403049   T   T   T
  0.1677834643317249  0.8732446139106750  0.4998272765922681   T   T   T
  0.7487058939149712  0.9367385874864683  0.6396886823840208   T   T   T
  0.4996300086789019  0.3742625514501294  0.4997561676589912   T   T   T
  0.2535665154539976  0.1864595235691156  0.6412270036046812   T   T   T
  0.2510313739229005  0.0593959528386301  0.6423343258662259   T   T   T
  0.8304470614511732  0.7509324139061982  0.5928148281629398   T   T   T
  0.4177100227286088  0.0651361259976425  0.6400592646867312   T   T   T
  0.5816664102554358  0.9355510934927153  0.6392290677370099   T   T   T
  0.5008111994417744  0.7562973583696370  0.5927530715590354   T   T   T
  0.4268794036175370  0.3044181307173471  0.6554113932640658   T   T   T
  0.4128739197042289  0.8126103882112100  0.6396714129190293   T   T   T
  0.3973085291990273  0.5505134224946348  0.6518893305511958   T   T   T
  0.7534050737531868  0.5681490062189736  0.6357958417555654   T   T   T
  0.7411483119199989  0.8097643396502954  0.6400067484216568   T   T   T
  0.7465118721302290  0.3109083955128369  0.6410109571503086   T   T   T
  0.0844565364906159  0.3116146498721629  0.6405645983542011   T   T   T
  0.6664983056186800  0.8742808005622875  0.4987715062997809   T   T   T
  0.0868628234480344  0.5627202984811626  0.6401659352295529   T   T   T
  0.0841502247031475  0.0601524540824063  0.6420319747374252   T   T   T
  0.0871815303262548  0.4365542756911701  0.6397147946537556   T   T   T
  0.0836722450489270  0.1856583016450985  0.6409122304685551   T   T   T
  0.7458552183333508  0.0664633880991122  0.6398058512904105   T   T   T
  0.5790779728024136  0.1920593808871590  0.6456405710919149   T   T   T
  0.4179532278508991  0.1873534910720239  0.6396171770477564   T   T   T
  0.9166666865332829  0.8124999999834799  0.3605200052333331   F   F   F
  0.0844273698703540  0.8122968410888964  0.6422773931964925   T   T   T
  0.2520822151864977  0.9302485227240942  0.6373836210978655   T   T   T
  0.8321053333568998  0.2477250013338601  0.5915461619116263   T   T   T
  0.2544912433846444  0.6775381803393543  0.6635419740868893   T   T   T
  0.8331657343610116  0.5024483204325805  0.5889994088725211   T   T   T
  0.2408274260565034  0.4420452487296089  0.6416846645676342   T   T   T
  0.9164538079118129  0.6872694998776359  0.6388468723419405   T   T   T
  0.9124889409121406  0.4359892742023688  0.6398744180761901   T   T   T
  0.0831344548836502  0.6870001221692875  0.6389616176511874   T   T   T
  0.0844134523505891  0.9353870051536235  0.6409213348932342   T   T   T
  0.4153004036436732  0.4188994023727565  0.6298053043979526   T   T   T
  0.9147066868152423  0.9366676078259384  0.6405922856427997   T   T   T
  0.8333332538436267  0.6249999999803961  0.4070133268666680   F   F   F
  0.0013966521591979  0.1227538963946757  0.6184173638938535   T   T   T
  0.1660652077388319  0.0010652115890462  0.5065540779218648   T   T   T
  0.1645339714367770  0.7513892567525361  0.5034119124909104   T   T   T
  0.5011115911794358  0.7528154964459822  0.5038259889200180   T   T   T
  0.1666666716383389  0.3750000000061604  0.4070133268666680   F   F   F
  0.9997164475828119  0.5001535563894706  0.5068387248352650   T   T   T
  0.6671168835336501  0.2478067865334954  0.5028081019239239   T   T   T
  0.3301960421265980  0.2480184271433983  0.5027985547295053   T   T   T
  0.3331673993590180  0.0011145092323820  0.5057751849888206   T   T   T
  0.3339004152603360  0.7511004000811994  0.5015510648212124   T   T   T
  0.6686950001458654  0.4997137093062892  0.5006885308724982   T   T   T
  0.6659290795824412  0.0000249220804444  0.5054008385769844   T   T   T
  0.3312444392870839  0.4991890830750069  0.5009328953442477   T   T   T
  0.5012631255238770  0.4997714445671640  0.5002418979857822   T   T   T
  0.8359118321761487  0.2479397799829301  0.5030287036013714   T   T   T
  0.6666666865533486  0.6249999999803961  0.4070133268666680   F   F   F
  0.1664258318752798  0.2481512034638939  0.5061328901050958   T   T   T
  0.0000000000000000  0.8749999404036828  0.4070133268666680   F   F   F
  0.5012024420672858  0.2478713596988542  0.5021717150728973   T   T   T
  0.9999116222097433  0.7509626785958480  0.5065344954309903   T   T   T
  0.0009749044800145  0.2498877300790687  0.5058091023123225   T   T   T
  0.0001298831930211  0.9996765554220141  0.5064399069158991   T   T   T
  0.8333332538436267  0.8749999404036828  0.4070133268666680   F   F   F
  0.0000000000000000  0.6249999999803961  0.4070133268666680   F   F   F
  0.3333333432766779  0.6249999999803961  0.4070133268666680   F   F   F
  0.3333333432766779  0.1249999999871179  0.4070133268666680   F   F   F
  0.3333333432766779  0.3750000000061604  0.4070133268666680   F   F   F
  0.8342543114524714  0.0007903032589957  0.5071449286713283   T   T   T
  0.3333333432766779  0.8749999404036828  0.4070133268666680   F   F   F
  0.6666666865533486  0.1249999999871179  0.4070133268666680   F   F   F
  0.6666666865533486  0.3750000000061604  0.4070133268666680   F   F   F
  0.8360838445584265  0.4999472097089338  0.5028018487494833   T   T   T
  0.1637040308441173  0.4998852062320206  0.5020771389217107   T   T   T
  0.6653812946770841  0.7519373424632084  0.5021868886181790   T   T   T
  0.6666666865533486  0.8749999404036828  0.4070133268666680   F   F   F
  0.3261077124777353  0.3734631137807737  0.5926891704194408   T   T   T
  0.0000000000000000  0.3750000000061604  0.4070133268666680   F   F   F
  0.3341421591597722  0.6243884358105615  0.5950509432834770   T   T   T
  0.5000000000021103  0.8749999404036828  0.4070133268666680   F   F   F
  0.8333332538436267  0.1249999999871179  0.4070133268666680   F   F   F
  0.8333332538436267  0.3750000000061604  0.4070133268666680   F   F   F
  0.1666666716383389  0.1249999999871179  0.4070133268666680   F   F   F
  0.8360197966784462  0.7516738184019102  0.5026009084070427   T   T   T
  0.8395090769833460  0.6268719740389850  0.6038735571359161   T   T   T
  0.3316867330401189  0.1197907287150605  0.6133411474884668   T   T   T
  0.9992705361069902  0.8747184011642801  0.6226933660934699   T   T   T
  0.5000000000021103  0.1249999999871179  0.4070133268666680   F   F   F
  0.8320818469381267  0.8757981791636534  0.6186211824614385   T   T   T
  0.8376034207087466  0.3723762550968955  0.6034964545233499   T   T   T
  0.5001778290991062  0.9993124354323671  0.5054586054634277   T   T   T
  0.5005659712966871  0.8767209085735648  0.6094312478072988   T   T   T
  0.6649865996954469  0.1246676985811451  0.6111446379081780   T   T   T
  0.5000000000021103  0.6249999999803961  0.4070133268666680   F   F   F
  0.5037637051978038  0.6249525422958835  0.5940425870031483   T   T   T
  0.5000000000021103  0.3750000000061604  0.4070133268666680   F   F   F
  0.1666666716383389  0.6249999999803961  0.4070133268666680   F   F   F
  0.6711582533142114  0.3720360190979806  0.5935010610209643   T   T   T
  0.3346011877947263  0.8785799975582981  0.6029662302717667   T   T   T
  0.1596847603048574  0.6273296479761318  0.6015619587466517   T   T   T
  0.1666666716383389  0.8749999404036828  0.4070133268666680   F   F   F
  0.5016503625742916  0.3712383101259232  0.5949108502833262   T   T   T
  0.5001706778945859  0.1223499502484132  0.6063663372871940   T   T   T
  0.1664572591040309  0.8732770233709919  0.6183007344004592   T   T   T
  0.1635275053977503  0.3715031654928673  0.6075439530401544   T   T   T
  0.6652702769416818  0.8810910888528675  0.6073816328078685   T   T   T
  0.6666358094450343  0.6260343056598838  0.5933988018085440   T   T   T
  0.0002468981298670  0.3747697422610810  0.6245622184321395   T   T   T
  0.9997537045300580  0.6228384312155478  0.6258675346541720   T   T   T
  0.8346704209362491  0.1229694409080816  0.6319794082536556   T   T   T
  0.0000000000000000  0.1249999999871179  0.4070133268666680   F   F   F
  0.1677482896016790  0.1226818366639570  0.6223205163752956   T   T   T
  0.7496296258246553  0.0018736750499051  0.6041220164008251   T   T   T
  0.5824425633695559  0.0008550184439310  0.6041433464280708   T   T   T
  0.9167574215708107  0.0003041585714281  0.6038312912933138   T   T   T
  0.5847883100448422  0.7497816347638850  0.5996958482417634   T   T   T
  0.5902935978166249  0.5013578855762176  0.5935010143854034   T   T   T
  0.2426468694303432  0.4977731347820838  0.5940734408820385   T   T   T
  0.4167010500564572  0.7503535401342820  0.5942291493299641   T   T   T
  0.5847082714696054  0.2477136862199906  0.5970668515134991   T   T   T
  0.2497380693024095  0.9976787693228477  0.6042188037194385   T   T   T
  0.7548957813920594  0.2474710726326912  0.5929780339919454   T   T   T
  0.2493124914762557  0.2456582299275168  0.6035804422417267   T   T   T
  0.4170948854666294  0.0000874317146856  0.6047562971880045   T   T   T
  0.4148446459497289  0.2486407030669179  0.5912199378650422   T   T   T
  0.2496767405658555  0.7528434357294783  0.5920640104136417   T   T   T
  0.0838428288085898  0.2481724595058383  0.6035593073635483   T   T   T
  0.4169938167767281  0.6260730736554962  0.5009839202032127   T   T   T
  0.0820921535016018  0.3747701214729162  0.5060542079643845   T   T   T