Au  C  H  O Sr Ti                       
   1.00000000000000     
    23.6707801818999997    0.0000000000000000    0.0000000000000000
     0.0000000000000000   22.3170261383000010    0.0000000000000000
     0.0000000000000000    0.0000000000000000   30.0000000000000000
   Au   C    H    O    Sr   Ti
    50     2     2   265    72    72
Selective dynamics
Direct
  0.7127917261360537  0.5235726732226382  0.7531966600523177   F   F   F
  0.2933486297884542  0.7470282280012199  0.6967349393015994   F   F   F
  0.5107678491843544  0.6049930343304979  0.7775171932931144   F   F   F
  0.5781600381633751  0.7265793829600113  0.7937790589983251   F   F   F
  0.2397873163177380  0.4700789934065668  0.7089246521182559   F   F   F
  0.2847617780593055  0.6634312349111511  0.7644336046261273   F   F   F
  0.5960673105158634  0.3029066545355690  0.7869150204879887   F   F   F
  0.5136062230830518  0.4843081132487583  0.6780556329405272   F   F   F
  0.5611819900335533  0.4873066432226736  0.7627828890607589   F   F   F
  0.4819651819725337  0.2719958738801225  0.7750989117195317   F   F   F
  0.5410121850865295  0.3908467286577988  0.8324748108545990   F   F   F
  0.5479926090617937  0.2157013184845766  0.7099643659107713   F   F   F
  0.3911753679518384  0.8178920071579157  0.7062823028017959   F   F   F
  0.4316095514993492  0.2277416112840029  0.6987816101707836   F   F   F
  0.3681448257534470  0.3013794217694112  0.7570850530111386   F   F   F
  0.4246543761242094  0.3744111678732267  0.8189217982022114   F   F   F
  0.5960517599395985  0.7850608242199186  0.7127598022704333   F   F   F
  0.6328838413301980  0.5848873528382157  0.7997959857891601   F   F   F
  0.7313067006553524  0.6144945642852093  0.6940681019093020   F   F   F
  0.4855852724227887  0.7773610307693701  0.7547965228570490   F   F   F
  0.7617054821616236  0.4286206179678018  0.7058081120740525   F   F   F
  0.7503684445869965  0.2550387509226013  0.6952520554407684   T   T   T
  0.6201058147101364  0.5701718308433357  0.7039738934746467   F   F   F
  0.4634950760196972  0.6979653750028803  0.8304272269104374   F   F   F
  0.6191345609398695  0.3159675708425098  0.6964391466382267   F   F   F
  0.3486209732346026  0.5008042277332621  0.6978392575002843   F   F   F
  0.7027570071963822  0.3403134752581991  0.7570970219548698   F   F   F
  0.2882837430148442  0.5395181396923334  0.7773120216278784   F   F   F
  0.5679452579635296  0.5118585378763427  0.8573410488558508   F   F   F
  0.6569386122330414  0.2086484639616728  0.7521958584010804   T   T   T
  0.4659348393695595  0.4562995164825026  0.8836021769832598   F   F   F
  0.2812661786601396  0.3407783405208420  0.7025625785873402   F   F   F
  0.6688960569162248  0.6813520334691674  0.7488707393641505   F   F   F
  0.3969222974830515  0.3827172469897278  0.6908758664008730   F   F   F
  0.4521192468263280  0.5798723305866815  0.7030911047732360   F   F   F
  0.3739143983971545  0.4957437492181356  0.8330475355511737   F   F   F
  0.3231502602488021  0.4166666201164446  0.7701152085020979   F   F   F
  0.3681308287906262  0.6208365091373835  0.8198695472909350   F   F   F
  0.5185325196109147  0.3779773925998171  0.7327444350573202   F   F   F
  0.7703428693662318  0.4281414635145921  0.7959791357741324   F   F   F
  0.2559977740201091  0.5939121792277504  0.6945194772722800   F   F   F
  0.6463156817081597  0.4430218390671854  0.6955453825327851   F   F   F
  0.5648260139583030  0.6418206187377109  0.8618740484093621   F   F   F
  0.5403554199154570  0.6676300108002735  0.7020048686623426   F   F   F
  0.4422278029379427  0.4728196824322808  0.7563341173126545   F   F   F
  0.7063132369141059  0.7570736390939814  0.6884787018624650   F   F   F
  0.3736970763086092  0.7410668316677160  0.7786018651378086   F   F   F
  0.4618805882558661  0.5772490741531655  0.8648632729345849   F   F   F
  0.6513084623219427  0.4362765464738700  0.8121251727128040   F   F   F
  0.4175146208279017  0.6967922406045020  0.6995266460072997   F   F   F
  0.7672119690937009  0.1958943980626486  0.7472148044832565   T   T   T
  0.7272171118861479  0.1468209325238732  0.7508365813705211   T   T   T
  0.7209430733907425  0.1213498563602471  0.7203270825065431   T   T   T
  0.7326081279479837  0.1200720228959042  0.7809072246400106   T   T   T
  0.0843596074356867  0.6869579939510473  0.4531619864322067   F   F   F
  0.2520911122220397  0.6875510386961565  0.4560757621140681   F   F   F
  0.0840889363423756  0.9368244003604076  0.4536416138149661   F   F   F
  0.0827428304956754  0.4367553034504965  0.4528219067880173   F   F   F
  0.0838422027318870  0.1865581947640536  0.4529734094910083   F   F   F
  0.9165872466756753  0.8121319066215449  0.4540548438103897   F   F   F
  0.7464078702776717  0.5576605175101790  0.5446250518815532   F   F   F
  0.9160927652086741  0.5621914869896472  0.4540811533099784   F   F   F
  0.9163048189339946  0.0622020390601747  0.4540377483514391   F   F   F
  0.9162863781739219  0.3122192932879599  0.4536885662587977   F   F   F
  0.4172512082019466  0.4355340963901995  0.4542035241985900   F   F   F
  0.5822480916551811  0.4395771927111340  0.4563886070496537   F   F   F
  0.5831573124836140  0.1902964995159593  0.4556535870276690   F   F   F
  0.9164266165113091  0.9371317084749435  0.4536447915581832   F   F   F
  0.5832939606475023  0.8104583856358190  0.4553398025449766   F   F   F
  0.0000278727842087  0.3734470604990747  0.4983945336534319   F   F   F
  0.9996662567008343  0.6271469395525386  0.4976301749218521   F   F   F
  0.3337557521821140  0.1257333939859464  0.4987871661232646   F   F   F
  0.0000715691133095  0.8751875268855684  0.4995486330862917   F   F   F
  0.3334842866429071  0.8741635876439773  0.4990921140201152   F   F   F
  0.6659881575328370  0.1261031943066655  0.4998263866378352   F   F   F
  0.2512130680952609  0.4392496587947647  0.4549534067725602   F   F   F
  0.0833333358191695  0.5625000000092442  0.3605200052333331   F   F   F
  0.9166666865332829  0.0625000000159659  0.3605200052333331   F   F   F
  0.7492849438712668  0.8131879584484594  0.4530244277135083   F   F   F
  0.7496667732773190  0.4386839339362396  0.4555575796205034   F   F   F
  0.9158084187119826  0.3127163276904028  0.5465139536837285   F   F   F
  0.4171946901039973  0.6847186945490265  0.4547467387857580   F   F   F
  0.0001070391845062  0.1250984620542255  0.4984227787876634   F   F   F
  0.4159585089562512  0.9370273844210928  0.5459949408896492   F   F   F
  0.5833333134730552  0.6874999999963620  0.3605200052333331   F   F   F
  0.2505275839012455  0.0620381687816689  0.4542613723332281   F   F   F
  0.5833124403578651  0.0637040993596756  0.4538270257617611   F   F   F
  0.9166666865332829  0.6874999999963620  0.3605200052333331   F   F   F
  0.9166666865332829  0.4374999701794380  0.3605200052333331   F   F   F
  0.9166666865332829  0.1875000000030838  0.3605200052333331   F   F   F
  0.5833333134730552  0.9375000000154046  0.3605200052333331   F   F   F
  0.0809093851776126  0.5644685859498395  0.5464339296718848   F   F   F
  0.5833333134730552  0.4374999701794380  0.3605200052333331   F   F   F
  0.5833333134730552  0.1875000000030838  0.3605200052333331   F   F   F
  0.2499999999799343  0.9375000000154046  0.3605200052333331   F   F   F
  0.9166666865332829  0.9375000000154046  0.3605200052333331   F   F   F
  0.2499999999799343  0.6874999999963620  0.3605200052333331   F   F   F
  0.2499999999799343  0.1875000000030838  0.3605200052333331   F   F   F
  0.7499999404149307  0.9375000000154046  0.3605200052333331   F   F   F
  0.7499999404149307  0.6874999999963620  0.3605200052333331   F   F   F
  0.4174791501005828  0.9357615403688371  0.4539111502076594   F   F   F
  0.7499999404149307  0.4374999701794380  0.3605200052333331   F   F   F
  0.4166666269218169  0.9375000000154046  0.3605200052333331   F   F   F
  0.4166666269218169  0.6874999999963620  0.3605200052333331   F   F   F
  0.4166666269218169  0.4374999701794380  0.3605200052333331   F   F   F
  0.2499999999799343  0.4374999701794380  0.3605200052333331   F   F   F
  0.0833333358191695  0.0625000000159659  0.3605200052333331   F   F   F
  0.9153053020125341  0.6868639617118220  0.4533192838206617   F   F   F
  0.6655520119898668  0.3795721662307301  0.5027939571414279   F   F   F
  0.3344992452698818  0.3782877537045550  0.5031279383739147   F   F   F
  0.3355921505104860  0.6257672159583905  0.5037681154136848   F   F   F
  0.9176109937829082  0.0633215254367698  0.5474372473918621   F   F   F
  0.7495357042979194  0.9383279702881424  0.4553122023979128   F   F   F
  0.2499979531919152  0.9360777739018360  0.4539823769369207   F   F   F
  0.2500992650841880  0.1884721888354548  0.4541123149967135   F   F   F
  0.7491096063973330  0.6886473187450264  0.4573780990657710   F   F   F
  0.7499999404149307  0.1875000000030838  0.3605200052333331   F   F   F
  0.5833333134730552  0.0625000000159659  0.3605200052333331   F   F   F
  0.4166010941883300  0.8099688165880394  0.4550516059536633   F   F   F
  0.7478343766153728  0.8077566812553272  0.5455051495521133   F   F   F
  0.2499999999799343  0.8124999999834799  0.3605200052333331   F   F   F
  0.2499999999799343  0.3124999999901945  0.3605200052333331   F   F   F
  0.2499999999799343  0.0625000000159659  0.3605200052333331   F   F   F
  0.7499999404149307  0.5625000000092442  0.3605200052333331   F   F   F
  0.7499999404149307  0.3124999999901945  0.3605200052333331   F   F   F
  0.7499999404149307  0.0625000000159659  0.3605200052333331   F   F   F
  0.4166666269218169  0.8124999999834799  0.3605200052333331   F   F   F
  0.4166666269218169  0.3124999999901945  0.3605200052333331   F   F   F
  0.7499999404149307  0.8124999999834799  0.3605200052333331   F   F   F
  0.0834991854766542  0.3119303381610692  0.4540432343835121   F   F   F
  0.4166666269218169  0.0625000000159659  0.3605200052333331   F   F   F
  0.4168786576844568  0.0615695798043134  0.4553743080774240   F   F   F
  0.0834925365385786  0.8121693333209308  0.4541330902044507   F   F   F
  0.4166666269218169  0.5625000000092442  0.3605200052333331   F   F   F
  0.4140889168362563  0.8116502373583003  0.5476680433665635   F   F   F
  0.5833333134730552  0.3124999999901945  0.3605200052333331   F   F   F
  0.0839642769312050  0.5625113340322656  0.4539881965558195   F   F   F
  0.2511166765544530  0.0626152766101526  0.5472579078369577   F   F   F
  0.8333332538436267  0.4999999999932783  0.4070133268666680   F   F   F
  0.4166666269218169  0.1875000000030838  0.3605200052333331   F   F   F
  0.0833333358191695  0.9375000000154046  0.3605200052333331   F   F   F
  0.0833333358191695  0.8124999999834799  0.3605200052333331   F   F   F
  0.0833333358191695  0.4374999701794380  0.3605200052333331   F   F   F
  0.8333332538436267  0.7500000000123208  0.4070133268666680   F   F   F
  0.4155874468166587  0.3114210276165821  0.4573696933798885   F   F   F
  0.0837602127194401  0.0618926654260861  0.4541760476156540   F   F   F
  0.4160363352197223  0.5595127404880245  0.4578581235185766   F   F   F
  0.0833333358191695  0.6874999999963620  0.3605200052333331   F   F   F
  0.2522783189875568  0.3141153717813268  0.4541684266289252   F   F   F
  0.5833333134730552  0.5625000000092442  0.3605200052333331   F   F   F
  0.2499999999799343  0.5625000000092442  0.3605200052333331   F   F   F
  0.5833333134730552  0.8124999999834799  0.3605200052333331   F   F   F
  0.6666666865533486  0.7500000000123208  0.4070133268666680   F   F   F
  0.5000000000021103  0.4999999999932783  0.4070133268666680   F   F   F
  0.0833333358191695  0.1875000000030838  0.3605200052333331   F   F   F
  0.0000000000000000  0.0000000000000000  0.4070133268666680   F   F   F
  0.0000000000000000  0.2500000000190425  0.4070133268666680   F   F   F
  0.0000000000000000  0.4999999999932783  0.4070133268666680   F   F   F
  0.7481953202992671  0.5643540629511534  0.4537778685145781   F   F   F
  0.3333333432766779  0.0000000000000000  0.4070133268666680   F   F   F
  0.3333333432766779  0.4999999999932783  0.4070133268666680   F   F   F
  0.3333333432766779  0.7500000000123208  0.4070133268666680   F   F   F
  0.6666666865533486  0.0000000000000000  0.4070133268666680   F   F   F
  0.6666666865533486  0.2500000000190425  0.4070133268666680   F   F   F
  0.6666666865533486  0.4999999999932783  0.4070133268666680   F   F   F
  0.8333332538436267  0.2500000000190425  0.4070133268666680   F   F   F
  0.1666666716383389  0.0000000000000000  0.4070133268666680   F   F   F
  0.5843737395934951  0.3154842883250808  0.4535824104894175   F   F   F
  0.1666666716383389  0.4999999999932783  0.4070133268666680   F   F   F
  0.5000000000021103  0.0000000000000000  0.4070133268666680   F   F   F
  0.5000000000021103  0.2500000000190425  0.4070133268666680   F   F   F
  0.5000000000021103  0.7500000000123208  0.4070133268666680   F   F   F
  0.9166666865332829  0.3124999999901945  0.3605200052333331   F   F   F
  0.3333333432766779  0.2500000000190425  0.4070133268666680   F   F   F
  0.7477457181826637  0.3144941348613912  0.4538089646747068   F   F   F
  0.0000000000000000  0.7500000000123208  0.4070133268666680   F   F   F
  0.5845329558295944  0.5628331395400394  0.4548043725510169   F   F   F
  0.7494185461576777  0.0639241617117889  0.4532583336830598   F   F   F
  0.8333332538436267  0.0000000000000000  0.4070133268666680   F   F   F
  0.5827596756265265  0.6860870253863922  0.4546077529044084   F   F   F
  0.2517766326590731  0.5645429330779663  0.4538194963518905   F   F   F
  0.1666666716383389  0.2500000000190425  0.4070133268666680   F   F   F
  0.2505038458220668  0.8108053539530360  0.4553195316448182   F   F   F
  0.1666666716383389  0.7500000000123208  0.4070133268666680   F   F   F
  0.6653621779704579  0.6260544235454333  0.5029708062583822   F   F   F
  0.4169142409855198  0.1872586791014754  0.4537233477357177   F   F   F
  0.5885884532474037  0.3209084578088408  0.6329633638904184   F   F   F
  0.0855840721932779  0.6892704916885393  0.5453961268900898   F   F   F
  0.0828843526797343  0.4389305054709354  0.5448449106271340   F   F   F
  0.0835562565696080  0.1889638054048746  0.5455024493393950   F   F   F
  0.4995002288308470  0.1257446403409261  0.4991601454730841   F   F   F
  0.9995153679672839  0.4986919379262815  0.5941725570187160   F   F   F
  0.5800961861332752  0.1846339201255489  0.5505106156936606   F   F   F
  0.9997003043419355  0.7535863194333885  0.5926788380234882   F   F   F
  0.3340340353619879  0.9998962048628854  0.5919265226112316   F   F   F
  0.9998582449623825  0.9987315086418178  0.5930570568946791   F   F   F
  0.0003962710557985  0.2499130314600464  0.5919977679643154   F   F   F
  0.3332023408967686  0.4958869104846144  0.5911780680422041   F   F   F
  0.3352573602187192  0.7410558179247175  0.5904315219983616   F   F   F
  0.6650205526629307  0.2444157526767938  0.5904962866953127   F   F   F
  0.6658133481643205  0.0006025673542354  0.5917257275553709   F   F   F
  0.6655258868150753  0.7412815567156059  0.5908240421189745   F   F   F
  0.6667991002632903  0.4937849066385311  0.5913810749239019   F   F   F
  0.1674612692893618  0.9983632700323000  0.5923001689209499   F   F   F
  0.1684170222853183  0.2484146462140515  0.5931565046770757   F   F   F
  0.1707047455087718  0.7502353184296595  0.5948761106045310   F   F   F
  0.2482991655213098  0.4358893267441886  0.5491243586140229   F   F   F
  0.1654670242025986  0.5033259840833466  0.5872718241251178   F   F   F
  0.3348688628465979  0.2545542327177799  0.5926413504531709   F   F   F
  0.4996065807849916  0.0000283138884001  0.5910013864297525   F   F   F
  0.8326723725163703  0.8741871870757265  0.4986108674763798   F   F   F
  0.7482861839053996  0.9366279648864406  0.6399985291445276   F   F   F
  0.8322462237650115  0.0016802042314765  0.5921976865066227   F   F   F
  0.7501357017294978  0.1837253880479466  0.5498076033203603   F   F   F
  0.4229181606729355  0.6878057230745966  0.5467502119453655   F   F   F
  0.4231846058605626  0.4435080883222753  0.5459985869618649   F   F   F
  0.7529575899688723  0.4341726442887364  0.5496450231725873   F   F   F
  0.5843147498122150  0.3103168448515277  0.5449501308802240   F   F   F
  0.2532183040723197  0.8125819765739593  0.5506311923985052   F   F   F
  0.5826485068000480  0.9371493190113682  0.4543360906932676   F   F   F
  0.9159281655279656  0.1867983635514250  0.4531130658376767   F   F   F
  0.7500666171025685  0.1896364436921871  0.4553790773419095   F   F   F
  0.5824363706543494  0.0615757132039789  0.5452961093161903   F   F   F
  0.5860185664609645  0.8142451839249318  0.5503613749026286   F   F   F
  0.7471151209564653  0.3104063356656468  0.5455507848290608   F   F   F
  0.5813250234665830  0.5597893757937911  0.5488584798329867   F   F   F
  0.2526332239930298  0.5590798759416984  0.5439397506489243   F   F   F
  0.4161994179766353  0.3193631542335709  0.5528001228881507   F   F   F
  0.5765149919373300  0.4355685531273750  0.5521936075828364   F   F   F
  0.4166441853541443  0.0653739022774573  0.5473252990992847   F   F   F
  0.0850725596098343  0.8126364894210880  0.5473111318923856   F   F   F
  0.0866391508082316  0.3134907999841374  0.5470938666614487   F   F   F
  0.5005086890484023  0.7565245307109407  0.5924997700390477   F   F   F
  0.0823941372318870  0.0631455907318426  0.5475419595655140   F   F   F
  0.0833333358191695  0.3124999999901945  0.3605200052333331   F   F   F
  0.9142846942035163  0.6887586921811319  0.5456585496928383   F   F   F
  0.9164778348492177  0.1887278230913267  0.5453712092900602   F   F   F
  0.9154147976434643  0.4376418084072498  0.5456116693470960   F   F   F
  0.5794121089368929  0.6860738455772335  0.5473773045362123   F   F   F
  0.2515348340551924  0.9372829646129333  0.5452254102025549   F   F   F
  0.4973926932838921  0.5044558060497621  0.6090423621627892   F   F   F
  0.9179084504038642  0.5637904080817293  0.5470891259617900   F   F   F
  0.4198511126913829  0.5647172887463086  0.5554199520114622   F   F   F
  0.9154512133108810  0.8126297093150328  0.5467975970620884   F   F   F
  0.0841065767965929  0.9384059505825988  0.5460786944628708   F   F   F
  0.2489605749035491  0.6833385574021094  0.5518194317912517   F   F   F
  0.7493080196921653  0.9337893417419139  0.5476295471086843   F   F   F
  0.7516730357652008  0.6801060305933788  0.5533552230589081   F   F   F
  0.9156197693681492  0.9384525818958664  0.5463611880111898   F   F   F
  0.4177228011731131  0.0652581714873790  0.6400078552333497   F   F   F
  0.5837453968354183  0.9375597135404874  0.5462274443608095   F   F   F
  0.4123915922448731  0.8128971084261636  0.6393305989586935   F   F   F
  0.8036994799305575  0.2152007723266606  0.7711328766342000   T   T   T
  0.9138430789743595  0.5627152014597954  0.6408124529922716   F   F   F
  0.9133680964847954  0.8132517630413147  0.6419369645040121   F   F   F
  0.5825107339055933  0.0669159613674992  0.6385425244870362   F   F   F
  0.2493350768059130  0.3137838131289072  0.5460196235539101   F   F   F
  0.5908208857613531  0.5656791409308752  0.6385518313992833   F   F   F
  0.2476067697612052  0.5740154680931937  0.6287424892975721   F   F   F
  0.7536888461276803  0.6920361984489816  0.6576678134043306   F   F   F
  0.2620565453209664  0.8000460203323811  0.6461699448602829   F   F   F
  0.2509728994069818  0.0594815889745703  0.6423296103123093   F   F   F
  0.9166666865332829  0.5625000000092442  0.3605200052333331   F   F   F
  0.4997969504312820  0.3730630057130782  0.5006758307907333   F   F   F
  0.5002853516035799  0.6209887567812871  0.5001216827608346   F   F   F
  0.8323581026406259  0.6230573842951017  0.5001576124814804   F   F   F
  0.2520167826261925  0.1883242858737191  0.5471641118183328   F   F   F
  0.8327951754826231  0.3731993599020456  0.4992356871279355   F   F   F
  0.9144325755842431  0.3117461148812595  0.6399543562038446   F   F   F
  0.1667398720833475  0.3762121578890785  0.4977500017627534   F   F   F
  0.5800755852661013  0.4381951547173486  0.6461763381385452   F   F   F
  0.5773078754133678  0.6862565936354557  0.6395562701818136   F   F   F
  0.9158342138011690  0.1862336515860221  0.6397930808773680   F   F   F
  0.2491330358639701  0.3164872111267982  0.6412368930549306   F   F   F
  0.1677713791995785  0.8732599108313721  0.4998853063272506   F   F   F
  0.9162536286415346  0.4369892696291586  0.4534587182169787   F   F   F
  0.1670859127024400  0.1244434763504429  0.4993843513669205   F   F   F
  0.7484078310208560  0.0597335080563468  0.5446807795187638   F   F   F
  0.4256354949380352  0.3047912690570911  0.6566484891709550   F   F   F
  0.5903612979262718  0.8107154955876226  0.6458906908458886   F   F   F
  0.4204047134161684  0.6761494662187957  0.6336217488038045   F   F   F
  0.7556097382656404  0.4368216112779209  0.6396248798489665   F   F   F
  0.4994699965540974  0.2539654324500802  0.5916681113368725   F   F   F
  0.9160266633071785  0.0624472970641818  0.6413353331052676   F   F   F
  0.1675548753770784  0.6242743383067264  0.5002419256807045   F   F   F
  0.5000048047740862  0.8730969585692634  0.5008883663367314   F   F   F
  0.8331012117850847  0.1238910865305982  0.4994898246595980   F   F   F
  0.4165900141264132  0.1913622609679066  0.5469607349863779   F   F   F
  0.7410903234417674  0.8098106135702068  0.6399710103111360   F   F   F
  0.7520707485456413  0.5701764136645195  0.6349558387825383   F   F   F
  0.4173684692931232  0.9350095225474817  0.6397869031142775   F   F   F
  0.7466267773537396  0.3135285496106732  0.6379850451688469   F   F   F
  0.7477174911542193  0.0662506364708477  0.6396320646040294   F   F   F
  0.0839038164508565  0.3115145410305118  0.6405610122872645   F   F   F
  0.6664922332254548  0.8744929750200114  0.4988516204877129   F   F   F
  0.0865460146799606  0.5627906417630797  0.6400279564754427   F   F   F
  0.0871501348321786  0.4365379937158167  0.6397247907048325   F   F   F
  0.4174962538010121  0.1874659359600628  0.6398915980507098   F   F   F
  0.4156576343182721  0.4182922139622249  0.6302398489452941   F   F   F
  0.0845207558762127  0.9357006413986824  0.6409915424340795   F   F   F
  0.0831425990145220  0.6870574976167561  0.6388873419549768   F   F   F
  0.0840598063070246  0.0604367341395360  0.6420926199186070   F   F   F
  0.8330619635510814  0.5036760273105401  0.5891305169412391   F   F   F
  0.0834480978762215  0.1857182228573535  0.6409974818978910   F   F   F
  0.2399781031429526  0.4421938148040425  0.6415822178344897   F   F   F
  0.9122701245226708  0.4361168998731557  0.6398973521922571   F   F   F
  0.2520722666416120  0.9303147946384911  0.6373186762708301   F   F   F
  0.9163146660670591  0.6876329646077153  0.6390283046467147   F   F   F
  0.9143084861664974  0.9369564089310671  0.6412718904380270   F   F   F
  0.3973383243064177  0.5506448363684626  0.6520430004750111   F   F   F
  0.2543003003493283  0.6781580633014173  0.6627168008275675   F   F   F
  0.2535709804707764  0.1865158833342093  0.6411901298693650   F   F   F
  0.5796389962452224  0.1927407159917394  0.6460626317934199   F   F   F
  0.5819343737725120  0.9362351833255502  0.6393462136596852   F   F   F
  0.9166666865332829  0.8124999999834799  0.3605200052333331   F   F   F
  0.7514690592921482  0.1907052599067498  0.6442510820574938   F   F   F
  0.8319469943905560  0.2501924019649024  0.5903048195046665   F   F   F
  0.8302917360348587  0.7507358611445838  0.5927417033142959   F   F   F
  0.0846102564806941  0.8126247995562110  0.6424165271437730   F   F   F
  0.1666666716383389  0.3750000000061604  0.4070133268666680   F   F   F
  0.3261505929058757  0.3734572146086848  0.5928116663300997   F   F   F
  0.6675739125347917  0.2475717010626823  0.5029693835875548   F   F   F
  0.8348479207993051  0.2485723086948255  0.5034120118684982   F   F   F
  0.6666666865533486  0.3750000000061604  0.4070133268666680   F   F   F
  0.0004095480598281  0.1228930513935254  0.6201918485411468   F   F   F
  0.6653149386147348  0.7518095112801575  0.5021917322762022   F   F   F
  0.3302499598006179  0.2481304139242937  0.5028445544923699   F   F   F
  0.6660867046798344  0.0002485427785146  0.5054546804620159   F   F   F
  0.1643753268295995  0.7513723722678947  0.5034047583168402   F   F   F
  0.8333332538436267  0.6249999999803961  0.4070133268666680   F   F   F
  0.6685704060954762  0.4997113835769795  0.5005981002534270   F   F   F
  0.3312561214299876  0.4991098829392655  0.5010454400901310   F   F   F
  0.5010489643722451  0.7527853349029385  0.5038574046230480   F   F   F
  0.0000000000000000  0.8749999404036828  0.4070133268666680   F   F   F
  0.9998646670323055  0.7510576178845980  0.5066832173100764   F   F   F
  0.3338574832507106  0.7510723457163522  0.5015042525368614   F   F   F
  0.5011691147943651  0.4995957290653621  0.5003961552650722   F   F   F
  0.3333333432766779  0.1249999999871179  0.4070133268666680   F   F   F
  0.5014239724103078  0.2480626664267405  0.5024139054878347   F   F   F
  0.0006444232297795  0.2498604932653592  0.5059546424015480   F   F   F
  0.0001289966559597  0.9998680106681022  0.5066891423343307   F   F   F
  0.6666666865533486  0.6249999999803961  0.4070133268666680   F   F   F
  0.8333332538436267  0.8749999404036828  0.4070133268666680   F   F   F
  0.3333333432766779  0.6249999999803961  0.4070133268666680   F   F   F
  0.3333333432766779  0.8749999404036828  0.4070133268666680   F   F   F
  0.3333333432766779  0.3750000000061604  0.4070133268666680   F   F   F
  0.8341857478482453  0.0002257864575270  0.5062797101830085   F   F   F
  0.6666666865533486  0.1249999999871179  0.4070133268666680   F   F   F
  0.0000000000000000  0.6249999999803961  0.4070133268666680   F   F   F
  0.1663423128607207  0.2482003070991965  0.5062470962710677   F   F   F
  0.5001490865189595  0.9992167364912277  0.5054425662052893   F   F   F
  0.1659988661084313  0.0011492058318154  0.5065304020956134   F   F   F
  0.9994765316251915  0.4999708101476088  0.5067443633692506   F   F   F
  0.3331027876469932  0.0011006555925093  0.5057322216118720   F   F   F
  0.5007200105847716  0.8769692507868143  0.6096117795230995   F   F   F
  0.0000000000000000  0.1249999999871179  0.4070133268666680   F   F   F
  0.9991334487860755  0.8748651648931087  0.6238608474433462   F   F   F
  0.8333332538436267  0.3750000000061604  0.4070133268666680   F   F   F
  0.8333332538436267  0.1249999999871179  0.4070133268666680   F   F   F
  0.6662709742389197  0.1251190490368614  0.6112055747086558   F   F   F
  0.5000000000021103  0.6249999999803961  0.4070133268666680   F   F   F
  0.8394038918865618  0.6271491119763368  0.6041007147606265   F   F   F
  0.5000000000021103  0.8749999404036828  0.4070133268666680   F   F   F
  0.1635160228304500  0.4998198825995530  0.5019825002942824   F   F   F
  0.8318835504538882  0.8764239816427803  0.6181525490015787   F   F   F
  0.8364196016967966  0.3728101781831441  0.6039623140412829   F   F   F
  0.8360744052317770  0.7515794940198788  0.5026163509999435   F   F   F
  0.5000000000021103  0.1249999999871179  0.4070133268666680   F   F   F
  0.1666666716383389  0.8749999404036828  0.4070133268666680   F   F   F
  0.8358786902619855  0.4998485430959008  0.5029554818499662   F   F   F
  0.9997017889937396  0.6233668750736001  0.6245354801344263   F   F   F
  0.1666666716383389  0.6249999999803961  0.4070133268666680   F   F   F
  0.3314890121114829  0.1197963502420905  0.6127128333353724   F   F   F
  0.5002378178156803  0.1226625106485315  0.6067965644916953   F   F   F
  0.1666666716383389  0.1249999999871179  0.4070133268666680   F   F   F
  0.0000000000000000  0.3750000000061604  0.4070133268666680   F   F   F
  0.5035399877419735  0.6248398609550634  0.5940919353221972   F   F   F
  0.5000000000021103  0.3750000000061604  0.4070133268666680   F   F   F
  0.6666666865533486  0.8749999404036828  0.4070133268666680   F   F   F
  0.3341600733949335  0.6245040641951007  0.5950857787384720   F   F   F
  0.3345408840822159  0.8787798393841229  0.6026753688965201   F   F   F
  0.1663201296323180  0.8736882563149990  0.6177582484801931   F   F   F
  0.6723979446518555  0.3728629777680439  0.5937062981228607   F   F   F
  0.1595103414993702  0.6273962191359601  0.6013407016006909   F   F   F
  0.1676149952198926  0.1229125231234960  0.6221035192658988   F   F   F
  0.1632228498509036  0.3711956139525299  0.6075107018673407   F   F   F
  0.6650696861555403  0.8811483053043503  0.6072562241229207   F   F   F
  0.6661797683168302  0.6261927210848839  0.5933076427215340   F   F   F
  0.9997362468367754  0.3750172699671737  0.6250380327477032   F   F   F
  0.8338574174411875  0.1237113707430382  0.6143233537053803   F   F   F
  0.5027640656213279  0.3708438779360463  0.5956330007872879   F   F   F
  0.0829998176230831  0.1247527350183972  0.5067325461493155   F   F   F
  0.0809489863663231  0.6258352024960416  0.5054332490179476   F   F   F
  0.5846782854281614  0.7499486981400096  0.5997453310181768   F   F   F
  0.0831627384495377  0.2480716043026732  0.6035422393678260   F   F   F
  0.7495041912576639  0.0016175943880299  0.6042349230927826   F   F   F
  0.5825842872750044  0.0012878039707473  0.6040151091121189   F   F   F
  0.2489953006829211  0.2458956389033631  0.6036955059140539   F   F   F
  0.5904246426708610  0.5011882062581634  0.5936324123904981   F   F   F
  0.4147772095871218  0.2486385400839666  0.5913351047522255   F   F   F
  0.2496816583183090  0.7528277303037214  0.5919390854210249   F   F   F
  0.5849422930555122  0.2474237578385186  0.5974109077725416   F   F   F
  0.2496508715852528  0.9978025367611778  0.6041991899068933   F   F   F
  0.7533626095559214  0.2496091724838649  0.5957896886306457   F   F   F
  0.9165120482398024  0.9997434521663706  0.6037989470027938   F   F   F