 C  H                                   
   1.00000000000000     
    23.6707801818999997    0.0000000000000000    0.0000000000000000
     0.0000000000000000   22.3170261383000010    0.0000000000000000
     0.0000000000000000    0.0000000000000000   30.0000000000000000
   C    H 
     3     8
Direct
  0.5000000000000000  0.5000000000000000  0.5139938071221249
  0.5000000000000000  0.5569461870159217  0.4856245114357133
  0.5000000000000000  0.4430538129840784  0.4856245114357133
  0.4629155778684647  0.5000000000000000  0.5358864675541652
  0.5370844221315354  0.5000000000000000  0.5358864675541652
  0.5000000000000000  0.5971639927375518  0.5063776915872472
  0.5000000000000000  0.4028360072624482  0.5063776915872472
  0.5373156140672553  0.5585179479330571  0.4641537795975712
  0.4626843859327449  0.5585179479330571  0.4641537795975712
  0.4626843859327449  0.4414820520669430  0.4641537795975712
  0.5373156140672553  0.4414820520669430  0.4641537795975712
 
  0.00000000E+00  0.00000000E+00  0.00000000E+00
  0.00000000E+00  0.00000000E+00  0.00000000E+00
  0.00000000E+00  0.00000000E+00  0.00000000E+00
  0.00000000E+00  0.00000000E+00  0.00000000E+00
  0.00000000E+00  0.00000000E+00  0.00000000E+00
  0.00000000E+00  0.00000000E+00  0.00000000E+00
  0.00000000E+00  0.00000000E+00  0.00000000E+00
  0.00000000E+00  0.00000000E+00  0.00000000E+00
  0.00000000E+00  0.00000000E+00  0.00000000E+00
  0.00000000E+00  0.00000000E+00  0.00000000E+00
  0.00000000E+00  0.00000000E+00  0.00000000E+00
