Au  C  H  O Sr Ti                       
   1.00000000000000     
    23.6707801818999997    0.0000000000000000    0.0000000000000000
     0.0000000000000000   22.3170261383000010    0.0000000000000000
     0.0000000000000000    0.0000000000000000   30.0000000000000000
   Au   C    H    O    Sr   Ti
    50     2     5   264    72    72
Selective dynamics
Direct
  0.7156919443160774  0.5250270772450847  0.7532775600126840   F   F   F
  0.2937177410810463  0.7465679553752409  0.6968224406418599   F   F   F
  0.5117834556266843  0.6034917858829232  0.7768978564673859   F   F   F
  0.5782912535649132  0.7256888545284141  0.7939004492029511   F   F   F
  0.2403446903446849  0.4695884296507487  0.7091464786704833   F   F   F
  0.2852107900703018  0.6624438588282118  0.7645271605553319   F   F   F
  0.5983666676926660  0.2918126000717223  0.7849016405790650   F   F   F
  0.5141308400503561  0.4843244868764600  0.6780113636157807   F   F   F
  0.5628705334292405  0.4861267838849130  0.7622180392242726   F   F   F
  0.4835548294486856  0.2708082670345320  0.7747754334661323   F   F   F
  0.5466583978511608  0.3866570146536716  0.8287021766970284   F   F   F
  0.5526426689240509  0.2142253354868373  0.7101227720243841   F   F   F
  0.3913919912319059  0.8174807529596464  0.7065301653733442   F   F   F
  0.4362374727292888  0.2274142113684263  0.6978325410858019   F   F   F
  0.3691341763732154  0.2989433602661791  0.7557283205567416   F   F   F
  0.3493111471430339  0.4999716761303574  0.6979150944492218   F   F   F
  0.4273528052190017  0.3718975957931221  0.8164849116593018   F   F   F
  0.6347258834808684  0.5840131052559485  0.8001332511962502   F   F   F
  0.7329336860899858  0.6147763940931483  0.6940320997016656   F   F   F
  0.4856582194151358  0.7765533626247816  0.7551019569613260   F   F   F
  0.7637898894606110  0.4314637292480086  0.7045121803892940   F   F   F
  0.7227750030274009  0.2592318268786897  0.6905954070400497   F   F   F
  0.6213626327751243  0.5708592557075249  0.7040093001494654   F   F   F
  0.4636928538786762  0.6953577511369389  0.8303361227976893   F   F   F
  0.6168261044174130  0.3203868251922515  0.6958948447227229   F   F   F
  0.5964155794787445  0.7845726599770444  0.7130439441522185   F   F   F
  0.6999652273807229  0.3445140430586875  0.7570535914437926   F   F   F
  0.5694869627305650  0.5100774280831573  0.8567644867878954   F   F   F
  0.6673892302079096  0.1986810498250833  0.7513711888317971   T   T   T
  0.4697406587540627  0.4515060796529227  0.8796689027451379   F   F   F
  0.5175991020631940  0.3772953568319721  0.7322421199949716   F   F   F
  0.2817770898290419  0.3407649387831739  0.7023579999387692   F   F   F
  0.6694218839816060  0.6811622667659520  0.7488103966370900   F   F   F
  0.2890461929359844  0.5382970400098017  0.7775093633237304   F   F   F
  0.3976056270117780  0.3816837205224317  0.6904594112235642   F   F   F
  0.4522063237239138  0.5797920623135937  0.7028469064635630   F   F   F
  0.3748498144557217  0.4934074854521100  0.8328465192919623   F   F   F
  0.3682720563071342  0.6191415023922886  0.8202549920754194   F   F   F
  0.3251248683287642  0.4151819879021161  0.7694679669511899   F   F   F
  0.7736035538851382  0.4284987710977362  0.7945694322716079   F   F   F
  0.2567825450011298  0.5931113833499069  0.6944927194192516   F   F   F
  0.6485036176018397  0.4453554556851245  0.6945896909826033   F   F   F
  0.5644567697454406  0.6395011947904905  0.8611613335743229   F   F   F
  0.5405542672008536  0.6676075826380696  0.7017986325456178   F   F   F
  0.4435489697526407  0.4734179648597703  0.7562822031000920   F   F   F
  0.3741345542451100  0.7398412199696622  0.7788540260335566   F   F   F
  0.4623493452698213  0.5737294256506260  0.8643115923137117   F   F   F
  0.6551976209343948  0.4406817245223351  0.8126329897149205   F   F   F
  0.7064825718857577  0.7569333472995083  0.6883953796971554   F   F   F
  0.4176563823865678  0.6965411653002960  0.6995417393967571   F   F   F
  0.6920217386942511  0.0790372603820089  0.7856366800450090   T   T   T
  0.7187018747362544  0.1219494336542937  0.7527751480807936   T   T   T
  0.7602020836644243  0.1383271572961604  0.7628275216220430   T   T   T
  0.7181707582758108  0.0383810365203985  0.7869761226112004   T   T   T
  0.7198995960371306  0.1056522520172436  0.7185181825886389   T   T   T
  0.6496763521455335  0.0651471023285453  0.7754987714095023   T   T   T
  0.6902510294014874  0.0973083561515722  0.8188928817809420   T   T   T
  0.4984467047807470  0.2529595036168217  0.5906732253439557   F   F   F
  0.0845821237889126  0.6869096748009227  0.4530421946771952   F   F   F
  0.0838754763393723  0.9366762332289369  0.4534758855995875   F   F   F
  0.0829230024209053  0.4368962644611116  0.4529147457270284   F   F   F
  0.0838525986783480  0.1865748219522345  0.4529703842087258   F   F   F
  0.9165814721037577  0.8121324071876259  0.4540723218298837   F   F   F
  0.7465410469945368  0.5581961386753846  0.5446690933898921   F   F   F
  0.9161650307206202  0.5623210760423518  0.4539276706057507   F   F   F
  0.9162534685368442  0.3121924126349711  0.4538653594468300   F   F   F
  0.4170644351364317  0.1871572216822983  0.4535517185309104   F   F   F
  0.2521366548997364  0.6875790517717419  0.4560590618359299   F   F   F
  0.9157742485666063  0.3129889862693958  0.5467071591075765   F   F   F
  0.9164707937478695  0.9371118447244910  0.4536507627115185   F   F   F
  0.0001831692246839  0.1250289305161942  0.4983040354237716   F   F   F
  0.5832762126705262  0.8104728157424503  0.4553460155154241   F   F   F
  0.9998963757204749  0.6271441662912451  0.4977105101147643   F   F   F
  0.3335933344585698  0.1255991532595289  0.4985727544155480   F   F   F
  0.0000526111255681  0.8751593923046954  0.4995341372715814   F   F   F
  0.3334637990178564  0.8739877442961586  0.4993055658465551   F   F   F
  0.6661344872576862  0.1265768152217888  0.4990440622995322   F   F   F
  0.2511656957637243  0.4392795683243236  0.4549070196922074   F   F   F
  0.0833333358191695  0.5625000000092442  0.3605200052333331   F   F   F
  0.9166666865332829  0.0625000000159659  0.3605200052333331   F   F   F
  0.7494148661539199  0.8131718551091751  0.4530613543224504   F   F   F
  0.7496511919423980  0.4384064327289749  0.4557178039707850   F   F   F
  0.2505163944975166  0.0620238227600893  0.4542399632104051   F   F   F
  0.5825986517642079  0.1902644303234950  0.4554918843435090   F   F   F
  0.2519175474402857  0.5645958420180364  0.4537720654988391   F   F   F
  0.4164355484749223  0.4354595513948780  0.4538397174795463   F   F   F
  0.0001014922413702  0.3737259187541184  0.4981617169202366   F   F   F
  0.4171278841010206  0.6847865806244542  0.4547458050238404   F   F   F
  0.5833333134730552  0.9375000000154046  0.3605200052333331   F   F   F
  0.2498714925508523  0.1884946911475041  0.4541046899326560   F   F   F
  0.9166666865332829  0.6874999999963620  0.3605200052333331   F   F   F
  0.9166666865332829  0.4374999701794380  0.3605200052333331   F   F   F
  0.9166666865332829  0.1875000000030838  0.3605200052333331   F   F   F
  0.0864019617226433  0.3134744001311418  0.5468681449074708   F   F   F
  0.5833333134730552  0.6874999999963620  0.3605200052333331   F   F   F
  0.5833333134730552  0.4374999701794380  0.3605200052333331   F   F   F
  0.5833333134730552  0.1875000000030838  0.3605200052333331   F   F   F
  0.2499999999799343  0.9375000000154046  0.3605200052333331   F   F   F
  0.9166666865332829  0.9375000000154046  0.3605200052333331   F   F   F
  0.2499999999799343  0.6874999999963620  0.3605200052333331   F   F   F
  0.2499999999799343  0.1875000000030838  0.3605200052333331   F   F   F
  0.7499999404149307  0.9375000000154046  0.3605200052333331   F   F   F
  0.7499999404149307  0.6874999999963620  0.3605200052333331   F   F   F
  0.7499999404149307  0.4374999701794380  0.3605200052333331   F   F   F
  0.7499999404149307  0.1875000000030838  0.3605200052333331   F   F   F
  0.4166666269218169  0.9375000000154046  0.3605200052333331   F   F   F
  0.4166666269218169  0.6874999999963620  0.3605200052333331   F   F   F
  0.4166666269218169  0.4374999701794380  0.3605200052333331   F   F   F
  0.2499999999799343  0.4374999701794380  0.3605200052333331   F   F   F
  0.0833333358191695  0.0625000000159659  0.3605200052333331   F   F   F
  0.9153721094929068  0.6867725952868113  0.4531557442011476   F   F   F
  0.6653995853062895  0.3786230087656719  0.5029794132319765   F   F   F
  0.3343344468261762  0.3785121624729584  0.5030083709218545   F   F   F
  0.3356478467147852  0.6258011232044538  0.5037817014661741   F   F   F
  0.9175961773043824  0.0633750708298422  0.5474467654481074   F   F   F
  0.7494686633134364  0.9384315694050969  0.4553536288655167   F   F   F
  0.5827208828857096  0.4396469538731012  0.4563086741717299   F   F   F
  0.6654165342809222  0.6260643222301425  0.5029723115741831   F   F   F
  0.2500616063659606  0.9360720108654235  0.4540591013620912   F   F   F
  0.7490785087570728  0.6886805113363650  0.4573674865785762   F   F   F
  0.2499999999799343  0.8124999999834799  0.3605200052333331   F   F   F
  0.5827695998702680  0.6861512238841101  0.4546281627396809   F   F   F
  0.5000000000021103  0.4999999999932783  0.4070133268666680   F   F   F
  0.2499999999799343  0.5625000000092442  0.3605200052333331   F   F   F
  0.2499999999799343  0.0625000000159659  0.3605200052333331   F   F   F
  0.7499999404149307  0.5625000000092442  0.3605200052333331   F   F   F
  0.7499999404149307  0.3124999999901945  0.3605200052333331   F   F   F
  0.7499999404149307  0.0625000000159659  0.3605200052333331   F   F   F
  0.4166666269218169  0.8124999999834799  0.3605200052333331   F   F   F
  0.4166666269218169  0.5625000000092442  0.3605200052333331   F   F   F
  0.7499999404149307  0.8124999999834799  0.3605200052333331   F   F   F
  0.0835619943280363  0.3120529934544152  0.4539696955144805   F   F   F
  0.4166666269218169  0.0625000000159659  0.3605200052333331   F   F   F
  0.4168842301728404  0.0615920853438183  0.4553612539863892   F   F   F
  0.0834865551084931  0.8121096045340863  0.4541942063382720   F   F   F
  0.0839508131159761  0.5624940693107803  0.4538722651711993   F   F   F
  0.4166666269218169  0.3124999999901945  0.3605200052333331   F   F   F
  0.5833333134730552  0.3124999999901945  0.3605200052333331   F   F   F
  0.2522582974621272  0.3141392128872553  0.4541575431990594   F   F   F
  0.4160608315231187  0.5595133623527531  0.4578818665249500   F   F   F
  0.4144159233038991  0.8117779953697166  0.5478873986296335   F   F   F
  0.2510804102108750  0.0625205368412551  0.5472712473016301   F   F   F
  0.0833333358191695  0.8124999999834799  0.3605200052333331   F   F   F
  0.4166666269218169  0.1875000000030838  0.3605200052333331   F   F   F
  0.8333332538436267  0.4999999999932783  0.4070133268666680   F   F   F
  0.0833333358191695  0.6874999999963620  0.3605200052333331   F   F   F
  0.0833333358191695  0.4374999701794380  0.3605200052333331   F   F   F
  0.8333332538436267  0.7500000000123208  0.4070133268666680   F   F   F
  0.4154830285381053  0.3113644052969846  0.4573798412858991   F   F   F
  0.0837633095361880  0.0618694291219768  0.4541863872772964   F   F   F
  0.0833333358191695  0.9375000000154046  0.3605200052333331   F   F   F
  0.5833333134730552  0.8124999999834799  0.3605200052333331   F   F   F
  0.2505080890074183  0.8108000686749435  0.4553223180291823   F   F   F
  0.2499999999799343  0.3124999999901945  0.3605200052333331   F   F   F
  0.5833333134730552  0.5625000000092442  0.3605200052333331   F   F   F
  0.1666666716383389  0.0000000000000000  0.4070133268666680   F   F   F
  0.0833333358191695  0.1875000000030838  0.3605200052333331   F   F   F
  0.0000000000000000  0.0000000000000000  0.4070133268666680   F   F   F
  0.0000000000000000  0.2500000000190425  0.4070133268666680   F   F   F
  0.0000000000000000  0.4999999999932783  0.4070133268666680   F   F   F
  0.7482299705517619  0.5642896874286976  0.4538049285106354   F   F   F
  0.3333333432766779  0.0000000000000000  0.4070133268666680   F   F   F
  0.3333333432766779  0.4999999999932783  0.4070133268666680   F   F   F
  0.3333333432766779  0.7500000000123208  0.4070133268666680   F   F   F
  0.6666666865533486  0.0000000000000000  0.4070133268666680   F   F   F
  0.6666666865533486  0.2500000000190425  0.4070133268666680   F   F   F
  0.6666666865533486  0.4999999999932783  0.4070133268666680   F   F   F
  0.6666666865533486  0.7500000000123208  0.4070133268666680   F   F   F
  0.5843543726043450  0.3154549803294557  0.4535768261196722   F   F   F
  0.1666666716383389  0.2500000000190425  0.4070133268666680   F   F   F
  0.7482914715531379  0.8081423600885387  0.5457038682615760   F   F   F
  0.1666666716383389  0.7500000000123208  0.4070133268666680   F   F   F
  0.5000000000021103  0.2500000000190425  0.4070133268666680   F   F   F
  0.5000000000021103  0.7500000000123208  0.4070133268666680   F   F   F
  0.9166666865332829  0.3124999999901945  0.3605200052333331   F   F   F
  0.3333333432766779  0.2500000000190425  0.4070133268666680   F   F   F
  0.7475270187174132  0.3142365746044575  0.4545382611720825   F   F   F
  0.0000000000000000  0.7500000000123208  0.4070133268666680   F   F   F
  0.4168109319285307  0.8100923500855828  0.4550724048077726   F   F   F
  0.7496794384109364  0.0641954958630322  0.4532987406620279   F   F   F
  0.9158052641623584  0.1868248242854449  0.4531684361691291   F   F   F
  0.8333332538436267  0.0000000000000000  0.4070133268666680   F   F   F
  0.5832317782140208  0.0637002739083954  0.4538511322705148   F   F   F
  0.5833333134730552  0.0625000000159659  0.3605200052333331   F   F   F
  0.1666666716383389  0.4999999999932783  0.4070133268666680   F   F   F
  0.8333332538436267  0.2500000000190425  0.4070133268666680   F   F   F
  0.5000000000021103  0.0000000000000000  0.4070133268666680   F   F   F
  0.5845481433487976  0.5628540515508362  0.4548635231743177   F   F   F
  0.9161183778878836  0.0622071453647735  0.4540992803870552   F   F   F
  0.5906357851253006  0.5659050874486837  0.6389244849917404   F   F   F
  0.0826915113623272  0.4385962729771080  0.5451642569769959   F   F   F
  0.0836610445049786  0.1889752125879980  0.5455028049096668   F   F   F
  0.4994690805984803  0.1256495511252922  0.4995706104277318   F   F   F
  0.9997508560625263  0.4997115626713011  0.5941208361342873   F   F   F
  0.5807226287862406  0.1853001298217194  0.5499001475199847   F   F   F
  0.9998391997341329  0.7531499540088333  0.5923706184423736   F   F   F
  0.3340323422901434  0.9998558677071756  0.5919776997923023   F   F   F
  0.9998260300678723  0.9992569644272962  0.5932046060476281   F   F   F
  0.0009317103931323  0.2498233686648916  0.5918968925651882   F   F   F
  0.3332517433440003  0.4963725753918666  0.5909371235138821   F   F   F
  0.3354522056501352  0.7412063504236599  0.5904099457992515   F   F   F
  0.6635458511359360  0.2479233731308028  0.5902144057541108   F   F   F
  0.6659685281097083  0.0004308010266953  0.5919180611218877   F   F   F
  0.6657545880962701  0.7415261367777077  0.5904110995442622   F   F   F
  0.6666689098653649  0.4946692316424262  0.5912270847589269   F   F   F
  0.1684099033505646  0.2486503670573015  0.5931812842364863   F   F   F
  0.1707082956059551  0.7501150135100474  0.5949688600708285   F   F   F
  0.2484174045444405  0.4358765389999562  0.5491131654856360   F   F   F
  0.1655776657867634  0.5027192915695124  0.5874005717429469   F   F   F
  0.3346078118975697  0.2546617302059460  0.5926670065841009   F   F   F
  0.4997429979220840  0.0001075630845762  0.5910790374312853   F   F   F
  0.8327640708463733  0.8743167121797271  0.4986245578873465   F   F   F
  0.7485644850130768  0.9372015096950150  0.6403065630311033   F   F   F
  0.8321781415621388  0.0020771384054683  0.5922788436080211   F   F   F
  0.7485479173856149  0.1835388773379805  0.5507375612762004   F   F   F
  0.4230777587153156  0.6879776998907943  0.5467278487009395   F   F   F
  0.4231460326205863  0.4439140194206956  0.5456182657295443   F   F   F
  0.7520445227625245  0.4351968137878472  0.5488893052012713   F   F   F
  0.2530273688965892  0.8125150249245721  0.5506949252369679   F   F   F
  0.0833333358191695  0.3124999999901945  0.3605200052333331   F   F   F
  0.5826346199866279  0.3112075318219780  0.5449202393277091   F   F   F
  0.5827374874485045  0.9371620119563460  0.4543310053668321   F   F   F
  0.5831028153132181  0.0621295690710539  0.5455300741231355   F   F   F
  0.4159743111081653  0.9371339074407317  0.5460957518630423   F   F   F
  0.4171505841351077  0.9358966505054269  0.4540303612542615   F   F   F
  0.0823264470423481  0.0632525807853952  0.5475934811691374   F   F   F
  0.5008638901662152  0.7563819816948367  0.5927906193905272   F   F   F
  0.2492747595784479  0.3137639580807274  0.5459326991265669   F   F   F
  0.0821203210086026  0.5643578579959652  0.5462131742711875   F   F   F
  0.0849025001835031  0.8129120313893594  0.5473131675531917   F   F   F
  0.4165235646196166  0.0654236521927558  0.5473939931190657   F   F   F
  0.5766874583966413  0.4358683592881860  0.5521160111813117   F   F   F
  0.4159647573657708  0.3197401325189659  0.5525719977917376   F   F   F
  0.2524563265866320  0.5590400970167053  0.5438958834674352   F   F   F
  0.5811513907735488  0.5600994415318610  0.5489342737688858   F   F   F
  0.7479126372628002  0.3114218357863408  0.5475165777235418   F   F   F
  0.5859021594427674  0.8143509938666966  0.5504030117363286   F   F   F
  0.4124625441986680  0.8128393804690717  0.6395380258814427   F   F   F
  0.9140385373721855  0.6891344966358588  0.5453483781667927   F   F   F
  0.9170727136917165  0.1889679905843025  0.5452519122097357   F   F   F
  0.9159326624713202  0.4377041514181741  0.5457715299498176   F   F   F
  0.5795594362831622  0.6861471523041303  0.5474489516290291   F   F   F
  0.2515179826289042  0.9373059043880687  0.5452944231759886   F   F   F
  0.4974178612430933  0.5043708113196885  0.6090032803656698   F   F   F
  0.9174936348099081  0.5638494440720763  0.5468869789992610   F   F   F
  0.4200069929667762  0.5650129061045277  0.5554462191696814   F   F   F
  0.9155922358222952  0.8128762085348313  0.5468405395577207   F   F   F
  0.0836017267297109  0.9389351086340412  0.5457623435194066   F   F   F
  0.2491276320598672  0.6831885659187691  0.5519669554870816   F   F   F
  0.7492917758107964  0.9340191074308848  0.5476488940894697   F   F   F
  0.7518845509650731  0.6805130902419592  0.5531879622336220   F   F   F
  0.9157018659436957  0.9385725699151166  0.5464251023380484   F   F   F
  0.4177948362471042  0.0652086121957254  0.6400877773044513   F   F   F
  0.5838002838424501  0.9376827642537648  0.5462264463457771   F   F   F
  0.9131094020179802  0.5622440311534120  0.6412827441614226   F   F   F
  0.1674720715402884  0.9983514237112558  0.5922988860047482   F   F   F
  0.4174300526561296  0.9349368378127849  0.6398113108918864   F   F   F
  0.9141146003492793  0.8132952311332886  0.6415599234771108   F   F   F
  0.5828149539930152  0.0667561737427675  0.6388624703177399   F   F   F
  0.5836915994619787  0.3208715205857615  0.6333397462260280   F   F   F
  0.7507658155329793  0.1898230227880902  0.4556521126147217   F   F   F
  0.2475199334365641  0.5738529347391079  0.6287366073153393   F   F   F
  0.7537776786829298  0.6921399314045331  0.6570327991275704   F   F   F
  0.2619417888332265  0.7995809545652222  0.6463384458297980   F   F   F
  0.2509623671741181  0.0594407821634064  0.6423058621168707   F   F   F
  0.9166666865332829  0.5625000000092442  0.3605200052333331   F   F   F
  0.4995266433375463  0.3742432255425570  0.4997116178111369   F   F   F
  0.5002947161225890  0.6211091992187718  0.5000793305584352   F   F   F
  0.8324015334931332  0.6230975679580624  0.5000184447132625   F   F   F
  0.2518355097966989  0.1882817517806714  0.5471625124342481   F   F   F
  0.8326532697980298  0.3733661858432882  0.4995757571273245   F   F   F
  0.9150986727651969  0.3118236551821312  0.6396350803070305   F   F   F
  0.0861586738994902  0.6893911737054665  0.5452386879137165   F   F   F
  0.1677444425591119  0.6243173266136566  0.5000111568550523   F   F   F
  0.5813970474517163  0.4390251644432084  0.6461589774854488   F   F   F
  0.5784799689554845  0.6858769132841758  0.6395700018756614   F   F   F
  0.9161036201332138  0.1863595468297703  0.6398777432003371   F   F   F
  0.2491287879586466  0.3164663533536256  0.6412730984535528   F   F   F
  0.1676855013926613  0.8733227335376270  0.4998591218063595   F   F   F
  0.9159497031757908  0.4370540437594457  0.4535887541443628   F   F   F
  0.1670734521312127  0.1243127652685487  0.4993146763354872   F   F   F
  0.7482045648712443  0.0599154074819808  0.5444197586958452   F   F   F
  0.4270865072772239  0.3044874021204294  0.6554515982558868   F   F   F
  0.5910849174481996  0.8102137002797249  0.6460724783041059   F   F   F
  0.4204452163664456  0.6761049411697897  0.6336338886564974   F   F   F
  0.7551449467968752  0.4341565686599438  0.6378955111841762   F   F   F
  0.4156979383516060  0.1914894599238437  0.5465174773782593   F   F   F
  0.1667520284718194  0.3762714107071048  0.4977642145456613   F   F   F
  0.5000006411109794  0.8734282379911846  0.5009079720769662   F   F   F
  0.8329163494461653  0.1245444256743369  0.5001262917729719   F   F   F
  0.9157868964770230  0.0627465756842511  0.6414100024704297   F   F   F
  0.7411133264487830  0.8098891686053022  0.6400113912763032   F   F   F
  0.7533155931586677  0.5685093038554285  0.6356296037209859   F   F   F
  0.7472436019241044  0.3125466295510435  0.6400400822230736   F   F   F
  0.7476920006842747  0.0679967178449061  0.6388496507900143   F   F   F
  0.0839181235717987  0.3117354376334305  0.6403919153096282   F   F   F
  0.6665353332358848  0.8743770524924486  0.4989249943491032   F   F   F
  0.0870001853448770  0.5627461185134308  0.6403555976408839   F   F   F
  0.0871309141195482  0.4365880152173247  0.6397176624321901   F   F   F
  0.0834923811564110  0.1856776252681627  0.6410346418862005   F   F   F
  0.4150741389389054  0.4187424315967334  0.6300611162568472   F   F   F
  0.0843312195166774  0.9356389195198034  0.6406804643945421   F   F   F
  0.0832520621478920  0.6871150625342395  0.6390755706641471   F   F   F
  0.0842675219964164  0.0606566577548193  0.6421282398790495   F   F   F
  0.8333206095967896  0.5030257148702333  0.5887294943453014   F   F   F
  0.9125039139391973  0.4361231201663784  0.6397707363227454   F   F   F
  0.4177306520676609  0.1873197431370244  0.6395838507413316   F   F   F
  0.8305603408343813  0.7508821052196382  0.5928670338769706   F   F   F
  0.2535751934935391  0.1865348428063243  0.6411835634873100   F   F   F
  0.2520037435580491  0.9302050148095233  0.6373969432917903   F   F   F
  0.9163274243036597  0.6876078421639988  0.6392018071939489   F   F   F
  0.9144323846808291  0.9371019154952833  0.6411321276964657   F   F   F
  0.3972076168357219  0.5506195493767621  0.6520141177971439   F   F   F
  0.2549034834386958  0.6775665121435139  0.6628412321699102   F   F   F
  0.5798139878988096  0.1922181019913296  0.6450076291173517   F   F   F
  0.2406512086234329  0.4421309672670972  0.6415857517469448   F   F   F
  0.0843245453607437  0.8125285624077208  0.6422149776010500   F   F   F
  0.5820853419765655  0.9360837708500824  0.6395607704571873   F   F   F
  0.9166666865332829  0.8124999999834799  0.3605200052333331   F   F   F
  0.7466491540936460  0.1950370652949047  0.6459301298286420   F   F   F
  0.8320046440803850  0.2491534926065100  0.5903318916624727   F   F   F
  0.1660060326166217  0.0011394259728235  0.5065690321417335   F   F   F
  0.0005908325581316  0.1227775822818415  0.6198408047701562   F   F   F
  0.1666666716383389  0.3750000000061604  0.4070133268666680   F   F   F
  0.0000000000000000  0.3750000000061604  0.4070133268666680   F   F   F
  0.6654569482975319  0.7519279919298185  0.5022763182567331   F   F   F
  0.8333332538436267  0.6249999999803961  0.4070133268666680   F   F   F
  0.5011394619205802  0.7528639272914219  0.5039349031380453   F   F   F
  0.3311849512262484  0.4992533960412118  0.5009506534497490   F   F   F
  0.1644353812316552  0.7515351567650725  0.5033632325998951   F   F   F
  0.6686323399037022  0.4999593462905594  0.5006455395700016   F   F   F
  0.6666666865533486  0.3750000000061604  0.4070133268666680   F   F   F
  0.6669599516236460  0.2480917504308948  0.5024538989825018   F   F   F
  0.3330998793477491  0.0010602325650950  0.5057945315767327   F   F   F
  0.5012725789460717  0.4998956016063687  0.5002412785563948   F   F   F
  0.3300661624385413  0.2480996338816013  0.5028494981243128   F   F   F
  0.6659072689841423  0.9998875767268913  0.5055593265591369   F   F   F
  0.5010359448650448  0.2479743269316685  0.5020745845289909   F   F   F
  0.0000562852882382  0.9999987826626509  0.5066850948647996   F   F   F
  0.3338829745351219  0.7511666587475929  0.5015386977173222   F   F   F
  0.3333333432766779  0.3750000000061604  0.4070133268666680   F   F   F
  0.9997975216065242  0.5004609174492742  0.5068600479974634   F   F   F
  0.9999612771645232  0.7509671536264122  0.5066095685147332   F   F   F
  0.0009513619751758  0.2498903094208416  0.5058812119808920   F   F   F
  0.6666666865533486  0.6249999999803961  0.4070133268666680   F   F   F
  0.8333332538436267  0.8749999404036828  0.4070133268666680   F   F   F
  0.3333333432766779  0.6249999999803961  0.4070133268666680   F   F   F
  0.3333333432766779  0.1249999999871179  0.4070133268666680   F   F   F
  0.6666666865533486  0.1249999999871179  0.4070133268666680   F   F   F
  0.8342692199488795  0.0001498292637265  0.5064743008763628   F   F   F
  0.3333333432766779  0.8749999404036828  0.4070133268666680   F   F   F
  0.0000000000000000  0.6249999999803961  0.4070133268666680   F   F   F
  0.1663753890803363  0.2482359676040531  0.5061990643033525   F   F   F
  0.5008571141914615  0.8769001980048969  0.6097037339469367   F   F   F
  0.5002434630285393  0.9993483247996835  0.5055766754130318   F   F   F
  0.0000000000000000  0.8749999404036828  0.4070133268666680   F   F   F
  0.8361942231399411  0.5001367291540504  0.5027436754359087   F   F   F
  0.8320265342656583  0.8764131263530146  0.6181407674186303   F   F   F
  0.3259957077380022  0.3735881710408719  0.5927538714125475   F   F   F
  0.5037394761983123  0.6251231279779788  0.5940897749733338   F   F   F
  0.5000000000021103  0.1249999999871179  0.4070133268666680   F   F   F
  0.0000000000000000  0.1249999999871179  0.4070133268666680   F   F   F
  0.1666666716383389  0.1249999999871179  0.4070133268666680   F   F   F
  0.5000000000021103  0.6249999999803961  0.4070133268666680   F   F   F
  0.3315660322969336  0.1197816043854445  0.6130303110063977   F   F   F
  0.9997015082143363  0.6228122846760229  0.6283424533271500   F   F   F
  0.9991932889589208  0.8750494681317846  0.6223306112478468   F   F   F
  0.8376961604573765  0.3727497993138513  0.6033983865444625   F   F   F
  0.8360697559614678  0.7517720294183832  0.5026116264987550   F   F   F
  0.1666666716383389  0.8749999404036828  0.4070133268666680   F   F   F
  0.1635885730803750  0.4998961890242200  0.5020540132054592   F   F   F
  0.8333332538436267  0.3750000000061604  0.4070133268666680   F   F   F
  0.8360575283708513  0.2486775633164839  0.5023922367512341   F   F   F
  0.8333332538436267  0.1249999999871179  0.4070133268666680   F   F   F
  0.5000000000021103  0.3750000000061604  0.4070133268666680   F   F   F
  0.8396155426486374  0.6269970028289933  0.6037455819848532   F   F   F
  0.5004016437195915  0.1225897143633645  0.6065175414810184   F   F   F
  0.5000000000021103  0.8749999404036828  0.4070133268666680   F   F   F
  0.3341160679481732  0.6245196499005132  0.5951344889108299   F   F   F
  0.1677498682429288  0.1229528209538131  0.6218890916908535   F   F   F
  0.6666666865533486  0.8749999404036828  0.4070133268666680   F   F   F
  0.6710173544945164  0.3725666436648041  0.5930747764676454   F   F   F
  0.1662499375912532  0.8735655026809184  0.6179150832547080   F   F   F
  0.5016684946801817  0.3713701706785173  0.5948030857194198   F   F   F
  0.3345367993215405  0.8787048353541280  0.6028853489642998   F   F   F
  0.6654538320206171  0.1249943389395938  0.6094798494010618   F   F   F
  0.1632786858919744  0.3714407555025616  0.6075508041425977   F   F   F
  0.1666666716383389  0.6249999999803961  0.4070133268666680   F   F   F
  0.6653575782286509  0.8812734370809707  0.6073806876746701   F   F   F
  0.6665673458771550  0.6262210021984060  0.5934461893423588   F   F   F
  0.0001323151036985  0.3750160554790938  0.6235461761106578   F   F   F
  0.8341637046323100  0.1241076041642017  0.6152201746441435   F   F   F
  0.1595212869104898  0.6273991010744595  0.6013556659160457   F   F   F
  0.9164567238458545  0.0000582197026020  0.6038712856841784   F   F   F
  0.5848298531554263  0.7499043803639367  0.5997845856628601   F   F   F
  0.0835235319960077  0.2480063138890571  0.6035669517866467   F   F   F
  0.7495465057601862  0.0018901560963229  0.6044188850932173   F   F   F
  0.5825577432222602  0.0011604807756243  0.6043272917739770   F   F   F
  0.5903211195427502  0.5014579591958039  0.5935191114628537   F   F   F
  0.2424420386851338  0.4978940885630010  0.5940214486127289   F   F   F
  0.2495801435785552  0.7527423445650854  0.5919981230547506   F   F   F
  0.5847197297882758  0.2476929160199859  0.5967273940570834   F   F   F
  0.2496927506074442  0.9977111483016330  0.6042435363926941   F   F   F
  0.7544690549196815  0.2483402487824264  0.5923958204037874   F   F   F
  0.2492578987625294  0.2459565038065250  0.6037319817669200   F   F   F