 H  O                                   
   1.00000000000000     
    23.6707801818999997    0.0000000000000000    0.0000000000000000
     0.0000000000000000   22.3170261383000010    0.0000000000000000
     0.0000000000000000    0.0000000000000000   30.0000000000000000
   H    O 
     2     1
Direct
  0.5284220444529950  0.4683727709376271  0.5119326139418945
  0.5282387156711152  0.5366600812632143  0.5115117765292325
  0.5033996630750011  0.5024826037745526  0.5126383632455593
 
  0.00000000E+00  0.00000000E+00  0.00000000E+00
  0.00000000E+00  0.00000000E+00  0.00000000E+00
  0.00000000E+00  0.00000000E+00  0.00000000E+00
