 H  O                                   
   1.00000000000000     
    23.6707801818999997    0.0000000000000000    0.0000000000000000
     0.0000000000000000   22.3170261383000010    0.0000000000000000
     0.0000000000000000    0.0000000000000000   30.0000000000000000
   H    O 
     2     1
Direct
  0.5284220444529980  0.4683727709376238  0.5119326139418966
  0.5282387156711182  0.5366600812632155  0.5115117765292360
  0.5033996630750023  0.5024826037745548  0.5131383632455611
 
  0.00000000E+00  0.00000000E+00  0.00000000E+00
  0.00000000E+00  0.00000000E+00  0.00000000E+00
  0.00000000E+00  0.00000000E+00  0.00000000E+00
