 H  O 
 1.0000000000000000
    23.6707801818999997    0.0000000000000000    0.0000000000000000
     0.0000000000000000   22.3170261383000010    0.0000000000000000
     0.0000000000000000    0.0000000000000000   30.0000000000000000
 H   O  
   2   1
Cartesian
 12.5089835450137237 10.4525013647383958 15.3579809405539827
 12.5042166075040697 11.9769409660504849 15.3453860884801454
 11.9146471955104225 11.2138195041052633 15.3941155824664637
