Au  C  H  O Sr Ti                       
   1.00000000000000     
    23.6707801818999997    0.0000000000000000    0.0000000000000000
     0.0000000000000000   22.3170261383000010    0.0000000000000000
     0.0000000000000000    0.0000000000000000   30.0000000000000000
   Au   C    H    O    Sr   Ti
    50     2     4   264    72    72
Selective dynamics
Direct
  0.7133826343623468  0.5267781869149317  0.7531196475852227   F   F   F
  0.2809633492347317  0.3418657350120711  0.7023691868914881   F   F   F
  0.6689375748939952  0.6825737311543278  0.7484717630743205   F   F   F
  0.3972319302448710  0.3826013810817344  0.6905993589790427   F   F   F
  0.4508952651833980  0.5801785502916559  0.7034256431974271   F   F   F
  0.3740660027229268  0.4950931045463776  0.8329168412635681   F   F   F
  0.3234592370560634  0.4164733092487083  0.7697100060703974   F   F   F
  0.3686343064529396  0.6205341522546419  0.8201450111952084   F   F   F
  0.3478049727846013  0.5001144514787441  0.6967842824148320   F   F   F
  0.5178274974952117  0.3786234340637549  0.7325667180438771   F   F   F
  0.2560063450353596  0.5940909763813522  0.6945098461446690   F   F   F
  0.4684444793931704  0.4531816769571080  0.8803402185586435   F   F   F
  0.6485559732208799  0.4475360760206755  0.6939117099609788   F   F   F
  0.5383547068738110  0.6693406407632807  0.7021500968347496   F   F   F
  0.4418872744244311  0.4735917490786861  0.7559447914322988   F   F   F
  0.7066024597650582  0.7576650807323801  0.6880110274866880   F   F   F
  0.3743286529077139  0.7420609346491460  0.7795133086943835   F   F   F
  0.4617379917177615  0.5755108894637857  0.8653166150930289   F   F   F
  0.6533021850384984  0.4421208530339911  0.8123876587859016   F   F   F
  0.4138898821072061  0.6957284281543963  0.6999869623693584   F   F   F
  0.7713233276356419  0.4312328552901192  0.7951328169975724   F   F   F
  0.6630502372743621  0.2027462544688348  0.7520691290521455   T   T   T
  0.5679949795756514  0.5120207124780052  0.8570250622446167   F   F   F
  0.5634875537092157  0.6416216017026031  0.8621186072985481   F   F   F
  0.5525638543416065  0.2152359294655071  0.7118508389758631   F   F   F
  0.2886454818048350  0.5397298558423955  0.7770984650394297   F   F   F
  0.5780374947738309  0.7263321038713499  0.7939956196194444   F   F   F
  0.2392608220776538  0.4702799627386298  0.7091186177553226   F   F   F
  0.2864294347355099  0.6637045522921952  0.7637408383770108   F   F   F
  0.5956475563971821  0.2932435279086292  0.7850594852677517   F   F   F
  0.5135146688431362  0.4854851974137659  0.6780308631733334   F   F   F
  0.5613059884983898  0.4882209326197753  0.7622156228046535   F   F   F
  0.4815498852334912  0.2720562165994949  0.7754635575593483   F   F   F
  0.5452640196828469  0.3887096444089906  0.8289097547420496   F   F   F
  0.6182785608658463  0.3211098554240905  0.6960640772856337   F   F   F
  0.3915232481889035  0.8182433724366760  0.7065365230634697   F   F   F
  0.4348094776875087  0.2274239663300222  0.6983418849679808   F   F   F
  0.7000188091415893  0.3439205323564494  0.7583580316216256   F   F   F
  0.3681171337936604  0.3002161427408652  0.7558028747229102   F   F   F
  0.5964641574458653  0.7849798280945706  0.7125437963303298   F   F   F
  0.6319860579355918  0.5864569473086476  0.7995171892662825   F   F   F
  0.7312840722519098  0.6155605590100279  0.6934143613344048   F   F   F
  0.4858463147610479  0.7769929630483432  0.7545312970615328   F   F   F
  0.7630143974581642  0.4324616310088416  0.7050268918750788   F   F   F
  0.7256846002522863  0.2601253302216051  0.6913009061492303   F   F   F
  0.6193713272412751  0.5727380700410762  0.7037651938349114   F   F   F
  0.4632232683177122  0.6981263319535600  0.8315319571804167   F   F   F
  0.5094430764173907  0.6056253209926084  0.7776072484966292   F   F   F
  0.2939718447301374  0.7475106411120933  0.6960314099054230   F   F   F
  0.4257920795915595  0.3737696162753537  0.8166531776124302   F   F   F
  0.7108247299264576  0.1311746906131361  0.7503609557693522   T   T   T
  0.7369656429318070  0.1030703954571592  0.7893423978834662   T   T   T
  0.7832005651856377  0.1073448346407631  0.7855633280309178   T   T   T
  0.7245690915484033  0.1217795493412481  0.8213814138567415   T   T   T
  0.7199034284637804  0.1102981851047105  0.7181278756520797   T   T   T
  0.7294271738725939  0.0544419149642010  0.7880904266824964   T   T   T
  0.0843170517016745  0.6869570942660843  0.4531705447189367   F   F   F
  0.5856528662204639  0.8139957291881288  0.5503586591532681   F   F   F
  0.7472174999493006  0.3113867425667323  0.5481258866511425   F   F   F
  0.5811677415516456  0.5600348305397276  0.5488656502870839   F   F   F
  0.2525733441420925  0.5590717534276521  0.5438246774077129   F   F   F
  0.4156107234586557  0.3195722339086515  0.5525781099863707   F   F   F
  0.5766782615891444  0.4359813866254214  0.5522959993059970   F   F   F
  0.4167149594264004  0.0654186085202326  0.5473354262367991   F   F   F
  0.4996750935454557  0.7572114383844166  0.5925664603907848   F   F   F
  0.0824518908727470  0.0630956087636108  0.5475857852772918   F   F   F
  0.0833333358191695  0.3124999999901945  0.3605200052333331   F   F   F
  0.9145111453305574  0.6885994695094482  0.5459185574631533   F   F   F
  0.7500410706845670  0.1897405536743904  0.4557097650350741   F   F   F
  0.9169531280959120  0.1886518974747347  0.5454905222107342   F   F   F
  0.5790432990787195  0.6859986849862310  0.5476256266752770   F   F   F
  0.2515418409561221  0.9372830067751394  0.5452490131029180   F   F   F
  0.4973553983197334  0.5044498488873543  0.6089396153912290   F   F   F
  0.9179888846630035  0.5637300083137831  0.5470973725984152   F   F   F
  0.4197982357246346  0.5649488207380884  0.5553828309046835   F   F   F
  0.9155700599125964  0.8125995607780823  0.5468184463537042   F   F   F
  0.0841234699994544  0.9383222693197339  0.5461359506074217   F   F   F
  0.2488136917767179  0.6833137985537689  0.5516451200345855   F   F   F
  0.7487236539843920  0.9333854776984722  0.5481530660267495   F   F   F
  0.7516411172048691  0.6800602037984333  0.5534461080665380   F   F   F
  0.9156380928192291  0.9384911030568333  0.5464041238880313   F   F   F
  0.4177839593847921  0.0651013396218332  0.6401040671353186   F   F   F
  0.5843093677797029  0.9374754319604151  0.5464149172373780   F   F   F
  0.4118095305484957  0.8128599287513865  0.6396589765804919   F   F   F
  0.2475313008054911  0.5740146333462022  0.6287330451693549   F   F   F
  0.5825259359513808  0.0616844486714498  0.5453419965548747   F   F   F
  0.9157901369782948  0.1868438886258730  0.4532613041620408   F   F   F
  0.1686350758209727  0.2482140948154168  0.5931647878179120   F   F   F
  0.4994169398501001  0.1257032700769187  0.4989677785639088   F   F   F
  0.9997483911343608  0.4984229219332903  0.5940884513044367   F   F   F
  0.5794194369706815  0.1848344242532320  0.5506851415992173   F   F   F
  0.9998137164591299  0.7537426139037535  0.5928904281846812   F   F   F
  0.3340905392002469  0.9998731030211374  0.5919925925264522   F   F   F
  0.9999164373887268  0.9988421515451904  0.5930314284134894   F   F   F
  0.0013474306035661  0.2497259834116434  0.5922336447496477   F   F   F
  0.3330747484900627  0.4961916105206328  0.5911182650436686   F   F   F
  0.3347625996408752  0.7406776063621905  0.5903599925878282   F   F   F
  0.6632460854852766  0.2463880950378083  0.5916247365872493   F   F   F
  0.6666691554298936  0.0024212436427291  0.5918839205784394   F   F   F
  0.6652449888400014  0.7412288575924393  0.5910199478220335   F   F   F
  0.6665861959175672  0.4947179152191694  0.5915457901320451   F   F   F
  0.5824917372158325  0.9372190320781399  0.4545604140201860   F   F   F
  0.9154369161080638  0.4373445252408317  0.5457095772481395   F   F   F
  0.2482982513332885  0.4358595806248786  0.5491378351653751   F   F   F
  0.1655230050298258  0.5033425257596278  0.5872023047486437   F   F   F
  0.3346115803123837  0.2544469761800698  0.5926693023085505   F   F   F
  0.4999899356760551  0.0000298430645671  0.5911767737567857   F   F   F
  0.8326326206878605  0.8741156778011501  0.4989390292073281   F   F   F
  0.7481185301143896  0.9391200427474615  0.6413274137447331   F   F   F
  0.8321175982738680  0.0020488168073314  0.5923020982197968   F   F   F
  0.7488446951598391  0.1840062121024886  0.5506872694017204   F   F   F
  0.4227074828773780  0.6878105904875369  0.5469702781569197   F   F   F
  0.4229727870335722  0.4436897799360509  0.5459760635007953   F   F   F
  0.7519434306285433  0.4351238539069726  0.5492072478219328   F   F   F
  0.5834551318565957  0.3110692911158992  0.5454772269329879   F   F   F
  0.2533113871118005  0.8126251482399525  0.5504649743828907   F   F   F
  0.1675056492489588  0.9983023962040036  0.5923231080234643   F   F   F
  0.1708665452155387  0.7503285988245807  0.5948502532133659   F   F   F
  0.9142381548703540  0.5626667223521054  0.6408332681937665   F   F   F
  0.4169029392373673  0.4356001813703045  0.4540594500099644   F   F   F
  0.5831392154674404  0.0672095880455430  0.6387741898595749   F   F   F
  0.0829897154958630  0.4388641157169104  0.5448451973587680   F   F   F
  0.4177338055417366  0.9348794546302415  0.6398058298149394   F   F   F
  0.7487019494759579  0.0700007643187064  0.6398852060987821   F   F   F
  0.0843718694796394  0.3111930472081212  0.6409520279581784   F   F   F
  0.6664527329664836  0.8741732459276790  0.4987108253643129   F   F   F
  0.0864917641734237  0.5629157500392097  0.6399116142035126   F   F   F
  0.0874408824720874  0.4365563882968644  0.6397172541000344   F   F   F
  0.4178264277333810  0.1873874778387687  0.6396782451726537   F   F   F
  0.0843888268999322  0.9355745196422092  0.6410854224089420   F   F   F
  0.0833888963078238  0.6871096986916498  0.6388437545475227   F   F   F
  0.0841125380205554  0.0602459988729649  0.6421608681449271   F   F   F
  0.8333127703990826  0.5030422643544981  0.5889881983891385   F   F   F
  0.0839350935840528  0.1851937897140772  0.6413031356861225   F   F   F
  0.2399822599537629  0.4422149946271574  0.6415931504385668   F   F   F
  0.4150828316006923  0.4187648911905200  0.6300811460413414   F   F   F
  0.5829944561078122  0.9367503438952056  0.6395538023813501   F   F   F
  0.2521118087554299  0.9303617279431791  0.6374432069991229   F   F   F
  0.9163650408708008  0.6876351249266506  0.6390761888536431   F   F   F
  0.9143682093688454  0.9371222455993049  0.6413545868373234   F   F   F
  0.3971636984174438  0.5506008823389905  0.6519994896823960   F   F   F
  0.2542557181560383  0.6783964187419471  0.6627067089255334   F   F   F
  0.2536140952770793  0.1861922349177334  0.6413714457273088   F   F   F
  0.5759366758501869  0.1935037827175563  0.6459869980683663   F   F   F
  0.0847958465735914  0.8126329259129079  0.6425715674559243   F   F   F
  0.9166666865332829  0.8124999999834799  0.3605200052333331   F   F   F
  0.7470830435638547  0.1949159776048646  0.6467714667202955   F   F   F
  0.8320253073622013  0.2492870661982920  0.5905229404448278   F   F   F
  0.9125135967122944  0.4361245582620867  0.6399820111379384   F   F   F
  0.8304377497469915  0.7507332589390785  0.5926146090855084   F   F   F
  0.7475596023978142  0.3125761312922819  0.6400265920618793   F   F   F
  0.7530677216391624  0.5683376769862463  0.6357707756757733   F   F   F
  0.5758505841488386  0.6871149722397405  0.6398868101715891   F   F   F
  0.7413476160987429  0.8104163350541640  0.6395699443184668   F   F   F
  0.2492727213921029  0.3137575810319291  0.5459250718050370   F   F   F
  0.5901651977495987  0.5668696670146147  0.6384542686363446   F   F   F
  0.7540640036084980  0.6925015484860637  0.6568285650803034   F   F   F
  0.2510267312594294  0.0594037951294908  0.6423369087948956   F   F   F
  0.9166666865332829  0.5625000000092442  0.3605200052333331   F   F   F
  0.4995159814401049  0.3740132063407700  0.5004502741577284   F   F   F
  0.5001432863776216  0.6210087908449182  0.5000564207410321   F   F   F
  0.8324701601032203  0.6231149609594127  0.5002160497066512   F   F   F
  0.2519787037867189  0.1880905370142401  0.5473198169615969   F   F   F
  0.8323062325155064  0.3730029394912719  0.4999010779172792   F   F   F
  0.9151941561194832  0.3118660619886242  0.6397781298745642   F   F   F
  0.1667464710018578  0.3761785872266188  0.4976779543635175   F   F   F
  0.5809340203057403  0.4398048926775218  0.6467787915210081   F   F   F
  0.8328720179157614  0.1245946990101956  0.5000581656535985   F   F   F
  0.0837208229067556  0.1888302163205537  0.5456865687746273   F   F   F
  0.9162538017179713  0.1863423464781135  0.6398502318821500   F   F   F
  0.9158266187207289  0.4368940890157234  0.4536612134029667   F   F   F
  0.1670604238462587  0.1243429738689414  0.4993064105449889   F   F   F
  0.7488346093146774  0.0604511021072653  0.5448882826318453   F   F   F
  0.4259731224402614  0.3048769756424079  0.6567040837442946   F   F   F
  0.5903196847955172  0.8113045373573300  0.6456673870517946   F   F   F
  0.4202680260788085  0.6762112318288231  0.6339434801461508   F   F   F
  0.7548766311245529  0.4336423028821130  0.6382843127969906   F   F   F
  0.4981816588506334  0.2544101534020768  0.5909084737921120   F   F   F
  0.9160233173597305  0.0625980038478957  0.6412698662311556   F   F   F
  0.1674910524322399  0.6242450745149171  0.5001758674934251   F   F   F
  0.4999341000424806  0.8733262132377035  0.5010449868579272   F   F   F
  0.4161441778559052  0.1913819108399792  0.5465610212374656   F   F   F
  0.9130978760861694  0.8134319019158198  0.6419633177472832   F   F   F
  0.2492888337361947  0.3161534834112842  0.6413008344612265   F   F   F
  0.1677477591188818  0.8732911004488741  0.4998740824423038   F   F   F
  0.0854925823401800  0.6891564824753331  0.5454440030555219   F   F   F
  0.2624385513214591  0.8010889915581956  0.6458541327657628   F   F   F
  0.4169166606586927  0.1873040892608415  0.4536074994771582   F   F   F
  0.5833333134730552  0.9375000000154046  0.3605200052333331   F   F   F
  0.0808828844201415  0.5644354286513433  0.5464187540016283   F   F   F
  0.5833333134730552  0.4374999701794380  0.3605200052333331   F   F   F
  0.5833333134730552  0.1875000000030838  0.3605200052333331   F   F   F
  0.2499999999799343  0.9375000000154046  0.3605200052333331   F   F   F
  0.9166666865332829  0.9375000000154046  0.3605200052333331   F   F   F
  0.2499999999799343  0.6874999999963620  0.3605200052333331   F   F   F
  0.2499999999799343  0.1875000000030838  0.3605200052333331   F   F   F
  0.7499999404149307  0.9375000000154046  0.3605200052333331   F   F   F
  0.7499999404149307  0.6874999999963620  0.3605200052333331   F   F   F
  0.4172242207921499  0.9360441813869329  0.4540267734137657   F   F   F
  0.7499999404149307  0.4374999701794380  0.3605200052333331   F   F   F
  0.9166666865332829  0.6874999999963620  0.3605200052333331   F   F   F
  0.0000277588919957  0.3734719285809120  0.4983730422360040   F   F   F
  0.9166666865332829  0.1875000000030838  0.3605200052333331   F   F   F
  0.4166666269218169  0.9375000000154046  0.3605200052333331   F   F   F
  0.0833333358191695  0.0625000000159659  0.3605200052333331   F   F   F
  0.9152886863549696  0.6868607852074433  0.4533448497583663   F   F   F
  0.6653636251543986  0.3786517980289190  0.5030071388174449   F   F   F
  0.3343329985133039  0.3785350513501768  0.5029597626050730   F   F   F
  0.3354708138173379  0.6256882918100928  0.5036754793007745   F   F   F
  0.9173386340078693  0.0633656514052205  0.5474565687226871   F   F   F
  0.7496335575479804  0.9383971753235372  0.4554231829721047   F   F   F
  0.2499793625118016  0.9360723888831757  0.4540132372217869   F   F   F
  0.2498820134028961  0.1884962901292866  0.4541187386281536   F   F   F
  0.7490959790038403  0.6886129939306613  0.4575347505969489   F   F   F
  0.7499999404149307  0.1875000000030838  0.3605200052333331   F   F   F
  0.5833333134730552  0.0625000000159659  0.3605200052333331   F   F   F
  0.4166666269218169  0.6874999999963620  0.3605200052333331   F   F   F
  0.4166666269218169  0.4374999701794380  0.3605200052333331   F   F   F
  0.2499999999799343  0.4374999701794380  0.3605200052333331   F   F   F
  0.7477773482752923  0.8073049430335075  0.5452412456253697   F   F   F
  0.4168565997586668  0.8103785602851019  0.4549598289216163   F   F   F
  0.5833333134730552  0.6874999999963620  0.3605200052333331   F   F   F
  0.7482583375723806  0.5642874686293311  0.4538284474479468   F   F   F
  0.2520040910529389  0.6875720723678569  0.4559802920241793   F   F   F
  0.0840541866144733  0.9368347664605210  0.4536921003720025   F   F   F
  0.0827293167474039  0.4367854244917737  0.4528137493277598   F   F   F
  0.0838790762697883  0.1865834200101375  0.4530011400540133   F   F   F
  0.9165847743437752  0.8121628171130411  0.4540804199861768   F   F   F
  0.7464309673835245  0.5577448139381147  0.5446439151984848   F   F   F
  0.9160968196006607  0.5621721832920272  0.4540867645679754   F   F   F
  0.9161287804518494  0.0622330543610587  0.4541176238620324   F   F   F
  0.9160832767280525  0.3121935842407240  0.4538228442343950   F   F   F
  0.5825788039574178  0.4392838916494384  0.4563809565644235   F   F   F
  0.5835235094438360  0.1902830865054597  0.4557364443816780   F   F   F
  0.9164316478995929  0.9371052791196277  0.4536745028828690   F   F   F
  0.2504945910162277  0.0620406924676757  0.4542713984744964   F   F   F
  0.5836048532800575  0.0640338262576989  0.4537677517497016   F   F   F
  0.5831529936254398  0.8104938578280141  0.4553212980636587   F   F   F
  0.3336458348671414  0.1256828410103736  0.4986006916062991   F   F   F
  0.0000930932585419  0.8751798180829837  0.4995982573062960   F   F   F
  0.3334777109095839  0.8742756964656948  0.4989504180349513   F   F   F
  0.6659236114029454  0.1266326273884815  0.5008054510318658   F   F   F
  0.2511693589635300  0.4393179235877582  0.4549335467464672   F   F   F
  0.0833333358191695  0.5625000000092442  0.3605200052333331   F   F   F
  0.9166666865332829  0.0625000000159659  0.3605200052333331   F   F   F
  0.7494010269825466  0.8131337805317429  0.4529827595341018   F   F   F
  0.7496725156011337  0.4383105444094113  0.4558689756516046   F   F   F
  0.9158249207952380  0.3124049053890374  0.5464951963029350   F   F   F
  0.4171791882453846  0.6851519817049763  0.4550829108104182   F   F   F
  0.0002186130181983  0.1250839475053240  0.4984508198679052   F   F   F
  0.4159471540383635  0.9372027457265375  0.5460478345121729   F   F   F
  0.5840786675131611  0.3217169073514938  0.6338952288439046   F   F   F
  0.9996701188890498  0.6271570310588430  0.4976245351117683   F   F   F
  0.0867253756061643  0.3135204229366764  0.5471392499678984   F   F   F
  0.0851040381009085  0.8126112180103533  0.5473274459263919   F   F   F
  0.6666666865533486  0.7500000000123208  0.4070133268666680   F   F   F
  0.0000000000000000  0.2500000000190425  0.4070133268666680   F   F   F
  0.0000000000000000  0.4999999999932783  0.4070133268666680   F   F   F
  0.3333333432766779  0.0000000000000000  0.4070133268666680   F   F   F
  0.3333333432766779  0.4999999999932783  0.4070133268666680   F   F   F
  0.3333333432766779  0.7500000000123208  0.4070133268666680   F   F   F
  0.6666666865533486  0.0000000000000000  0.4070133268666680   F   F   F
  0.6666666865533486  0.2500000000190425  0.4070133268666680   F   F   F
  0.6666666865533486  0.4999999999932783  0.4070133268666680   F   F   F
  0.8333332538436267  0.2500000000190425  0.4070133268666680   F   F   F
  0.1666666716383389  0.0000000000000000  0.4070133268666680   F   F   F
  0.5841358107220316  0.3152597895038625  0.4539002719006930   F   F   F
  0.1666666716383389  0.4999999999932783  0.4070133268666680   F   F   F
  0.0833333358191695  0.1875000000030838  0.3605200052333331   F   F   F
  0.9166666865332829  0.4374999701794380  0.3605200052333331   F   F   F
  0.0000000000000000  0.0000000000000000  0.4070133268666680   F   F   F
  0.3333333432766779  0.2500000000190425  0.4070133268666680   F   F   F
  0.0000000000000000  0.7500000000123208  0.4070133268666680   F   F   F
  0.5844244963312946  0.5627759372603833  0.4548774500436252   F   F   F
  0.7489263287943260  0.0641763793908794  0.4536015565181444   F   F   F
  0.8333332538436267  0.0000000000000000  0.4070133268666680   F   F   F
  0.5827452684078906  0.6861316066981757  0.4546534029918803   F   F   F
  0.2518119815361217  0.5646760023541759  0.4536529164910732   F   F   F
  0.1666666716383389  0.2500000000190425  0.4070133268666680   F   F   F
  0.2504194389828598  0.8108584302878370  0.4552705283349141   F   F   F
  0.1666666716383389  0.7500000000123208  0.4070133268666680   F   F   F
  0.6653173470338345  0.6260126889867621  0.5030048216780472   F   F   F
  0.2499999999799343  0.8124999999834799  0.3605200052333331   F   F   F
  0.5000000000021103  0.7500000000123208  0.4070133268666680   F   F   F
  0.9166666865332829  0.3124999999901945  0.3605200052333331   F   F   F
  0.2499999999799343  0.3124999999901945  0.3605200052333331   F   F   F
  0.7473180616697732  0.3140881398779882  0.4549237319219586   F   F   F
  0.5000000000021103  0.4999999999932783  0.4070133268666680   F   F   F
  0.5000000000021103  0.2500000000190425  0.4070133268666680   F   F   F
  0.5833333134730552  0.8124999999834799  0.3605200052333331   F   F   F
  0.7499999404149307  0.3124999999901945  0.3605200052333331   F   F   F
  0.5000000000021103  0.0000000000000000  0.4070133268666680   F   F   F
  0.2499999999799343  0.0625000000159659  0.3605200052333331   F   F   F
  0.7499999404149307  0.0625000000159659  0.3605200052333331   F   F   F
  0.4166666269218169  0.8124999999834799  0.3605200052333331   F   F   F
  0.4166666269218169  0.3124999999901945  0.3605200052333331   F   F   F
  0.7499999404149307  0.8124999999834799  0.3605200052333331   F   F   F
  0.0834920695215615  0.3119681748537175  0.4540417079167298   F   F   F
  0.4168489641508017  0.0615876757842742  0.4553356369806494   F   F   F
  0.4166666269218169  0.5625000000092442  0.3605200052333331   F   F   F
  0.4134803204882544  0.8118572036988141  0.5478175049407028   F   F   F
  0.5833333134730552  0.3124999999901945  0.3605200052333331   F   F   F
  0.0839467756462184  0.5624616291081637  0.4539883469759332   F   F   F
  0.4166666269218169  0.0625000000159659  0.3605200052333331   F   F   F
  0.0837011395452265  0.0618738813172115  0.4542132537376133   F   F   F
  0.0834372650809101  0.8121638050539843  0.4541772082820614   F   F   F
  0.4159092566314229  0.5596265598896295  0.4578695602417326   F   F   F
  0.4166666269218169  0.1875000000030838  0.3605200052333331   F   F   F
  0.0833333358191695  0.9375000000154046  0.3605200052333331   F   F   F
  0.0833333358191695  0.8124999999834799  0.3605200052333331   F   F   F
  0.0833333358191695  0.4374999701794380  0.3605200052333331   F   F   F
  0.8333332538436267  0.7500000000123208  0.4070133268666680   F   F   F
  0.4155640843332691  0.3114240094166689  0.4573790847167842   F   F   F
  0.2499999999799343  0.5625000000092442  0.3605200052333331   F   F   F
  0.7499999404149307  0.5625000000092442  0.3605200052333331   F   F   F
  0.0833333358191695  0.6874999999963620  0.3605200052333331   F   F   F
  0.2522472189215961  0.3141513990477591  0.4541311657236378   F   F   F
  0.2510647232226049  0.0625268530202163  0.5472603638341695   F   F   F
  0.8333332538436267  0.4999999999932783  0.4070133268666680   F   F   F
  0.5833333134730552  0.5625000000092442  0.3605200052333331   F   F   F
  0.8333332538436267  0.1249999999871179  0.4070133268666680   F   F   F
  0.1666666716383389  0.8749999404036828  0.4070133268666680   F   F   F
  0.3317375229388873  0.1196212007780844  0.6130297364034263   F   F   F
  0.6656033610242886  0.1248239675083980  0.6077076707746230   F   F   F
  0.5004044823485998  0.1224268958127368  0.6068775312130583   F   F   F
  0.5000000000021103  0.1249999999871179  0.4070133268666680   F   F   F
  0.9998759687693166  0.6236762927867048  0.6236532224135019   F   F   F
  0.5000000000021103  0.8749999404036828  0.4070133268666680   F   F   F
  0.8362912387066572  0.5001511648003643  0.5028319905651841   F   F   F
  0.5000000000021103  0.6249999999803961  0.4070133268666680   F   F   F
  0.8315294386827148  0.8774776422280368  0.6180309159872053   F   F   F
  0.1634903846703892  0.4998408210950984  0.5019751167449158   F   F   F
  0.8333332538436267  0.3750000000061604  0.4070133268666680   F   F   F
  0.6665339948403144  0.6259067946190982  0.5928349873832985   F   F   F
  0.1666666716383389  0.6249999999803961  0.4070133268666680   F   F   F
  0.8362220317953515  0.7517017355335511  0.5025959125297774   F   F   F
  0.0005008690120576  0.3750555532131941  0.6247863145594863   F   F   F
  0.0000000000000000  0.3750000000061604  0.4070133268666680   F   F   F
  0.6706311330766113  0.3727429290816673  0.5929600066823397   F   F   F
  0.8381588860556732  0.3729168403473011  0.6032166587344108   F   F   F
  0.9991139632213049  0.8747742745006946  0.6235248869789132   F   F   F
  0.8354612092205400  0.1240695547069564  0.6130118944097021   F   F   F
  0.6660246261236082  0.8821565781195417  0.6072013659469491   F   F   F
  0.1633914503031022  0.3710770246533102  0.6074850816728201   F   F   F
  0.1678201851343033  0.1225692672524730  0.6217284127013940   F   F   F
  0.1596995011627627  0.6275077807174156  0.6013443596057826   F   F   F
  0.3340172577422749  0.6247126839682693  0.5949561152597482   F   F   F
  0.1664777341998303  0.8737548361672864  0.6177302368019184   F   F   F
  0.3347250478834880  0.8790282612325555  0.6026320264069298   F   F   F
  0.6666666865533486  0.8749999404036828  0.4070133268666680   F   F   F
  0.5000000000021103  0.3750000000061604  0.4070133268666680   F   F   F
  0.5035407645220928  0.6249797311571967  0.5941626491791325   F   F   F
  0.1666666716383389  0.1249999999871179  0.4070133268666680   F   F   F
  0.5016546651116514  0.3716765572327816  0.5949449873802948   F   F   F
  0.0000000000000000  0.1249999999871179  0.4070133268666680   F   F   F
  0.8396094618296104  0.6269471887279963  0.6042322483485094   F   F   F
  0.3332152503876173  0.0011400536096318  0.5057779399059470   F   F   F
  0.6666666865533486  0.3750000000061604  0.4070133268666680   F   F   F
  0.5010320997966460  0.7529098755841233  0.5037921425865264   F   F   F
  0.3339572331142762  0.7511692218918000  0.5015323426702167   F   F   F
  0.1644362871483551  0.7513827599905767  0.5034819643399047   F   F   F
  0.6662143664671376  0.9999341606976202  0.5056719752125858   F   F   F
  0.3301949786178753  0.2479384623887881  0.5028841296108055   F   F   F
  0.0008549541335086  0.1227773133165542  0.6195987103077272   F   F   F
  0.8333332538436267  0.6249999999803961  0.4070133268666680   F   F   F
  0.1666666716383389  0.3750000000061604  0.4070133268666680   F   F   F
  0.9999870884899735  0.7511005172435716  0.5067755568959882   F   F   F
  0.5014085654425529  0.8773555565654831  0.6098193191068120   F   F   F
  0.3311337139710986  0.4992270273246788  0.5009132535466989   F   F   F
  0.3260175635635960  0.3732681431303533  0.5927036143156172   F   F   F
  0.6669233086441793  0.2480531237343655  0.5025855617662600   F   F   F
  0.6684586762212987  0.4999357839939051  0.5005609618188060   F   F   F
  0.6654122797357189  0.7518496017179217  0.5021342051442730   F   F   F
  0.0001923046244983  0.9998393744708594  0.5067001922059902   F   F   F
  0.8362903290294170  0.2485806340768164  0.5022979351953722   F   F   F
  0.3333333432766779  0.3750000000061604  0.4070133268666680   F   F   F
  0.5010653651651822  0.4996865108248656  0.5001889821855912   F   F   F
  0.3333333432766779  0.1249999999871179  0.4070133268666680   F   F   F
  0.9996018664488560  0.4999268663981411  0.5067408159609528   F   F   F
  0.1660206571794731  0.0011025970073746  0.5065447825156326   F   F   F
  0.5003479142148635  0.9992196644255742  0.5056055952495200   F   F   F
  0.6666666865533486  0.1249999999871179  0.4070133268666680   F   F   F
  0.8342915836587323  0.9999412038951760  0.5065958244752480   F   F   F
  0.1664282013634164  0.2481679251747764  0.5062325315749803   F   F   F
  0.3333333432766779  0.8749999404036828  0.4070133268666680   F   F   F
  0.3333333432766779  0.6249999999803961  0.4070133268666680   F   F   F
  0.8333332538436267  0.8749999404036828  0.4070133268666680   F   F   F
  0.6666666865533486  0.6249999999803961  0.4070133268666680   F   F   F
  0.0011403318479282  0.2498193913901261  0.5061288279541643   F   F   F
  0.5012258905102271  0.2479516684832106  0.5023004796199544   F   F   F
  0.0000000000000000  0.8749999404036828  0.4070133268666680   F   F   F
  0.0000000000000000  0.6249999999803961  0.4070133268666680   F   F   F
  0.0833333358191695  0.2500000000190425  0.4070133268666680   F   F   F
  0.0833333358191695  0.4999999999932783  0.4070133268666680   F   F   F
  0.0836537364869514  0.9984714927481164  0.6037040431751919   F   F   F
  0.0833333358191695  0.7500000000123208  0.4070133268666680   F   F   F
  0.9187301631033620  0.3742777906658077  0.5058218209183920   F   F   F
  0.7523073500939432  0.7524494902935857  0.5905025694244657   F   F   F
  0.5838776353193964  0.8759202204447547  0.5057362882016889   F   F   F
  0.4166666269218169  0.4999999999932783  0.4070133268666680   F   F   F
  0.0833333358191695  0.0000000000000000  0.4070133268666680   F   F   F
  0.9166666865332829  0.7500000000123208  0.4070133268666680   F   F   F
  0.9185543907520710  0.4999103739052941  0.6038147195413828   F   F   F
  0.5832437972614954  0.1235224865821465  0.5045744025242556   F   F   F
  0.7524957479749901  0.6247142288151366  0.5023411968815310   F   F   F