Au  C  H  O Sr Ti 
 1.0000000000000000
    23.6707801818999997    0.0000000000000000    0.0000000000000000
     0.0000000000000000   22.3170261383000010    0.0000000000000000
     0.0000000000000000    0.0000000000000000   30.0000000000000000
 Au  C   H   O   Sr  Ti 
  50   2   4 264  72  72
Selective dynamics
Cartesian
 16.8863235235758680 11.7561225664668463 22.5935894275566511   F   F   F
  6.6506216789057833  7.6294265440534925 21.0710756067446567   F   F   F
 15.8342742907290379 15.2330157994881361 22.4541528922295193   F   F   F
  9.4027897020580937  8.5385250221508251 20.7179807693713016   F   F   F
 10.6730427072157088 12.9478598717399151 21.1027692959228226   F   F   F
  8.8544341239763806 11.0490057550535390 24.9875052379070013   F   F   F
  7.6565324981591596  9.2944457284077391 23.0913001821118442   F   F   F
  8.7258616355547218 13.8484768955747057 24.6043503358563669   F   F   F
  8.2328150569559782 11.1610672857927273 20.9035284724449397   F   F   F
 12.2573808653525873  8.4497490745737860 21.9770015413163406   F   F   F
  6.0598699185036313 13.2583438484307745 20.8352953843401068   F   F   F
 11.0884462991402479 10.1136673300504665 26.4102065567593591   F   F   F
 15.3518258777696470  9.9876743063855606 20.8173512988294647   F   F   F
 12.7432759263011999 14.9376925753406837 21.0645029050425663   F   F   F
 10.4598165380796218 10.5691594430722677 22.6783437429688632   F   F   F
 16.7258315010884893 16.9088314107817865 20.6403308246005786   F   F   F
  8.8606512587652073 16.5605932747764015 23.3853992608315941   F   F   F
 10.9296985035831700 12.8436915630395170 25.9594984527908856   F   F   F
 15.4641724144013128  9.8668226334470344 24.3716297635770260   F   F   F
  9.7970964188722540 15.5265895162799623 20.9996088710807598   F   F   F
 18.2578249376348545  9.6238349032033383 23.8539845099271446   F   F   F
 15.6949164160779802  4.5246934604233466 22.5620738715644329   T   T   T
 13.4448843059580945 11.4267796237227053 25.7107518673385798   F   F   F
 13.3381900190873424 14.3190860560949673 25.8635582189564914   F   F   F
 13.0796175325835193  4.8034258637829392 21.3555251692759533   F   F   F
  6.8324637503009251 12.0451653004555563 23.3129539511828483   F   F   F
 13.6825984756875236 16.2095725471832992 23.8198685885832901   F   F   F
  5.6634903255408418 10.4952502207567164 21.2735585326597452   F   F   F
  6.7800081872502078 14.8119118416135471 22.9122251513102420   F   F   F
 14.0994423733636189  6.5443234772241103 23.5517845580326224   F   F   F
 12.1552928463670167 10.8345858404407078 20.3409258951999377   F   F   F
 13.2865506685294790 10.8956393145406807 22.8664686841396581   F   F   F
 11.3986614799811221  6.0714856969379367 23.2639067267804869   F   F   F
 12.9068247510119338  8.6748432944848091 24.8672926422613969   F   F   F
 14.6351359054369148  7.1662170367652172 20.8819223185690568   F   F   F
  9.2676607439829386 18.2607587301599850 21.1960956919041479   F   F   F
 10.2922795673478156  5.0754266010629623 20.9502565490394446   F   F   F
 16.5699913543858948  7.6752835100969898 22.7507409486486800   F   F   F
  8.7136197552207459  6.6999315046874299 22.6740862416872808   F   F   F
 14.1187719572833021 17.5184153416247952 21.3763138899099481   F   F   F
 14.9596030554188459 13.0879750220747333 23.9855156779884311   F   F   F
 17.3100645247996674 13.7374810851333145 20.8024308400322226   F   F   F
 11.5003613188949334 17.3401722656249646 22.6359389118459333   F   F   F
 18.0611460778570923  9.6512575230361684 21.1508067562522939   F   F   F
 17.1775206539618104  5.8052237937894535 20.7390271844769138   F   F   F
 14.6610025380998898 12.7818104795062180 21.1129558150473784   F   F   F
 10.9648561594898819 15.5801035980431148 24.9459587154125124   F   F   F
 12.0589150770668940 13.5157561186083264 23.3282174548987982   F   F   F
  6.9585429162746752 16.6822145163560407 20.8809422971627363   F   F   F
 10.0788307192058895  8.3414262961193977 24.4995953283729193   F   F   F
 16.8257759299476000  2.9274289990968430 22.5108286730806597   T   T   T
 17.4445517354514941  2.3002247095023129 23.6802719365039991   T   T   T
 18.5389684168491335  2.3956174804893458 23.5668998409274728   T   T   T
 17.1511156926412376  2.7177573857590063 24.6414424157022225   T   T   T
 17.0406758073622342  2.4615274799888920 21.5438362695624726   T   T   T
 17.2661102914426579  1.2149816392751751 23.6577128004748758   T   T   T
  1.9958503964162935 15.3308394286267564 13.5951163415680139   F   F   F
 13.8628602592042878 18.1659639647560063 16.5107597745980854   F   F   F
 17.6872211893687208  6.9492260729818813 16.4437765995342922   F   F   F
 13.7566938590803378 12.4983119515135623 16.4659695086125915   F   F   F
  5.9786081089948970 12.4768189344300868 16.3147403222313656   F   F   F
  9.8378300762303361  7.1319018972143100 16.5773432995911350   F   F   F
 13.6504243657568143  9.7298080011317705 16.5688799791798900   F   F   F
  9.8639682030917797  1.4599487962773197 16.4200627871040794   F   F   F
 11.8276993016847563 16.8987074626447900 17.7769938117234929   F   F   F
  1.9517005844308415  1.4081063499895266 16.4275735583188087   F   F   F
  1.9725650740000149  6.9740706679999214 10.8156001569999933   F   F   F
 21.6471922950172377 15.3674923598618722 16.3775567238945214   F   F   F
 17.7540573115712803  4.2344448958469201 13.6712929510523100   F   F   F
 21.7049959322639694  4.2101493269835260 16.3647156663220663   F   F   F
 13.7064066482944931 15.3094505836771528 16.4287688002583394   F   F   F
  5.9541916238228483 20.9173693611852798 16.3574703930874819   F   F   F
 11.7727903059077175 11.2578204630806216 18.2681884617369725   F   F   F
 21.7295130982855014 12.5807773304827464 16.4129211779523700   F   F   F
  9.9369517585873446 12.6079775992136387 16.6614849271404388   F   F   F
 21.6722576293200326 18.1348056378556350 16.4045533906110954   F   F   F
  1.9912681664957208 20.9405626105575493 16.3840785182227009   F   F   F
  5.8896142042937685 15.2495319029855931 16.5493536010375912   F   F   F
 17.7228730304535667 20.8303881029064861 16.4445919808023930   F   F   F
 17.7919316610342086 15.1769213437872086 16.6033832419960987   F   F   F
 21.6738680212981869 20.9443304774814187 16.3921237166409419   F   F   F
  9.8892722661212549  1.4528682979787770 19.2031220140596481   F   F   F
 13.8310586029383824 20.9216637190746759 16.3924475171213011   F   F   F
  9.7478528744247939 18.1406162767213068 19.1897692974147276   F   F   F
  5.8592590095065509 12.8102995761539429 18.8619913550806082   F   F   F
 13.7888433801606958  1.3766134533274146 16.3602598966463368   F   F   F
 21.6774670251653525  4.1697999462452753 13.5978391248612631   F   F   F
  3.9917238107162842  5.5394004418900709 17.7949436345373506   F   F   F
 11.8215886023088412  2.8053231639764058 14.9690333569172136   F   F   F
 23.6648244037496163 11.1233173767131177 17.8226535391330003   F   F   F
 13.7153101256532839  4.1249546773169925 16.5205542479764809   F   F   F
 23.6663707051525840 16.8212936160407054 17.7867128455405208   F   F   F
  7.9081837142614511 22.3141941751057828 17.7597777757936761   F   F   F
 23.6688021896971961 22.2911864040698475 17.7909428524047790   F   F   F
  0.0318947336273117  5.5731412992103140 17.7670093424894588   F   F   F
  7.8841391556499500 11.0735211415940924 17.7335479513100651   F   F   F
  7.9240919092205129 16.5297215012385124 17.7107997776349535   F   F   F
 15.6995522960277025  5.4986495571247014 17.7487420976174519   F   F   F
 15.7805790322339092  0.0540349576619981 17.7565176173531363   F   F   F
 15.7468678979421721 16.5420237893527720 17.7305984346609904   F   F   F
 15.7786153158537115 11.0406326450314385 17.7463737039612894   F   F   F
 13.7880338694090554 20.9159416362000634 13.6368124206056045   F   F   F
 21.6691060115904826  9.7602292012420726 16.3712873174442350   F   F   F
  5.8774133268604620  9.7270896534338789 16.4741350549613443   F   F   F
  3.9180586671085367 11.2331083038956319 17.6160691424592208   F   F   F
  7.9205171638925647  5.6784998182220265 17.7800790692564803   F   F   F
 11.8351518605501997  0.0006660084519307 17.7353032127035171   F   F   F
 19.7090637365816441 19.5076624293860235 14.9681708762198848   F   F   F
 17.7085492763438097 20.9583665409965612 19.2398224123420327   F   F   F
 19.6968727542313857  0.0457234982417608 17.7690629465939836   F   F   F
 17.7257381695104321  4.1064714451007500 16.5206180820516124   F   F   F
 10.0058159084346734 15.3498869261098800 16.4091083447076720   F   F   F
 10.0120958647973435  9.9018364161293704 16.3792819050237917   F   F   F
 17.7990876556320750  9.7106704210396888 16.4762174346579577   F   F   F
 13.8108381721790163  6.9421415006560334 16.3643168079895531   F   F   F
  5.9960781618955359 18.1353766739108693 16.5139492314866878   F   F   F
  3.9649894025984893 22.2791406700122465 17.7696932407040400   F   F   F
  4.0445444322377480 16.7451029522821884 17.8455075964010206   F   F   F
 21.6407303978420309 12.5570479498835219 19.2249980458129492   F   F   F
  9.8684178318757230  9.7213006334893670 13.6217835002988643   F   F   F
 13.8033601847753964  1.4999181331567182 19.1632256957871689   F   F   F
  1.9644313128610522  9.7941419416162141 16.3453559207629411   F   F   F
  9.8880850855270328 20.8637292251428121 19.1941748944481532   F   F   F
 17.7223592678053343  1.5622088870015556 19.1965561829633700   F   F   F
  1.9971479759885657  6.9449033686008441 19.2285608387452776   F   F   F
 15.7754561436761822 19.5089471787706081 14.9613247609294380   F   F   F
  2.0473275372937705 12.5626055072857916 19.1973484261054459   F   F   F
  2.0697939079081502  9.7426403284628886 19.1915176230010474   F   F   F
  9.8902775250653736  4.1819312409179910 19.1903473551795258   F   F   F
  1.9975493713566574 20.8792410091826177 19.2325626722682443   F   F   F
  1.9738802341136714 15.3342451055809477 19.1653126364256359   F   F   F
  1.9910093980262351  1.3445115315759746 19.2648260443477106   F   F   F
 19.7251634108868394 11.2264073622690095 17.6696459516742514   F   F   F
  1.9868091497753235  4.1329746456998997 19.2390940705836542   F   F   F
  5.6805673229210809  9.8689235938424886 19.2477945131569435   F   F   F
  9.8253344641006404  9.3455870225012152 18.9024343812403082   F   F   F
 13.7999336177944123 20.9054819097707600 19.1866140714404061   F   F   F
  5.9676832063109293 20.7629070005819649 19.1232962099735957   F   F   F
 21.6910754488306026 15.3459710566012912 19.1722856656092482   F   F   F
 21.6438088892874951 20.9137816498220523 19.2406376051196943   F   F   F
  9.4011746014697870 12.2877742829302807 19.5599846904718824   F   F   F
  6.0184312144626704 15.1397906091931720 19.8812012677660448   F   F   F
  6.0032435003351656  4.1552569734075142 19.2411433718193265   F   F   F
 13.6328704527439299  4.3184289767675610 19.3796099420508909   F   F   F
  2.0071838445816308 18.1355502484416178 19.2771470236777063   F   F   F
 21.6982156369999721 18.1325837370000720 10.8156001569999933   F   F   F
 17.6840385018248867  4.3499449669800585 19.4031440016087693   F   F   F
 19.6946881563484020  5.5633459722874390 17.7156882133449187   F   F   F
 21.5999087607715978  9.7330031662895635 19.1994603341381769   F   F   F
 19.6571094290127135 16.7541337626345026 17.7784382725652286   F   F   F
 17.6953190212272453  6.9757696922585373 19.2007977618564603   F   F   F
 17.8257005010049241 12.6836067926827418 19.0731232702731184   F   F   F
 13.6308325950058329 15.3343627954916162 19.1966043051476660   F   F   F
 17.5482764590489495 18.0860825323091134 19.1870983295541002   F   F   F
  5.9004797934165332  7.0021361369793889 16.3777521541511817   F   F   F
 13.9696706669383435 12.6508451757746290 19.1536280590904084   F   F   F
 17.8492832725001271 15.4545751583767199 19.7048569524091555   F   F   F
  5.9419985754228604  1.3257160486190489 19.2701072638469384   F   F   F
 21.6982156369999721 12.5533272030000536 10.8156001569999933   F   F   F
 11.8239329940147204  8.3468625019763270 15.0135082247318579   F   F   F
 11.8387817912976860 13.8590694174001410 15.0016926222310012   F   F   F
 19.7052181677943921 13.9060728708970291 15.0064814911996471   F   F   F
  5.9645325078554654  4.1976214309137383 16.4195945088478581   F   F   F
 19.7013378738999663  8.3243163502894202 14.9970323375182844   F   F   F
 21.6633596932637467  6.9599230570488215 19.1933438962369145   F   F   F
  3.9470190611926212  8.3951873638052046 14.9303386309056023   F   F   F
 13.7511614948446379  9.8151372856365153 19.4033637456302870   F   F   F
 19.7147304557394030  2.7805831545042148 15.0017449696080476   F   F   F
  1.9817371956735332  4.2141288733265663 16.3705970632389217   F   F   F
 21.6884423312962085  4.1586070170242451 19.1955069564644702   F   F   F
 21.6783305764711152  9.7501768042327353 13.6098364020890408   F   F   F
  3.9544505699598460  2.7749653979471884 14.9791923163497120   F   F   F
 17.7254994296866393  1.3490888258168039 16.3466484789552808   F   F   F
 10.0831161446809787  6.8039474343774504 19.7011225123289151   F   F   F
 13.9733274958432379 18.1059045663248916 19.3700216115538026   F   F   F
  9.9480720627925372 15.0910237357359325 19.0183044043846259   F   F   F
 17.8685187998024482  9.6776066080926935 19.1485293839097714   F   F   F
 11.7923485373076318  5.6776780433230156 17.7272542137634410   F   F   F
 21.6829865867169715  1.3970012880789215 19.2380959869347592   F   F   F
  3.9646438845586331 13.9312936446543674 15.0052760248026669   F   F   F
 11.8338301875416256 19.4900439280883830 15.0313496057377325   F   F   F
  9.8504573580046966  4.2710751066135764 16.3968306371239514   F   F   F
 21.6137391093955600 18.1533810167824079 19.2588995324185106   F   F   F
  5.9008611851716912  7.0556055530042858 19.2390250338368922   F   F   F
  3.9707203321094284 19.4892603150623280 14.9962224732691283   F   F   F
  2.0236761237574363 15.3799232327809179 16.3633200916656882   F   F   F
  6.2121252595865286 17.8779239637087173 19.3756239829729324   F   F   F
  9.8687426286237461  4.1800702558446563 13.6082249843147167   F   F   F
 13.8079546360000549 20.9222120050000342 10.8156001569999933   F   F   F
  1.9145609775871699 12.5965202145945216 16.3925626200488281   F   F   F
 13.8079546360000549  9.7636982699999884 10.8156001569999933   F   F   F
 13.8079546360000549  4.1844424010000720 10.8156001569999933   F   F   F
  5.9176950450000287 20.9222120050000342 10.8156001569999933   F   F   F
 21.6982156369999721 20.9222120050000342 10.8156001569999933   F   F   F
  5.9176950450000287 15.3429554700000619 10.8156001569999933   F   F   F
  5.9176950450000287  4.1844424010000720 10.8156001569999933   F   F   F
 17.7530837259999217 20.9222120050000342 10.8156001569999933   F   F   F
 17.7530837259999217 15.3429554700000619 10.8156001569999933   F   F   F
  9.8760228169354392 20.8897224626158255 13.6208032024128904   F   F   F
 17.7530837259999217  9.7636982699999884 10.8156001569999933   F   F   F
 21.6982156369999721 15.3429554700000619 10.8156001569999933   F   F   F
  0.0006570746305517  8.3347827920614925 14.9511912670801035   F   F   F
 21.6982156369999721  4.1844424010000720 10.8156001569999933   F   F   F
  9.8628241350000643 20.9222120050000342 10.8156001569999933   F   F   F
  1.9725650740000149  1.3948141340000613 10.8156001569999933   F   F   F
 21.6655972976885351 15.3286900968477635 13.6003454927510283   F   F   F
 15.7496761120618665  8.4503820739256135 15.0902141645232586   F   F   F
  7.9139229153638411  8.4477766352446366 15.0887928781522707   F   F   F
  7.9408558913133120 13.9635019627541617 15.1102643790232545   F   F   F
 21.7141211579646409  1.4141328986806474 16.4236970616807092   F   F   F
 17.7444111576939569 20.9422342898023430 13.6626954891632124   F   F   F
  5.9172065400283866 20.8903519700468188 13.6203971166536313   F   F   F
  5.9149022106705242  4.2066766337878514 13.6235621588445976   F   F   F
 17.7316862541451563 15.3677941847235413 13.7260425179083754   F   F   F
 17.7530837259999217  4.1844424010000720 10.8156001569999933   F   F   F
 13.8079546360000549  1.3948141340000613 10.8156001569999933   F   F   F
  9.8628241350000643 15.3429554700000619 10.8156001569999933   F   F   F
  9.8628241350000643  9.7636982699999884 10.8156001569999933   F   F   F
  5.9176950450000287  9.7636982699999884 10.8156001569999933   F   F   F
 17.7004732360284471 18.0166455152575793 16.3572373687611439   F   F   F
  9.8673209402615960 18.0852395118005482 13.6487948676485189   F   F   F
 13.8079546360000549 15.3429554700000619 10.8156001569999933   F   F   F
 17.7118586279497450 12.5932181869159461 13.6148534234383920   F   F   F
  5.9651334442536097 15.3445639109985503 13.6794087607253374   F   F   F
  1.9896281747196627 20.9073659703676498 13.6107630111601736   F   F   F
  1.9582674713266350  9.7477517352113843 13.5844124798327304   F   F   F
  1.9854831762430638  4.1639870613396948 13.5900342016203393   F   F   F
 21.6962767115679860 18.1250588180671386 13.6224125995852265   F   F   F
 17.6686033498984578 12.4472055911581254 16.3393174559544967   F   F   F
 21.6847264421049708 12.5460113087532772 13.6226029370392343   F   F   F
 21.6854829803878069  1.3888567008419630 13.6235287158610401   F   F   F
 21.6844058717443460  6.9672323797097491 13.6146853270317649   F   F   F
 13.7900948071101652  9.8035100920747169 13.6914286969327055   F   F   F
 13.8124567230159414  4.2465526152188202 13.6720933314503021   F   F   F
 21.6926520891677157 20.9134030084516738 13.6102350864861545   F   F   F
  5.9294024007000203  1.3845637554393417 13.6281419542348168   F   F   F
 13.8143821950822865  1.4290445743284721 13.6130325524909868   F   F   F
 13.8036863245247332 18.0878126100793395 13.6596389419098330   F   F   F
  7.8976572157465306  2.8048672479643062 14.9580207481889058   F   F   F
  0.0022035900593574 19.5314108758705842 14.9879477191888775   F   F   F
  7.8936775905039518 19.5112335701053574 14.9685125410486375   F   F   F
 15.7629314234560809  2.8260636553903082 15.0241635309559243   F   F   F
  5.9453746844544169  9.8042695837317577 13.6480064023941008   F   F   F
  1.9725650740000149 12.5533272030000536 10.8156001569999933   F   F   F
 21.6982156369999721  1.3948141340000613 10.8156001569999933   F   F   F
 17.7389069777939810 18.1467278340616858 13.5894827860230816   F   F   F
 17.7453333252065164  9.7817878762773471 13.6760692695482131   F   F   F
 21.6782903852500262  6.9719484393003350 16.3948558890880136   F   F   F
  9.8749568614200385 15.2905546844179625 13.6524873243125064   F   F   F
  0.0051747406985932  2.7915017259580810 14.9535245960372443   F   F   F
  9.8457936505290036 20.9155781732657431 16.3814350353652927   F   F   F
 13.8255977476410141  7.1797646304963036 19.0168568653172443   F   F   F
 23.6629716386366056 13.9962798549588729 14.9287360533529814   F   F   F
  2.0528573021662440  6.9968434735686831 16.4141774990368567   F   F   F
  2.0144789784785835 18.1350657926128171 16.4198233777918574   F   F   F
 15.7805205919999434 16.7377696039999648 12.2103998060000407   F   F   F
  0.0000000000000000  5.5792565349999723 12.2103998060000407   F   F   F
  0.0000000000000000 11.1585130689999925 12.2103998060000407   F   F   F
  7.8902602960000570  0.0000000000000000 12.2103998060000407   F   F   F
  7.8902602960000570 11.1585130689999925 12.2103998060000407   F   F   F
  7.8902602960000570 16.7377696039999648 12.2103998060000407   F   F   F
 15.7805205919999434  0.0000000000000000 12.2103998060000407   F   F   F
 15.7805205919999434  5.5792565349999723 12.2103998060000407   F   F   F
 15.7805205919999434 11.1585130689999925 12.2103998060000407   F   F   F
 19.7256482699999580  5.5792565349999723 12.2103998060000407   F   F   F
  3.9451301480000271  0.0000000000000000 12.2103998060000407   F   F   F
 13.8269503719771656  7.0356609627126758 13.6170081570207557   F   F   F
  3.9451301480000271 11.1585130689999925 12.2103998060000407   F   F   F
  1.9725650740000149  4.1844424010000720 10.8156001569999933   F   F   F
 21.6982156369999721  9.7636982699999884 10.8156001569999933   F   F   F
  0.0000000000000000  0.0000000000000000 12.2103998060000407   F   F   F
  7.8902602960000570  5.5792565349999723 12.2103998060000407   F   F   F
  0.0000000000000000 16.7377696039999648 12.2103998060000407   F   F   F
 13.8337837855756867 12.5594853018462249 13.6463235013087552   F   F   F
 17.7276705013277862  1.4322259363276415 13.6080466955444361   F   F   F
 19.7256482699999580  0.0000000000000000 12.2103998060000407   F   F   F
 13.7940351505255023 15.3124170009969518 13.6396020897563162   F   F   F
  5.9605860621102735 12.6018891042089596 13.6095874947321445   F   F   F
  3.9451301480000271  5.5792565349999723 12.2103998060000407   F   F   F
  5.9276234934380252 18.0959487831946504 13.6581158500474409   F   F   F
  3.9451301480000271 16.7377696039999648 12.2103998060000407   F   F   F
 15.7485806728427562 13.9707415430250208 15.0901446503414256   F   F   F
  5.9176950450000287 18.1325837370000720 10.8156001569999933   F   F   F
 11.8353900909999528 16.7377696039999648 12.2103998060000407   F   F   F
 21.6982156369999721  6.9740706679999214 10.8156001569999933   F   F   F
  5.9176950450000287  6.9740706679999214 10.8156001569999933   F   F   F
 17.6896015637488730  7.0095132273870515 13.6477119576588368   F   F   F
 11.8353900909999528 11.1585130689999925 12.2103998060000407   F   F   F
 11.8353900909999528  5.5792565349999723 12.2103998060000407   F   F   F
 13.8079546360000549 18.1325837370000720 10.8156001569999933   F   F   F
 17.7530837259999217  6.9740706679999214 10.8156001569999933   F   F   F
 11.8353900909999528  0.0000000000000000 12.2103998060000407   F   F   F
  5.9176950450000287  1.3948141340000613 10.8156001569999933   F   F   F
 17.7530837259999217  1.3948141340000613 10.8156001569999933   F   F   F
  9.8628241350000643 18.1325837370000720 10.8156001569999933   F   F   F
  9.8628241350000643  6.9740706679999214 10.8156001569999933   F   F   F
 17.7530837259999217 18.1325837370000720 10.8156001569999933   F   F   F
  1.9763224245767288  6.9622019125281343 13.6212512375018644   F   F   F
  9.8671401994664159  1.3744537702748068 13.6600691094194424   F   F   F
  9.8628241350000643 12.5533272030000536 10.8156001569999933   F   F   F
  9.7874017758189567 18.1182384355135113 16.4345251482210450   F   F   F
 13.8079546360000549  6.9740706679999214 10.8156001569999933   F   F   F
  1.9870856733009903 12.5524708785976760 13.6196504092779183   F   F   F
  9.8628241350000643  1.3948141340000613 10.8156001569999933   F   F   F
  1.9812712751496033  1.3808410266342477 13.6263976121283186   F   F   F
  1.9750251607091698 18.1250808659709328 13.6253162484617842   F   F   F
  9.8448965893397613 12.4892005647438289 13.7360868072519633   F   F   F
  9.8628241350000643  4.1844424010000720 10.8156001569999933   F   F   F
  1.9725650740000149 20.9222120050000342 10.8156001569999933   F   F   F
  1.9725650740000149 18.1325837370000720 10.8156001569999933   F   F   F
  1.9725650740000149  9.7636982699999884 10.8156001569999933   F   F   F
 19.7256482699999580 16.7377696039999648 12.2103998060000407   F   F   F
  9.8367260917454349  6.9500577582459453 13.7213725415034684   F   F   F
  5.9176950450000287 12.5533272030000536 10.8156001569999933   F   F   F
 17.7530837259999217 12.5533272030000536 10.8156001569999933   F   F   F
  1.9725650740000149 15.3429554700000619 10.8156001569999933   F   F   F
  5.9708884705887293  7.0109249839323855 13.6239349717091471   F   F   F
  5.9428978748317780  1.3954134131978317 16.4178109150250471   F   F   F
 19.7256482699999580 11.1585130689999925 12.2103998060000407   F   F   F
 13.8079546360000549 12.5533272030000536 10.8156001569999933   F   F   F
 19.7256482699999580  2.7896282670000101 12.2103998060000407   F   F   F
  3.9451301480000271 19.5273965409999306 12.2103998060000407   F   F   F
  7.8524859835744145  2.6695894644593601 18.3908920921028027   F   F   F
 15.7553508471397912  2.7856997455711947 18.2312301232387526   F   F   F
 11.8449645037110809  2.7322042338837580 18.2063259363917673   F   F   F
 11.8353900909999528  2.7896282670000101 12.2103998060000407   F   F   F
 23.6678442659028576 13.9186001279589071 18.7095966724049951   F   F   F
 11.8353900909999528 19.5273965409999306 12.2103998060000407   F   F   F
 19.7956660794740706 11.1618866179509055 15.0849597169555203   F   F   F
 11.8353900909999528 13.9481413360000008 12.2103998060000407   F   F   F
 19.6829505578371808 19.5826914773769474 18.5409274796162045   F   F   F
  3.8699449573871156 11.1549606693685739 15.0592535023473832   F   F   F
 19.7256482699999580  8.3688848019999824 12.2103998060000407   F   F   F
 15.7773796756288078 13.9683782956539790 17.7850496214989526   F   F   F
  3.9451301480000271 13.9481413360000008 12.2103998060000407   F   F   F
 19.7940278978895563 16.7757472801076872 15.0778773758934026   F   F   F
  0.0118559602843338  8.3701245843733538 18.7435894367845322   F   F   F
  0.0000000000000000  8.3688848019999824 12.2103998060000407   F   F   F
 15.8743621341949286  8.3185136911821065 17.7888002004702415   F   F   F
 19.8398747493300718  8.3223948734430060 18.0964997620324120   F   F   F
 23.6498070000783542 19.5223603491443995 18.7057466093674307   F   F   F
 19.7760186339636839  2.7688634953624236 18.3903568322910225   F   F   F
 15.7653225207040411 19.6871114119671198 18.2160409784084152   F   F   F
  3.8676031037265632  8.2813356585105904 18.2245524501846319   F   F   F
  3.9724347123998553  2.7353815410257787 18.6518523810418806   F   F   F
  3.7802117871828633 14.0041075442572520 18.0403307881735131   F   F   F
  7.9064490849784059 13.9417292970474218 17.8486834577923901   F   F   F
  3.9406578514249917 19.4996095172113897 18.5319071040575238   F   F   F
  7.9232030298259488 19.6172966822314230 18.0789607922078090   F   F   F
 15.7805205919999434 19.5273965409999306 12.2103998060000407   F   F   F
 11.8353900909999528  8.3688848019999824 12.2103998060000407   F   F   F
 11.9192027496283135 13.9476889961428991 17.8248794753738871   F   F   F
  3.9451301480000271  2.7896282670000101 12.2103998060000407   F   F   F
 11.8745573050825861  8.2947154427573402 17.8483496214089499   F   F   F
  0.0000000000000000  2.7896282670000101 12.2103998060000407   F   F   F
 19.8742110096120435 13.9915967981763263 18.1269674504551972   F   F   F
  7.8874649451820815  0.0254426062051403 15.1733381971783192   F   F   F
 15.7805205919999434  8.3688848019999824 12.2103998060000407   F   F   F
 11.8598206983621939 16.8027093731950288 15.1137642775958252   F   F   F
  7.9050282552036126 16.7638631592458154 15.0459702801064488   F   F   F
  3.8923352070165751 16.7686286945777603 15.1044589301970902   F   F   F
 15.7698138226674054 -0.0014693374320928 15.1701592563776693   F   F   F
  7.8159727560309040  5.5332491458204514 15.0865238883241854   F   F   F
  0.0202374313599693  2.7400245104758048 18.5879613092319076   F   F   F
 19.7256482699999580 13.9481413360000008 12.2103998060000407   F   F   F
  3.9451301480000271  8.3688848019999824 12.2103998060000407   F   F   F
 -0.0003056255156774 16.7623298758155137 15.2032667068795817   F   F   F
 11.8687319339124997 19.5799668884546634 18.2945795732043877   F   F   F
  7.8381933542260311 11.1412626177506890 15.0273976064010135   F   F   F
  7.7170900825524331  8.3302349068348356 17.7811084294684605   F   F   F
 15.7865950371018968  5.5358080460667685 15.0775668529878164   F   F   F
 15.8229383855182792 11.1570799588635161 15.0168288545642383   F   F   F
 15.7508278039611760 16.7790472136093598 15.0640261543282357   F   F   F
  0.0045520004945449 22.3134414541676627 15.2010057661798079   F   F   F
 19.7956445467042279  5.5475805081674903 15.0689380558612367   F   F   F
  7.8902602960000570  8.3688848019999824 12.2103998060000407   F   F   F
 11.8606081155885317 11.1515169230344569 15.0056694655676477   F   F   F
  7.8902602960000570  2.7896282670000101 12.2103998060000407   F   F   F
 23.6613560501279103 11.1568809446457688 15.2022244788286862   F   F   F
  3.9298384817499237  0.0246066862336059 15.1963434754689359   F   F   F
 11.8436254918521549 22.2996113688888933 15.1681678574856420   F   F   F
 15.7805205919999434  2.7896282670000101 12.2103998060000407   F   F   F
 19.7483326843950557 -0.0013121542081673 15.1978747342574252   F   F   F
  3.9394853705423434  5.5383700728130902 15.1869759472493477   F   F   F
  7.8902602960000570 19.5273965409999306 12.2103998060000407   F   F   F
  7.8902602960000570 13.9481413360000008 12.2103998060000407   F   F   F
 19.7256482699999580 19.5273965409999306 12.2103998060000407   F   F   F
 15.7805205919999434 13.9481413360000008 12.2103998060000407   F   F   F
  0.0269925445068064  5.5752258875076510 15.1838648386248902   F   F   F
 11.8644078757447193  5.5335438665749122 15.0690143885986583   F   F   F
  0.0000000000000000 19.5273965409999306 12.2103998060000407   F   F   F
  0.0000000000000000 13.9481413360000008 12.2103998060000407   F   F   F
  1.9725650740000149  5.5792565349999723 12.2103998060000407   F   F   F
  1.9725650740000149 11.1585130689999925 12.2103998060000407   F   F   F
  1.9801492077772282 22.2829144020070977 18.1111212952557814   F   F   F
  1.9725650740000149 16.7377696039999648 12.2103998060000407   F   F   F
 21.7470597373008090  8.3527672372739463 15.1746546275518472   F   F   F
 17.8077019133013899 16.7924349426324255 17.7150770827340267   F   F   F
 13.8208391587730350 19.5479344547311698 15.1720886460505877   F   F   F
  9.8628241350000643 11.1585130689999925 12.2103998060000407   F   F   F
  1.9725650740000149  0.0000000000000000 12.2103998060000407   F   F   F
 21.6982156369999721 16.7377696039999648 12.2103998060000407   F   F   F
 21.7428990686114147 11.1565128812517642 18.1144415862414903   F   F   F
 13.8058357174334603  2.7566545617216525 15.1372320757277663   F   F   F
 17.8121614381303424 13.9417637734352748 15.0702359064459799   F   F   F
  5.9176950450000287  5.5792565349999723 12.2103998060000407   F   F   F