Au  C  O Sr Ti                          
   1.00000000000000     
    23.6707801818999997    0.0000000000000000    0.0000000000000000
     0.0000000000000000   22.3170261383000010    0.0000000000000000
     0.0000000000000000    0.0000000000000000   30.0000000000000000
   Au   C    O    Sr   Ti
    50     1   265    72    72
Selective dynamics
Direct
  0.7173848816957307  0.5261971385537606  0.7530917229039917   F   F   F 
  0.7059472741355893  0.7574688689534445  0.6883134457737332   F   F   F 
  0.6570285491572113  0.4429924056783724  0.8125829829054453   F   F   F 
  0.3683606480911190  0.6178380669506064  0.8199628348020481   F   F   F 
  0.5702073553915826  0.5096053994873709  0.8564885450711600   F   F   F 
  0.6622204590090991  0.1888507081552697  0.7509885473903257   T   T   T
  0.4724211233855291  0.4488748930392412  0.8780211122784803   F   F   F   
  0.5167477166352515  0.3773313719178125  0.7322743888987637   F   F   F
  0.2829839029624457  0.3379882806180425  0.7024074941359099   F   F   F
  0.6697073414632767  0.6813110112566891  0.7488156896921063   F   F   F
  0.3977477009255424  0.3815993789066151  0.6899928759490106   F   F   F
  0.6166181761987711  0.3222948038794772  0.6961226383069501   F   F   F
  0.3755927181273422  0.4916024828930411  0.8325558741902237   F   F   F
  0.3257847466126272  0.4138965111402053  0.7688573280981655   F   F   F
  0.4217031032267913  0.6979014113887383  0.6991551521113269   F   F   F
  0.6999976436861771  0.3463433876073835  0.7573046701519530   F   F   F
  0.7748708788259198  0.4297463730198677  0.7949218266632810   F   F   F
  0.2564697384117170  0.5923979531751858  0.6944591268690706   F   F   F
  0.6492775564784349  0.4456814183956642  0.6945291694654577   F   F   F
  0.5644696241411570  0.6394394371123061  0.8608388768160917   F   F   F
  0.5428412885580306  0.6664061092211597  0.7012326269783814   F   F   F
  0.4439997261438986  0.4747169012177763  0.7561499870072560   F   F   F
  0.3732956558721893  0.7384565670309398  0.7780575746245466   F   F   F
  0.4630623003863590  0.5721000635366931  0.8627707204551931   F   F   F
  0.4523914023261225  0.5802847800368459  0.7027252051945927   F   F   F
  0.4866797670760022  0.2692454896648188  0.7753264899915344   F   F   F
  0.2888551017688639  0.5369576650827865  0.7777186946442083   F   F   F
  0.5575824643421949  0.2112633227405493  0.7108651865082587   F   F   F
  0.6230068841211416  0.5702423023186621  0.7040393020618928   F   F   F
  0.7207204188495130  0.2610072568091094  0.6911793585007886   F   F   F
  0.2924553326060432  0.7461085346387168  0.6980886635466405   F   F   F
  0.5125459390498496  0.6035537239321381  0.7763879413579047   F   F   F
  0.5781960994324654  0.7255507492806132  0.7934402421946896   F   F   F
  0.2404131379069226  0.4688945299582979  0.7088505532968740   F   F   F
  0.2840382262145776  0.6612279548079394  0.7650262215072220   F   F   F
  0.6020828912972961  0.2842782996581472  0.7842813006483680   F   F   F
  0.5142958282156289  0.4849333551036528  0.6781543740390122   F   F   F
  0.5634508734068290  0.4856979510800631  0.7621568507932770   F   F   F
  0.5514482439567598  0.3830077881187823  0.8267236655530142   F   F   F
  0.7647432307396436  0.4321303113960106  0.7047862043840026   F   F   F
  0.3908861691369971  0.8173808955155938  0.7064387520805655   F   F   F
  0.4634269213006861  0.6949144447773770  0.8298481402327887   F   F   F
  0.4405433382821164  0.2275256184182018  0.6975206804312443   F   F   F
  0.3715559801019182  0.2980792821122438  0.7548642572904192   F   F   F
  0.3493319073712733  0.4998228464423383  0.6979263287550992   F   F   F
  0.4304560294450208  0.3715437770997099  0.8141198419596422   F   F   F
  0.5958644050747263  0.7847358842457065  0.7130463837601178   F   F   F
  0.6352076624304478  0.5839744923297283  0.8000379974993287   F   F   F
  0.7338252234348155  0.6157966759117063  0.6936898147915774   F   F   F
  0.4850076527834150  0.7781326999735411  0.7567080603942796   F   F   F
  0.7273708936657490  0.1313530871076733  0.7506509150513835   T   T   T
  0.4148091607282277  0.8118987971890473  0.5480845789985415   F   F   F
  0.2510819936626137  0.0626251810918812  0.5472587901826976   F   F   F
  0.7464478006982919  0.5576355269021831  0.5446168911520297   F   F   F
  0.7485419670697515  0.8083403938721067  0.5456710473320560   F   F   F
  0.2495075888129246  0.3137661565882324  0.5459710637260905   F   F   F
  0.5829230415603472  0.3111202369183962  0.5451889193994898   F   F   F
  0.2530884364983106  0.8127765998219140  0.5512105028495018   F   F   F
  0.5830928341540472  0.0621746711188565  0.5455669666970135   F   F   F
  0.5862703024528194  0.8147609253809728  0.5504724366220138   F   F   F
  0.7479112591093565  0.3112809857280730  0.5482456485907101   F   F   F
  0.5814219927617887  0.5600759028676792  0.5493099831316547   F   F   F
  0.2522257824987478  0.5590344214273478  0.5440080118048476   F   F   F
  0.4160000685168024  0.3196977946746556  0.5526472707904683   F   F   F
  0.5766579120174320  0.4357520153369661  0.5523178729514586   F   F   F
  0.4165093838758938  0.0654194717612236  0.5473741494865487   F   F   F
  0.0848961244660129  0.8129613774431734  0.5473464010030739   F   F   F
  0.0824872421949526  0.5643093945701259  0.5462640130543779   F   F   F
  0.0862736724572099  0.3134142755245551  0.5468672382243759   F   F   F
  0.0822923896915057  0.0632743471327682  0.5475678866339232   F   F   F
  0.9158016182079796  0.9387180048974723  0.5463850046541645   F   F   F
  0.9134051570675615  0.6893499223042240  0.5450944192748914   F   F   F
  0.5836200668394400  0.9378827341185321  0.5461562511140999   F   F   F
  0.9166113751850747  0.1888886200818908  0.5454363107740967   F   F   F
  0.9160216180900898  0.4376029351434142  0.5458380282184510   F   F   F
  0.5796420343513571  0.6862936171952365  0.5472506377017787   F   F   F
  0.2515022093551249  0.9373523466970127  0.5453257011205674   F   F   F
  0.4976648545607883  0.5045440104088637  0.6090265516593548   F   F   F
  0.9171012772636769  0.5637648077509614  0.5467380757513386   F   F   F
  0.4203822213441655  0.5651668153161140  0.5556445999552519   F   F   F
  0.9154167857304258  0.8130902475262588  0.5469404119440742   F   F   F
  0.0836312274214734  0.9389360534349979  0.5458084811987366   F   F   F
  0.2493849764585685  0.6833355260661773  0.5521668962553942   F   F   F
  0.7494195662672227  0.9342080780294002  0.5477437543107361   F   F   F
  0.7519820003106621  0.6802758352908943  0.5532023670235482   F   F   F
  0.7521934048161140  0.4347649083552138  0.5493958994762913   F   F   F
  0.4231571878014537  0.4440381724357062  0.5456210253178132   F   F   F
  0.4234523892673661  0.6881105139487071  0.5466526531845517   F   F   F
  0.7483924117291908  0.1833573135326584  0.5509351029420716   F   F   F
  0.4159719430295385  0.9371190506547956  0.5460893637952327   F   F   F
  0.4987800094920727  0.2526829414123576  0.5902922833493697   F   F   F
  0.4156878237987148  0.1914782621413856  0.5465180432330194   F   F   F
  0.0866250758114395  0.6897576080060711  0.5451363342242989   F   F   F
  0.0824897698304813  0.4386210779437155  0.5450566202447861   F   F   F
  0.0835715882079051  0.1889210127462770  0.5455759161488111   F   F   F
  0.4994581654685538  0.1255696504151949  0.4995930105966899   F   F   F
  0.9996217474500136  0.5008281093479875  0.5944828785909105   F   F   F
  0.5807056689992703  0.1851961119076635  0.5499369213134276   F   F   F
  0.9996013226918773  0.7532732307352714  0.5922528306766842   F   F   F
  0.3339993447010400  0.9998610451383990  0.5920060036025336   F   F   F
  0.9998751300344196  0.9992363571505216  0.5932069131235065   F   F   F
  0.0005879041983008  0.2500883963702222  0.5919557730891705   F   F   F
  0.3333237965344261  0.4965404198873300  0.5908927912140709   F   F   F
  0.3360699874990943  0.7412586115464790  0.5905810669109417   F   F   F
  0.6633581488291738  0.2474481933537230  0.5905768732018672   F   F   F
  0.6659658950553043  0.0004885221500999  0.5918738438614922   F   F   F
  0.6661242099538812  0.7419139523162785  0.5899592963803761   F   F   F
  0.6668225147962989  0.4940311459642142  0.5916782128708086   F   F   F
  0.1674239643143930  0.9984574655551274  0.5923107102127319   F   F   F
  0.1683602101158786  0.2491609444619001  0.5930698754517839   F   F   F
  0.1707561009952988  0.7500234065483669  0.5950870980981653   F   F   F
  0.2484981578336862  0.4359631421190127  0.5490069564908363   F   F   F
  0.1654929900165274  0.5026024820781758  0.5874165312543378   F   F   F
  0.3348345336755181  0.2544918446986026  0.5928859457316994   F   F   F
  0.4996670448843258  0.0001065803508400  0.5910532138375789   F   F   F
  0.8327759388352458  0.8745998397370731  0.4985595559554354   F   F   F
  0.7485694593311908  0.9373446043247006  0.6402289697613328   F   F   F
  0.8321599639287429  0.0022048310987127  0.5922593084847073   F   F   F
  0.5017565489330575  0.7565138114240759  0.5930278219231453   F   F   F
  0.4176551946753940  0.0651548021906689  0.6401138352987127   F   F   F
  0.4291110282111039  0.3050328901690833  0.6551318171046191   F   F   F
  0.4135869469533611  0.8124313109816507  0.6399166807831437   F   F   F
  0.3971378388837067  0.5507677611837620  0.6522939006353725   F   F   F
  0.7531447857696258  0.5695117971596177  0.6349221359028975   F   F   F
  0.7411138007758701  0.8100646437919066  0.6399676474477087   F   F   F
  0.7466999538715871  0.3130278381207798  0.6398884249239546   F   F   F
  0.7475851568880622  0.0682124698398593  0.6390742727376009   F   F   F
  0.0837119545318350  0.3118262153891323  0.6404193087781750   F   F   F
  0.6665847464876218  0.8748778819577073  0.4991640082884589   F   F   F
  0.0874504791668984  0.5619459730889890  0.6413135906281247   F   F   F
  0.0841911840823744  0.0607942495665701  0.6420557940560485   F   F   F
  0.0866541722494356  0.4364266671007261  0.6393758066962034   F   F   F
  0.0834680918324558  0.1858362899295951  0.6409644392497894   F   F   F
  0.4185752965843336  0.1875556605418053  0.6397780125624341   F   F   F
  0.4149641320498970  0.4190400314506156  0.6298606166447196   F   F   F
  0.0843364935971646  0.9355998050142932  0.6406801277231705   F   F   F
  0.0830949547637680  0.6871098168334849  0.6395719860099039   F   F   F
  0.9126113860597922  0.4361367946453958  0.6396936094912845   F   F   F
  0.9163311637946326  0.6875530642888177  0.6394510003248415   F   F   F
  0.9143849128228910  0.9371438117322641  0.6410226248824817   F   F   F
  0.2406339737895672  0.4420020401690106  0.6415142284096098   F   F   F
  0.2544518313454356  0.6771115899935989  0.6634297722400166   F   F   F
  0.5784923286741056  0.1912674031939706  0.6447679850793882   F   F   F
  0.2519356647471810  0.9301662778429508  0.6373684405221260   F   F   F
  0.0840960218300962  0.8121262316485243  0.6420065106910056   F   F   F
  0.9166666865332829  0.8124999999834799  0.3605200052333331   F   F   F
  0.8333381978158974  0.5030223336758004  0.5888215086948866   F   F   F
  0.8313363479167807  0.2482047467512891  0.5910973190726382   F   F   F
  0.8305583157590074  0.7508561104399325  0.5928614094482108   F   F   F
  0.5820474837621107  0.9359381790649854  0.6395084526267721   F   F   F
  0.2533247327707857  0.1865596233498696  0.6410529078069861   F   F   F
  0.7454108608631536  0.1949715870889008  0.6472179312791714   F   F   F
  0.7552796977817401  0.4340266123908694  0.6382134442509130   F   F   F
  0.4173190377752168  0.9349132286497651  0.6397116517735156   F   F   F
  0.4213635840057911  0.6759007353331722  0.6334605545551856   F   F   F
  0.5912739211720942  0.8102320959353647  0.6461659814430718   F   F   F
  0.9158813159131500  0.0626744080773297  0.6414655601265488   F   F   F
  0.9124673553365948  0.5618321932904866  0.6420852616785614   F   F   F
  0.9144398953431128  0.3117283705862520  0.6397516736984246   F   F   F
  0.9141503918706719  0.8132676076427269  0.6415154406985872   F   F   F
  0.5828158663221130  0.0665912586774328  0.6388262331698354   F   F   F
  0.5829274569870440  0.3204801864054281  0.6338095106800516   F   F   F
  0.5912290656848299  0.5651995083080065  0.6394279420376952   F   F   F
  0.2474623564141151  0.5738257042852146  0.6286025863441379   F   F   F
  0.7540529326077512  0.6933870750085830  0.6570030352140971   F   F   F
  0.2620537365333347  0.7986770764086302  0.6468950019012870   F   F   F
  0.2509679437627989  0.0594668202203122  0.6423355604052545   F   F   F
  0.9166666865332829  0.5625000000092442  0.3605200052333331   F   F   F
  0.4995706191099288  0.3742376937888660  0.4998522331537475   F   F   F
  0.5000530490781667  0.8733458074144377  0.5008182694965028   F   F   F
  0.5004729378941847  0.6209665166227845  0.5000784441393080   F   F   F
  0.8323417589305857  0.6230341981539328  0.4999907069951479   F   F   F
  0.2518855739576443  0.1883806419491313  0.5471327798635339   F   F   F
  0.8324083213887461  0.3731813156565345  0.4997948302992198   F   F   F
  0.8328060167982375  0.1244437026210119  0.5000904896548106   F   F   F
  0.1667239394159859  0.3762258592038886  0.4978557525763216   F   F   F
  0.1678053916517601  0.6243398925150686  0.5000149824493508   F   F   F
  0.5810612151052885  0.4389778283538530  0.6466568596136215   F   F   F
  0.5805362582994076  0.6854100811280958  0.6391436243391483   F   F   F
  0.9162470964127630  0.1861610943587351  0.6399238832880982   F   F   F
  0.2491101821002041  0.3164009015587199  0.6412896711532264   F   F   F
  0.1677393462717064  0.8732898258679462  0.4999002738791750   F   F   F
  0.7480527390587323  0.0599348841982032  0.5445225143591105   F   F   F
  0.1670572529891107  0.1243182133679050  0.4993236658325064   F   F   F
  0.9157887416042588  0.4369446850446013  0.4536698389033155   F   F   F
  0.9157994019993952  0.1868959904470383  0.4532360103710678   F   F   F
  0.5827562537745483  0.9371246812754831  0.4543139991320755   F   F   F
  0.5827939287519700  0.6860358642989098  0.4545904942357376   F   F   F
  0.5827600064420365  0.4393396035530701  0.4563835065334407   F   F   F
  0.2500692205703415  0.9360311607909980  0.4541419478629216   F   F   F
  0.6654607417621606  0.6257979559982094  0.5029726591836237   F   F   F
  0.5846376911832911  0.5625513277022592  0.4550124780554069   F   F   F
  0.5832261320975446  0.0636190388763848  0.4538943654581916   F   F   F
  0.9166666865332829  0.6874999999963620  0.3605200052333331   F   F   F
  0.9166666865332829  0.4374999701794380  0.3605200052333331   F   F   F
  0.9166666865332829  0.1875000000030838  0.3605200052333331   F   F   F
  0.5833333134730552  0.9375000000154046  0.3605200052333331   F   F   F
  0.5833333134730552  0.6874999999963620  0.3605200052333331   F   F   F
  0.5833333134730552  0.4374999701794380  0.3605200052333331   F   F   F
  0.5833333134730552  0.1875000000030838  0.3605200052333331   F   F   F
  0.2499999999799343  0.9375000000154046  0.3605200052333331   F   F   F
  0.9166666865332829  0.9375000000154046  0.3605200052333331   F   F   F
  0.2499999999799343  0.6874999999963620  0.3605200052333331   F   F   F
  0.2499999999799343  0.1875000000030838  0.3605200052333331   F   F   F
  0.7499999404149307  0.9375000000154046  0.3605200052333331   F   F   F
  0.7499999404149307  0.6874999999963620  0.3605200052333331   F   F   F
  0.7499999404149307  0.4374999701794380  0.3605200052333331   F   F   F
  0.7499999404149307  0.1875000000030838  0.3605200052333331   F   F   F
  0.4166666269218169  0.9375000000154046  0.3605200052333331   F   F   F
  0.4166666269218169  0.6874999999963620  0.3605200052333331   F   F   F
  0.4166666269218169  0.4374999701794380  0.3605200052333331   F   F   F
  0.2499999999799343  0.4374999701794380  0.3605200052333331   F   F   F
  0.0833333358191695  0.0625000000159659  0.3605200052333331   F   F   F
  0.9153819875598187  0.6867761318849502  0.4530860244341036   F   F   F
  0.6654421430952010  0.3785455689561062  0.5032909498655630   F   F   F
  0.3343663220948437  0.3784711453823215  0.5029963930734818   F   F   F
  0.3358389098948687  0.6252551023323711  0.5043873595993202   F   F   F
  0.9176058722812880  0.0634272264467550  0.5474985880219689   F   F   F
  0.2498690802114139  0.1884946975856077  0.4541012004290255   F   F   F
  0.7494641764629324  0.9384580092918791  0.4553295116789981   F   F   F
  0.7490782094541593  0.6886637277634114  0.4574349917115113   F   F   F
  0.7494526988334043  0.4384328640067740  0.4560296808822187   F   F   F
  0.7506369255638112  0.1899291558032060  0.4558177887856601   F   F   F
  0.4171303261481277  0.9358583474445996  0.4540488960162558   F   F   F
  0.4169399049621206  0.6846795316420478  0.4547941815362977   F   F   F
  0.4164756118043102  0.4354328769268914  0.4538308445323834   F   F   F
  0.0845872516381111  0.6868947739131855  0.4530184513088610   F   F   F
  0.0838861638343841  0.9366735392363035  0.4534760672539550   F   F   F
  0.0828127947589428  0.4367967195178732  0.4528912459188538   F   F   F
  0.0838622475433334  0.1865699463375471  0.4529826635932400   F   F   F
  0.9166130098338917  0.8121541388603933  0.4541099447759294   F   F   F
  0.0833333358191695  0.3124999999901945  0.3605200052333331   F   F   F
  0.9161935477036455  0.5623273007137846  0.4539113490994459   F   F   F
  0.9161157622475335  0.0622606237175020  0.4541105747136329   F   F   F
  0.9161873307061623  0.3122032511518041  0.4538644012022295   F   F   F
  0.4172137497652850  0.1871433903087943  0.4535488188113860   F   F   F
  0.2523623580468590  0.6873941636618081  0.4561909301449978   F   F   F
  0.9164615591142230  0.9371496888136021  0.4536377403582874   F   F   F
  0.5826214611367033  0.1900598734267849  0.4554982567946477   F   F   F
  0.0000574092342216  0.1251141452183113  0.4984381168933725   F   F   F
  0.5835192458443611  0.8103287058417100  0.4554299001212495   F   F   F
 -0.0000195396259207  0.3734767509550082  0.4983598382786258   F   F   F
 -0.0000705029915668  0.6271637254778867  0.4976928741292815   F   F   F
  0.3336207742443006  0.1256972126839617  0.4985054830570453   F   F   F
  0.0000550994363135  0.8751657799817020  0.4995531071449906   F   F   F
  0.3334231829998702  0.8738184009628454  0.4994534436876700   F   F   F
  0.6660154169181387  0.1265877640977522  0.4992064831245452   F   F   F
  0.2511680352215669  0.4392611227571097  0.4549334000928995   F   F   F
  0.0833333358191695  0.5625000000092442  0.3605200052333331   F   F   F
  0.7696242259572694  0.1066193150582651  0.7498570825285610   T   T   T
  0.9166666865332829  0.0625000000159659  0.3605200052333331   F   F   F
  0.7491813150014062  0.8132931964136265  0.4531116826122311   F   F   F
  0.2505295170730528  0.0620300821005495  0.4542588606360764   F   F   F
  0.9153114297762659  0.3127697793323575  0.5467174794643319   F   F   F
  0.2522634810603789  0.3141292404036365  0.4541758212680497   F   F   F
  0.2519539617789082  0.5646074950900475  0.4538818982825548   F   F   F
  0.2505135510121193  0.8107025997267037  0.4554492976519697   F   F   F
  0.8333332538436267  0.2500000000190425  0.4070133268666680   F   F   F
  0.5842560026657562  0.3151897699844582  0.4538373211343447   F   F   F
  0.8333332538436267  0.0000000000000000  0.4070133268666680   F   F   F
  0.5000000000021103  0.4999999999932783  0.4070133268666680   F   F   F
  0.0833333358191695  0.1875000000030838  0.3605200052333331   F   F   F
  0.0000000000000000  0.0000000000000000  0.4070133268666680   F   F   F
  0.0000000000000000  0.2500000000190425  0.4070133268666680   F   F   F
  0.0000000000000000  0.4999999999932783  0.4070133268666680   F   F   F
  0.7481933520019598  0.5642788996098995  0.4537646156150312   F   F   F
  0.3333333432766779  0.0000000000000000  0.4070133268666680   F   F   F
  0.3333333432766779  0.4999999999932783  0.4070133268666680   F   F   F
  0.3333333432766779  0.7500000000123208  0.4070133268666680   F   F   F
  0.6666666865533486  0.0000000000000000  0.4070133268666680   F   F   F
  0.6666666865533486  0.2500000000190425  0.4070133268666680   F   F   F
  0.6666666865533486  0.4999999999932783  0.4070133268666680   F   F   F
  0.6666666865533486  0.7500000000123208  0.4070133268666680   F   F   F
  0.1666666716383389  0.0000000000000000  0.4070133268666680   F   F   F
  0.1666666716383389  0.2500000000190425  0.4070133268666680   F   F   F
  0.1666666716383389  0.4999999999932783  0.4070133268666680   F   F   F
  0.1666666716383389  0.7500000000123208  0.4070133268666680   F   F   F
  0.5000000000021103  0.0000000000000000  0.4070133268666680   F   F   F
  0.5000000000021103  0.2500000000190425  0.4070133268666680   F   F   F
  0.5000000000021103  0.7500000000123208  0.4070133268666680   F   F   F
  0.9166666865332829  0.3124999999901945  0.3605200052333331   F   F   F
  0.3333333432766779  0.2500000000190425  0.4070133268666680   F   F   F
  0.7473102716157186  0.3141632626936963  0.4548787452058133   F   F   F
  0.0000000000000000  0.7500000000123208  0.4070133268666680   F   F   F
  0.4166003018348970  0.8098771012799024  0.4552014809343608   F   F   F
  0.5833333134730552  0.5625000000092442  0.3605200052333331   F   F   F
  0.7494936253884216  0.0641923359701003  0.4533751584871836   F   F   F
  0.5833333134730552  0.8124999999834799  0.3605200052333331   F   F   F
  0.5833333134730552  0.3124999999901945  0.3605200052333331   F   F   F
  0.5833333134730552  0.0625000000159659  0.3605200052333331   F   F   F
  0.2499999999799343  0.8124999999834799  0.3605200052333331   F   F   F
  0.2499999999799343  0.5625000000092442  0.3605200052333331   F   F   F
  0.2499999999799343  0.3124999999901945  0.3605200052333331   F   F   F
  0.2499999999799343  0.0625000000159659  0.3605200052333331   F   F   F
  0.7499999404149307  0.5625000000092442  0.3605200052333331   F   F   F
  0.7499999404149307  0.3124999999901945  0.3605200052333331   F   F   F
  0.7499999404149307  0.0625000000159659  0.3605200052333331   F   F   F
  0.4166666269218169  0.8124999999834799  0.3605200052333331   F   F   F
  0.4166666269218169  0.5625000000092442  0.3605200052333331   F   F   F
  0.4166666269218169  0.3124999999901945  0.3605200052333331   F   F   F
  0.7499999404149307  0.8124999999834799  0.3605200052333331   F   F   F
  0.0835103813522234  0.3120565522590218  0.4539710760168453   F   F   F
  0.4166666269218169  0.0625000000159659  0.3605200052333331   F   F   F
  0.4168814785715240  0.0615818057901086  0.4553504484096664   F   F   F
  0.0834608437742422  0.8121291149091446  0.4541956804645488   F   F   F
  0.0839486268759378  0.5624906878533343  0.4538761072453127   F   F   F
  0.4160842508141020  0.5595145162136156  0.4578808300442621   F   F   F
  0.0836828190665236  0.0618734250044237  0.4542164299846262   F   F   F
  0.4155289902341259  0.3113662664592732  0.4573984490088767   F   F   F
  0.8333332538436267  0.7500000000123208  0.4070133268666680   F   F   F
  0.0833333358191695  0.4374999701794380  0.3605200052333331   F   F   F
  0.0833333358191695  0.6874999999963620  0.3605200052333331   F   F   F
  0.0833333358191695  0.9375000000154046  0.3605200052333331   F   F   F
  0.4166666269218169  0.1875000000030838  0.3605200052333331   F   F   F
  0.0833333358191695  0.8124999999834799  0.3605200052333331   F   F   F
  0.8333332538436267  0.4999999999932783  0.4070133268666680   F   F   F
  0.8378143801092627  0.3729481118092368  0.6030301498632863   F   F   F
  0.8320580700667140  0.8764108154780798  0.6179901593942894   F   F   F
  0.5000000000021103  0.1249999999871179  0.4070133268666680   F   F   F
  0.9991312346110913  0.8751248708229556  0.6219975240145915   F   F   F
  0.3315735845004523  0.1199382935074157  0.6134090905438614   F   F   F
  0.8401680996180646  0.6270774835443559  0.6031811851925515   F   F   F
  0.8360614188310219  0.7518960483243918  0.5026343164149869   F   F   F
  0.5000000000021103  0.6249999999803961  0.4070133268666680   F   F   F
  0.1666666716383389  0.1249999999871179  0.4070133268666680   F   F   F
  0.8333332538436267  0.3750000000061604  0.4070133268666680   F   F   F
  0.8333332538436267  0.1249999999871179  0.4070133268666680   F   F   F
  0.5000000000021103  0.8749999404036828  0.4070133268666680   F   F   F
  0.3342116830370587  0.6243353498439473  0.5953109942810962   F   F   F
  0.0000000000000000  0.3750000000061604  0.4070133268666680   F   F   F
  0.3258682548103940  0.3736971090799754  0.5926826580681333   F   F   F
  0.5008276532562583  0.8769262091286266  0.6094561195040812   F   F   F
  0.6651112399360696  0.1241903004650341  0.6080298645934612   F   F   F
  0.1666666716383389  0.8749999404036828  0.4070133268666680   F   F   F
  0.5041461922551475  0.6252072227212412  0.5939025383991693   F   F   F
  0.0000000000000000  0.1249999999871179  0.4070133268666680   F   F   F
  0.8342457260327497  0.1240302407938705  0.6152214039283656   F   F   F
  0.9997093890742292  0.6218984631451604  0.6354854534752034   F   F   F
  0.9997715880838415  0.3745899441469067  0.6232351428324583   F   F   F
  0.6664738750014410  0.6265273845857390  0.5934201568128430   F   F   F
  0.6654046991030786  0.8813602341182620  0.6070937755775496   F   F   F
  0.1631420621879947  0.3714553662314596  0.6075524249524121   F   F   F
  0.1676315103736578  0.1229558204833539  0.6216983574947801   F   F   F
  0.5002433219252382  0.1220716538391864  0.6061158168008139   F   F   F
  0.5014661698689806  0.3714255977385459  0.5949853545550940   F   F   F
  0.1660178523577836  0.8733510114894256  0.6177931801321394   F   F   F
  0.1590450420723803  0.6272058006957580  0.6014910906005788   F   F   F
  0.3345580447746393  0.8785915049849076  0.6030619454386308   F   F   F
  0.6702348596884952  0.3724373361387074  0.5929087887443254   F   F   F
  0.1666666716383389  0.6249999999803961  0.4070133268666680   F   F   F
  0.5000000000021103  0.3750000000061604  0.4070133268666680   F   F   F
  0.6666666865533486  0.8749999404036828  0.4070133268666680   F   F   F
  0.5001545177317240  0.9993286889417458  0.5055281160361020   F   F   F
  0.1633965484679232  0.4999212282645005  0.5020282708927724   F   F   F
  0.1662672567967217  0.2482535272290947  0.5061388488034718   F   F   F
  0.1659931209611465  0.0012281403426194  0.5065497162580922   F   F   F
  0.6654704275227866  0.7520559791627088  0.5022243713896649   F   F   F
  0.6667364764036627  0.2479556743613748  0.5024672550564558   F   F   F
  0.6683941511883561  0.4999951410030687  0.5006608173975764   F   F   F
  0.3337673097096618  0.7511487711727898  0.5015567035194960   F   F   F
  0.3330940896232545  0.0011062584854559  0.5058278345491851   F   F   F
  0.3300833201065729  0.2480696108875098  0.5028067524388747   F   F   F
  0.3311129565710981  0.4992896098326986  0.5009468113262010   F   F   F
  0.9997507058167712  0.5007851684793734  0.5071063014008660   F   F   F
  0.8333332538436267  0.6249999999803961  0.4070133268666680   F   F   F
  0.0006101388138851  0.1228162342458026  0.6195765738058577   F   F   F
  0.1666666716383389  0.3750000000061604  0.4070133268666680   F   F   F
  0.1643623352373536  0.7516250161527818  0.5033405577802461   F   F   F
  0.5011490352122386  0.7529608275498550  0.5039495325561821   F   F   F
  0.6658661855390249  0.9998372780870703  0.5054686054158271   F   F   F
  0.5012227530618970  0.4998540029213422  0.5003071812343796   F   F   F
  0.8363454795296927  0.5001318771604722  0.5027689903631584   F   F   F
  0.6666666865533486  0.6249999999803961  0.4070133268666680   F   F   F
  0.6666666865533486  0.3750000000061604  0.4070133268666680   F   F   F
  0.6666666865533486  0.1249999999871179  0.4070133268666680   F   F   F
  0.3333333432766779  0.8749999404036828  0.4070133268666680   F   F   F
  0.8343287535202640  0.0002470924402159  0.5064880836088962   F   F   F
  0.3333333432766779  0.3750000000061604  0.4070133268666680   F   F   F
  0.3333333432766779  0.1249999999871179  0.4070133268666680   F   F   F
  0.3333333432766779  0.6249999999803961  0.4070133268666680   F   F   F
  0.0000000000000000  0.6249999999803961  0.4070133268666680   F   F   F
  0.8333332538436267  0.8749999404036828  0.4070133268666680   F   F   F
  0.0000619976036237  0.0000870611437381  0.5066427414645829   F   F   F
  0.0007461884253040  0.2498714397952899  0.5059447912306806   F   F   F
  0.9998114526896329  0.7509066759731344  0.5066003581022472   F   F   F
  0.8358382248336000  0.2486287913900982  0.5027532873757851   F   F   F
  0.5008729671623632  0.2478988183759162  0.5020628043595418   F   F   F
  0.0000000000000000  0.8749999404036828  0.4070133268666680   F   F   F
  0.0833333358191695  0.7500000000123208  0.4070133268666680   F   F   F
  0.0833333358191695  0.4999999999932783  0.4070133268666680   F   F   F
  0.0833333358191695  0.2500000000190425  0.4070133268666680   F   F   F
  0.0833333358191695  0.0000000000000000  0.4070133268666680   F   F   F
  0.9166666865332829  0.4999999999932783  0.4070133268666680   F   F   F
  0.9166666865332829  0.7500000000123208  0.4070133268666680   F   F   F
  0.5831202379974001  0.1232611571028603  0.5042426766252321   F   F   F
  0.7524695231330130  0.6247871241067073  0.5023753624378329   F   F   F
  0.5838149512408780  0.8759563585630069  0.5057438051405986   F   F   F
  0.9177383511117349  0.1249699964973706  0.5063506365129924   F   F   F
  0.9188471498391760  0.3746143831690586  0.5058986281342227   F   F   F
  0.5834737925483410  0.3734800913217302  0.5018112079166062   F   F   F
  0.5838437628934152  0.6274404727215115  0.5006678470885868   F   F   F
  0.0829981369910269  0.1247694497998323  0.5067168653662077   F   F   F
  0.4166666269218169  0.0000000000000000  0.4070133268666680   F   F   F
  0.2499999999799343  0.2500000000190425  0.4070133268666680   F   F   F
  0.4166666269218169  0.4999999999932783  0.4070133268666680   F   F   F
  0.7499999404149307  0.4999999999932783  0.4070133268666680   F   F   F