CO                                      
   1.00000000000000     
    23.6707801818999997    0.0000000000000000    0.0000000000000000
     0.0000000000000000   22.3170261383000010    0.0000000000000000
     0.0000000000000000    0.0000000000000000   30.0000000000000000
   C    O 
     1     1
Direct
  0.5000004186194928  0.4999994143865791  0.4996260011702566
  0.5000004186194928  0.4999994143865791  0.5377073321630796
 
  0.00000000E+00  0.00000000E+00  0.00000000E+00
  0.00000000E+00  0.00000000E+00  0.00000000E+00
