CO                              
   1.00000000000000     
    23.6707801818999997    0.0000000000000000    0.0000000000000000
     0.0000000000000000   22.3170261383000010    0.0000000000000000
     0.0000000000000000    0.0000000000000000   30.0000000000000000
   C   O
    1   1
cart
 11.8354 11.1585 15.0 
 11.8354 11.1585 16.12
