Au C  H  O  Sr Ti                       
   1.00000000000000     
    23.6707801818999997    0.0000000000000000    0.0000000000000000
     0.0000000000000000   27.8962826732999716    0.0000000000000000
     0.0000000000000000    0.0000000000000000   30.0000000000000000
   Au   C    H    O    Sr   Ti
    50     7    15   330    90    90
Selective dynamics
Direct
  0.7177724878450960  0.6198075437709676  0.7532271293948796   F   F   F
  0.7052008420206874  0.8054167930158442  0.6887650965205125   F   F   F
  0.6564668341207209  0.5531905321164743  0.8123547211906441   F   F   F
  0.3680930486426277  0.6946345483706509  0.8201105819441139   F   F   F
  0.5701617654940918  0.6085797277960623  0.8572353516004938   F   F   F
  0.6692975256434011  0.3544824318177504  0.7543607949208493   T   T   T
  0.4716511297672952  0.5612202602220293  0.8797299905239129   F   F   F
  0.5177828038261367  0.5014067900191037  0.7336248506759873   F   F   F
  0.2828865691930318  0.4712336592468773  0.7026190712222586   F   F   F
  0.6692470715438930  0.7446773258279507  0.7496304257658011   F   F   F
  0.3978937655324017  0.5060903908685432  0.6907108748292785   F   F   F
  0.6162196859099609  0.4544239542220723  0.6971100338376743   F   F   F
  0.3757760430523192  0.5940448446876161  0.8337658734706253   F   F   F
  0.3265571895501580  0.5316881217248692  0.7696958433051009   F   F   F
  0.4858065726052061  0.4153627061332941  0.7758921323842785   F   F   F
  0.4265739958667751  0.7591935405907861  0.6992775456704550   F   F   F
  0.7007297968668453  0.4745913047296568  0.7575302663343422   F   F   F
  0.7744511100104958  0.5423299569534521  0.7947640921207650   F   F   F
  0.2561478030106485  0.6742052746995668  0.6949968889876388   F   F   F
  0.6470579556020439  0.5536762790178216  0.6960076184464583   F   F   F
  0.5655621877423798  0.7124196295076786  0.8611864345407980   F   F   F
  0.5455475607157680  0.7316857831109687  0.7014818762714796   F   F   F
  0.3729460813394354  0.7899282771903913  0.7778187509266274   F   F   F
  0.4630374758864875  0.6591465753344323  0.8639046421096381   F   F   F
  0.4538813035973774  0.6641257097768616  0.7034258975912095   F   F   F
  0.4434561579491429  0.5791855394674883  0.7564777562928953   F   F   F
  0.2895949410104066  0.6297124183873493  0.7781795470297368   F   F   F
  0.5546895663990483  0.3685217418640718  0.7113857198182032   F   F   F
  0.6238646148780589  0.6540462975569810  0.7042241375058822   F   F   F
  0.7217293136159029  0.4043394446736031  0.6920958390307987   F   F   F
  0.2904027266051799  0.7974336226639096  0.6983203675701546   F   F   F
  0.5137093345112973  0.6838680356491480  0.7773082246866849   F   F   F
  0.5772601453267399  0.7809701994345417  0.7932730316928698   F   F   F
  0.5498969706743537  0.5086852067483534  0.8294800340891371   F   F   F
  0.2418205252375571  0.5749133989696915  0.7095773340732023   F   F   F
  0.2825266716663322  0.7292615248645120  0.7659265518737186   F   F   F
  0.5143944793943334  0.5868235892837674  0.6784574083822008   F   F   F
  0.5624784338890336  0.5888277747551527  0.7629483616536064   F   F   F
  0.6007666103569633  0.4308599900996128  0.7860483075660269   F   F   F
  0.7629960745364599  0.5436246904012094  0.7047052847888722   F   F   F
  0.3898596804188514  0.8528030556614326  0.7065828608524001   F   F   F
  0.4389588477149644  0.3823929058854247  0.6980727131912730   F   F   F
  0.4629159569021297  0.7563584570068187  0.8303806287366911   F   F   F
  0.4305556203341183  0.4975765979072264  0.8159798362727315   F   F   F
  0.3497390586266960  0.6013449270794098  0.6979831907648730   F   F   F
  0.3711979547713327  0.4392922289148942  0.7560158519063407   F   F   F
  0.5941971199958545  0.8278393171416596  0.7127579515432245   F   F   F
  0.6358067016748379  0.6661260286517603  0.8003905594156393   F   F   F
  0.7331726760830790  0.6923220151995366  0.6944177153693047   F   F   F
  0.4839810126876216  0.8241236834780068  0.7577471690021795   F   F   F
  0.7177693025080103  0.2905561744535206  0.7560919551293139   T   T   T
  0.6463974122963165  0.2521444753951059  0.8101691327269904   T   T   T
  0.5751154399144909  0.2128570370624701  0.8629305534394334   T   T   T
  0.6088014667150006  0.2085753150547731  0.8194340933975823   T   T   T
  0.5028687244334762  0.1746315086639925  0.9154784482731841   T   T   T
  0.6790602167702176  0.2487644677213581  0.7660181866391369   T   T   T
  0.5367178289251839  0.1697579080353577  0.8721921264894803   T   T   T
  0.7480640713736832  0.2983683811754076  0.7826576372699989   T   T   T
  0.4756718325839913  0.2063490660205645  0.9146427017588863   T   T   T
  0.7067872702571805  0.2169259713500225  0.7670153082219286   T   T   T
  0.6763207627605752  0.2571416072784061  0.8377619559845400   T   T   T
  0.6195945063874504  0.2844608397834989  0.8096787772538292   T   T   T
  0.6501523269122487  0.2424659275906578  0.7380940129141820   T   T   T
  0.5308592849096954  0.1781060269781420  0.9443118853823051   T   T   T
  0.5795131809748639  0.2036266001672047  0.7914377841984646   T   T   T
  0.6351420608870555  0.1762125187884322  0.8205932076348077   T   T   T
  0.6044727796974527  0.2175035032098620  0.8909585038368135   T   T   T
  0.5492239488955732  0.2455470471976753  0.8617857169279119   T   T   T
  0.5075695029559313  0.1650526894958091  0.8441411497985953   T   T   T
  0.4758695404571682  0.1434360332336411  0.9209918726215562   T   T   T
  0.7383632647064147  0.2884588992600214  0.7236477666533929   T   T   T
  0.5624756035673714  0.1371186625186241  0.8730758496744239   T   T   T
  0.5010538224989176  0.8043472684417807  0.5927587225006690   F   F   F
  0.8330236388788492  0.6024480327514823  0.5898948547598621   F   F   F
  0.8315202351598572  0.3974255801521380  0.5912244046876509   F   F   F
  0.8301447353556952  0.8001430237013309  0.5930933757402954   F   F   F
  0.5815454132919839  0.9478067695345231  0.6380750003751601   F   F   F
  0.8325851305789982  0.2021605571179634  0.5922363965196382   F   F   F
  0.9163638752926531  0.3491115031956227  0.6404403374829712   F   F   F
  0.5807406854050541  0.7473984870337489  0.6386776770450382   F   F   F
  0.5804143642095454  0.5499291839948981  0.6459706011052901   F   F   F
  0.1678017166719386  0.6997349827378159  0.5001245260935931   F   F   F
  0.4179221211765594  0.2523591145522914  0.6389295705663187   F   F   F
  0.7403963147089598  0.8473490251598719  0.6404730219292532   F   F   F
  0.4125988821046107  0.8500166564555016  0.6397842663465738   F   F   F
  0.5836704028003936  0.0505910318954719  0.6416801991892811   F   F   F
  0.7462974000140719  0.4480207140614567  0.6420962465598166   F   F   F
  0.1665200981909791  0.5008161477771367  0.4977492473630036   F   F   F
  0.0867715970675107  0.5497311666083178  0.6397362326922647   F   F   F
  0.0840995518638081  0.2486454689345194  0.6419468465314750   F   F   F
  0.0859916470953905  0.6497781351049383  0.6418136705999018   F   F   F
  0.6663796796907704  0.8989783933213573  0.4988931815547062   F   F   F
  0.0843300069153230  0.4499132171444202  0.6403303132811331   F   F   F
  0.7477836072253652  0.2539141407055183  0.6389940181849241   F   F   F
  0.7524344629648567  0.6557156546565963  0.6354348518127679   F   F   F
  0.4273735479465728  0.4441342378017836  0.6565378932064192   F   F   F
  0.8324897221444161  0.3002415860734402  0.5000822613417881   F   F   F
  0.7474289345421070  0.9472119481523436  0.6395214978959416   F   F   F
  0.8324354286564031  0.8997863493009390  0.4996608067198807   F   F   F
  0.4985666615520756  0.4027256026148791  0.5910534594584576   F   F   F
  0.4974695261641102  0.6033182512911708  0.6092999472838017   F   F   F
  0.2517506092248709  0.9498903679367459  0.5450023381455296   F   F   F
  0.5793634795870304  0.7488209783267052  0.5469595850540188   F   F   F
  0.5765366280845043  0.5482530526396516  0.5520828740746495   F   F   F
  0.9152510520473882  0.5494134349442490  0.5463037646637545   F   F   F
  0.9171130756867143  0.3510296511514710  0.5456899266068476   F   F   F
  0.5838233207905006  0.9505635011376867  0.5457101968862190   F   F   F
  0.9135333563303902  0.7508469780871181  0.5459813655900447   F   F   F
  0.9164173720238438  0.9503527344083693  0.5462829105189755   F   F   F
  0.0827944443879218  0.2500075542507432  0.5473054760891003   F   F   F
  0.0860100810590652  0.4503805332116642  0.5466969870320284   F   F   F
  0.0826137427747753  0.6509446906761127  0.5460359021076258   F   F   F
  0.0854314059567969  0.8498681224786893  0.5475527492269663   F   F   F
  0.4166807281263019  0.2524236890842175  0.5472280030517211   F   F   F
  0.4198707001169595  0.6519437885869408  0.5558125507809137   F   F   F
  0.4156456869811365  0.4552813728064109  0.5524583435085262   F   F   F
  0.7483582202870451  0.4493509146680594  0.5491193169496285   F   F   F
  0.7486309684330266  0.2483599583277396  0.5450353782481301   F   F   F
  0.4141950253569036  0.8487917996610292  0.5482808751926171   F   F   F
  0.7468974070091576  0.6463488755112650  0.5449201516118336   F   F   F
  0.4999777372973284  0.1996808840661259  0.5916565363942397   F   F   F
  0.8326910354479793  0.4983398715997325  0.4995380339013309   F   F   F
  0.7534652001639301  0.7540951361394121  0.6576870030299773   F   F   F
  0.2537095878791931  0.3491270865421825  0.6407447403167552   F   F   F
  0.8322631148205275  0.6991288613266846  0.5000901673115337   F   F   F
  0.5001848940910349  0.6962094729186319  0.5002215024123018   F   F   F
  0.5000710956238947  0.8980143824922351  0.5010804493367687   F   F   F
  0.4995147367049526  0.4983219673873833  0.5001294429226562   F   F   F
  0.9166666865332829  0.6500000000127244  0.3605200052333331   F   F   F
  0.2509691909063179  0.2487490932962260  0.6411910906318852   F   F   F
  0.2487637366455857  0.4528094869356423  0.6418281007919333   F   F   F
  0.2615429860406167  0.8403751692854726  0.6467081732303441   F   F   F
  0.2475685484146055  0.6590784106483625  0.6290865818644633   F   F   F
  0.5917780364989440  0.6511188088373387  0.6397796862427469   F   F   F
  0.5845200433534572  0.4559154829126655  0.6341865460181140   F   F   F
  0.5828069161278293  0.2526032206001361  0.6388059407480924   F   F   F
  0.9143823344366737  0.8499981882849355  0.6415618272638568   F   F   F
  0.9146596965385996  0.4495428411588094  0.6391062807558967   F   F   F
  0.9136914895106187  0.6492030715526198  0.6422979600211534   F   F   F
  0.9161044715244344  0.2503902152516631  0.6415061207016564   F   F   F
  0.5893392777976914  0.8477409007933829  0.6459768115337852   F   F   F
  0.4215003660537491  0.7409483509268497  0.6338921734664851   F   F   F
  0.4173101117192886  0.9473038036116250  0.6391248597549293   F   F   F
  0.7544204264796761  0.5467893654717315  0.6382600797705464   F   F   F
  0.7461183885722846  0.3541679779400297  0.6465015620518813   F   F   F
  0.0839823168813680  0.3488764020505783  0.6415922137136079   F   F   F
  0.4182401492579828  0.3504974867317330  0.6401587481736470   F   F   F
  0.4166666269218169  0.1500000000001833  0.3605200052333331   F   F   F
  0.0844494990519635  0.9487995269282550  0.6405812035599610   F   F   F
  0.4174223076004964  0.0503457045276576  0.5475768858761683   F   F   F
  0.0837893396236282  0.0497582284208775  0.5466250923302667   F   F   F
  0.9162426341733578  0.1506594343673129  0.5463392845047537   F   F   F
  0.5828223260763181  0.1497790932725849  0.5475414009926496   F   F   F
  0.2502332860767282  0.1503509582972313  0.5463220173410193   F   F   F
  0.7500883498751065  0.1487887930198895  0.5478198471988378   F   F   F
  0.4164359672694573  0.1510054486747663  0.5462901614735216   F   F   F
  0.0835483602922409  0.1505071548576211  0.5462826451800851   F   F   F
  0.4999831835343542  0.1000673846101066  0.4987325477243161   F   F   F
  0.8333337699100198  0.1000667584858732  0.4987484553659414   F   F   F
  0.1667669923055399  0.0998687428136478  0.4987351495451762   F   F   F
  0.6664682171756056  0.1000090832813356  0.4991419589474049   F   F   F
  0.3335383528201135  0.0994929340969577  0.4988161800303033   F   F   F
  0.0000221426771603  0.1000000410318975  0.4991303695742104   F   F   F
  0.9166249845761740  0.1499211774199551  0.4537170152331740   F   F   F
  0.7503613442410142  0.0488136531405985  0.5461863937399301   F   F   F
  0.2499656801559738  0.0499382663782200  0.5468625080502321   F   F   F
  0.5825941644631030  0.0500391370040418  0.5472072132263577   F   F   F
  0.9162614247861072  0.0497870788587562  0.5465313485079406   F   F   F
  0.9156619588296593  0.0499520771499817  0.6402875330587321   F   F   F
  0.7501367219207395  0.1510483832108989  0.6415610290201457   F   F   F
  0.2508644053812645  0.1481864615426502  0.6408715678132921   F   F   F
  0.9157326266591070  0.1498703872231815  0.6403172419256080   F   F   F
  0.5831024247463432  0.1506413736188605  0.6428053968696972   F   F   F
  0.4164456538629580  0.1500247976274238  0.6416616284985608   F   F   F
  0.0830704228631802  0.1484884092620291  0.6404610200154295   F   F   F
  0.5831924301923621  0.1510553909479668  0.4545436238480320   F   F   F
  0.0831794047395249  0.0491578728864184  0.6406961886654088   F   F   F
  0.4175062024114808  0.0493322106522456  0.6428664296690769   F   F   F
  0.8325199551289231  0.9977077448281761  0.5921412730621469   F   F   F
  0.4998085931168461  0.9999131953170917  0.5915967935474100   F   F   F
  0.1673739145213204  0.9983064276724392  0.5922017375547952   F   F   F
  0.6660691022194243  0.9999857885450396  0.5918740187029954   F   F   F
  0.9998928818761001  0.9991727537223127  0.5922541415399181   F   F   F
  0.3340660236502728  0.0000156486855332  0.5918863673779882   F   F   F
  0.7500431206189546  0.0497623623163861  0.6407526933131180   F   F   F
  0.4153103166668330  0.5347992625668354  0.6300602244586457   F   F   F
  0.2501006583965690  0.1498589770669341  0.4537020149587363   F   F   F
  0.4166363311401540  0.1500732320089355  0.4537979948672159   F   F   F
  0.5833333134730552  0.1500000000001833  0.3605200052333331   F   F   F
  0.2499999999799343  0.1500000000001833  0.3605200052333331   F   F   F
  0.7499999404149307  0.1500000000001833  0.3605200052333331   F   F   F
  0.7479165791049454  0.8469037163722817  0.5462714490657490   F   F   F
  0.0833333358191695  0.1500000000001833  0.3605200052333331   F   F   F
  0.9166666865332829  0.8499999999890662  0.3605200052333331   F   F   F
  0.0844079972632770  0.8495809035276665  0.6420320424840682   F   F   F
  0.2521695584897188  0.9452801415832397  0.6372682489279526   F   F   F
  0.5800759555898907  0.3527816740834808  0.6452863626457699   F   F   F
  0.2541073635175124  0.7416220147418287  0.6636408426899436   F   F   F
  0.2404537165190916  0.5537464258770939  0.6419217757495588   F   F   F
  0.9159282089081628  0.9493256317040704  0.6411883385580737   F   F   F
  0.9154779358652760  0.7499827559421064  0.6404587237103030   F   F   F
  0.9125709955351837  0.5485871319104234  0.6395298770772584   F   F   F
  0.0838964741189585  0.7497985693095259  0.6410136420874579   F   F   F
  0.9166666865332829  0.1500000000001833  0.3605200052333331   F   F   F
  0.0833333358191695  0.0500000000120124  0.3605200052333331   F   F   F
  0.4166666269218169  0.0500000000120124  0.3605200052333331   F   F   F
  0.7499999404149307  0.0500000000120124  0.3605200052333331   F   F   F
  0.0834073184164978  0.1499109928076052  0.4536928325801028   F   F   F
  0.9166313768077217  0.0497228123911242  0.4538740773236967   F   F   F
  0.5836799216352162  0.0492965077191698  0.4543656732149870   F   F   F
  0.2500159591201268  0.0490682724466609  0.4541886828514734   F   F   F
  0.7499500634575824  0.0499345938675333  0.4536533765105517   F   F   F
  0.4167580667879136  0.0486503286236868  0.4546730694581100   F   F   F
  0.0832890687424950  0.0496120379414720  0.4539220849750620   F   F   F
  0.7499372607258650  0.1507191659279243  0.4544010377217873   F   F   F
  0.8333332538436267  0.0000000000000000  0.4070133268666680   F   F   F
  0.1666666716383389  0.0000000000000000  0.4070133268666680   F   F   F
  0.6666666865533486  0.0000000000000000  0.4070133268666680   F   F   F
  0.3333333432766779  0.0000000000000000  0.4070133268666680   F   F   F
  0.0000000000000000  0.0000000000000000  0.4070133268666680   F   F   F
  0.9166666865332829  0.0500000000120124  0.3605200052333331   F   F   F
  0.5833333134730552  0.0500000000120124  0.3605200052333331   F   F   F
  0.2499999999799343  0.0500000000120124  0.3605200052333331   F   F   F
  0.5000000000021103  0.0000000000000000  0.4070133268666680   F   F   F
  0.2512212535132576  0.2506309934192501  0.5473372680125621   F   F   F
  0.3983546549783341  0.6409067324897961  0.6524664114807095   F   F   F
  0.2523779337838832  0.6472254203301944  0.5442159128611834   F   F   F
  0.0833333358191695  0.4500000000005357  0.3605200052333331   F   F   F
  0.0833333358191695  0.2500000000242011  0.3605200052333331   F   F   F
  0.2499999999799343  0.5499999761504029  0.3605200052333331   F   F   F
  0.4166666269218169  0.5499999761504029  0.3605200052333331   F   F   F
  0.4166666269218169  0.7500000000008953  0.3605200052333331   F   F   F
  0.4166666269218169  0.9500000000130839  0.3605200052333331   F   F   F
  0.7499999404149307  0.3500000000123720  0.3605200052333331   F   F   F
  0.7499999404149307  0.5499999761504029  0.3605200052333331   F   F   F
  0.0833333358191695  0.6500000000127244  0.3605200052333331   F   F   F
  0.7499999404149307  0.7500000000008953  0.3605200052333331   F   F   F
  0.2499999999799343  0.3500000000123720  0.3605200052333331   F   F   F
  0.2499999999799343  0.7500000000008953  0.3605200052333331   F   F   F
  0.9166666865332829  0.9500000000130839  0.3605200052333331   F   F   F
  0.2499999999799343  0.9500000000130839  0.3605200052333331   F   F   F
  0.5833333134730552  0.3500000000123720  0.3605200052333331   F   F   F
  0.5833333134730552  0.5499999761504029  0.3605200052333331   F   F   F
  0.5833333134730552  0.7500000000008953  0.3605200052333331   F   F   F
  0.5833333134730552  0.9500000000130839  0.3605200052333331   F   F   F
  0.7499999404149307  0.9500000000130839  0.3605200052333331   F   F   F
  0.9166666865332829  0.3500000000123720  0.3605200052333331   F   F   F
  0.9166666865332829  0.4500000000005357  0.3605200052333331   F   F   F
  0.5833333134730552  0.8499999999890662  0.3605200052333331   F   F   F
  0.0833333358191695  0.9500000000130839  0.3605200052333331   F   F   F
  0.4166666269218169  0.3500000000123720  0.3605200052333331   F   F   F
  0.0833333358191695  0.8499999999890662  0.3605200052333331   F   F   F
  0.4166666269218169  0.2500000000242011  0.3605200052333331   F   F   F
  0.4166666269218169  0.4500000000005357  0.3605200052333331   F   F   F
  0.4166666269218169  0.6500000000127244  0.3605200052333331   F   F   F
  0.4166666269218169  0.8499999999890662  0.3605200052333331   F   F   F
  0.7499999404149307  0.2500000000242011  0.3605200052333331   F   F   F
  0.9166666865332829  0.2500000000242011  0.3605200052333331   F   F   F
  0.7499999404149307  0.4500000000005357  0.3605200052333331   F   F   F
  0.7499999404149307  0.8499999999890662  0.3605200052333331   F   F   F
  0.2499999999799343  0.2500000000242011  0.3605200052333331   F   F   F
  0.2499999999799343  0.4500000000005357  0.3605200052333331   F   F   F
  0.2499999999799343  0.6500000000127244  0.3605200052333331   F   F   F
  0.2499999999799343  0.8499999999890662  0.3605200052333331   F   F   F
  0.5833333134730552  0.2500000000242011  0.3605200052333331   F   F   F
  0.5833333134730552  0.4500000000005357  0.3605200052333331   F   F   F
  0.5833333134730552  0.6500000000127244  0.3605200052333331   F   F   F
  0.7499999404149307  0.6500000000127244  0.3605200052333331   F   F   F
  0.9166666865332829  0.5499999761504029  0.3605200052333331   F   F   F
  0.9166666865332829  0.7500000000008953  0.3605200052333331   F   F   F
  0.5831157390192914  0.2520685394178557  0.4537649521803502   F   F   F
  0.4168087774135856  0.3505225819499671  0.4542326869286910   F   F   F
  0.9161332652829302  0.4496613447062003  0.4539996648576121   F   F   F
  0.9160400817601726  0.2499074337269462  0.4542892680659492   F   F   F
  0.2510221585641830  0.5517795671973360  0.4552459074271198   F   F   F
  0.9162145175432670  0.6497853403614542  0.4539952734115147   F   F   F
  0.9161664553748352  0.8496121126742864  0.4542510580494792   F   F   F
  0.0837855016100306  0.3499511747995783  0.4537771353454261   F   F   F
  0.0832476323220845  0.5504069590000782  0.4537761564599450   F   F   F
  0.2516429277311616  0.7500678029450754  0.4560373342353827   F   F   F
  0.0837704646041786  0.9493832383009035  0.4536542328010640   F   F   F
  0.4171902157526830  0.5480328655601880  0.4540377470267032   F   F   F
  0.4171735714408555  0.7469833037673439  0.4544723803651038   F   F   F
  0.4173711434203042  0.9479218302978367  0.4542025733849400   F   F   F
  0.7502925197235157  0.3519050730304230  0.4556514983601616   F   F   F
  0.7497217713075131  0.5507993232198274  0.4561850490701644   F   F   F
  0.7486620816970273  0.7507471216538164  0.4571988756154042   F   F   F
  0.7494246274721874  0.9496923083445807  0.4547512572722425   F   F   F
  0.2499760291922968  0.3510912711611454  0.4544185862704424   F   F   F
  0.0846226281374882  0.7499847873706926  0.4535979272271078   F   F   F
  0.9164324081276831  0.9496072951976871  0.4537576744966003   F   F   F
  0.5828380023214734  0.3530854154137586  0.4561750919190217   F   F   F
  0.0000856518229568  0.2999366106423267  0.4987141864417666   F   F   F
  0.5845024332979065  0.6496299499404827  0.4550947975971837   F   F   F
  0.6653425903943884  0.7000623457572033  0.5031542605695876   F   F   F
  0.2506620206109815  0.9482054695010049  0.4536256849498628   F   F   F
  0.5826579531789449  0.5512606142960337  0.4563049991957584   F   F   F
  0.5827774340698397  0.7479817343801969  0.4543038833063022   F   F   F
  0.5827192121873139  0.9481271840612422  0.4537376163187545   F   F   F
  0.9158707222827545  0.3498282095278995  0.4536907639869270   F   F   F
  0.9158747768587574  0.5497591490539975  0.4539331305176049   F   F   F
  0.9150847790198711  0.7497189416797312  0.4535275332610809   F   F   F
  0.6657322788167832  0.5026285056573627  0.5034408809856004   F   F   F
  0.3340695259344386  0.5027832317163430  0.5030033583984448   F   F   F
  0.3354720175195709  0.7003692931361911  0.5040317225683637   F   F   F
  0.6659788694917737  0.3016871650671789  0.4998791806715062   F   F   F
  0.3335738702906070  0.8982066133294921  0.4995969761995482   F   F   F
  0.0001677374963052  0.8993438950935086  0.4993307575198500   F   F   F
  0.3335789756261960  0.3009101437905457  0.4988641664545099   F   F   F
  0.9998399005792677  0.7020508906893710  0.4975384861514769   F   F   F
  0.9999585646341131  0.4992984908815856  0.4984265136678516   F   F   F
  0.5828792159838656  0.8470009889700307  0.4560585439724747   F   F   F
  0.0833333358191695  0.7500000000008953  0.3605200052333331   F   F   F
  0.2492803684607026  0.4512251173531610  0.5461782344828308   F   F   F
  0.2502321177792766  0.0481843587833524  0.6417562041431069   F   F   F
  0.3338201863829440  0.2000427606317672  0.5921192455557929   F   F   F
  0.9164148984116025  0.6503315216193570  0.5462667899295184   F   F   F
  0.5810004263101831  0.6476901734707923  0.5494388514652186   F   F   F
  0.5860074326341547  0.8517937858331592  0.5508521568756208   F   F   F
  0.5831468681708003  0.4485628661823213  0.5454263888319417   F   F   F
  0.5831228697252726  0.2496713144021712  0.5458981803229435   F   F   F
  0.2528968173951753  0.8497661726246832  0.5510773461605609   F   F   F
  0.4231459259496901  0.5547487042995982  0.5460866891779546   F   F   F
  0.7528341360114084  0.5477975887468673  0.5494774474568445   F   F   F
  0.7513304899911617  0.7446194944959217  0.5529187189950093   F   F   F
  0.7481576990110241  0.9477326157784631  0.5471706529433860   F   F   F
  0.9151937876946832  0.8497947029595707  0.5468648160219232   F   F   F
  0.2525524052289896  0.3510747062321897  0.5473073668111965   F   F   F
  0.9168841079812964  0.2506496981614390  0.5472495446606160   F   F   F
  0.1671596879640518  0.3001165604200295  0.4999247878621134   F   F   F
  0.5000000000021103  0.8000000000129006  0.4070133268666680   F   F   F
  0.5000000000021103  0.4000000000243773  0.4070133268666680   F   F   F
  0.5000000000021103  0.2000000000121887  0.4070133268666680   F   F   F
  0.1666666716383389  0.8000000000129006  0.4070133268666680   F   F   F
  0.1666666716383389  0.6000000000007191  0.4070133268666680   F   F   F
  0.1666666716383389  0.4000000000243773  0.4070133268666680   F   F   F
  0.1666666716383389  0.2000000000121887  0.4070133268666680   F   F   F
  0.6666666865533486  0.8000000000129006  0.4070133268666680   F   F   F
  0.1678194827773254  0.8987585151447206  0.4994753251170820   F   F   F
  0.5803947972146730  0.3476341688992903  0.5507801793999718   F   F   F
  0.2494724188230677  0.7466158858600949  0.5521194907822959   F   F   F
  0.1654198602080967  0.6026267164952444  0.5882241691234427   F   F   F
  0.0839250663415712  0.9504019325999309  0.5459492672332118   F   F   F
  0.4157258046911636  0.3527600498786541  0.5474674958534251   F   F   F
  0.0866345415158420  0.7511932720286509  0.5460220692012001   F   F   F
  0.0831078695424026  0.5502514839479815  0.5459687525156127   F   F   F
  0.0836510381614133  0.3506667663522762  0.5463728030534583   F   F   F
  0.4994753625333317  0.3011238802921099  0.4996448333422805   F   F   F
  0.9995152291562164  0.5990888647433934  0.5941761413041178   F   F   F
  0.9998236060405929  0.8020388479873972  0.5927994175890063   F   F   F
  0.3346962369252182  0.4040361428720871  0.5932709213574583   F   F   F
  0.4224088400600863  0.7502510758337522  0.5465973348474762   F   F   F
  0.9998763300201148  0.2001587820459250  0.5925248171947004   F   F   F
  0.0010439617092359  0.3998388450079915  0.5923124220460139   F   F   F
  0.3332865259610713  0.5969464709795034  0.5913666013532861   F   F   F
  0.3352605881892643  0.7922285462397483  0.5917647983645296   F   F   F
  0.6635838842797241  0.3977017916713379  0.5907494007633716   F   F   F
  0.0833333358191695  0.5499999761504029  0.3605200052333331   F   F   F
  0.6661789990566334  0.2000269151200058  0.5921222468495557   F   F   F
  0.6656145419792807  0.7932930999488264  0.5904668515507439   F   F   F
  0.6667806648279822  0.5950429276046165  0.5912339993592752   F   F   F
  0.1670642420573003  0.1994730837214220  0.5922625726712312   F   F   F
  0.1684473280120500  0.3985442320646797  0.5930495523017854   F   F   F
  0.1709216573861170  0.7992641685589135  0.5956523462762888   F   F   F
  0.2479509844744356  0.5487871256885697  0.5493268969566714   F   F   F
  0.6666666865533486  0.6000000000007191  0.4070133268666680   F   F   F
  0.6666666865533486  0.4000000000243773  0.4070133268666680   F   F   F
  0.6666666865533486  0.2000000000121887  0.4070133268666680   F   F   F
  0.3333333432766779  0.8000000000129006  0.4070133268666680   F   F   F
  0.4156253340883040  0.6469774378374922  0.4582023036385650   F   F   F
  0.4170874236283169  0.8470809889814959  0.4554918417843723   F   F   F
  0.7490157245277942  0.2515382471075043  0.4535389364571216   F   F   F
  0.7476187737480018  0.4511183251319082  0.4551864542801667   F   F   F
  0.7483722511440689  0.6513034755443101  0.4538744660762148   F   F   F
  0.7499724263490322  0.8499401377954854  0.4537450223431065   F   F   F
  0.4151681102552658  0.4490856716281755  0.4572383320299238   F   F   F
  0.2500967505553149  0.2503826718782705  0.4542999342552889   F   F   F
  0.2519366706827739  0.4517146364044464  0.4539175636133237   F   F   F
  0.2519440692994834  0.6518431665458380  0.4538051802270928   F   F   F
  0.2506176251588457  0.8482470177309906  0.4555645177053762   F   F   F
  0.8333332538436267  0.4000000000243773  0.4070133268666680   F   F   F
  0.5843816013899001  0.4524288830131908  0.4536797641298804   F   F   F
  0.8333332538436267  0.2000000000121887  0.4070133268666680   F   F   F
  0.4160649337125619  0.9484434895867295  0.5467040454003254   F   F   F
  0.4163525498352243  0.2502322157524546  0.4550461220849229   F   F   F
  0.9151652143825544  0.4496006366460321  0.5464871164474658   F   F   F
  0.0838718065671671  0.6504437280096695  0.4537595196750104   F   F   F
  0.0838714267897132  0.8493972926053530  0.4543776259648666   F   F   F
  0.3333333432766779  0.6000000000007191  0.4070133268666680   F   F   F
  0.3333333432766779  0.4000000000243773  0.4070133268666680   F   F   F
  0.3333333432766779  0.2000000000121887  0.4070133268666680   F   F   F
  0.0000000000000000  0.8000000000129006  0.4070133268666680   F   F   F
  0.0000000000000000  0.6000000000007191  0.4070133268666680   F   F   F
  0.0000000000000000  0.4000000000243773  0.4070133268666680   F   F   F
  0.7475026787338024  0.3470718286739398  0.5508635766202588   F   F   F
  0.0000000000000000  0.2000000000121887  0.4070133268666680   F   F   F
  0.0833333358191695  0.3500000000123720  0.3605200052333331   F   F   F
  0.5000000000021103  0.6000000000007191  0.4070133268666680   F   F   F
  0.8333332538436267  0.6000000000007191  0.4070133268666680   F   F   F
  0.8333332538436267  0.8000000000129006  0.4070133268666680   F   F   F
  0.0838835241978515  0.2498127997336610  0.4541924619225810   F   F   F
  0.0833047506087894  0.4498589076297819  0.4538561588389598   F   F   F
  0.8324795332570361  0.1002263945212576  0.6178299259837772   F   F   F
  0.3339972728995519  0.0984708749832706  0.6198681508594888   F   F   F
  0.6669900960663711  0.1006325132385513  0.6190176627986332   F   F   F