Au C  H  O  Sr Ti
 1.0000000000000000
    23.6707801818999997    0.0000000000000000    0.0000000000000000
     0.0000000000000000   27.8962826732999716    0.0000000000000000
     0.0000000000000000    0.0000000000000000   30.0000000000000000
 Au  C   H   O   Sr  Ti 
  50   7  15 330  90  90
Selective dynamics
Cartesian
 16.9902347803966940 17.2903264440787474 22.5968138818463657   F   F   F
 16.6926541155625188 22.4681345277927349 20.6629528956154047   F   F   F
 15.5390821271794088 15.4319594561143614 24.3706416357192310   F   F   F
  8.7130496409051297 19.3777217159876614 24.6033174583233354   F   F   F
 13.4961738191346523 16.9771121158389349 25.7170605480148460   F   F   F
 15.8427946057945910  9.8887421207068087 22.6308238476254644   T   T   T
 11.1643502152664755 15.6559590211367379 26.3918997157174111   F   F   F
 12.2563229313363138 13.9873855486849425 22.0087455202796853   F   F   F
  6.6961457957800974 13.1456673635244670 21.0785721366677805   F   F   F
 15.8416003178958302 20.7737291816935148 22.4889127729739435   F   F   F
  9.4184558596659151 14.1180406019096782 20.7213262448782736   F   F   F
 14.5864007289341000 12.6767390804976738 20.9133010151301519   F   F   F
  8.8949121127156197 16.5716429080222696 25.0129762041187149   F   F   F
  7.7298634506608117 14.8321221376729664 23.0908752991529198   F   F   F
 11.4994205910601277 11.5870754622412058 23.2767639715283075   F   F   F
 10.0973392874772259 21.1786776120639892 20.9783263701137344   F   F   F
 16.5868209885424811 13.2393331910286527 22.7259079900302865   F   F   F
 18.3318619866869206 15.1289897813721339 23.8429227636228660   F   F   F
  6.0632183391416001 18.8078209228489968 20.8499066696291848   F   F   F
 15.3163666320056393 15.4455099889820904 20.8802285533937386   F   F   F
 13.3872982252444004 19.8738593667538339 25.8355930362240400   F   F   F
 12.9135363884746521 20.4113134336983393 21.0444562881444170   F   F   F
  8.8279247110867907 22.0360625121360627 23.3345625277989157   F   F   F
 10.9604583076908408 18.3877391886669201 25.9171392632891830   F   F   F
 10.7437245661276659 18.5266385305413657 21.1027769277362864   F   F   F
 10.4969532351241543 16.1571235292728232 22.6943326887867762   F   F   F
  6.8549381904476601 17.5666356262207941 23.3453864108921678   F   F   F
 13.1299347954252603 10.2803866822969319 21.3415715945460995   F   F   F
 14.7673621620441882 18.2454603980748722 21.1267241251764091   F   F   F
 17.0838959334355529 11.2795674445799854 20.7628751709239410   F   F   F
  6.8740591056956610 22.2454337510259883 20.9496110271046696   F   F   F
 12.1599007346069872 19.0773760337030218 23.3192467406004695   F   F   F
 13.6641980078008416 21.7861654428493488 23.7981909507861964   F   F   F
 13.0164903155253686 14.1904263191781688 24.8844010226740266   F   F   F
  5.7240804963697514 16.0379466903262191 21.2873200221961305   F   F   F
  6.6876267405375227 20.3436856403822723 22.9777965562115618   F   F   F
 12.1761186485261508 16.3701967260203851 20.3537222514660812   F   F   F
 13.3143033656466514 16.4261060504598930 22.8884508496081303   F   F   F
 14.2206143743849101 12.0193920764340678 23.5814492269808582   F   F   F
 18.0607123600051445 15.1651080316172493 21.1411585436662257   F   F   F
  9.2282827969803964 23.7900351053853072 21.1974858255720662   F   F   F
 10.3904983931610388 10.6673405948444397 20.9421813957382170   F   F   F
 10.9575818585241862 21.0995893190031794 24.9114188621008097   F   F   F
 10.1915874450104500 13.8805374268388935 24.4793950881818390   F   F   F
  8.2785963777772231 16.7752880699622402 20.9394957229461163   F   F   F
  8.7865451913631460 12.2546201939937927 22.6804755571903236   F   F   F
 14.0651094121398756 23.0936395990553329 21.3827385462967285   F   F   F
 15.0500406735239771 18.5824399913122633 24.0117167824690938   F   F   F
 17.3547692509379807 19.3132106369550058 20.8325314610791708   F   F   F
 11.4562081635420601 22.9899872320636725 22.7324150700654286   F   F   F
 16.9901593809827958  8.1054371750281433 22.6827586538793611   T   T   T
 15.3007310566151578  7.0338935601327872 24.3050739818097732   T   T   T
 13.6134311574326201  5.9379200748956631 25.8879166031830934   T   T   T
 14.4108056930290171  5.8184759474406134 24.5830228019273918   T   T   T
 11.9032950364171874  4.8715699293555934 27.4643534481955243   T   T   T
 16.0738851214412399  6.9396039106279810 22.9805455991740750   T   T   T
 12.7045297481946733  4.7356145885824441 26.1657637946843877   T   T   T
 17.7072601954635900  8.3233687020441636 23.4797291181000674   T   T   T
 11.2595233878172412  5.7563718750811468 27.4392810527665283   T   T   T
 16.7302061096228805  6.0514282159603905 23.0104592466579447   T   T   T
 16.0090401077604305  7.1732949637050343 25.1328586795361879   T   T   T
 14.6662853626101555  7.9353999960847714 24.2903633176147977   T   T   T
 15.3896128150906826  6.7638980547128700 22.1428203874254308   T   T   T
 12.5658534406180618  4.9684960744006874 28.3293565614691012   T   T   T
 13.7175291193695763  5.6804251980673852 23.7431335259540361   T   T   T
 15.0343081075364466  4.9156742346963371 24.6177962290442522   T   T   T
 14.3083422941604397  6.0675392079753774 26.7287551151044234   T   T   T
 13.0005593649422302  6.8498498382205657 25.8535715078373478   T   T   T
 12.0145661315060757  4.6043564821634577 25.3242344939578068   T   T   T
 11.2642032874233724  4.0013321286224368 27.6297561786465948   T   T   T
 17.4776345332556389  8.0469309933864430 21.7094329996018516   T   T   T
 13.3142363697248012  3.8251009694044491 26.2072754902327745   T   T   T
 11.8603348916725526 22.4382987679486128 17.7827616750200441   F   F   F
 19.7183194422276280 16.8060606176087610 17.6968456427959033   F   F   F
 19.6827327032707800 11.0866963255242812 17.7367321406295133   F   F   F
 19.6501735497662118 22.3210159682412019 17.7928012722087665   F   F   F
 13.7656336438267886 26.4402855626023232 19.1422500112547738   F   F   F
 19.7079396086539376  5.6395280467544309 17.7670918955891430   F   F   F
 21.6910478586864457  9.7389131776458289 19.2132101244890734   F   F   F
 13.7465851069090021 20.8496394638901315 19.1603303113512276   F   F   F
 13.7388608296214425 15.3409799670188995 19.3791180331587825   F   F   F
  3.9719975494869706 19.5200048748507271 15.0037357828077109   F   F   F
  9.8925426635236953  7.0398811947344253 19.1678871169894833   F   F   F
 17.5257584129647164 23.6378879288049788 19.2141906578776336   F   F   F
  9.7665374415959079 23.7123049254958929 19.1935279903972962   F   F   F
 13.8159338033691359  1.4113017264900274 19.2504059756785217   F   F   F
 17.6654417060565372 12.4981124829521928 19.2628873967944045   F   F   F
  3.9416606401471457 13.9709088257441980 14.9324774208900308   F   F   F
  2.0539514002174228 15.3354560180285766 19.1920869807679502   F   F   F
  1.9907020055645546  6.9362842868325654 19.2584053959441945   F   F   F
  2.0354893758745720 18.1263945318169881 19.2544101179971072   F   F   F
 15.7737269156452342 25.0781553772815720 14.9667954466410809   F   F   F
  1.9961570564306539 12.5509062839144949 19.2099093984339184   F   F   F
 17.7006213902598581  7.0832606438691261 19.1698205455477684   F   F   F
 17.8107107741271165 18.2920292556082700 19.0630455543830166   F   F   F
 10.1162653090019621 12.3896942426091936 19.6961367961924978   F   F   F
 19.7056812165715378  8.3756241553846369 15.0024678402536811   F   F   F
 17.6922260111379828 26.4236922571849107 19.1856449368781554   F   F   F
 19.7043960473513593 25.1006943456757057 14.9898242015964218   F   F   F
 11.8014618516229763 11.2345472503196824 17.7316037837537657   F   F   F
 11.7754918010246108 16.8303364799795894 18.2789984185139538   F   F   F
  5.9591333316212705 26.4984102126083485 16.3500701443659153   F   F   F
 13.7139855707252458 20.8893216830987889 16.4087875516205202   F   F   F
 13.6470717902022098 15.2942221329352819 16.5624862222395457   F   F   F
 21.6647064642665050 15.3265924857134372 16.3891129399126214   F   F   F
 21.7087820165264738  9.7924223752314088 16.3706977982055228   F   F   F
 13.8195534914988620 26.5171881266585565 16.3713059065865920   F   F   F
 21.6240472665300167 20.9458395451112729 16.3794409677013775   F   F   F
 21.6923141680508813 26.5113085183994599 16.3884873155693249   F   F   F
  1.9598090933890671  6.9742814038390488 16.4191642826730941   F   F   F
  2.0359257221765734 12.5639426650240882 16.4009096109607739   F   F   F
  1.9555317452256669 18.1589370957847009 16.3810770632288438   F   F   F
  2.0222280310339662 23.7081613796921502 16.4265824768089139   F   F   F
  9.8631579215117693  7.0416825841305384 16.4168400915515420   F   F   F
  9.9386670472890373 18.1868082135234914 16.6743765234273198   F   F   F
  9.8386576900852898 12.7006578716956220 16.5737503052558779   F   F   F
 17.7142229297325002 12.5352201350860923 16.4735795084889176   F   F   F
 17.7206790911410650  6.9283196022396831 16.3510613474439310   F   F   F
  9.8043193976597376 23.6781359741230659 16.4484262557785108   F   F   F
 17.6796443397448151 18.0307309368317803 16.3476045483550898   F   F   F
 11.8348631154087318  5.5703543863631495 17.7496960918272819   F   F   F
 19.7104464595278941 13.9018299255221631 14.9861410170399303   F   F   F
 17.8351091277916218 21.0364510803056959 19.7306100908992974   F   F   F
  6.0055038847287712  9.7393478950863930 19.2223422095025676   F   F   F
 19.7003172444200594 19.5030963406315756 15.0027050193459832   F   F   F
 11.8397666783358915 19.4216562563673847 15.0066450723689737   F   F   F
 11.8370729798351260 25.0512630586922782 15.0324134801031324   F   F   F
 11.8239035301625801 13.9013304645535101 15.0038832876797521   F   F   F
 21.6982156369999721 18.1325837379999442 10.8156001569999933   F   F   F
  5.9406365503727834  6.9391750213186292 19.2357327189566263   F   F   F
  5.8884317273657443 12.6317014447086944 19.2548430237580455   F   F   F
  6.1909265306850996 23.4433432740098340 19.4012451969102280   F   F   F
  5.8601406894741892 18.3858376473159630 18.8725974559338212   F   F   F
 14.0078478184429791 18.1637943452288013 19.1933905872824191   F   F   F
 13.8360454581343859 12.7183471864657580 19.0255963805433446   F   F   F
 13.7954944001528492  7.0466908460474080 19.1641782224427253   F   F   F
 21.6441432406630518 23.7117897321893203 19.2468548179156187   F   F   F
 21.6507086180084798 12.5405741707246197 19.1731884226769900   F   F   F
 21.6277904022785812 18.1103523964064586 19.2689388006347002   F   F   F
 21.6849075691104751  6.9849562232888278 19.2451836210495948   F   F   F
 13.9501204973087773 23.6488198022502125 19.3793043460134840   F   F   F
  9.9772425114487611 20.6697046437709098 19.0167652039946340   F   F   F
  9.8780559221914022 26.4262546830420355 19.1737457926478960   F   F   F
 17.8577200799356284 15.2533907019538084 19.1478023931164678   F   F   F
 17.6612043655680360  9.8799700264460508 19.3950468615564162   F   F   F
  1.9879269620655835  9.7323547296467208 19.2477664114081293   F   F   F
  9.9000706363306978  9.7775769661496597 19.2047624452093935   F   F   F
  9.8628241350000643  4.1844424010001093 10.8156001569999933   F   F   F
  1.9989855285305318 26.4679798034839386 19.2174361067987789   F   F   F
  9.8807116862327984  1.4044580048899746 16.4273065762850479   F   F   F
  1.9833590398174195  1.3880696053514217 16.3987527699080360   F   F   F
 21.6881779868025397  4.2028381685101124 16.3901785351425033   F   F   F
 13.7958591656560881  4.1782799244825011 16.4262420297794449   F   F   F
  5.9232171089167807  4.1942328328610756 16.3896605202306773   F   F   F
 17.7551764468977780  4.1506542287020016 16.4345954159651058   F   F   F
  9.8573642410722595  4.2124906814397463 16.3887048442057228   F   F   F
  1.9776548710357931  4.1985901362623288 16.3884793554024988   F   F   F
 11.8349920320883157  2.7915080474614138 14.9619764317293811   F   F   F
 19.7256604856941742  2.7914905809227353 14.9624536609781682   F   F   F
  3.9475048164611000  2.7859666797566951 14.9620544863552016   F   F   F
 15.7758226669865014  2.7898816571138116 14.9742587684221142   F   F   F
  7.8951130318378917  2.7754830135647732 14.9644854009090480   F   F   F
  0.0005241344437807  2.7896294119674780 14.9739110872263836   F   F   F
 21.6972285191400118  4.1822435440209293 13.6115104569951733   F   F   F
 17.7616384365240947  1.3617194663266363 16.3855918121978625   F   F   F
  5.9168826679912474  1.3930919951012906 16.4058752415069193   F   F   F
 13.7904584022637628  1.3959059105926428 16.4162163967908015   F   F   F
 21.6886227752663601  1.3888744253216925 16.3959404552381329   F   F   F
 21.6744329483848936  1.3934772642944449 19.2086259917618705   F   F   F
 17.7563214509569178  4.2136883953962423 19.2468308706043700   F   F   F
  5.9381561952428799  4.1338514195498153 19.2261470343988208   F   F   F
 21.6761057110416857  4.1808266863348127 19.2095172577681872   F   F   F
 13.8024893197035290  4.2023343407658480 19.2841619060908869   F   F   F
  9.8575935302976170  4.1851341626192964 19.2498488549567952   F   F   F
  1.9663417192118162  4.1422746384821894 19.2138306004628561   F   F   F
 13.8046198188314424  4.2138838852103699 13.6363087154409151   F   F   F
  1.9689214052505093  1.3713219176577376 19.2208856599621782   F   F   F
  9.8826975418619831  1.3761852932538678 19.2859928900723041   F   F   F
 19.7063968549020245 27.8323372750675304 17.7642381918643295   F   F   F
 11.8308593406935678 -0.0024215279717008 17.7479038064222330   F   F   F
  3.9618711388183026 27.8490383009226221 17.7660521266438209   F   F   F
 15.7663753045914099 -0.0003964467647407 17.7562205610898118   F   F   F
 23.6682446123355916 27.8732055772972060 17.7676242461975136   F   F   F
  7.9076034120670746  0.0004365401550663 17.7565910213395881   F   F   F
 17.7541058351176595  1.3881849256690910 19.2225807993936471   F   F   F
  9.8307192130959642 14.9189114020367253 18.9018067337594502   F   F   F
  5.9200777082535989  4.1805083853908327 13.6110604487621600   F   F   F
  9.8621070102119237  4.1864853018169015 13.6139398460164092   F   F   F
 13.8079546360000549  4.1844424010001093 10.8156001569999933   F   F   F
  5.9176950450000287  4.1844424010001093 10.8156001569999933   F   F   F
 17.7530837259999217  4.1844424010001093 10.8156001569999933   F   F   F
 17.7037689383918213 23.6254654689895034 16.3881434719724908   F   F   F
  1.9725650740000149  4.1844424010001093 10.8156001569999933   F   F   F
 21.6982156369999721 23.7118402719999644 10.8156001569999933   F   F   F
  1.9980031488134395 23.7001490386453320 19.2609612745219678   F   F   F
  5.9690501875769906 26.3698020350630031 19.1180474678384726   F   F   F
 13.7308504335739485  9.8412973021927161 19.3585908793731853   F   F   F
  6.0149195444252337 20.6884973599802784 19.9092252806982764   F   F   F
  5.6917270676442335 15.4474668255970116 19.2576532724868414   F   F   F
 21.6807352954664445 26.4826561710258765 19.2356501567422882   F   F   F
 21.6700769812465595 20.9217309598615735 19.2137617113091430   F   F   F
 21.6012674356909038 15.3035417027081362 19.1858963123176665   F   F   F
  1.9858949969063457 20.9165928374944308 19.2304092626236738   F   F   F
 21.6982156369999721  4.1844424010001093 10.8156001569999933   F   F   F
  1.9725650740000149  1.3948141340000999 10.8156001569999933   F   F   F
  9.8628241350000643  1.3948141340000999 10.8156001569999933   F   F   F
 17.7530837259999217  1.3948141340000999 10.8156001569999933   F   F   F
  1.9743162997987063  4.1819594311959989 13.6107849774031795   F   F   F
 21.6973798282479180  1.3870816297741821 13.6162223197109888   F   F   F
 13.8161591216158470  1.3751893141405083 13.6309701964495762   F   F   F
  5.9180728102993658  1.3688223984624597 13.6256604855442287   F   F   F
 17.7519030995063716  1.3929895457050649 13.6096012953166046   F   F   F
  9.8649885879703465  1.3571633194352060 13.6401920837431945   F   F   F
  1.9715172377587671  1.3839914344136914 13.6176625492519143   F   F   F
 17.7516000488582328  4.2045044570094063 13.6320311316537115   F   F   F
 19.7256482699999580  0.0000000000000000 12.2103998060000407   F   F   F
  3.9451301480000271  0.0000000000000000 12.2103998060000407   F   F   F
 15.7805205919999434  0.0000000000000000 12.2103998060000407   F   F   F
  7.8902602960000570  0.0000000000000000 12.2103998060000407   F   F   F
  0.0000000000000000  0.0000000000000000 12.2103998060000407   F   F   F
 21.6982156369999721  1.3948141340000999 10.8156001569999933   F   F   F
 13.8079546360000549  1.3948141340000999 10.8156001569999933   F   F   F
  5.9176950450000287  1.3948141340000999 10.8156001569999933   F   F   F
 11.8353900909999528  0.0000000000000000 12.2103998060000407   F   F   F
  5.9466030689336327  6.9916730391133468 16.4201180403769165   F   F   F
  9.4293654724287279 17.8789153767564244 19.5739923444213133   F   F   F
  5.9739825933603319 18.0551832788764344 16.3264773858354637   F   F   F
  1.9725650740000149 12.5533272029999310 10.8156001569999933   F   F   F
  1.9725650740000149  6.9740706690001133 10.8156001569999933   F   F   F
  5.9176950450000287 15.3429548049998807 10.8156001569999933   F   F   F
  9.8628241350000643 15.3429548049998807 10.8156001569999933   F   F   F
  9.8628241350000643 20.9222120049999525 10.8156001569999933   F   F   F
  9.8628241350000643 26.5014685399999657 10.8156001569999933   F   F   F
 17.7530837259999217  9.7636989360001234 10.8156001569999933   F   F   F
 17.7530837259999217 15.3429548049998807 10.8156001569999933   F   F   F
  1.9725650740000149 18.1325837379999442 10.8156001569999933   F   F   F
 17.7530837259999217 20.9222120049999525 10.8156001569999933   F   F   F
  5.9176950450000287  9.7636989360001234 10.8156001569999933   F   F   F
  5.9176950450000287 20.9222120049999525 10.8156001569999933   F   F   F
 21.6982156369999721 26.5014685399999657 10.8156001569999933   F   F   F
  5.9176950450000287 26.5014685399999657 10.8156001569999933   F   F   F
 13.8079546360000549  9.7636989360001234 10.8156001569999933   F   F   F
 13.8079546360000549 15.3429548049998807 10.8156001569999933   F   F   F
 13.8079546360000549 20.9222120049999525 10.8156001569999933   F   F   F
 13.8079546360000549 26.5014685399999657 10.8156001569999933   F   F   F
 17.7530837259999217 26.5014685399999657 10.8156001569999933   F   F   F
 21.6982156369999721  9.7636989360001234 10.8156001569999933   F   F   F
 21.6982156369999721 12.5533272029999310 10.8156001569999933   F   F   F
 13.8079546360000549 23.7118402719999644 10.8156001569999933   F   F   F
  1.9725650740000149 26.5014685399999657 10.8156001569999933   F   F   F
  9.8628241350000643  9.7636989360001234 10.8156001569999933   F   F   F
  1.9725650740000149 23.7118402719999644 10.8156001569999933   F   F   F
  9.8628241350000643  6.9740706690001133 10.8156001569999933   F   F   F
  9.8628241350000643 12.5533272029999310 10.8156001569999933   F   F   F
  9.8628241350000643 18.1325837379999442 10.8156001569999933   F   F   F
  9.8628241350000643 23.7118402719999644 10.8156001569999933   F   F   F
 17.7530837259999217  6.9740706690001133 10.8156001569999933   F   F   F
 21.6982156369999721  6.9740706690001133 10.8156001569999933   F   F   F
 17.7530837259999217 12.5533272029999310 10.8156001569999933   F   F   F
 17.7530837259999217 23.7118402719999644 10.8156001569999933   F   F   F
  5.9176950450000287  6.9740706690001133 10.8156001569999933   F   F   F
  5.9176950450000287 12.5533272029999310 10.8156001569999933   F   F   F
  5.9176950450000287 18.1325837379999442 10.8156001569999933   F   F   F
  5.9176950450000287 23.7118402719999644 10.8156001569999933   F   F   F
 13.8079546360000549  6.9740706690001133 10.8156001569999933   F   F   F
 13.8079546360000549 12.5533272029999310 10.8156001569999933   F   F   F
 13.8079546360000549 18.1325837379999442 10.8156001569999933   F   F   F
 17.7530837259999217 18.1325837379999442 10.8156001569999933   F   F   F
 21.6982156369999721 15.3429548049998807 10.8156001569999933   F   F   F
 21.6982156369999721 20.9222120049999525 10.8156001569999933   F   F   F
 13.8028044789317956  7.0317752286464090 13.6129485654105427   F   F   F
  9.8661889480435132  9.7782770294512122 13.6269806078607161   F   F   F
 21.6855891398385339 12.5438799791802502 13.6199899457283387   F   F   F
 21.6833834131546759  6.9714884134059227 13.6286780419785511   F   F   F
  5.9418903361588882 15.3925987798879653 13.6573772228136452   F   F   F
 21.6875124442321692 18.1265955316895422 13.6198582023453998   F   F   F
 21.6863747752081366 23.7010196578215186 13.6275317414843276   F   F   F
  1.9832681910412391  9.7623368940624928 13.6133140603627467   F   F   F
  1.9705364053596435 15.3543081136176589 13.6132846937983061   F   F   F
  5.9565844266540999 20.9241034550969509 13.6811200270614393   F   F   F
  1.9829122533811698 26.4842631809348248 13.6096269840319337   F   F   F
  9.8752178911212027 15.2880797319256683 13.6211324108010992   F   F   F
  9.8748239072746369 20.8380573941294038 13.6341714109530781   F   F   F
  9.8795005901702808 26.4434953301803191 13.6260772015481972   F   F   F
 17.7600093064992706  9.8168433914249196 13.6695449508049158   F   F   F
 17.7464992462047633 15.3652536168026614 13.6855514721048674   F   F   F
 17.7214155663740094 20.9430539218210825 13.7159662684621253   F   F   F
 17.7394656197964764 26.4928850862392622 13.6425377181672616   F   F   F
  5.9171276377549926  9.7941413444395415 13.6325575881132011   F   F   F
  2.0030836290571701 20.9217876291675324 13.6079378168132035   F   F   F
 21.6926700843597047 26.4905135354624939 13.6127302348980237   F   F   F
 13.7962302346093661  9.8497705562018290 13.6852527575706375   F   F   F
  0.0020274454733989  8.3671164745497855 14.9614255932530256   F   F   F
 13.8356286143804681 18.1222607165814296 13.6528439279155229   F   F   F
 15.7491782028814100 19.5291370861763411 15.0946278170875505   F   F   F
  5.9333655898334179 26.4514078095691190 13.6087705484958867   F   F   F
 13.7919683309345391 15.3781219230590942 13.6891499758726702   F   F   F
 13.7947965368388861 20.8659098967350900 13.6291164991890188   F   F   F
 13.7934183794559200 26.4492239368123485 13.6121284895626893   F   F   F
 21.6793745421930772  9.7589066200846872 13.6107229196078094   F   F   F
 21.6794705171703335 15.3362366242431936 13.6179939155281140   F   F   F
 21.6607706519819345 20.9143715226250571 13.6058259978325076   F   F   F
 15.7584024318675056 14.0214668734761467 15.1032264295679148   F   F   F
  7.9076863138656641 14.0257831553544143 15.0901007519532477   F   F   F
  7.9408843838842627 19.5376997770264431 15.1209516770509484   F   F   F
 15.7642394255300964  8.4159504356205872 14.9963754201452026   F   F   F
  7.8959537580745884 25.0566255844668646 14.9879092859865235   F   F   F
  0.0039704774033169 25.0883515180351218 14.9799227255955092   F   F   F
  7.8960746053510489  8.3942744304444421 14.9659249936352765   F   F   F
 23.6669905037046213 19.5846100977126341 14.9261545845443742   F   F   F
 -0.0009808074376938 13.9285718399847465 14.9527954100354901   F   F   F
 13.7972057941523190 23.6281790128725824 13.6817563191741431   F   F   F
  1.9725650740000149 20.9222120049999525 10.8156001569999933   F   F   F
  5.9006608054962504 12.5875034229766474 16.3853470344848233   F   F   F
  5.9231894544045476  1.3441644930521615 19.2526861242933052   F   F   F
  7.9017842521515176  5.5804493973311313 17.7635773666737968   F   F   F
 21.6922556157192901 18.1418319584509078 16.3880036978854839   F   F   F
 13.7527333767786093 18.0681481638598704 16.4831655439566127   F   F   F
 13.8712531228426030 23.7618802289621804 16.5255647062687032   F   F   F
 13.8035413302344310 12.5132365117677136 16.3627916649583547   F   F   F
 13.8029732683055535  6.9649015619772205 16.3769454096883997   F   F   F
  5.9862649732632613 23.7053173577463525 16.5323203848167957   F   F   F
 10.0161941980217204 15.4754266677884669 16.3826006753387361   F   F   F
 17.8201713469566982 15.2815163834347025 16.4843234237052911   F   F   F
 17.7845788725399991 20.7721159025080304 16.5875615698502514   F   F   F
 17.7094764346860316 26.4382169484619247 16.4151195883015397   F   F   F
 21.6633509723613038 23.7061132480331125 16.4059444806577019   F   F   F
  5.9781124685854792  9.7936792444989749 16.4192210043358742   F   F   F
 21.7033621723026862  6.9921948318887539 16.4174863398185771   F   F   F
  3.9568002290719990  8.3721364044157340 14.9977436358634115   F   F   F
 11.8353900909999528 22.3170261389998572 12.2103998060000407   F   F   F
 11.8353900909999528 11.1585130700000246 12.2103998060000407   F   F   F
 11.8353900909999528  5.5792565350000141 12.2103998060000407   F   F   F
  3.9451301480000271 22.3170261389998572 12.2103998060000407   F   F   F
  3.9451301480000271 16.7377696040000430 12.2103998060000407   F   F   F
  3.9451301480000271 11.1585130700000246 12.2103998060000407   F   F   F
  3.9451301480000271  5.5792565350000141 12.2103998060000407   F   F   F
 15.7805205919999434 22.3170261389998572 12.2103998060000407   F   F   F
  3.9724180870622039 25.0720215935124671 14.9842597535124149   F   F   F
 13.7383976635869303  9.6977010425122820 16.5234053819992326   F   F   F
  5.9052067874077983 20.8278078003294418 16.5635847234688498   F   F   F
  3.9156171487064433 16.8110452298339155 17.6467250737031947   F   F   F
  1.9865717971226520 26.5126809650581556 16.3784780169964321   F   F   F
  9.8405541387880522  9.8406940672623406 16.4240248756026510   F   F   F
  2.0507071883811618 20.9554998587922690 16.3806620760359181   F   F   F
  1.9672281113242862 15.3499709376155913 16.3790625754683248   F   F   F
  1.9800853363065283  9.7822992382950886 16.3911840916036766   F   F   F
 11.8229715128012298  8.4002368843095958 14.9893450002683490   F   F   F
 23.6593052778181914 16.7123523173079818 17.8252842391234552   F   F   F
 23.6666047992613962 22.3739024184242119 17.7839825276702328   F   F   F
  7.9225210519660045 11.2711064517895068 17.7981276407236457   F   F   F
  9.9987467999536204 20.9292160874058055 16.3979200454241827   F   F   F
 23.6678528169909796  5.5836859634966585 17.7757445158411116   F   F   F
  0.0247113881376625 11.1540174441086428 17.7693726613804799   F   F   F
  7.8891520936137045 16.6525874952731670 17.7409980405986119   F   F   F
  7.9358796866825623 22.1002314677614606 17.7529439509359150   F   F   F
 15.7075482570367928 11.0944016001414187 17.7224820229011115   F   F   F
  1.9725650740000149 15.3429548049998807 10.8156001569999933   F   F   F
 15.7689766484678096  5.5800073664557726 17.7636674054867498   F   F   F
 15.7556155090676331 22.1299285589507839 17.7140055465222730   F   F   F
 15.7832185466842745 16.5994857112064373 17.7370199807782356   F   F   F
  3.9545409499940742  5.5645575292076579 17.7678771801369635   F   F   F
  3.9872796736017131 11.1179025554896409 17.7914865690535109   F   F   F
  4.0458489803128712 22.2964991767594540 17.8695703882887393   F   F   F
  5.8691932493800643 15.3091207856761429 16.4798069087002155   F   F   F
 15.7805205919999434 16.7377696040000430 12.2103998060000407   F   F   F
 15.7805205919999434 11.1585130700000246 12.2103998060000407   F   F   F
 15.7805205919999434  5.5792565350000141 12.2103998060000407   F   F   F
  7.8902602960000570 22.3170261389998572 12.2103998060000407   F   F   F
  9.8381759212330095 18.0482654891619418 13.7460691091568652   F   F   F
  9.8727847213408744 23.6304107158062351 13.6647552535312133   F   F   F
 17.7297865680838953  7.0169820444573165 13.6061680937135581   F   F   F
 17.6967196532506499 12.5845243169853909 13.6555936284050610   F   F   F
 17.7145550510649734 18.1689458598867617 13.6162339822865253   F   F   F
 17.7524324465940850 23.7101703393263463 13.6123506702931500   F   F   F
  9.8273530763871797 12.5278208402682942 13.7171499608976468   F   F   F
  5.9199852066022736  6.9847457912124105 13.6289980276585823   F   F   F
  5.9635375514916777 12.6011591848052760 13.6175269083997250   F   F   F
  5.9637126825213791 18.1840012326215650 13.6141554068128290   F   F   F
  5.9323147148448285 23.6629385834074775 13.6669355311613732   F   F   F
 19.7256482699999580 11.1585130700000246 12.2103998060000407   F   F   F
 13.8327684288469897 12.6210840101014199 13.6103929238964287   F   F   F
 19.7256482699999580  5.5792565350000141 12.2103998060000407   F   F   F
  9.8485815873068550 26.4580476851624589 16.4011213620096648   F   F   F
  9.8553896853231571  6.9805486245966311 13.6513836625477261   F   F   F
 21.6626746197708933 12.5421864499732525 16.3946134934240710   F   F   F
  1.9853110967102918 18.1449620996328385 13.6127855902503363   F   F   F
  1.9853021070816412 23.6950269764545247 13.6313287789460400   F   F   F
  7.8902602960000570 16.7377696040000430 12.2103998060000407   F   F   F
  7.8902602960000570 11.1585130700000246 12.2103998060000407   F   F   F
  7.8902602960000570  5.5792565350000141 12.2103998060000407   F   F   F
  0.0000000000000000 22.3170261389998572 12.2103998060000407   F   F   F
  0.0000000000000000 16.7377696040000430 12.2103998060000407   F   F   F
  0.0000000000000000 11.1585130700000246 12.2103998060000407   F   F   F
 17.6939715936892519  9.6820138406273681 16.5259072986078692   F   F   F
  0.0000000000000000  5.5792565350000141 12.2103998060000407   F   F   F
  1.9725650740000149  9.7636989360001234 10.8156001569999933   F   F   F
 11.8353900909999528 16.7377696040000430 12.2103998060000407   F   F   F
 19.7256482699999580 16.7377696040000430 12.2103998060000407   F   F   F
 19.7256482699999580 22.3170261389998572 12.2103998060000407   F   F   F
  1.9855884621703519  6.9688484767786552 13.6257738576775171   F   F   F
  1.9718884397685830 12.5493912503424045 13.6156847651687265   F   F   F
 19.7054400376580254  2.7959438328907780 18.5348977795133365   F   F   F
  7.9059760281593876  2.7469713636205944 18.5960445257847056   F   F   F
 15.7881759474914851  2.8072730354273068 18.5705298839589048   F   F   F
 11.8383919169173133  2.7992701035271610 18.6028948618679664   F   F   F