Au O  Sr Ti H                           
   1.00000000000000     
    23.6707801818999997    0.0000000000000000    0.0000000000000000
     0.0000000000000000   22.3170261383000010    0.0000000000000000
     0.0000000000000000    0.0000000000000000   30.0000000000000000
   Au   O    Sr   Ti   H 
    50   264    72    72     1
Selective dynamics
Direct
  0.7190494377093444  0.5279912027815357  0.7533460031720267   F   F   F
  0.6245080037220276  0.5679116513781821  0.7039502009364611   F   F   F
  0.7187269111283570  0.2589054759551885  0.6917340178195701   F   F   F
  0.2918219700874687  0.7455123516459565  0.6982737814508724   F   F   F
  0.5126454413029791  0.6043613919826569  0.7766361577894756   F   F   F
  0.5775455307982256  0.7208476614248198  0.7911330902547817   F   F   F
  0.5503780890262107  0.3846124412274037  0.8292912997207580   F   F   F
  0.2427172787322078  0.4676282003911254  0.7094775130969566   F   F   F
  0.2820380223023307  0.6606124284382773  0.7663090681288764   F   F   F
  0.6030242734628928  0.2894632571149813  0.7877655519932532   F   F   F
  0.5146485957872997  0.4830861848407011  0.6777788264082218   F   F   F
  0.5622876437422732  0.4864945913670198  0.7624201718090262   F   F   F
  0.4628299167606826  0.6945393292510005  0.8306995061985063   F   F   F
  0.7641912851554551  0.4322173704703474  0.7045385733461060   F   F   F
  0.7335693626775850  0.6168939963815987  0.6926316879578849   F   F   F
  0.6348170759751781  0.5860888478295365  0.7988778242183301   F   F   F
  0.5841118147758024  0.7851634926740587  0.7125314740399844   F   F   F
  0.4825629483204779  0.7782421867959002  0.7590364996515930   F   F   F
  0.3500848744534366  0.5010942236941176  0.6972222323278103   F   F   F
  0.4309811506201697  0.3721627788503667  0.8154363716729804   F   F   F
  0.3728418375711442  0.2982853663793392  0.7557416307203653   F   F   F
  0.4413370544908801  0.2280460789818690  0.6969921862324640   F   F   F
  0.3896857720713029  0.8157018842772885  0.7066197284046183   F   F   F
  0.2910839300865007  0.5362490290348774  0.7776562691031188   F   F   F
  0.5558966156179324  0.2083257420780456  0.7114481353225273   F   F   F
  0.4543286998674958  0.5798074807136615  0.7022965901222449   F   F   F
  0.6134366522734851  0.3191910363118637  0.6977716731613484   F   F   F
  0.7245588911278560  0.7564583583011881  0.6934580767491880   F   F   F
  0.6564193515319729  0.4434273557321831  0.8110678675797445   F   F   F
  0.3679117714564057  0.6178324273274143  0.8202967815707467   F   F   F
  0.5711225716423627  0.5106368855903867  0.8563516411132852   F   F   F
  0.6645367294628812  0.1939169584056586  0.7523118574070224   F   F   F
  0.4726637109467333  0.4507907792898465  0.8795369636614865   F   F   F
  0.5161374377788235  0.3774102829330772  0.7341045216464650   F   F   F
  0.2837487818127258  0.3373033735650139  0.7025322580620710   F   F   F
  0.6776593539906699  0.6833971105098158  0.7517369907240479   F   F   F
  0.3977537375517386  0.3818674467378216  0.6903091875024785   F   F   F
  0.3761239750907350  0.4919212146296417  0.8338698296072309   F   F   F
  0.4631093707687768  0.5730363715661611  0.8638796471363364   F   F   F
  0.3268773373965601  0.4138418879176697  0.7694552783191781   F   F   F
  0.4877516112259812  0.2684310315037806  0.7750413754425693   F   F   F
  0.4228233051829093  0.6970169169849214  0.6997483285228867   F   F   F
  0.7005549003641036  0.3468515957333338  0.7560343526802384   F   F   F
  0.7744382473567484  0.4308849139132960  0.7948387769077669   F   F   F
  0.2573912189700707  0.5924003468483647  0.6948513683262405   F   F   F
  0.6474605943423271  0.4415909229249877  0.6969819076909900   F   F   F
  0.5650439587759095  0.6396421324682322  0.8616012074667339   F   F   F
  0.5462189101509765  0.6651869524970380  0.7012221729217103   F   F   F
  0.4430933146028480  0.4748619878774321  0.7561189522604508   F   F   F
  0.3725890715569165  0.7372432653264909  0.7784263578554445   F   F   F
  0.2500075330596943  0.1886984062559591  0.4543727897545153   F   F   F
  0.7494570637232627  0.9377517907893349  0.4549868675285254   F   F   F
  0.7487399521071936  0.6875666298744889  0.4560246964980550   F   F   F
  0.7493928716750702  0.4379085695105047  0.4555394915008577   F   F   F
  0.7501164612162867  0.1896669289494923  0.4555855804907125   F   F   F
  0.4173025942276993  0.9357421124576106  0.4538991648628681   F   F   F
  0.4168785889267497  0.6846083977494928  0.4547501462789754   F   F   F
  0.4165884507357589  0.4353933134538508  0.4538918936279117   F   F   F
  0.0844991951708565  0.6868608424347258  0.4530144242980185   F   F   F
  0.0838845002289759  0.9366705003388347  0.4534618232451493   F   F   F
  0.0827754953196447  0.4368098495763348  0.4528808873536221   F   F   F
  0.0838708062709657  0.1865599328437995  0.4529889827580433   F   F   F
  0.9165639228893241  0.8120948733333222  0.4540740295100605   F   F   F
  0.9161415881831516  0.5623807402966179  0.4536833315658555   F   F   F
  0.2511483345217229  0.4392460048375213  0.4549057783270740   F   F   F
  0.9161237435652438  0.0621284409510352  0.4541143558202023   F   F   F
  0.9162035768322099  0.3122301588503476  0.4538097174547886   F   F   F
  0.4171132458021773  0.1871006889506504  0.4536307648074072   F   F   F
  0.2522912852855441  0.6873878157055771  0.4560547556918948   F   F   F
  0.9165752012242834  0.9367983964471804  0.4533840447293471   F   F   F
  0.5826161682544324  0.1890689409363233  0.4551165761902922   F   F   F
  0.0001003518264682  0.1250911030739275  0.4984249924809916   F   F   F
  0.5835725370463365  0.8100479899064297  0.4553420036517366   F   F   F
  0.9999865477645855  0.3733758388825166  0.4984411773050965   F   F   F
  0.9997748792233949  0.6269202825210982  0.4976549866177677   F   F   F
  0.3334872257872590  0.1250220202971093  0.4983764162850548   F   F   F
  0.0000489349465838  0.8751280372419572  0.4995495747592713   F   F   F
  0.3334477835342327  0.8738963738142544  0.4988042739161926   F   F   F
  0.6659599216436121  0.1259456763492679  0.4991531890819871   F   F   F
  0.3355200465660104  0.6249731754463781  0.5041160529490298   F   F   F
  0.3343324597874329  0.3784559554371754  0.5030083685279294   F   F   F
  0.6654145802876812  0.3784722765337776  0.5032640182399248   F   F   F
  0.9154059917931718  0.6867777877901702  0.4530973882086684   F   F   F
  0.9159483000719462  0.4369856249692461  0.4536897231789823   F   F   F
  0.9158513040597498  0.1869407364049209  0.4532156624050501   F   F   F
  0.5828410402397708  0.9362193917996393  0.4540918266168958   F   F   F
  0.5827276272474720  0.6859690105012035  0.4546561338417234   F   F   F
  0.5826850044340333  0.4387011253457231  0.4559118283210637   F   F   F
  0.2499976038810345  0.9360141661690093  0.4540331383578931   F   F   F
  0.6652632966094103  0.6252895209879057  0.5026214880484972   F   F   F
  0.5843550099893662  0.5623662374478755  0.4550421568091920   F   F   F
  0.5828782327142505  0.0624247667955373  0.4547624855289527   F   F   F
  0.9166666865332829  0.6874999999963620  0.3605200052333331   F   F   F
  0.9166666865332829  0.4374999701794380  0.3605200052333331   F   F   F
  0.9166666865332829  0.1875000000030838  0.3605200052333331   F   F   F
  0.5833333134730552  0.9375000000154046  0.3605200052333331   F   F   F
  0.5833333134730552  0.6874999999963620  0.3605200052333331   F   F   F
  0.5833333134730552  0.4374999701794380  0.3605200052333331   F   F   F
  0.5833333134730552  0.1875000000030838  0.3605200052333331   F   F   F
  0.2499999999799343  0.9375000000154046  0.3605200052333331   F   F   F
  0.9166666865332829  0.9375000000154046  0.3605200052333331   F   F   F
  0.2499999999799343  0.6874999999963620  0.3605200052333331   F   F   F
  0.2499999999799343  0.1875000000030838  0.3605200052333331   F   F   F
  0.7499999404149307  0.9375000000154046  0.3605200052333331   F   F   F
  0.7499999404149307  0.6874999999963620  0.3605200052333331   F   F   F
  0.7499999404149307  0.4374999701794380  0.3605200052333331   F   F   F
  0.7499999404149307  0.1875000000030838  0.3605200052333331   F   F   F
  0.4166666269218169  0.9375000000154046  0.3605200052333331   F   F   F
  0.4166666269218169  0.6874999999963620  0.3605200052333331   F   F   F
  0.4166666269218169  0.4374999701794380  0.3605200052333331   F   F   F
  0.2499999999799343  0.4374999701794380  0.3605200052333331   F   F   F
  0.0833333358191695  0.0625000000159659  0.3605200052333331   F   F   F
  0.0833333358191695  0.3124999999901945  0.3605200052333331   F   F   F
  0.0833333358191695  0.5625000000092442  0.3605200052333331   F   F   F
  0.9166666865332829  0.3124999999901945  0.3605200052333331   F   F   F
  0.9166666865332829  0.0625000000159659  0.3605200052333331   F   F   F
  0.5833333134730552  0.8124999999834799  0.3605200052333331   F   F   F
  0.5833333134730552  0.5625000000092442  0.3605200052333331   F   F   F
  0.5833333134730552  0.3124999999901945  0.3605200052333331   F   F   F
  0.5833333134730552  0.0625000000159659  0.3605200052333331   F   F   F
  0.2499999999799343  0.8124999999834799  0.3605200052333331   F   F   F
  0.2499999999799343  0.5625000000092442  0.3605200052333331   F   F   F
  0.2499999999799343  0.3124999999901945  0.3605200052333331   F   F   F
  0.2499999999799343  0.0625000000159659  0.3605200052333331   F   F   F
  0.7499999404149307  0.8124999999834799  0.3605200052333331   F   F   F
  0.7499999404149307  0.5625000000092442  0.3605200052333331   F   F   F
  0.7499999404149307  0.3124999999901945  0.3605200052333331   F   F   F
  0.7499999404149307  0.0625000000159659  0.3605200052333331   F   F   F
  0.4166666269218169  0.8124999999834799  0.3605200052333331   F   F   F
  0.4166666269218169  0.5625000000092442  0.3605200052333331   F   F   F
  0.4166666269218169  0.3124999999901945  0.3605200052333331   F   F   F
  0.4166666269218169  0.0625000000159659  0.3605200052333331   F   F   F
  0.0833333358191695  0.8124999999834799  0.3605200052333331   F   F   F
  0.4166666269218169  0.1875000000030838  0.3605200052333331   F   F   F
  0.0833333358191695  0.9375000000154046  0.3605200052333331   F   F   F
  0.0833333358191695  0.6874999999963620  0.3605200052333331   F   F   F
  0.0833333358191695  0.4374999701794380  0.3605200052333331   F   F   F
  0.8333332538436267  0.4999999999932783  0.4070133268666680   F   F   F
  0.8333332538436267  0.7500000000123208  0.4070133268666680   F   F   F
  0.0837409392575026  0.0618808252918583  0.4541859718753614   F   F   F
  0.0834689506448001  0.3119896531934501  0.4539917460827425   F   F   F
  0.0839726485772090  0.5624949551154117  0.4538807767797834   F   F   F
  0.0834911899412631  0.8121545847905125  0.4541817507305552   F   F   F
  0.4169944480385510  0.0615624230379979  0.4553286814902719   F   F   F
  0.4153224221370522  0.3112854961185860  0.4573392325967802   F   F   F
  0.4160154420500533  0.5594165540103972  0.4578062153831581   F   F   F
  0.4167787388851920  0.8097960339732708  0.4551049051877243   F   F   F
  0.7495743019857457  0.0638683987899071  0.4534237059996826   F   F   F
  0.7473769117112496  0.3139936901842191  0.4546744469996398   F   F   F
  0.7484249596996335  0.5634554960554112  0.4539176349717167   F   F   F
  0.7493598720970951  0.8121982372057630  0.4538214649859214   F   F   F
  0.2500847546469984  0.0619946410358452  0.4541603016635065   F   F   F
  0.9154334552640648  0.3124064061208003  0.5467043469679993   F   F   F
  0.2522694910137133  0.3142043685104312  0.4541514413302821   F   F   F
  0.2517609371367158  0.5644049826706379  0.4540105716588130   F   F   F
  0.2501941273837502  0.8104505677728397  0.4555273723589011   F   F   F
  0.8333332538436267  0.2500000000190425  0.4070133268666680   F   F   F
  0.5842294526708258  0.3144938325508519  0.4541430524688082   F   F   F
  0.8333332538436267  0.0000000000000000  0.4070133268666680   F   F   F
  0.5000000000021103  0.4999999999932783  0.4070133268666680   F   F   F
  0.0833333358191695  0.1875000000030838  0.3605200052333331   F   F   F
  0.0000000000000000  0.0000000000000000  0.4070133268666680   F   F   F
  0.0000000000000000  0.2500000000190425  0.4070133268666680   F   F   F
  0.0000000000000000  0.4999999999932783  0.4070133268666680   F   F   F
  0.0000000000000000  0.7500000000123208  0.4070133268666680   F   F   F
  0.3333333432766779  0.0000000000000000  0.4070133268666680   F   F   F
  0.3333333432766779  0.2500000000190425  0.4070133268666680   F   F   F
  0.3333333432766779  0.4999999999932783  0.4070133268666680   F   F   F
  0.3333333432766779  0.7500000000123208  0.4070133268666680   F   F   F
  0.6666666865533486  0.0000000000000000  0.4070133268666680   F   F   F
  0.6666666865533486  0.2500000000190425  0.4070133268666680   F   F   F
  0.6666666865533486  0.4999999999932783  0.4070133268666680   F   F   F
  0.6666666865533486  0.7500000000123208  0.4070133268666680   F   F   F
  0.1666666716383389  0.0000000000000000  0.4070133268666680   F   F   F
  0.1666666716383389  0.2500000000190425  0.4070133268666680   F   F   F
  0.1666666716383389  0.4999999999932783  0.4070133268666680   F   F   F
  0.1666666716383389  0.7500000000123208  0.4070133268666680   F   F   F
  0.5000000000021103  0.0000000000000000  0.4070133268666680   F   F   F
  0.5000000000021103  0.2500000000190425  0.4070133268666680   F   F   F
  0.5000000000021103  0.7500000000123208  0.4070133268666680   F   F   F
  0.1670421275760461  0.1243514137069184  0.4993643113619370   F   F   F
  0.9177031916098173  0.0632736204603361  0.5474212920548851   F   F   F
  0.1677900241534900  0.8732954715138277  0.4998987955019345   F   F   F
  0.2519230070906957  0.1880410445371652  0.5473041522696178   F   F   F
  0.7495110998364183  0.9349798286604880  0.5472995006610972   F   F   F
  0.7502847097702769  0.6828729589150129  0.5506561863389337   F   F   F
  0.7522790521457807  0.4354687733472531  0.5486404121149562   F   F   F
  0.4232770858353945  0.4435694976215174  0.5456938725028024   F   F   F
  0.4224128205642828  0.6874105654132308  0.5467441332278327   F   F   F
  0.7484769009283099  0.1836065239243609  0.5507241876879689   F   F   F
  0.4159152574117684  0.9369585547440877  0.5460130297447421   F   F   F
  0.0836126655059743  0.9389468238317775  0.5456888481374378   F   F   F
  0.4156324583911299  0.1912244435714854  0.5464526695923979   F   F   F
  0.0866001818502582  0.6897256948421315  0.5450864715300696   F   F   F
  0.0824876203908644  0.4385906584090407  0.5450499622388278   F   F   F
  0.0837384292610324  0.1888553760032252  0.5457048646575160   F   F   F
  0.4994423883735806  0.1254922486744690  0.4996717384601865   F   F   F
  0.9994263147896447  0.5005126478840936  0.5944072520819361   F   F   F
  0.9996347698858727  0.7536198432081420  0.5923852406261716   F   F   F
  0.3347109484124999  0.2542019023025333  0.5926673655021730   F   F   F
  0.3340025930091173  0.9997942900633561  0.5920206334004376   F   F   F
  0.9997191375621171  0.9987454437701757  0.5927644753746577   F   F   F
  0.0010643268752517  0.2497592446798436  0.5919001334344358   F   F   F
  0.3334251909660111  0.4965065330326937  0.5910776059024059   F   F   F
  0.3348143684754419  0.7397907716537162  0.5908475280797347   F   F   F
  0.6634922428054466  0.2472041996079071  0.5907586051918230   F   F   F
  0.6658666217357734  0.0000267493108908  0.5919280585911721   F   F   F
  0.6653917190626615  0.7451897258886078  0.5911528678558966   F   F   F
  0.6669048162466567  0.4930529524363649  0.5906004076351152   F   F   F
  0.1673917951630344  0.9983637835317580  0.5922822562718579   F   F   F
  0.1685200231678223  0.2493219137152138  0.5931526668958682   F   F   F
  0.1708639363536832  0.7498356916822715  0.5951197606952192   F   F   F
  0.2484397510737182  0.4361651632614780  0.5490263669911002   F   F   F
  0.1654572812115802  0.5031640721828836  0.5876865270372988   F   F   F
  0.2488214766028989  0.6833921589861802  0.5517325441075727   F   F   F
  0.5808244266324465  0.1858605934028574  0.5493889529468277   F   F   F
  0.9155273696515280  0.8129339569118130  0.5467953873769602   F   F   F
  0.9165828796088178  0.5629952276474768  0.5462164755055028   F   F   F
  0.5811545686327335  0.5602287703330902  0.5493470333832917   F   F   F
  0.5846020119308619  0.8135215591252489  0.5496719559654792   F   F   F
  0.5830157203162898  0.3116854297464045  0.5457108416774474   F   F   F
  0.5826942557411954  0.0631792357027265  0.5469641801307930   F   F   F
  0.2534528584592337  0.8129775454532506  0.5514043255725554   F   F   F
  0.2520376851107713  0.5595231255439401  0.5446000359224286   F   F   F
  0.2495508655434335  0.3137092163616515  0.5459575875509373   F   F   F
  0.2510429188765144  0.0624454120970555  0.5472877373910876   F   F   F
  0.7486280581455986  0.8098173082136739  0.5469867777173079   F   F   F
  0.7465670013785655  0.5591389931684461  0.5452738401516157   F   F   F
  0.4133860058573973  0.8116072459644386  0.5479184111380349   F   F   F
  0.7482077072844149  0.0598322765032790  0.5445371671316366   F   F   F
  0.7480621885432868  0.3114801836958137  0.5480787338301241   F   F   F
  0.4160184093720289  0.3193778476090259  0.5525201919285720   F   F   F
  0.4204592577797328  0.5646195548303083  0.5552415798875430   F   F   F
  0.4165689741272232  0.0651743208284259  0.5473131094500587   F   F   F
  0.0849206575494037  0.8129343765463659  0.5473620637431154   F   F   F
  0.0825448688608645  0.5641161988782386  0.5463283707819642   F   F   F
  0.0863339793621094  0.3134081894060330  0.5468896540186066   F   F   F
  0.0822859527366262  0.0632213269082982  0.5475245110596987   F   F   F
  0.9155878348877806  0.9386036795004600  0.5461579520533277   F   F   F
  0.9140257234333404  0.6890685561638961  0.5451932991827135   F   F   F
  0.5835302081737481  0.9376050696521006  0.5461910309508795   F   F   F
  0.9170216322719682  0.1888466638416233  0.5455179226739304   F   F   F
  0.9158364007596234  0.4372933597144311  0.5459166369000172   F   F   F
  0.5762672387872101  0.4361548446849568  0.5514936052616832   F   F   F
  0.5801980128900155  0.6860559540481290  0.5474555605315672   F   F   F
  0.2516854798886854  0.9374095520187922  0.5451234145440296   F   F   F
  0.4978715800153353  0.5044792828532039  0.6089828709086333   F   F   F
  0.4986408053481526  0.2528812184016616  0.5903353079274822   F   F   F
  0.4997015908656834  0.9998370906512548  0.5911206625848848   F   F   F
  0.7516319943536374  0.6880451577483555  0.6496695958335437   F   F   F
  0.7488010354823658  0.9373155933872539  0.6401637651824146   F   F   F
  0.2532486656823494  0.1862404668378232  0.6410974108943250   F   F   F
  0.7456582048706295  0.1942517786818456  0.6468212638975572   F   F   F
  0.7553076573005058  0.4339914790741517  0.6378517837426116   F   F   F
  0.4173042179623465  0.9350040137846278  0.6398351422728439   F   F   F
  0.4211164966571133  0.6756439863582457  0.6339795533851174   F   F   F
  0.5867795640601088  0.8102049969746119  0.6451465098493259   F   F   F
  0.9162044151271544  0.0626770208153147  0.6416079247641733   F   F   F
  0.9123196201038084  0.5618631683431730  0.6424196067733803   F   F   F
  0.9153504264632630  0.3119943209990979  0.6394662498262491   F   F   F
  0.9133868180038576  0.8127088734452173  0.6410768764583779   F   F   F
  0.5823743174206371  0.0650877688755713  0.6396804463549444   F   F   F
  0.5833781003861418  0.3193367398475004  0.6343101666126429   F   F   F
  0.5932376527691900  0.5646857053114474  0.6392853935975893   F   F   F
  0.2477663215821480  0.5737615137407062  0.6292711667501365   F   F   F
  0.2620526863474382  0.7986270542733322  0.6471772385638204   F   F   F
  0.2496106885548670  0.3161669705475632  0.6414043362803739   F   F   F
  0.2509408299438007  0.0592961227839695  0.6422400974614888   F   F   F
  0.9166666865332829  0.5625000000092442  0.3605200052333331   F   F   F
  0.4994757282134756  0.3737531267468412  0.4997332402002641   F   F   F
  0.4998008485966992  0.8730994906227849  0.5007251101845682   F   F   F
  0.5003352953543754  0.6211574941094398  0.5000875849880515   F   F   F
  0.8322873822174159  0.6232365668066961  0.4999270042589217   F   F   F
  0.8326992599930350  0.8744678815759173  0.4986368339740750   F   F   F
  0.8324826362506741  0.3730956176317264  0.4996852394328783   F   F   F
  0.8329001073842548  0.1245725926682937  0.4996493244293561   F   F   F
  0.1667664269219387  0.3762066230951930  0.4978411132504448   F   F   F
  0.1676434754104719  0.6242125376363603  0.4999423731756352   F   F   F
  0.5818679897170043  0.4383521137278024  0.6457158656902564   F   F   F
  0.5795863366759804  0.6845113899640936  0.6380031100564665   F   F   F
  0.9171102553984198  0.1867464810253239  0.6407128724007194   F   F   F
  0.5824000550383772  0.9350793984961356  0.6396112204762261   F   F   F
  0.8311654241730864  0.7493209746915710  0.5915967995196922   F   F   F
  0.8316814218435411  0.2478412399859593  0.5914906712635073   F   F   F
  0.8329199929408588  0.5032916695030565  0.5890293992925848   F   F   F
  0.8322585335015731  0.0020875034661714  0.5922639964620871   F   F   F
  0.4993734974052728  0.7557485734344809  0.5923201772443534   F   F   F
  0.4178044283639650  0.0652068286498420  0.6400157186940945   F   F   F
  0.4270540243240220  0.3048207706539046  0.6549237326551349   F   F   F
  0.4117305284240445  0.8124444252032461  0.6397725920137560   F   F   F
  0.3987505511699183  0.5506288302090496  0.6517296002249111   F   F   F
  0.7518990955876745  0.5663288137251001  0.6368713706773761   F   F   F
  0.7464833785710283  0.8100117472563966  0.6405769685319953   F   F   F
  0.7468839154691054  0.3123504890640660  0.6402454219479807   F   F   F
  0.7474973513958432  0.0671495863318796  0.6390582403169489   F   F   F
  0.0836545836122156  0.3119479852898550  0.6404305594317279   F   F   F
  0.6664086279321566  0.8743393994037305  0.4992256409678575   F   F   F
  0.0870861338285351  0.5620950274622558  0.6418797382114292   F   F   F
  0.0835720210817072  0.0604585639815411  0.6415859088399003   F   F   F
  0.0863932961667331  0.4367360682310633  0.6390615814404725   F   F   F
  0.0837833196265336  0.1855796965943668  0.6410560068544342   F   F   F
  0.4185301710114331  0.1877249396124228  0.6398133828127968   F   F   F
  0.4151451275337479  0.4188584629239429  0.6299425960763472   F   F   F
  0.0840970633116456  0.9352068904987902  0.6406082517139708   F   F   F
  0.0830197914454089  0.6870575576894993  0.6398601542747002   F   F   F
  0.9126086172492194  0.4364110570474438  0.6394993543288621   F   F   F
  0.9162456539937196  0.6875754980447439  0.6402049323329493   F   F   F
  0.9148072613897966  0.9369688523317734  0.6406560923895626   F   F   F
  0.2403494212665862  0.4419589448675012  0.6416483301092768   F   F   F
  0.2542285883541027  0.6770715231885660  0.6635461577723376   F   F   F
  0.5787041199479503  0.1902319995549746  0.6441625458220059   F   F   F
  0.2519679972453517  0.9299544770120391  0.6372762777718037   F   F   F
  0.0840566393915623  0.8118112206922135  0.6419065356891949   F   F   F
  0.9166666865332829  0.8124999999834799  0.3605200052333331   F   F   F
  0.0006788197261614  0.1229570808637419  0.6192416603784423   F   F   F
  0.8333332538436267  0.6249999999803961  0.4070133268666680   F   F   F
  0.9994802134710383  0.5005724064134682  0.5070352216045535   F   F   F
  0.3310217350184246  0.4993046531404275  0.5010837197603948   F   F   F
  0.3300866255685975  0.2480346500301494  0.5027755144736830   F   F   F
  0.3331657823826646  0.0009712715226371  0.5057332013009272   F   F   F
  0.3339287228534360  0.7508689474331334  0.5018660943703495   F   F   F
  0.6659519392148212  0.9999319087859675  0.5058202133889296   F   F   F
  0.6688232341092188  0.4997942899301293  0.5008009371816868   F   F   F
  0.6670435003603643  0.2477340152076195  0.5030196725596525   F   F   F
  0.6663617387032303  0.7520623169045777  0.5025505959202121   F   F   F
  0.1660062180900255  0.0010189154849982  0.5064839514913189   F   F   F
  0.1664079427806868  0.2483079200041232  0.5062531904448946   F   F   F
  0.1634591807734935  0.4998417689235595  0.5022242904933876   F   F   F
  0.5000864936273359  0.9992432782250447  0.5055435030539499   F   F   F
  0.1645195520010461  0.7514202932812353  0.5035682421365806   F   F   F
  0.5009910652949543  0.7526847163778214  0.5038397399989023   F   F   F
  0.8341904631846688  0.0005128952100719  0.5064310607195424   F   F   F
  0.5012194076773469  0.4997455106230646  0.5002881909149224   F   F   F
  0.5010220879692753  0.2478691713367098  0.5019590414818609   F   F   F
  0.8354554635671505  0.2483418947272966  0.5033094420032782   F   F   F
  0.9997783056220868  0.7507082443174298  0.5065955680378451   F   F   F
  0.0008751304823917  0.2497873916607674  0.5059303936964881   F   F   F
  0.0000155284792669  0.9998995959673351  0.5064449092689216   F   F   F
  0.8333332538436267  0.8749999404036828  0.4070133268666680   F   F   F
  0.0000000000000000  0.6249999999803961  0.4070133268666680   F   F   F
  0.0000000000000000  0.8749999404036828  0.4070133268666680   F   F   F
  0.3333333432766779  0.1249999999871179  0.4070133268666680   F   F   F
  0.3333333432766779  0.3750000000061604  0.4070133268666680   F   F   F
  0.3333333432766779  0.6249999999803961  0.4070133268666680   F   F   F
  0.3333333432766779  0.8749999404036828  0.4070133268666680   F   F   F
  0.6666666865533486  0.1249999999871179  0.4070133268666680   F   F   F
  0.6666666865533486  0.3750000000061604  0.4070133268666680   F   F   F
  0.6666666865533486  0.6249999999803961  0.4070133268666680   F   F   F
  0.8359981538685943  0.4999179890929568  0.5029903145602077   F   F   F
  0.6666666865533486  0.8749999404036828  0.4070133268666680   F   F   F
  0.1666666716383389  0.3750000000061604  0.4070133268666680   F   F   F
  0.1666666716383389  0.6249999999803961  0.4070133268666680   F   F   F
  0.1666666716383389  0.8749999404036828  0.4070133268666680   F   F   F
  0.5000000000021103  0.1249999999871179  0.4070133268666680   F   F   F
  0.5000000000021103  0.3750000000061604  0.4070133268666680   F   F   F
  0.5000000000021103  0.6249999999803961  0.4070133268666680   F   F   F
  0.5000000000021103  0.8749999404036828  0.4070133268666680   F   F   F
  0.8333332538436267  0.1249999999871179  0.4070133268666680   F   F   F
  0.8333332538436267  0.3750000000061604  0.4070133268666680   F   F   F
  0.1666666716383389  0.1249999999871179  0.4070133268666680   F   F   F
  0.0000000000000000  0.3750000000061604  0.4070133268666680   F   F   F
  0.8355739159161715  0.7515248443130460  0.5027689847383243   F   F   F
  0.8373215956571372  0.3723701742215653  0.6040809598468755   F   F   F
  0.8324879855877327  0.8766522879455039  0.6170109596640998   F   F   F
  0.8386057069499344  0.6272730820319339  0.6046904979868089   F   F   F
  0.9989185711679056  0.8745193313242154  0.6217904609527238   F   F   F
  0.3315658817604614  0.1197183547662135  0.6134180011301424   F   F   F
  0.3344809944368450  0.6241695965885512  0.5951666921197898   F   F   F
  0.3259675646951976  0.3735656388582171  0.5927959540489454   F   F   F
  0.6710664219074545  0.3718372085281842  0.5942856740621920   F   F   F
  0.6653253173518650  0.1244194214225516  0.6115041689330809   F   F   F
  0.3346376911767166  0.8785571612065297  0.6028547924072925   F   F   F
  0.1589829894266686  0.6271395208485160  0.6016080668785122   F   F   F
  0.1660869701159555  0.8728231926897152  0.6180466689517843   F   F   F
  0.5017825609421180  0.3710985679294723  0.5950375438708946   F   F   F
  0.5003068592805562  0.1215822659198125  0.6059314456337788   F   F   F
  0.1675237250744104  0.1222888022066257  0.6215400205566510   F   F   F
  0.1632419879768463  0.3715344401456804  0.6079647877932572   F   F   F
  0.6666946492168293  0.8794008957296384  0.6101965419778494   F   F   F
  0.6671044962844732  0.6282866157531757  0.5940506472488565   F   F   F
  0.9999845906326641  0.3750344843479922  0.6222136212209790   F   F   F
  0.9995031658770941  0.6220916186933962  0.6421894909324308   F   F   F
  0.8335794156966188  0.1251022967133366  0.6198519910216902   F   F   F
  0.5004990274007426  0.8764084563582202  0.6100079728212862   F   F   F
  0.0000000000000000  0.1249999999871179  0.4070133268666680   F   F   F
  0.5038137806806091  0.6250724520301958  0.5936925767519767   F   F   F
  0.9163070624716951  0.0003353124648910  0.6036888570159036   F   F   F
  0.5852880692414857  0.7517184761945259  0.5992870566010495   F   F   F
  0.5908119006884078  0.5010860075237389  0.5936486593662522   F   F   F
  0.2423347195691434  0.4975735274795738  0.5942207618250777   F   F   F
  0.2500803747837139  0.7525258985433751  0.5922375979969559   F   F   F
  0.5842254530119817  0.2470684754675005  0.5969710247634907   F   F   F
  0.5828719613138276  0.0002556386462160  0.6042820680600087   F   F   F
  0.2495064573871986  0.9974631661349633  0.6041913926231501   F   F   F
  0.2491241597662182  0.2456640874433020  0.6036177383646688   F   F   F
  0.4170987934531993  0.0000388342574880  0.6046806071538029   F   F   F
  0.4147342639938500  0.2486071325342465  0.5911278498226835   F   F   F
  0.4175167377633358  0.7500468633772144  0.5946980718094395   F   F   F
  0.7559357095526735  0.5018954389000854  0.5954380418458385   F   F   F
  0.7527451531267246  0.7526019839554579  0.5914550061483723   F   F   F
  0.7539040062307976  0.2480811483531937  0.5942975996894688   F   F   F
  0.7495701554907228  0.0017408783617299  0.6041281375811351   F   F   F
  0.0837546678544925  0.2480856161745280  0.6037813775682679   F   F   F
  0.0811717946378536  0.5009065699325603  0.6032180008456933   F   F   F
  0.0806112290481309  0.7507118532896797  0.6032358486124423   F   F   F
  0.0832558437452064  0.9983243196772165  0.6034656847148554   F   F   F