Au O  Sr Ti H 
 1.0000000000000000
    23.6707801818999997    0.0000000000000000    0.0000000000000000
     0.0000000000000000   22.3170261383000010    0.0000000000000000
     0.0000000000000000    0.0000000000000000   30.0000000000000000
 Au  O   Sr  Ti  H  
  50 264  72  72   1
Selective dynamics
Cartesian
 17.0204611799366354 11.7831934732680690 22.6003800951609115   F   F   F
 14.7825916779413813 12.6740991680519883 21.1185060280938579   F   F   F
 17.0128267241353761  5.7780002742409851 20.7520205345871069   F   F   F
  6.9076537061894969 16.6376186381083819 20.9482134435261536   F   F   F
 12.1347175523359727 13.4875489818563317 23.2990847336843210   F   F   F
 13.6709533045635805 16.0871761017501065 23.7339927076435373   F   F   F
 13.0278787622736765  8.5834059039873765 24.8787389916226616   F   F   F
  5.7453073512190445 10.4360707711349203 21.2843253929087126   F   F   F
  6.6760600288563392 14.7429048327428802 22.9892720438663289   F   F   F
 14.2740550214901720  6.4599590751125380 23.6329665597975662   F   F   F
 12.1821337818046036 10.7810470141415831 20.3333647922465701   F   F   F
 13.3097872140218811 10.8571125116794036 22.8726051542707474   F   F   F
 10.9555452212491975 15.5000523649719675 24.9209851859551677   F   F   F
 18.0890039278384442  9.6458063542140753 21.1361572003832023   F   F   F
 17.3641591321176705 13.7672394418085364 20.7789506387364504   F   F   F
 15.0266154611250364 13.0797601363779510 23.9663347265499773   F   F   F
 13.8263823692086607 17.5225141888459142 21.3759442211994468   F   F   F
 11.4226414736236226 17.3680512246517935 22.7710949895477306   F   F   F
  8.2867821081953217 11.1829328879327523 20.9166669698344130   F   F   F
 10.2016600788723935  8.3055664633059596 24.4630911501894062   F   F   F
  8.8254571797622745  6.6568423181600984 22.6722489216109295   F   F   F
 10.4467924029809129  5.0893103053752640 20.9097655869739718   F   F   F
  9.2241662507138322 18.2040402724768526 21.1985918521385273   F   F   F
  6.8901837235611856 11.9674835976092879 23.3296880730935889   F   F   F
 13.1585065921542554  4.6492110312364705 21.3434440596758463   F   F   F
 10.7543147848918910 12.9395787022686868 21.0688977036674565   F   F   F
 14.5205241514862742  7.1233947004830007 20.9331501948404934   F   F   F
 17.1508742407286654 16.8819009547430987 20.8037423024757082   F   F   F
 15.5379581772587514  9.8959798883124428 24.3320360273923448   F   F   F
  8.7087586684780423 13.7881824297552793 24.6089034471224615   F   F   F
 13.5189168502677468 11.3958967229008330 25.6905492333986452   F   F   F
 15.7301028459145282  4.3276498293986485 22.5693557222106342   F   F   F
 11.1883188017813193 10.0603096043161457 26.3861089098446477   F   F   F
 12.2173758333115607  8.4226751490807423 22.0231356493939359   F   F   F
  6.7165550411710191  7.5276082043872590 21.0759677418621472   F   F   F
 16.0407256065214483 15.2513911780863083 22.5521097217213686   F   F   F
  9.4151412881163949  8.5221457902137914 20.7092756250744365   F   F   F
  8.9031479355151379 10.9782186048740034 25.0160948882169087   F   F   F
 10.9621601156457817 12.7884676824385934 25.9163894140901228   F   F   F
  7.7374415999587320  9.2357202297820731 23.0836583495752521   F   F   F
 11.5454611726978182  5.9905823464006831 23.2512412632770342   F   F   F
 10.0085575127690731 15.5553447551897008 20.9924498556866403   F   F   F
 16.5826810518715071  7.7406961280919084 22.6810305804072065   F   F   F
 18.3315575176374779  9.6160698864021743 23.8451633072329123   F   F   F
  6.0926509649918579 13.2206140249528712 20.8455410497873039   F   F   F
 15.3258974051194770  9.8549961693529191 20.9094572307296716   F   F   F
 13.3750313412951343 14.2749101894514929 25.8480362240020298   F   F   F
 12.9294277533807875 14.8449946057324720 21.0366651876513870   F   F   F
 10.4883644500334245 10.5975073955456836 22.6835685678135270   F   F   F
  8.8194740110020220 16.4530772225769937 23.3527907356633690   F   F   F
  5.9178733588751040  4.2111872646698210 13.6311836926354726   F   F   F
 17.7402334111655549 20.9278312262832458 13.6496060258558263   F   F   F
 17.7232588197357295 15.3444424507318526 13.6807408949417493   F   F   F
 17.7387139353033945  9.7728169919514247 13.6661847450257277   F   F   F
 17.7558418642754638  4.2328018109368379 13.6675674147213950   F   F   F
  9.8778779773004111 20.8829811824245795 13.6169749458861009   F   F   F
  9.8678414410257602 15.2784235070750523 13.6425043883693533   F   F   F
  9.8609736436844919  9.7166839567905843 13.6167568088373958   F   F   F
  2.0001618744367322 15.3286913739904662 13.5904327289404598   F   F   F
  1.9856115655886357 20.9037000390363801 13.6038546973544587   F   F   F
  1.9593605541592116  9.7482968304619497 13.5864266206087621   F   F   F
  1.9852874189187137  4.1634628976345267 13.5896694827413267   F   F   F
 21.6957831413731235 18.1235425149591691 13.6222208853018394   F   F   F
 21.6857861493801742 12.5506656808760990 13.6104999469757253   F   F   F
  5.9448770195140730  9.8026645711028024 13.6471733498121353   F   F   F
 21.6853637533522701  1.3865220406360586 13.6234306746061531   F   F   F
 21.6872534690657730  6.9680486162288293 13.6142915236436970   F   F   F
  9.8733959523421451  4.1755309658055477 13.6089229442221580   F   F   F
  5.9719315558032147 15.3404518502502327 13.6816426707568226   F   F   F
 21.6960501083607689 20.9065542998293239 13.6015213418803356   F   F   F
 13.7909792491715102  4.2194564968166821 13.6534972857088022   F   F   F
  0.0023754060251241  2.7916614169695704 14.9527497744298561   F   F   F
 13.8136172446175856 18.0778621640192156 13.6602601095521994   F   F   F
 -0.0003184249075299  8.3326383557507899 14.9532353191528671   F   F   F
 23.6654513974826415 13.9909963316537720 14.9296495985329596   F   F   F
  7.8939028150819341  2.7901196948337352 14.9512924885516707   F   F   F
  0.0011583283638384 19.5302552814879995 14.9864872427780522   F   F   F
  7.8929691861806468 19.5027682165782714 14.9641282174856851   F   F   F
 15.7637909151812359  2.8107329510924259 14.9745956724597011   F   F   F
  7.9420212688849290 13.9475426921731671 15.1234815884708151   F   F   F
  7.9139101633021811  8.4460114496866741 15.0902510558379088   F   F   F
 15.7508822598208873  8.4463756880262082 15.0979205471978482   F   F   F
 21.6683740089303249 15.3268378413170403 13.5929216462599598   F   F   F
 21.6812108689880176  9.7522196145000155 13.6106916953694359   F   F   F
 21.6789148977048391  4.1719613006616143 13.5964698721515358   F   F   F
 13.7963021445055656 20.8936326379759514 13.6227547985068593   F   F   F
 13.7936175704951030 15.3087883374190845 13.6396840152516923   F   F   F
 13.7926086552473759  9.7905044812421771 13.6773548496318469   F   F   F
  5.9176383274696782 20.8890526122129394 13.6209941507368306   F   F   F
 15.7473012571274520 13.9546025838921715 15.0786446414548951   F   F   F
 13.8321389896502858 12.5503420204216205 13.6512647042757767   F   F   F
 13.7971825193933881  1.3931351522532478 13.6428745658685404   F   F   F
 21.6982156369999721 15.3429554700000619 10.8156001569999933   F   F   F
 21.6982156369999721  9.7636982699999884 10.8156001569999933   F   F   F
 21.6982156369999721  4.1844424010000720 10.8156001569999933   F   F   F
 13.8079546360000549 20.9222120050000342 10.8156001569999933   F   F   F
 13.8079546360000549 15.3429554700000619 10.8156001569999933   F   F   F
 13.8079546360000549  9.7636982699999884 10.8156001569999933   F   F   F
 13.8079546360000549  4.1844424010000720 10.8156001569999933   F   F   F
  5.9176950450000287 20.9222120050000342 10.8156001569999933   F   F   F
 21.6982156369999721 20.9222120050000342 10.8156001569999933   F   F   F
  5.9176950450000287 15.3429554700000619 10.8156001569999933   F   F   F
  5.9176950450000287  4.1844424010000720 10.8156001569999933   F   F   F
 17.7530837259999217 20.9222120050000342 10.8156001569999933   F   F   F
 17.7530837259999217 15.3429554700000619 10.8156001569999933   F   F   F
 17.7530837259999217  9.7636982699999884 10.8156001569999933   F   F   F
 17.7530837259999217  4.1844424010000720 10.8156001569999933   F   F   F
  9.8628241350000643 20.9222120050000342 10.8156001569999933   F   F   F
  9.8628241350000643 15.3429554700000619 10.8156001569999933   F   F   F
  9.8628241350000643  9.7636982699999884 10.8156001569999933   F   F   F
  5.9176950450000287  9.7636982699999884 10.8156001569999933   F   F   F
  1.9725650740000149  1.3948141340000613 10.8156001569999933   F   F   F
  1.9725650740000149  6.9740706679999214 10.8156001569999933   F   F   F
  1.9725650740000149 12.5533272030000536 10.8156001569999933   F   F   F
 21.6982156369999721  6.9740706679999214 10.8156001569999933   F   F   F
 21.6982156369999721  1.3948141340000613 10.8156001569999933   F   F   F
 13.8079546360000549 18.1325837370000720 10.8156001569999933   F   F   F
 13.8079546360000549 12.5533272030000536 10.8156001569999933   F   F   F
 13.8079546360000549  6.9740706679999214 10.8156001569999933   F   F   F
 13.8079546360000549  1.3948141340000613 10.8156001569999933   F   F   F
  5.9176950450000287 18.1325837370000720 10.8156001569999933   F   F   F
  5.9176950450000287 12.5533272030000536 10.8156001569999933   F   F   F
  5.9176950450000287  6.9740706679999214 10.8156001569999933   F   F   F
  5.9176950450000287  1.3948141340000613 10.8156001569999933   F   F   F
 17.7530837259999217 18.1325837370000720 10.8156001569999933   F   F   F
 17.7530837259999217 12.5533272030000536 10.8156001569999933   F   F   F
 17.7530837259999217  6.9740706679999214 10.8156001569999933   F   F   F
 17.7530837259999217  1.3948141340000613 10.8156001569999933   F   F   F
  9.8628241350000643 18.1325837370000720 10.8156001569999933   F   F   F
  9.8628241350000643 12.5533272030000536 10.8156001569999933   F   F   F
  9.8628241350000643  6.9740706679999214 10.8156001569999933   F   F   F
  9.8628241350000643  1.3948141340000613 10.8156001569999933   F   F   F
  1.9725650740000149 18.1325837370000720 10.8156001569999933   F   F   F
  9.8628241350000643  4.1844424010000720 10.8156001569999933   F   F   F
  1.9725650740000149 20.9222120050000342 10.8156001569999933   F   F   F
  1.9725650740000149 15.3429554700000619 10.8156001569999933   F   F   F
  1.9725650740000149  9.7636982699999884 10.8156001569999933   F   F   F
 19.7256482699999580 11.1585130689999925 12.2103998060000407   F   F   F
 19.7256482699999580 16.7377696039999648 12.2103998060000407   F   F   F
  1.9822133653901748  1.3809959954979729 13.6255791562608302   F   F   F
  1.9757751827269376  6.9626812451974205 13.6197523824822202   F   F   F
  1.9876981057630261 12.5532146159724860 13.6164233033935584   F   F   F
  1.9763016042249089 18.1248750971100279 13.6254525219166762   F   F   F
  9.8705839165932581  1.3738902040761372 13.6598604447081424   F   F   F
  9.8310057590204618  6.9469665533522127 13.7201769779034510   F   F   F
  9.8474100810427796 12.4845138580477268 13.7341864614948381   F   F   F
  9.8654779126408343 18.0722392568731571 13.6531471556317534   F   F   F
 17.7430085323056481  1.4253527252057383 13.6027111799904343   F   F   F
 17.6909945901442462  7.0074053911024565 13.6402334099892748   F   F   F
 17.7158027036973884 12.5746510332374868 13.6175290491515764   F   F   F
 17.7379328095471038 18.1258492892022502 13.6146439495777347   F   F   F
  5.9197012540935292  1.3835360244314521 13.6248090499052754   F   F   F
 21.6690240907129379  6.9719819311702285 16.4011304090400820   F   F   F
  5.9714156683853465  7.0121071048152981 13.6245432399084052   F   F   F
  5.9593778013523773 12.5958407508473851 13.6203171497644107   F   F   F
  5.9222901921030342 18.0868465047865428 13.6658211707670336   F   F   F
 19.7256482699999580  5.5792565349999723 12.2103998060000407   F   F   F
 13.8291669499628433  7.0185670813715353 13.6242915740643546   F   F   F
 19.7256482699999580  0.0000000000000000 12.2103998060000407   F   F   F
 11.8353900909999528 11.1585130689999925 12.2103998060000407   F   F   F
  1.9725650740000149  4.1844424010000720 10.8156001569999933   F   F   F
  0.0000000000000000  0.0000000000000000 12.2103998060000407   F   F   F
  0.0000000000000000  5.5792565349999723 12.2103998060000407   F   F   F
  0.0000000000000000 11.1585130689999925 12.2103998060000407   F   F   F
  0.0000000000000000 16.7377696039999648 12.2103998060000407   F   F   F
  7.8902602960000570  0.0000000000000000 12.2103998060000407   F   F   F
  7.8902602960000570  5.5792565349999723 12.2103998060000407   F   F   F
  7.8902602960000570 11.1585130689999925 12.2103998060000407   F   F   F
  7.8902602960000570 16.7377696039999648 12.2103998060000407   F   F   F
 15.7805205919999434  0.0000000000000000 12.2103998060000407   F   F   F
 15.7805205919999434  5.5792565349999723 12.2103998060000407   F   F   F
 15.7805205919999434 11.1585130689999925 12.2103998060000407   F   F   F
 15.7805205919999434 16.7377696039999648 12.2103998060000407   F   F   F
  3.9451301480000271  0.0000000000000000 12.2103998060000407   F   F   F
  3.9451301480000271  5.5792565349999723 12.2103998060000407   F   F   F
  3.9451301480000271 11.1585130689999925 12.2103998060000407   F   F   F
  3.9451301480000271 16.7377696039999648 12.2103998060000407   F   F   F
 11.8353900909999528  0.0000000000000000 12.2103998060000407   F   F   F
 11.8353900909999528  5.5792565349999723 12.2103998060000407   F   F   F
 11.8353900909999528 16.7377696039999648 12.2103998060000407   F   F   F
  3.9540174829695238  2.7751537500319086 14.9809293408581947   F   F   F
 21.7227505208240999  1.4120790416781188 16.4226387616465779   F   F   F
  3.9717207784529536 19.4893578642331811 14.9969638650580688   F   F   F
  5.9632141236070453  4.1965169060091343 16.4191245680886126   F   F   F
 17.7415124881219057 20.8659692749993368 16.4189850198328315   F   F   F
 17.7598244388128634 15.2396936732445685 16.5196855901679598   F   F   F
 17.8070320787907939  9.7183679972041475 16.4592123634487209   F   F   F
 10.0192988548448110  9.8991520725719990 16.3708161750839842   F   F   F
  9.9988410215935488 15.3409595560706897 16.4023239968349017   F   F   F
 17.7170321931037371  4.0975515935823825 16.5217256306390503   F   F   F
  9.8450386324923311 20.9101285567276349 16.3803908923421808   F   F   F
  1.9791770256146859 20.9545008099275663 16.3706654441231052   F   F   F
  9.8383445590390597  4.2675609054667492 16.3935800877720439   F   F   F
  2.0498938682900016 15.3926263600489541 16.3525941459021418   F   F   F
  1.9525463300000805  9.7880391877287174 16.3514988671648887   F   F   F
  1.9821539518155233  4.2146903626225205 16.3711459397255048   F   F   F
 11.8221909887141852  2.8006137938221749 14.9901521538056368   F   F   F
 23.6572006053920880 11.1699538453791156 17.8322175624581938   F   F   F
 23.6621349001527079 16.8185537392176521 17.7715572187852295   F   F   F
  7.9228692843476054  5.6730304980912249 17.7800209650652548   F   F   F
  7.9061019593033537 22.3124353042670336 17.7606190020130512   F   F   F
 23.6641319488714537 22.2890281741271004 17.7829342612397667   F   F   F
  0.0251934475056886  5.5738835918021934 17.7570040030331064   F   F   F
  7.8924344024644268 11.0805492755273178 17.7323281770721941   F   F   F
  7.9253173179238967 16.5099299878691141 17.7254258423921129   F   F   F
 15.7053790318436288  5.5168625841471313 17.7227581557546436   F   F   F
 15.7615824335718582  0.0005969650702601 17.7578417577351146   F   F   F
 15.7503411167888530 16.6304185906486346 17.7345860356768767   F   F   F
 15.7861573076249684 11.0034756270883385 17.7180122290535103   F   F   F
  3.9622943875578689 22.2805106526103458 17.7684676881557309   F   F   F
  3.9890004246541979  5.5641236652333550 17.7945800068759823   F   F   F
  4.0444826784421970 16.7341027307034480 17.8535928208565764   F   F   F
  5.8807627361119641  9.7339093491222961 16.4707910097330341   F   F   F
  3.9165029330541348 11.2291257507589517 17.6305958111190684   F   F   F
  5.8897984772029393 15.2512806748039189 16.5519763232270876   F   F   F
 13.7485673270947686  4.1478557210515703 16.4816685884048582   F   F   F
 21.6712471175344135 18.1422683651126277 16.4038616213087209   F   F   F
 21.6962318617132759 12.5643792111468748 16.3864942651649805   F   F   F
 13.7563820458123143 12.5026401109512566 16.4804110014986946   F   F   F
 13.8379857183119075 18.1553818990688178 16.4901586789644305   F   F   F
 13.8004369581990378  6.9558918825778173 16.3713252503233448   F   F   F
 13.7928276409055943  1.4099726545755995 16.4089254039236927   F   F   F
  5.9994268990627440 18.1432411317311058 16.5421297671766503   F   F   F
  5.9659286418119937 12.4868922177473980 16.3380010776729101   F   F   F
  5.9070636824814473  7.0010567813686650 16.3787276265280362   F   F   F
  5.9423817489485007  1.3935958939868713 16.4186321217327311   F   F   F
 17.7206102023670624 18.0727140346523498 16.4096033315191328   F   F   F
 17.6718233806922207 12.4783195254829433 16.3582152045485181   F   F   F
  9.7851692749240815 18.1126601222219854 16.4375523341410172   F   F   F
 17.7106601695328081  1.3352784786376011 16.3361150139490228   F   F   F
 17.7072156273992505  6.9513114011019468 16.4423620149037966   F   F   F
  9.8474803198689358  7.1275637730846162 16.5756057578570726   F   F   F
  9.9525986663489228 12.6006293633432751 16.6572473966263672   F   F   F
  9.8605126171650088  1.4544970214738639 16.4193932835018011   F   F   F
  2.0101382177544220 18.1422777301079456 16.4208619122935069   F   F   F
  1.9539014459492481 12.5893959554040773 16.3898511234588788   F   F   F
  2.0435926477092066  6.9943387549316425 16.4066896205583035   F   F   F
  1.9477726992868987  1.4109120051104533 16.4257353317909249   F   F   F
 21.6726783768504632 20.9468428489162832 16.3847385615998604   F   F   F
 21.6357019799927599 15.3779609789902718 16.3557989754813633   F   F   F
 13.8126152871791064 20.9245568468284624 16.3857309285263888   F   F   F
 21.7066174795569502  4.2144959330842493 16.3655376802179937   F   F   F
 21.6785621249634808  9.7590873388519945 16.3774991070006273   F   F   F
 13.6406951353625647  9.7336790691803206 16.5448081578504045   F   F   F
 13.7337396250947048 15.3107286588283724 16.4236668159470263   F   F   F
  5.9575916694210198 20.9201934746955089 16.3537024363209937   F   F   F
 11.7850087293582639 11.2584773416658095 18.2694861272589080   F   F   F
 11.8032168931217889  5.6435567609549953 17.7100592378245487   F   F   F
 11.8283265139273528 22.3133904861058419 17.7336198775465697   F   F   F
 17.7917157160280155 15.3551217698008156 19.4900878750062141   F   F   F
 17.7247047108821256 20.9180965974595914 19.2049129554724907   F   F   F
  5.9945934967263819  4.1563333664288207 19.2329223268297511   F   F   F
 17.6503114583227934  4.3351220222540308 19.4046379169266743   F   F   F
 17.8787215256661227  9.6853991822972478 19.1355535122784133   F   F   F
  9.8779164123663783 20.8665090150470078 19.1950542681854230   F   F   F
  9.9681560233423792 15.0783645037422396 19.0193866015536166   F   F   F
 13.8895300760980067 18.0813660948637676 19.3543952954798293   F   F   F
 21.6872733121611247  1.3987647118061202 19.2482377429252267   F   F   F
 21.5953171831118453 12.5391150140626042 19.2725882032014901   F   F   F
 21.6670587342203333  6.9627854167380239 19.1839874947874200   F   F   F
 21.6205785900143894 18.1372451715053415 19.2323062937513392   F   F   F
 13.7852544512478872  1.4525654392798319 19.1904133906483807   F   F   F
 13.8090147771748271  7.1266463700961671 19.0293049983793559   F   F   F
 14.0423980743257388 12.6021056453599378 19.1785618079276183   F   F   F
  5.8648221346489899 12.8046506993018703 18.8781350025040204   F   F   F
  6.2029915346066185 17.8229808449715357 19.4153171569145115   F   F   F
  5.9084797398349185  7.0559065457771339 19.2421300884112938   F   F   F
  5.9399652242632772  1.3233131220697136 19.2672029238447600   F   F   F
 21.6982156369999721 12.5533272030000536 10.8156001569999933   F   F   F
 11.8229801687356471  8.3410582988806148 14.9919972060080244   F   F   F
 11.8306760218594729 19.4849841535651400 15.0217533055370076   F   F   F
 11.8433267935794824 13.8623880320412187 15.0026275496414847   F   F   F
 19.7008916726373720 13.9087867517694104 14.9978101277676537   F   F   F
 19.7106411409259543 19.5155225702335002 14.9591050192223065   F   F   F
 19.7055134879382585  8.3263846507723578 14.9905571829864535   F   F   F
 19.7153953553735697  2.7800898066940536 14.9894797328805982   F   F   F
  3.9474914333900371  8.3958130410170462 14.9352333975133575   F   F   F
  3.9682518553711117 13.9305675182852138 14.9982711952690533   F   F   F
 13.7732692794753202  9.7827155798424812 19.3714759707076460   F   F   F
 13.7192607718898252 15.2762585817926961 19.1400933016940655   F   F   F
 21.7087152581022309  4.1676260982777347 19.2213861720215711   F   F   F
 13.7858636807398298 20.8681913776240435 19.1883366142868859   F   F   F
 19.6743340503967694 16.7226157781682936 17.7479039855907388   F   F   F
 19.6865481178284263  5.5310794309153195 17.7447201379051549   F   F   F
 19.7158660620128252 11.2319733434883151 17.6708819787776328   F   F   F
 19.7002088010262213  0.0465868694182609 17.7679198938625404   F   F   F
 11.8205602857468790 16.8660606673202231 17.7696053173305160   F   F   F
  9.8897567828277513  1.4552224993741130 19.2004715608228018   F   F   F
 10.1087019355696324  6.8026931061799303 19.6477119796541260   F   F   F
  9.7459828325030902 18.1313434731770435 19.1931777604126736   F   F   F
  9.4387366441545861 12.2883979962769914 19.5518880067473688   F   F   F
 17.7980382106252897 12.6387749387754997 19.1061411203213396   F   F   F
 17.6698439635967759 18.0770533358509979 19.2173090559597668   F   F   F
 17.6793249844659464  6.9707340287536299 19.2073626584394326   F   F   F
 17.6938454914434580  1.4985790733446052 19.1717472095085455   F   F   F
  1.9801692598931482  6.9617513415037227 19.2129167829519325   F   F   F
 15.7744121431036639 19.5126552302385150 14.9767692290357388   F   F   F
  2.0613967307467753 12.5442894200835795 19.2563921463428542   F   F   F
  1.9782149403822558  1.3492553526601514 19.2475772651969628   F   F   F
  2.0449967227524830  9.7466502502509389 19.1718474432142862   F   F   F
  1.9832165417894998  4.1415869396342702 19.2316802056330616   F   F   F
  9.9069356775046060  4.1894623841412129 19.1944014843838033   F   F   F
  9.8268090574381191  9.3476752653218522 18.8982778822904578   F   F   F
  1.9906430995933042 20.8710366199798507 19.2182475514190294   F   F   F
  1.9651432340515151 15.3330814734731256 19.1958046282410386   F   F   F
 21.6021579710140692  9.7393969671710092 19.1849806298658763   F   F   F
 21.6882494683065623 15.3446403619191365 19.2061479699884501   F   F   F
 21.6542015931638048 20.9103583682612140 19.2196827716869585   F   F   F
  5.6892583176483162  9.8632093246634671 19.2494499032782613   F   F   F
  6.0177890308847566 15.1102228804978704 19.9063847331700501   F   F   F
 13.6983780136478845  4.2454125064093908 19.3248763746601426   F   F   F
  5.9642790756683031 20.7538183709067887 19.1182883331540090   F   F   F
  1.9896862338668886 18.1172122315533848 19.2571960706758674   F   F   F
 21.6982156369999721 18.1325837370000720 10.8156001569999933   F   F   F
  0.0160681925211609  2.7440363875251972 18.5772498113531910   F   F   F
 19.7256482699999580 13.9481413360000008 12.2103998060000407   F   F   F
 23.6584764292314702 11.1712874780411209 15.2110566481366973   F   F   F
  7.8355427250522807 11.1429949951097989 15.0325115928118507   F   F   F
  7.8134079548193451  5.5353957679269756 15.0832654342104995   F   F   F
  7.8862939989107215  0.0216758919580273 15.1719960390278938   F   F   F
  7.9043533950862139 16.7571619263031266 15.0559828311104607   F   F   F
 15.7636019648640477 -0.0015195934033519 15.1746064016679600   F   F   F
 15.8315677551467147 11.1539222321437457 15.0240281154506619   F   F   F
 15.7894400687953382  5.5286864927344697 15.0905901767896786   F   F   F
 15.7733022384728638 16.7837943839899992 15.0765178776063866   F   F   F
  3.9294966972375138  0.0227391635114659 15.1945185447396582   F   F   F
  3.9390058340839111  5.5414943410789741 15.1875957133467505   F   F   F
  3.8692063368028049 11.1549818220812469 15.0667287148016698   F   F   F
 11.8374374625898202 22.3001383586689137 15.1663050916184741   F   F   F
  3.8943061510413575 16.7694663260064196 15.1070472640974405   F   F   F
 11.8588493796927494 16.7976844893028314 15.1151921999671117   F   F   F
 19.7459390838815807  0.0114462958094214 15.1929318215862104   F   F   F
 11.8642544220325803 11.1528336230730378 15.0086457274476643   F   F   F
 11.8595837105972794  5.5317027756001096 15.0587712444558832   F   F   F
 19.7758826298653538  5.5422525558640316 15.0992832600982769   F   F   F
 23.6655325030128303 16.7535755106693394 15.1978670411353161   F   F   F
  0.0207150212791882  5.5745117487111484 15.1779118108945390   F   F   F
  0.0003675712192481 22.3147854188786567 15.1933472780677477   F   F   F
 19.7256482699999580 19.5273965409999306 12.2103998060000407   F   F   F
  0.0000000000000000 13.9481413360000008 12.2103998060000407   F   F   F
  0.0000000000000000 19.5273965409999306 12.2103998060000407   F   F   F
  7.8902602960000570  2.7896282670000101 12.2103998060000407   F   F   F
  7.8902602960000570  8.3688848019999824 12.2103998060000407   F   F   F
  7.8902602960000570 13.9481413360000008 12.2103998060000407   F   F   F
  7.8902602960000570 19.5273965409999306 12.2103998060000407   F   F   F
 15.7805205919999434  2.7896282670000101 12.2103998060000407   F   F   F
 15.7805205919999434  8.3688848019999824 12.2103998060000407   F   F   F
 15.7805205919999434 13.9481413360000008 12.2103998060000407   F   F   F
 19.7887285326977285 11.1566828295938230 15.0897094368061282   F   F   F
 15.7805205919999434 19.5273965409999306 12.2103998060000407   F   F   F
  3.9451301480000271  8.3688848019999824 12.2103998060000407   F   F   F
  3.9451301480000271 13.9481413360000008 12.2103998060000407   F   F   F
  3.9451301480000271 19.5273965409999306 12.2103998060000407   F   F   F
 11.8353900909999528  2.7896282670000101 12.2103998060000407   F   F   F
 11.8353900909999528  8.3688848019999824 12.2103998060000407   F   F   F
 11.8353900909999528 13.9481413360000008 12.2103998060000407   F   F   F
 11.8353900909999528 19.5273965409999306 12.2103998060000407   F   F   F
 19.7256482699999580  2.7896282670000101 12.2103998060000407   F   F   F
 19.7256482699999580  8.3688848019999824 12.2103998060000407   F   F   F
  3.9451301480000271  2.7896282670000101 12.2103998060000407   F   F   F
  0.0000000000000000  8.3688848019999824 12.2103998060000407   F   F   F
 19.7786864893811654 16.7717995941160574 15.0830695421496905   F   F   F
 19.8200554323578793  8.3101949112259206 18.1224287954063001   F   F   F
 19.7056401109198802 19.5642720242802817 18.5103287899228945   F   F   F
 19.8504513484987193 13.9988697675587019 18.1407149396042904   F   F   F
 23.6451819177331721 19.5166707756111961 18.6537138285817221   F   F   F
  7.8484231029697469  2.6717576525517832 18.4025400339043124   F   F   F
  7.9174260943379213 13.9296092017989412 17.8550007635937718   F   F   F
  7.7159065703293290  8.3368741267696329 17.7838786214684426   F   F   F
 15.8846657604254453  8.2983007019160482 17.8285702218657391   F   F   F
 15.7487693364887971  2.7766714799993029 18.3451250679923596   F   F   F
  7.9211352284225693 19.6067831306367992 18.0856437722188019   F   F   F
  3.7632513953800020 13.9958890791372497 18.0482420063554514   F   F   F
  3.9314081606925559 19.4788180053707691 18.5414000685535747   F   F   F
 11.8775846991716776  8.2818164403676882 17.8511263161269156   F   F   F
 11.8426536895269052  2.7133546064861727 18.1779433690133487   F   F   F
  3.9654172714894131  2.7291223952666175 18.6462006166995344   F   F   F
  3.8640652138563598  8.2915438120097953 18.2389436337976463   F   F   F
 15.7811824900605746 19.6256127760427219 18.3058962593354266   F   F   F
 15.7908838899068797 14.0214888261077331 17.8215194174656624   F   F   F
 -0.0003647517469360  8.3696543899579900 18.6664086366293098   F   F   F
 23.6590197305898897 13.8832349147978515 19.2656847279729178   F   F   F
 19.7314751131113297  2.7919112257129752 18.5955597306506704   F   F   F
 11.8472024588577600 19.5588304283735148 18.3002391846386239   F   F   F
  0.0000000000000000  2.7896282670000101 12.2103998060000407   F   F   F
 11.9256652551026754 13.9497582502892179 17.8107773025593623   F   F   F
 21.6897030548900389  0.0074831770434435 18.1106657104770399   F   F   F
 13.8542252301037987 16.7761208818762491 17.9786116980315214   F   F   F
 13.9849786300458003 11.1827495274436099 17.8094597809876269   F   F   F
  5.7362518773636184 11.1043614184877395 17.8266228547522374   F   F   F
  5.9195975793123958 16.7941401475402401 17.7671279399087148   F   F   F
 13.8290722749175217  5.5138336249581990 17.9091307429046722   F   F   F
 13.7970340704525363  0.0057050943495018 18.1284620418003506   F   F   F
  5.9060125067769755 22.2604115506254594 18.1257417786945112   F   F   F
  5.8969632238267033  5.4824918607138322 18.1085321509401282   F   F   F
  9.8730538539663559  0.0008666651394167 18.1404182146141011   F   F   F
  9.8170835969004528  5.5481718749346092 17.7338354946804273   F   F   F
  9.8829469218599790 16.7388154549391999 17.8409421542831765   F   F   F
 17.8935880124700120 11.2008136286267952 17.8631412553751261   F   F   F
 17.8180650526533135 16.7958381476703416 17.7436501844510879   F   F   F
 17.8454960097430408  5.5364334722177526 17.8289279906841287   F   F   F
 17.7429103815335409  0.0388512279023739 18.1238441274340829   F   F   F
  1.9825383319918211  5.5365331807031968 18.1134413270480294   F   F   F
  1.9213997078429024 11.1787450140311986 18.0965400253708886   F   F   F
  1.9081306829910347 16.7536560521974387 18.0970754583732969   F   F   F
  1.9707307761514112 22.2796299367370167 18.1039705414456016   F   F   F