Au  C  H  O Sr Ti                       
   1.00000000000000     
    23.6707801818999997    0.0000000000000000    0.0000000000000000
     0.0000000000000000   22.3170261383000010    0.0000000000000000
     0.0000000000000000    0.0000000000000000   30.0000000000000000
   Au   C    H    O    Sr   Ti
    50     1     1   266    72    72
Selective dynamics
Direct
  0.7168250966926409  0.5257088488433680  0.7533695344737962   T   T   T
  0.5564615622979170  0.2127598961968943  0.7107987039137139   T   T   T
  0.6228409259965515  0.5699286532895677  0.7040829987258415   T   T   T
  0.7227927609711490  0.2574168765020597  0.6921257842846661   T   T   T
  0.2936422442103666  0.7463833918671507  0.6975474612356821   T   T   T
  0.5122493750729233  0.6032216725889931  0.7766320279450405   T   T   T
  0.5782209814835509  0.7253698199934724  0.7937116815322078   T   T   T
  0.2405896824128810  0.4693365106137058  0.7090114582688338   T   T   T
  0.2848978141639175  0.6619630819385226  0.7649799713828582   T   T   T
  0.6017195132606262  0.2871284040586025  0.7842760008475983   T   T   T
  0.5146318401714161  0.4841172766327890  0.6780332406988995   T   T   T
  0.2892441292703013  0.5375055118179852  0.7775405879134438   T   T   T
  0.5633195657839245  0.4857162511717634  0.7623617028595341   T   T   T
  0.7640341631973266  0.4317090532519169  0.7043993047228472   T   T   T
  0.3914594491565214  0.8169657033071849  0.7065707738314188   T   T   T
  0.4637871297091856  0.6949560366237825  0.8301743841288783   T   T   T
  0.4402656385474163  0.2279199720758850  0.6973708876099961   T   T   T
  0.3711583168710247  0.2983615134030086  0.7550090972980495   T   T   T
  0.3496698150518459  0.4994051029799023  0.6977927585801988   T   T   T
  0.4297879482771618  0.3710398332373976  0.8151614192885653   T   T   T
  0.5960581716983488  0.7844917271537998  0.7130582055173266   T   T   T
  0.6350838889546547  0.5841142238623631  0.8000323276090806   T   T   T
  0.7334981135725623  0.6152704569691541  0.6937478694146459   T   T   T
  0.5497128719751015  0.3838314266023516  0.8279414545345618   T   T   T
  0.4855397738881204  0.7771429159608494  0.7557904263997755   T   T   T
  0.4865002446989073  0.2698346086038183  0.7752749775800196   T   T   T
  0.4628188941412050  0.5727268216723984  0.8639571456917829   T   T   T
  0.7063183287841349  0.7571828105596575  0.6882682056307323   T   T   T
  0.6562913385837422  0.4415310068219633  0.8124636923893191   T   T   T
  0.3684652986472221  0.6182577252352937  0.8201834088362590   T   T   T
  0.5699861612835208  0.5100438581323686  0.8565120865875490   T   T   T
  0.6681186460217100  0.1907220793870199  0.7519474809287380   T   T   T
  0.4715825840612620  0.4499594317438649  0.8781599174804149   T   T   T
  0.5183185657574036  0.3768659974391411  0.7322090679792447   T   T   T
  0.2826760243742542  0.3398756534493541  0.7023007491240763   T   T   T
  0.6696066773042912  0.6811956925021011  0.7486973323421509   T   T   T
  0.3981899888651430  0.3813471410683932  0.6902000763298810   T   T   T
  0.4524786646269647  0.5796174010601342  0.7026813179445878   T   T   T
  0.6178429775537068  0.3204026485989376  0.6957236568522223   T   T   T
  0.3260696951374432  0.4143429062040439  0.7690759981813232   T   T   T
  0.4194712058347485  0.6965938440391791  0.6993671006797879   T   T   T
  0.7009339423301364  0.3442379641903646  0.7572434162443447   T   T   T
  0.7742835622927851  0.4289796913261735  0.7943979447597409   T   T   T
  0.2568829597668171  0.5928614110321538  0.6945969227814355   T   T   T
  0.6488827242451360  0.4448659994025907  0.6946394972764516   T   T   T
  0.5644362474059063  0.6393258747366697  0.8610212210874710   T   T   T
  0.5420826674573828  0.6663940418876333  0.7012557866533933   T   T   T
  0.4442731021714822  0.4735476321962457  0.7562002372213538   T   T   T
  0.3741319636059662  0.7390231816500421  0.7786786077357374   T   T   T
  0.3756905820257139  0.4925114491208547  0.8325445957913467   T   T   T
  0.7210534104064550  0.1174227517847364  0.7560978204424935   T   T   T
  0.7976850256033013  0.0941275003379432  0.7551002562563566   T   T   T
  0.7464018314035266  0.5578726803086064  0.5445576091480459   T   T   T
  0.7495890084429288  0.4383266333565761  0.4557326897393618   T   T   T
  0.7507777526169962  0.1898762424119280  0.4557571278499960   T   T   T
  0.4171830121535017  0.9358217871239987  0.4539982720016365   T   T   T
  0.4170943126548460  0.6846999896454836  0.4546505514629667   T   T   T
  0.4164725426469670  0.4354695260480929  0.4538245011831858   T   T   T
  0.0846036645997553  0.6869062493583531  0.4530372827110373   T   T   T
  0.0838880535201696  0.9366310192216655  0.4534780724550271   T   T   T
  0.0828013292399563  0.4367897262813382  0.4528466377590882   T   T   T
  0.0838674693643431  0.1865791073330656  0.4529686529560552   T   T   T
  0.9165865999691983  0.8121062779819108  0.4540814382561740   T   T   T
  0.7762788570382027  0.1316105875028787  0.7539765512699605   T   T   T
  0.9161916143927415  0.5623428252136079  0.4539108253629941   T   T   T
  0.9161236036913247  0.0622434743582656  0.4540921738982108   T   T   T
  0.9162169876982598  0.3121839640281404  0.4538599548796718   T   T   T
  0.4171311330244774  0.1871398285304603  0.4535347898145707   T   T   T
  0.2521793035161332  0.6876110848789625  0.4561885841771834   T   T   T
  0.9164775466127943  0.9371228492902552  0.4536614237023601   T   T   T
  0.5825817594022136  0.1902749635677464  0.4555003381652361   T   T   T
  0.0000470312987341  0.1250411343245967  0.4983775440054338   T   T   T
  0.5832587745177774  0.8105661840365679  0.4553647414068140   T   T   T
 -0.0000418255390904  0.3734863781681653  0.4983283646649637   T   T   T
  0.9999885503499422  0.6271462061052502  0.4976780717284059   T   T   T
  0.3336051960689628  0.1256831455462061  0.4985318938820399   T   T   T
  0.0000532963697839  0.8751714435792500  0.4995399425775799   T   T   T
  0.3334384361056074  0.8738085668538491  0.4993978463323206   T   T   T
  0.6662156772761939  0.1266731095355447  0.4990160979110224   T   T   T
  0.2511615368826933  0.4392340824064742  0.4549263059355553   T   T   T
  0.0833333358191695  0.5625000000092442  0.3605200052333331   F   F   F
  0.9166666865332829  0.0625000000159659  0.3605200052333331   F   F   F
  0.7491112055945418  0.6886468985973987  0.4573707483656230   T   T   T
  0.7492529573959659  0.8132154464909372  0.4530320888174135   T   T   T
  0.7495009036243127  0.9384485954507080  0.4553110409421062   T   T   T
  0.9176846175294804  0.0634539002349767  0.5474874463438901   T   T   T
  0.5826965006509287  0.4394277846307335  0.4562967137232020   T   T   T
  0.2500964825206968  0.9360549247340478  0.4541099697336550   T   T   T
  0.6654408627402209  0.6261447965862618  0.5029914933627261   T   T   T
  0.5845025219083329  0.5627669667853009  0.4549141441235728   T   T   T
  0.5832444554005705  0.0636928964215819  0.4538260457251556   T   T   T
  0.9166666865332829  0.6874999999963620  0.3605200052333331   F   F   F
  0.9166666865332829  0.4374999701794380  0.3605200052333331   F   F   F
  0.9166666865332829  0.1875000000030838  0.3605200052333331   F   F   F
  0.5833333134730552  0.9375000000154046  0.3605200052333331   F   F   F
  0.5833333134730552  0.6874999999963620  0.3605200052333331   F   F   F
  0.5833333134730552  0.4374999701794380  0.3605200052333331   F   F   F
  0.5833333134730552  0.1875000000030838  0.3605200052333331   F   F   F
  0.2499999999799343  0.9375000000154046  0.3605200052333331   F   F   F
  0.9166666865332829  0.9375000000154046  0.3605200052333331   F   F   F
  0.2499999999799343  0.6874999999963620  0.3605200052333331   F   F   F
  0.2499999999799343  0.1875000000030838  0.3605200052333331   F   F   F
  0.7499999404149307  0.9375000000154046  0.3605200052333331   F   F   F
  0.7499999404149307  0.6874999999963620  0.3605200052333331   F   F   F
  0.7499999404149307  0.4374999701794380  0.3605200052333331   F   F   F
  0.7499999404149307  0.1875000000030838  0.3605200052333331   F   F   F
  0.4166666269218169  0.9375000000154046  0.3605200052333331   F   F   F
  0.4166666269218169  0.6874999999963620  0.3605200052333331   F   F   F
  0.4166666269218169  0.4374999701794380  0.3605200052333331   F   F   F
  0.2499999999799343  0.4374999701794380  0.3605200052333331   F   F   F
  0.0833333358191695  0.0625000000159659  0.3605200052333331   F   F   F
  0.9154356958721225  0.6867665734499383  0.4531228814547660   T   T   T
  0.6654612364065369  0.3785005577624299  0.5030429278125680   T   T   T
  0.3343352795606193  0.3785523584795527  0.5029781076894948   T   T   T
  0.3356870973755049  0.6255472307015320  0.5040136733593706   T   T   T
  0.2498484973609250  0.1885111860461029  0.4541035468428774   T   T   T
  0.2505357343333879  0.0620032678587908  0.4542492290436897   T   T   T
  0.9156401853146532  0.3129144284696627  0.5467453127183324   T   T   T
  0.2522548208830712  0.3141415095304200  0.4541819817648824   T   T   T
  0.5833333134730552  0.0625000000159659  0.3605200052333331   F   F   F
  0.2499999999799343  0.8124999999834799  0.3605200052333331   F   F   F
  0.2499999999799343  0.5625000000092442  0.3605200052333331   F   F   F
  0.2499999999799343  0.3124999999901945  0.3605200052333331   F   F   F
  0.2499999999799343  0.0625000000159659  0.3605200052333331   F   F   F
  0.7499999404149307  0.5625000000092442  0.3605200052333331   F   F   F
  0.7499999404149307  0.3124999999901945  0.3605200052333331   F   F   F
  0.7499999404149307  0.0625000000159659  0.3605200052333331   F   F   F
  0.4166666269218169  0.8124999999834799  0.3605200052333331   F   F   F
  0.4166666269218169  0.5625000000092442  0.3605200052333331   F   F   F
  0.4166666269218169  0.3124999999901945  0.3605200052333331   F   F   F
  0.7499999404149307  0.8124999999834799  0.3605200052333331   F   F   F
  0.0835358894132670  0.3120770609370412  0.4539759103214744   T   T   T
  0.4166666269218169  0.0625000000159659  0.3605200052333331   F   F   F
  0.4168760925460717  0.0616131336484768  0.4553630888665415   T   T   T
  0.0834675531883056  0.8121062608517112  0.4541848405358185   T   T   T
  0.0839212109092327  0.5624689983294083  0.4538773129366354   T   T   T
  0.4160729058914170  0.5595273855820554  0.4578653363179256   T   T   T
  0.0837295997953389  0.0618620459023013  0.4542221771496642   T   T   T
  0.4155593939129754  0.3113333942593559  0.4573377071887195   T   T   T
  0.8333332538436267  0.7500000000123208  0.4070133268666680   F   F   F
  0.0833333358191695  0.4374999701794380  0.3605200052333331   F   F   F
  0.0833333358191695  0.6874999999963620  0.3605200052333331   F   F   F
  0.0833333358191695  0.9375000000154046  0.3605200052333331   F   F   F
  0.4166666269218169  0.1875000000030838  0.3605200052333331   F   F   F
  0.0833333358191695  0.8124999999834799  0.3605200052333331   F   F   F
  0.8333332538436267  0.4999999999932783  0.4070133268666680   F   F   F
  0.4146976643936497  0.8118787055359518  0.5479894882373720   T   T   T
  0.7015928299355526  0.0680248329806159  0.7614471929336328   T   T   T
  0.5833333134730552  0.3124999999901945  0.3605200052333331   F   F   F
  0.5833333134730552  0.8124999999834799  0.3605200052333331   F   F   F
  0.7496322623492205  0.0641513285243935  0.4534468211083980   T   T   T
  0.5833333134730552  0.5625000000092442  0.3605200052333331   F   F   F
  0.2519508728466596  0.5645759202188352  0.4538343332024481   T   T   T
  0.2505256935942269  0.8108011518092207  0.4553484061020016   T   T   T
  0.8333332538436267  0.2500000000190425  0.4070133268666680   F   F   F
  0.2510912197201315  0.0625830291948243  0.5472481219066903   T   T   T
  0.8333332538436267  0.0000000000000000  0.4070133268666680   F   F   F
  0.5000000000021103  0.4999999999932783  0.4070133268666680   F   F   F
  0.0833333358191695  0.1875000000030838  0.3605200052333331   F   F   F
  0.0000000000000000  0.0000000000000000  0.4070133268666680   F   F   F
  0.0000000000000000  0.2500000000190425  0.4070133268666680   F   F   F
  0.0000000000000000  0.4999999999932783  0.4070133268666680   F   F   F
  0.7481899293185366  0.5642798292412164  0.4537605229970656   T   T   T
  0.3333333432766779  0.0000000000000000  0.4070133268666680   F   F   F
  0.3333333432766779  0.4999999999932783  0.4070133268666680   F   F   F
  0.3333333432766779  0.7500000000123208  0.4070133268666680   F   F   F
  0.5827711129286050  0.6861070069380834  0.4546000601617775   T   T   T
  0.6666666865533486  0.0000000000000000  0.4070133268666680   F   F   F
  0.6666666865533486  0.4999999999932783  0.4070133268666680   F   F   F
  0.6666666865533486  0.7500000000123208  0.4070133268666680   F   F   F
  0.1666666716383389  0.0000000000000000  0.4070133268666680   F   F   F
  0.1666666716383389  0.2500000000190425  0.4070133268666680   F   F   F
  0.1666666716383389  0.4999999999932783  0.4070133268666680   F   F   F
  0.1666666716383389  0.7500000000123208  0.4070133268666680   F   F   F
  0.5000000000021103  0.0000000000000000  0.4070133268666680   F   F   F
  0.5000000000021103  0.2500000000190425  0.4070133268666680   F   F   F
  0.5000000000021103  0.7500000000123208  0.4070133268666680   F   F   F
  0.9166666865332829  0.3124999999901945  0.3605200052333331   F   F   F
  0.3333333432766779  0.2500000000190425  0.4070133268666680   F   F   F
  0.7473899223345225  0.3140882731436374  0.4548177400949222   T   T   T
  0.0000000000000000  0.7500000000123208  0.4070133268666680   F   F   F
  0.4166496712409745  0.8099449004132215  0.4551626774398867   T   T   T
  0.6666666865533486  0.2500000000190425  0.4070133268666680   F   F   F
  0.5827211599581736  0.9371810885196796  0.4543194879144313   T   T   T
  0.5842135077856297  0.3152826786486541  0.4536611219094070   T   T   T
  0.9157524185109345  0.4369799510508488  0.4536562925804417   T   T   T
  0.4232107220215382  0.6881222356382385  0.5466298344803751   T   T   T
  0.7485428176981487  0.1838149670029804  0.5508598368997808   T   T   T
  0.4158467884688194  0.9372736857389500  0.5459511158711341   T   T   T
  0.4989263795597452  0.2526000512153808  0.5904567469386350   T   T   T
  0.4156895344168128  0.1914875466311999  0.5464975610962695   T   T   T
  0.0864954234959508  0.6895899920270793  0.5451803776829877   T   T   T
  0.0824012474358961  0.4387908009020349  0.5449484213138988   T   T   T
  0.0835859220315428  0.1889175465028047  0.5455743237355275   T   T   T
  0.4995119635514023  0.1256936915442716  0.4995701839836974   T   T   T
  0.9996501686592852  0.5006358350233642  0.5944329070337790   T   T   T
  0.5808811971011648  0.1852507611507663  0.5498371572827903   T   T   T
  0.9996016571849904  0.7532833358504363  0.5923113793879824   T   T   T
  0.3340139657300829  0.9998514908879580  0.5920211843926445   T   T   T
  0.9997445067156521  0.9993157483882495  0.5931928314078485   T   T   T
  0.0008471992056256  0.2499680224059032  0.5918998543965606   T   T   T
  0.3333164481879292  0.4964087633685210  0.5908647573606197   T   T   T
  0.3358539577484379  0.7411792464805372  0.5905159099109188   T   T   T
  0.6637096656167739  0.2478710178214485  0.5904987428743297   T   T   T
  0.6659654829656667  0.0006817590773655  0.5919310426114506   T   T   T
  0.6660179870523733  0.7418504090329623  0.5899730527761350   T   T   T
  0.6668548464925568  0.4941192624322840  0.5912651767510352   T   T   T
  0.1674063928273293  0.9984114370289654  0.5923100167675399   T   T   T
  0.1683789135925720  0.2491529109214615  0.5930596261307063   T   T   T
  0.1707479427659130  0.7500605515886319  0.5950657168438956   T   T   T
  0.2484060374309082  0.4359615933008982  0.5490435801701017   T   T   T
  0.1655556403046897  0.5026771081694248  0.5874453725205389   T   T   T
  0.3348764234388455  0.2545073480102442  0.5928822293126332   T   T   T
  0.4996160561319326 -0.0000010002705695  0.5909868286160005   T   T   T
  0.8328323380555493  0.8744564330744561  0.4985432961655678   T   T   T
  0.4231627788790734  0.4439752790926110  0.5455954309883296   T   T   T
  0.7520377706201816  0.4353192696760179  0.5488115824428189   T   T   T
  0.7520376026646364  0.6803027474601362  0.5531832835741124   T   T   T
  0.7494690836728596  0.9341733094568498  0.5476619108430352   T   T   T
  0.7484772150198761  0.8082713954029839  0.5456125367413962   T   T   T
  0.2494953639051249  0.3137376356275304  0.5459699169069876   T   T   T
  0.9157893538216237  0.1868519476107650  0.4532003339013093   T   T   T
  0.5827857721525924  0.3111561078263247  0.5450524021995248   T   T   T
  0.2531448358745443  0.8127014560724940  0.5511085071096978   T   T   T
  0.5830020302330414  0.0620783543035005  0.5453615658188983   T   T   T
  0.5861914488742493  0.8145078389775715  0.5503875260571111   T   T   T
  0.7480007471901552  0.3120340430359342  0.5486247171024320   T   T   T
  0.5812549197153556  0.5601204815696974  0.5492257124387175   T   T   T
  0.2523718761968860  0.5590657482170642  0.5439767416763635   T   T   T
  0.4160228823192532  0.3196242582674859  0.5526150928534989   T   T   T
  0.5767665059665990  0.4357876604816284  0.5520976407367594   T   T   T
  0.4165496781377134  0.0654329446162646  0.5473900865993689   T   T   T
  0.0848848043843572  0.8129623139976623  0.5473306413657510   T   T   T
  0.7487189041376882  0.9372070634679533  0.6402273889947714   T   T   T
  0.0823728737677945  0.5643694823520530  0.5462960825605380   T   T   T
  0.0823209946351343  0.0632768403887043  0.5475734463705311   T   T   T
  0.9157136499547731  0.9386257916283784  0.5464385125268678   T   T   T
  0.9138978977817378  0.6892019911201905  0.5452222892598650   T   T   T
  0.5838368380992456  0.9378127608249094  0.5461601756046169   T   T   T
  0.9169801524956591  0.1889931575543738  0.5452509104634385   T   T   T
  0.9159222852137573  0.4376569154138333  0.5457612510750647   T   T   T
  0.5795449418382740  0.6863121413559481  0.5472109347573920   T   T   T
  0.2515308272407413  0.9373274396302481  0.5453028452750562   T   T   T
  0.4976197351399837  0.5044118641062234  0.6090154436026547   T   T   T
  0.9172091404572831  0.5637745967287414  0.5467728128607185   T   T   T
  0.4201653772596140  0.5651057612456527  0.5554743770602296   T   T   T
  0.9154795106851716  0.8129683525544348  0.5468921247580266   T   T   T
  0.0836169415296819  0.9389010623237942  0.5458244185056257   T   T   T
  0.2493307797136369  0.6832869272353419  0.5521181502852472   T   T   T
  0.0863051594977126  0.3134931509134741  0.5468837150859857   T   T   T
  0.8321316737565717  0.0021238912160562  0.5922943246631907   T   T   T
  0.0833333358191695  0.3124999999901945  0.3605200052333331   F   F   F
  0.4176752376520771  0.0651808885220848  0.6401204867873965   T   T   T
  0.4210179774228501  0.6758874260558596  0.6334964625945773   T   T   T
  0.5911899271824764  0.8100831227118775  0.6460826856973060   T   T   T
  0.9156186602878830  0.0627283870860609  0.6416924413854628   T   T   T
  0.9125709034819510  0.5617370698606573  0.6418485930355683   T   T   T
  0.9150520076327462  0.3118488175351138  0.6396677801452244   T   T   T
  0.9141151917927254  0.8133194298809756  0.6415558938568285   T   T   T
  0.5822085541111375  0.0667411349968401  0.6385498881707067   T   T   T
  0.5835257255380676  0.3205351274044668  0.6335498535520725   T   T   T
  0.5913491427456838  0.5647153528282747  0.6394135895933739   T   T   T
  0.2476549756639497  0.5739827937356821  0.6287545808430856   T   T   T
  0.7540332819389655  0.6929604578879083  0.6566999281843621   T   T   T
  0.2621286469333140  0.7989597148080143  0.6466666434165741   T   T   T
  0.2510033188435050  0.0594657898422070  0.6423350843951171   T   T   T
  0.9166666865332829  0.5625000000092442  0.3605200052333331   F   F   F
  0.4173547611576534  0.9349321724760535  0.6397285317836395   T   T   T
  0.5000041660052003  0.8734245755572482  0.5008854924037182   T   T   T
  0.8323841447076641  0.6230406804063390  0.4999981968958164   T   T   T
  0.2518132765842788  0.1883923899705432  0.5470948401371173   T   T   T
  0.8324976144717239  0.3731007438513222  0.4997679121369790   T   T   T
  0.8328569172963443  0.1245209367341317  0.5001542620314466   T   T   T
  0.1667519844354660  0.3762401047933507  0.4978272175284404   T   T   T
  0.1678592923400435  0.6243490045949849  0.5000140956095339   T   T   T
  0.5816086077781057  0.4383611673442303  0.6462677730817052   T   T   T
  0.5801561727000175  0.6852513166005284  0.6391484834311494   T   T   T
  0.9162827489842020  0.1862600385571304  0.6399339747426702   T   T   T
  0.2491894072330205  0.3163369398311692  0.6412988158484182   T   T   T
  0.1670348939809796  0.1243397457334221  0.4993164018914380   T   T   T
  0.7482227306664460  0.0599350808291912  0.5444449768877058   T   T   T
  0.1677457033385743  0.8732842385150306  0.4998705943505519   T   T   T
  0.5013102476168011  0.7564611755006755  0.5930741114289648   T   T   T
  0.5003345364522407  0.6210721441792018  0.5000659603784534   T   T   T
  0.7549848834005647  0.4335954387444148  0.6377850103993993   T   T   T
  0.4995279820989788  0.3742741159155700  0.4997638355860105   T   T   T
  0.2533106937254736  0.1865169554509143  0.6410413738132252   T   T   T
  0.4127555040227984  0.8128576481051193  0.6397312641038788   T   T   T
  0.7464568307020959  0.1943240589303754  0.6465025659358687   T   T   T
  0.4294111649796410  0.3049578353044090  0.6550670496114518   T   T   T
  0.3972060913016737  0.5505636574327218  0.6520495697761258   T   T   T
  0.7529090395577036  0.5691919013454312  0.6350229438118333   T   T   T
  0.7411032902367902  0.8100346625757223  0.6399090196758830   T   T   T
  0.7465678857737733  0.3116383287829391  0.6416796672215070   T   T   T
  0.7481507312451641  0.0678914919717486  0.6389886772372138   T   T   T
  0.0837090211476341  0.3118206806598779  0.6404471642115055   T   T   T
  0.0873383147285634  0.5621427451071557  0.6411049539226236   T   T   T
  0.0842286489705350  0.0606499970301625  0.6421265275244189   T   T   T
  0.0867777149637537  0.4364566519196736  0.6393864757304040   T   T   T
  0.0834921635415617  0.1857379381862929  0.6409930648655284   T   T   T
  0.4182134276997047  0.1875067255433585  0.6397992766846582   T   T   T
  0.4150610114207296  0.4187815071862299  0.6299176664841918   T   T   T
  0.6666137485239662  0.8746815878553817  0.4988993159295946   T   T   T
  0.8316573703221540  0.2492915165304202  0.5908947695607156   T   T   T
  0.8305908514149735  0.7508712182738143  0.5927655772038355   T   T   T
  0.0842465619339206  0.9355915218486269  0.6406407403187445   T   T   T
  0.8332651508386271  0.5030383844624150  0.5887739451259493   T   T   T
  0.9166666865332829  0.8124999999834799  0.3605200052333331   F   F   F
  0.2519313355373132  0.9301493745008994  0.6373702494970062   T   T   T
  0.5800770952369332  0.1918110715192435  0.6450024200579672   T   T   T
  0.0841471390661189  0.8122210535164988  0.6420185982671054   T   T   T
  0.2406295845354377  0.4420240740748587  0.6415397545613415   T   T   T
  0.9143961857023828  0.9371595006873503  0.6410466024310997   T   T   T
  0.9162355749425610  0.6874695675018360  0.6393793954400748   T   T   T
  0.9125846419952719  0.4360110429198487  0.6396640481755753   T   T   T
  0.0831132465921045  0.6869917852424905  0.6392170719467810   T   T   T
  0.2546254290902063  0.6774664173127953  0.6635383703468917   T   T   T
  0.5819863100032614  0.9360371155428692  0.6392655037794852   T   T   T
  0.6659548844418289  0.0000216818648501  0.5055720055603408   T   T   T
  0.8333332538436267  0.6249999999803961  0.4070133268666680   F   F   F
  0.5011952349065687  0.7529405331095010  0.5038855409262656   T   T   T
  0.1644558026947618  0.7515554410394641  0.5033851777540580   T   T   T
  0.1666666716383389  0.3750000000061604  0.4070133268666680   F   F   F
  0.0005592497132247  0.1226369884334849  0.6195750962510392   T   T   T
  0.6654270572814881  0.7520560838809931  0.5021609104683848   T   T   T
  0.3311761124280939  0.4992051484490219  0.5009498737894107   T   T   T
  0.3300884337701047  0.2481103268794145  0.5028509203684685   T   T   T
  0.3330575404306669  0.0010918955273153  0.5058025839160174   T   T   T
  0.3338583549631434  0.7511894475949960  0.5015945864312967   T   T   T
  0.6669708723551838  0.2480637787795680  0.5025205830653252   T   T   T
  0.5012969470081992  0.4998257139660754  0.5003016542811599   T   T   T
  0.9997051697262318  0.5006340596912461  0.5069705802887418   T   T   T
  0.8361782314331417  0.5000657999304968  0.5027138985282010   T   T   T
  0.8358101693993815  0.2486164431670430  0.5026827188386993   T   T   T
  0.6666666865533486  0.3750000000061604  0.4070133268666680   F   F   F
  0.1659874679351079  0.0011646958020429  0.5065727917256709   T   T   T
  0.0000000000000000  0.8749999404036828  0.4070133268666680   F   F   F
  0.5010415592828064  0.2479876020834147  0.5020766811589034   T   T   T
  0.9998594449173985  0.7508918005413288  0.5065957198431612   T   T   T
  0.0008558145627908  0.2498443239565727  0.5058675306286341   T   T   T
 -0.0000362159845020  0.0000035526308077  0.5066977571222100   T   T   T
  0.6666666865533486  0.6249999999803961  0.4070133268666680   F   F   F
  0.8333332538436267  0.8749999404036828  0.4070133268666680   F   F   F
  0.3333333432766779  0.6249999999803961  0.4070133268666680   F   F   F
  0.3333333432766779  0.1249999999871179  0.4070133268666680   F   F   F
  0.3333333432766779  0.3750000000061604  0.4070133268666680   F   F   F
  0.8341932315742551  0.0002453928762445  0.5064469338960814   T   T   T
  0.3333333432766779  0.8749999404036828  0.4070133268666680   F   F   F
  0.6666666865533486  0.1249999999871179  0.4070133268666680   F   F   F
  0.0000000000000000  0.6249999999803961  0.4070133268666680   F   F   F
  0.1662958006487714  0.2482704395427743  0.5061518901792624   T   T   T
  0.6685712448788785  0.4998116239543927  0.5006495648908033   T   T   T
  0.5001927498953953  0.9993486445130706  0.5054634191096370   T   T   T
  0.5008065108792928  0.8768366519355547  0.6096834149930396   T   T   T
  0.3259566875041381  0.3736898044270039  0.5927220482585996   T   T   T
  0.0000000000000000  0.3750000000061604  0.4070133268666680   F   F   F
  0.3342557750724389  0.6244600172594722  0.5952795621221377   T   T   T
  0.5000000000021103  0.8749999404036828  0.4070133268666680   F   F   F
  0.8333332538436267  0.1249999999871179  0.4070133268666680   F   F   F
  0.1666666716383389  0.1249999999871179  0.4070133268666680   F   F   F
  0.6653972527753256  0.1246828981168685  0.6112476147429836   T   T   T
  0.5000000000021103  0.6249999999803961  0.4070133268666680   F   F   F
  0.8398693191481612  0.6269202477972574  0.6033451716407755   T   T   T
  0.3315789564351618  0.1199795752929030  0.6134659338830633   T   T   T
  0.9990572797283421  0.8750710577718213  0.6219985971702879   T   T   T
  0.5000000000021103  0.1249999999871179  0.4070133268666680   F   F   F
  0.1635385565173239  0.4998701639348612  0.5020510384409480   T   T   T
  0.8320886364909890  0.8762552378720385  0.6178808223684832   T   T   T
  0.8377901939835825  0.3726004273674715  0.6033651081025354   T   T   T
  0.8360527093923071  0.7518066655020452  0.5025891325218151   T   T   T
  0.1666666716383389  0.8749999404036828  0.4070133268666680   F   F   F
  0.8333332538436267  0.3750000000061604  0.4070133268666680   F   F   F
  0.0000000000000000  0.1249999999871179  0.4070133268666680   F   F   F
  0.5040260328088021  0.6251044441596932  0.5939439591056946   T   T   T
  0.1666666716383389  0.6249999999803961  0.4070133268666680   F   F   F
  0.5000000000021103  0.3750000000061604  0.4070133268666680   F   F   F
  0.6666666865533486  0.8749999404036828  0.4070133268666680   F   F   F
  0.6710037862619406  0.3726015548877836  0.5932873702939256   T   T   T
  0.3344752540614581  0.8785055182531532  0.6030490506741717   T   T   T
  0.1660737447065053  0.8733632514071352  0.6179246607167675   T   T   T
  0.5017866420975934  0.3711707617273589  0.5948826759001683   T   T   T
  0.1592855095351814  0.6272474089492045  0.6014615043826320   T   T   T
  0.1676413277605412  0.1228394385978818  0.6217785363500206   T   T   T
  0.1632606522892811  0.3714272415514737  0.6076242455788021   T   T   T
  0.6653691562032226  0.8813979546586521  0.6075072075185213   T   T   T
  0.6664275355762288  0.6263461059087484  0.5934928078734381   T   T   T
  0.9999505374867927  0.3747774222846617  0.6232254854437758   T   T   T
  0.9996130687664683  0.6220319700786271  0.6327503856257941   T   T   T
  0.8339615215182815  0.1245872920614555  0.6157624700024119   T   T   T
  0.5002151423033661  0.1226916880390751  0.6062834248339967   T   T   T
  0.5847444083442462  0.7500412507972749  0.5997383361710776   T   T   T
  0.0833512614365914  0.2481363720791686  0.6036080735248885   T   T   T
  0.7495067361686204  0.0019915607294321  0.6044388190753870   T   T   T
  0.5824614390650480  0.0011642144157329  0.6041407415986159   T   T   T
  0.9162542148914610  0.0002870180798611  0.6038826159745135   T   T   T
  0.5904967952261325  0.5011669813311519  0.5936413077542066   T   T   T
  0.4147481893807697  0.2484842629008956  0.5912819174079876   T   T   T
  0.2492766667382480  0.7526866632821856  0.5921819461207702   T   T   T
  0.5847078647479791  0.2477565030105610  0.5965706291568952   T   T   T
  0.2496944916243557  0.9976947000876262  0.6042344434022573   T   T   T
  0.7539684013749461  0.2480851005804949  0.5928764254958879   T   T   T
  0.2489692453511127  0.2459833423117598  0.6036050900692134   T   T   T
  0.4170885179413568  0.0001286862005926  0.6046411066599183   T   T   T
  0.2423826407461289  0.4979573562614221  0.5939831138950360   T   T   T
  0.0814782643355285  0.5001302562640390  0.6032110442614042   T   T   T