Au  C  H  O Sr Ti                       
   1.00000000000000     
    23.6707801818999997    0.0000000000000000    0.0000000000000000
     0.0000000000000000   22.3170261383000010    0.0000000000000000
     0.0000000000000000    0.0000000000000000   30.0000000000000000
   Au   C    H    O    Sr   Ti
    50     2     3   265    72    72
Selective dynamics
Direct
  0.7159529692282334  0.5254560745354553  0.7533719078701893   F   F   F
  0.6557462623994397  0.4414663969159491  0.8129396230493100   F   F   F
  0.3682306756649609  0.6190468836709613  0.8202376949483821   F   F   F
  0.5694837084198952  0.5102005907081377  0.8567478241260602   F   F   F
  0.6652600168793796  0.1974442531122520  0.7523250777147581   T   T   T
  0.4700517128624782  0.4511780761793531  0.8792803470962980   F   F   F
  0.5161672288224040  0.3779791546717917  0.7331992211325726   F   F   F
  0.2828183305531624  0.3395235530661154  0.7023507156470856   F   F   F
  0.6694968635163789  0.6812308296044876  0.7488701687765413   F   F   F
  0.3979892699541523  0.3813734967153977  0.6901279723105347   F   F   F
  0.4625011703527520  0.5736156607239948  0.8639243037401485   F   F   F
  0.7065227650117194  0.7569230756194898  0.6883672732977502   F   F   F
  0.4520953704960604  0.5801516510419447  0.7027728015101502   F   F   F
  0.4176795797570705  0.6968597646916947  0.6994191801886132   F   F   F
  0.7748582026435002  0.4301730619908142  0.7946872269559719   F   F   F
  0.2567848280784091  0.5931555057671360  0.6944646899318911   F   F   F
  0.6499802731478468  0.4481155444210856  0.6934320473195967   F   F   F
  0.5645113966923674  0.6397465622588143  0.8612419001850640   F   F   F
  0.5404870030658557  0.6678628377997029  0.7017667704519397   F   F   F
  0.4437112654815252  0.4750979855806605  0.7569858797927651   F   F   F
  0.3740715574740463  0.7397769460778321  0.7787064188886390   F   F   F
  0.3745505185313718  0.4931573874763799  0.8329441364683774   F   F   F
  0.6163012005023631  0.3245669023713305  0.6959065494489849   F   F   F
  0.3258562327937824  0.4144677703794244  0.7690503716192509   F   F   F
  0.7002327920700111  0.3481028652409890  0.7563134209009945   F   F   F
  0.4862898073007784  0.2699140380399214  0.7754073733387443   F   F   F
  0.4857085261774969  0.7766100444910151  0.7550658464714317   F   F   F
  0.7190930176232797  0.2611562189352767  0.6905131397205224   F   F   F
  0.2935623009930808  0.7467126344536084  0.6970626392937049   F   F   F
  0.5783179252856669  0.7257076390271422  0.7938953985565078   F   F   F
  0.2405814286570092  0.4694943656037225  0.7090499414354028   F   F   F
  0.2849430943981659  0.6623176858089792  0.7645784735119534   F   F   F
  0.6006227478033850  0.2919914534418098  0.7851594421453711   F   F   F
  0.5139948795443345  0.4846024544347998  0.6781827248822765   F   F   F
  0.2892722956071836  0.5381344006172881  0.7773077752744157   F   F   F
  0.5483931214021425  0.3858324555733219  0.8290942551467992   F   F   F
  0.5118971984364222  0.6035093517687358  0.7768099037803324   F   F   F
  0.7330179403858423  0.6149289558481712  0.6939833850988393   F   F   F
  0.5633924628094888  0.4861334940122646  0.7620706535680242   F   F   F
  0.6347122262523257  0.5840680634488962  0.8002070924296945   F   F   F
  0.4288146295579480  0.3718844254893483  0.8155781792531656   F   F   F
  0.3496464514213926  0.4994033814763483  0.6977315669730046   F   F   F
  0.5964544437317869  0.7845966662345916  0.7130473011439449   F   F   F
  0.3714742176417403  0.2983346511576670  0.7549405233190214   F   F   F
  0.4423976631237494  0.2273914466091114  0.6974200528189982   F   F   F
  0.4636583792684803  0.6952995590187214  0.8300679574713996   F   F   F
  0.3913292887118587  0.8177528712307449  0.7064782906482066   F   F   F
  0.7650294044232098  0.4326719801442778  0.7044375209487370   F   F   F
  0.6211854614551768  0.5717793818132364  0.7039879609441897   F   F   F
  0.5599151183771340  0.2129485576965138  0.7123981358101830   F   F   F
  0.7533567462083610  0.1449766585389725  0.8090030305389746   T   T   T
  0.7621841706134660  0.0871833883963333  0.8212094173783271   T   T   T
  0.7762609504530005  0.0764936926650748  0.8545631640238511   T   T   T
  0.7582910636603586  0.0514323898900813  0.7970285478641017   T   T   T
  0.7571620945418331  0.1814251578251742  0.8333113805658883   T   T   T
  0.5766615712778886  0.4358037003128601  0.5522292840604379   F   F   F
  0.0848894425353990  0.8129228378903264  0.5473094756386629   F   F   F
  0.4165695512412100  0.0654071743152542  0.5473872604645464   F   F   F
  0.4161151942410157  0.3195116516944765  0.5525869697502728   F   F   F
  0.2530826422838146  0.8125595057596442  0.5506834086310946   F   F   F
  0.5811622691931859  0.5600697564378834  0.5488824263160410   F   F   F
  0.7482558406304207  0.3116399449423355  0.5481572011545452   F   F   F
  0.5858989338524765  0.8143345504996944  0.5504022238958441   F   F   F
  0.5829722853553605  0.0616978911331501  0.5453903801232514   F   F   F
  0.2525153197292838  0.5590896586776566  0.5439290361609679   F   F   F
  0.0822838473333789  0.0632802960228958  0.5475731426248132   F   F   F
  0.2490434503384549  0.6831958724135845  0.5520425885206421   F   F   F
  0.7492727915899877  0.9340116825040141  0.5476130094978160   F   F   F
  0.9140690143214556  0.6890797959372961  0.5453987228310311   F   F   F
  0.9171415819817668  0.1891088640500058  0.5452817986160241   F   F   F
  0.9157151367545353  0.4376703720455666  0.5456797092452419   F   F   F
  0.5795681542107332  0.6861366737178471  0.5474319657113114   F   F   F
  0.2515050804414258  0.9372996607321014  0.5452651944389544   F   F   F
  0.4974409555801245  0.5044063531317775  0.6089852117255674   F   F   F
  0.9178551822192631  0.5639628948393423  0.5471711585661367   F   F   F
  0.4200181479044502  0.5650736900328965  0.5554321879490232   F   F   F
  0.9154966423605089  0.8128168508881686  0.5467986011137498   F   F   F
  0.0835918875709822  0.9390194299330687  0.5457538061136944   F   F   F
  0.0865228528069153  0.3135373388056522  0.5469070605331510   F   F   F
  0.8321558469722703  0.0020560391170292  0.5923088513786752   F   F   F
  0.9158240435773379  0.1869483297572287  0.4531847388822641   F   F   F
  0.9156351894795165  0.9385323736254279  0.5464251662431110   F   F   F
  0.2495520028914910  0.3137261549303361  0.5459890156357119   F   F   F
  0.5837680150885731  0.9375970877531827  0.5461683596795197   F   F   F
  0.7483388425680317  0.9369078350937130  0.6399839049434277   F   F   F
  0.5827942564801134  0.4396579345786975  0.4563534320099194   F   F   F
  0.4995692319886160  0.1256702930753093  0.4996382693056916   F   F   F
  0.4990807560942301  0.2525347891980516  0.5904213940185343   F   F   F
  0.0836179453913601  0.1889864905374381  0.5455044855761457   F   F   F
  0.0833333358191695  0.3124999999901945  0.3605200052333331   F   F   F
  0.9997299506852002  0.4993248189003410  0.5941808301758229   F   F   F
  0.5808914515985180  0.1846602664080663  0.5504361633581993   F   F   F
  0.9998083591624649  0.7531485984287016  0.5923413093157066   F   F   F
  0.3340175620546617  0.9998998458905390  0.5920066009411187   F   F   F
  0.9997164974598647  0.9993579682093596  0.5931815999666696   F   F   F
  0.0009658625302436  0.2501697604305946  0.5918973332197552   F   F   F
  0.3332481068295010  0.4964133546352514  0.5909175953053492   F   F   F
  0.3354351505998139  0.7412198554711082  0.5903957847460717   F   F   F
  0.6633763539466671  0.2480112693726753  0.5903361433658958   F   F   F
  0.6658646652115436  0.0003245272950210  0.5918648682661285   F   F   F
  0.4158141423167265  0.1914543004683296  0.5465838657538171   F   F   F
  0.6658012081683111  0.7414843163908671  0.5904798523997030   F   F   F
  0.4300917655956482  0.3049165453627722  0.6554459094978853   F   F   F
  0.1674343289806544  0.9984145635618518  0.5923117048813751   F   F   F
  0.1706396275638440  0.7502837258135457  0.5949067380457009   F   F   F
  0.2483834419904767  0.4358694820658044  0.5491011041883311   F   F   F
  0.1656397043576376  0.5027586232017285  0.5873879828786386   F   F   F
  0.3350895977326758  0.2544916194577453  0.5930462672209131   F   F   F
  0.4996625524587017  0.0000352742674252  0.5910163480104416   F   F   F
  0.8327089052400254  0.8742518243363122  0.4986100594173735   F   F   F
  0.4230993848416347  0.4439588541197352  0.5455310911728475   F   F   F
  0.7519701233097891  0.4353599289479462  0.5489213651215223   F   F   F
  0.7518889832868609  0.6805208516489714  0.5531726156654742   F   F   F
  0.7482912380338433  0.8081408661508860  0.5456931943485444   F   F   F
  0.4178675678382149  0.0651895835176006  0.6400900458824736   F   F   F
  0.2492123254768543  0.3162831850550418  0.6413564548692179   F   F   F
  0.6666744629647710  0.4946357393591114  0.5913309113135270   F   F   F
  0.5910531915097224  0.8100581604098096  0.6460594776373512   F   F   F
  0.1685474155455609  0.2485869182306359  0.5931804896361328   F   F   F
  0.9161023439812297  0.5621950867478631  0.4540879636018218   F   F   F
  0.7532539656631343  0.5684928469048742  0.6356196320790986   F   F   F
  0.9141195395641404  0.8133059696597300  0.6415693399092959   F   F   F
  0.9159992851000212  0.0625300377634019  0.6419894657182894   F   F   F
  0.7410971225903680  0.8098981134941354  0.6400026981014548   F   F   F
  0.7472198309249976  0.0671561458077292  0.6390526132287917   F   F   F
  0.0841797836628402  0.3114870542706569  0.6406243630675093   F   F   F
  0.0867425048214230  0.5628216539979505  0.6401155417491253   F   F   F
  0.0842527553397332  0.0606504614353582  0.6421210764407661   F   F   F
  0.0871582245441260  0.4365683828694671  0.6397161425484583   F   F   F
  0.0834734351188544  0.1856778678409796  0.6409926641034644   F   F   F
  0.4149392878492790  0.4188187406043511  0.6298693382153431   F   F   F
  0.6665110808692063  0.8743515928200054  0.4989108766187016   F   F   F
  0.8316338511646535  0.2478717888536437  0.5913978754126674   F   F   F
  0.8305555238381430  0.7508946247777288  0.5928669838461502   F   F   F
  0.0842079539531966  0.9356926027319474  0.6406355545351516   F   F   F
  0.8333406481842047  0.5030752796249160  0.5887393714732241   F   F   F
  0.4187488143930054  0.1875864358628760  0.6399594493087051   F   F   F
  0.0831701656626720  0.6871110050702001  0.6389803140994346   F   F   F
  0.2520289691665027  0.9302984844827620  0.6373274334419321   F   F   F
  0.5796152277857374  0.1920914278662309  0.6456320290812343   F   F   F
  0.0842575804150414  0.8126072409031835  0.6422977810798685   F   F   F
  0.2407420223313039  0.4420357897853719  0.6416015624833946   F   F   F
  0.9143233484763655  0.9372474534352264  0.6409579594733685   F   F   F
  0.9163789224620800  0.6875155543137978  0.6390441190133487   F   F   F
  0.9124253322678086  0.4360405143513617  0.6398261746202607   F   F   F
  0.2535270317664668  0.1865015286642446  0.6413047058814456   F   F   F
  0.2546721225997857  0.6777744503638417  0.6629397300763742   F   F   F
  0.5820445238361671  0.9356390976442697  0.6393359757340491   F   F   F
  0.7452037486866345  0.1956633456507646  0.6468620618623930   F   F   F
  0.9166666865332829  0.8124999999834799  0.3605200052333331   F   F   F
  0.4125905428746321  0.8129310890767982  0.6396059049486382   F   F   F
  0.7465489662646831  0.3127981825025969  0.6399983682278076   F   F   F
  0.0828675679436799  0.4389321629031997  0.5448630446904588   F   F   F
  0.4995890732120927  0.3743082921738363  0.4997324474079576   F   F   F
  0.9133618993833110  0.5623126501187983  0.6411761545108590   F   F   F
  0.5825462877259469  0.0662424097030581  0.6388447451569519   F   F   F
  0.5830653208967078  0.3209942888625505  0.6332391676996494   F   F   F
  0.2475522633624223  0.5738980827149973  0.6287391567428600   F   F   F
  0.7539095401665676  0.6922181420849114  0.6569498445845099   F   F   F
  0.2619300964554583  0.7996310791137162  0.6463316390866467   F   F   F
  0.2509741872941120  0.0594841981060057  0.6423427299472948   F   F   F
  0.9166666865332829  0.5625000000092442  0.3605200052333331   F   F   F
  0.4173629251756736  0.9350140880073496  0.6397870925852800   F   F   F
  0.4999738345136819  0.8733100513220720  0.5008543119838507   F   F   F
  0.4204475113594128  0.6760918855502140  0.6335889221770685   F   F   F
  0.8324389244070360  0.6230589379633429  0.5000636443708615   F   F   F
  0.8324372118197374  0.3732115969776544  0.4996879455548040   F   F   F
  0.9150481055710316  0.3119343312294589  0.6396175956052801   F   F   F
  0.1667567837682924  0.3762432150318205  0.4977438626843593   F   F   F
  0.5814311706368187  0.4397372192065347  0.6465651788516027   F   F   F
  0.5782666797252460  0.6859077345162845  0.6395628409905854   F   F   F
  0.9172083740019872  0.1869419943022450  0.6407363119806249   F   F   F
  0.4159550081036087  0.9371120045880588  0.5461097443178247   F   F   F
  0.1670855808187284  0.1244539521080839  0.4994813218488758   F   F   F
  0.7481104088606401  0.0598095324595249  0.5444174318581787   F   F   F
  0.1677150419428273  0.8733353391971690  0.4998546551844072   F   F   F
  0.5008297307876006  0.7563251187233888  0.5927504727364692   F   F   F
  0.5002900279984175  0.6211340021995966  0.5000379023989652   F   F   F
  0.7553437680703325  0.4340980548074924  0.6378289727666484   F   F   F
  0.2521063122015335  0.1883442707180123  0.5472497054618799   F   F   F
  0.7481952207349707  0.1837991510801444  0.5506225012524482   F   F   F
  0.0817213466161490  0.5643440480242887  0.5462877431536128   F   F   F
  0.3972149009847286  0.5506391745180252  0.6519999983194822   F   F   F
  0.1677186776766675  0.6242941001019844  0.5000969380930940   F   F   F
  0.8329116836691810  0.1244915980352914  0.4996458244703774   F   F   F
  0.0859616226735866  0.6893028596538571  0.5453487068775402   F   F   F
  0.5906992108392259  0.5661052696086557  0.6387948180229230   F   F   F
  0.0000000000000000  0.0000000000000000  0.4070133268666680   F   F   F
  0.5832563085080338  0.0636660152396686  0.4538304141977747   F   F   F
  0.9166666865332829  0.6874999999963620  0.3605200052333331   F   F   F
  0.9166666865332829  0.4374999701794380  0.3605200052333331   F   F   F
  0.9166666865332829  0.1875000000030838  0.3605200052333331   F   F   F
  0.5833333134730552  0.9375000000154046  0.3605200052333331   F   F   F
  0.5833333134730552  0.6874999999963620  0.3605200052333331   F   F   F
  0.5833333134730552  0.4374999701794380  0.3605200052333331   F   F   F
  0.5833333134730552  0.1875000000030838  0.3605200052333331   F   F   F
  0.2499999999799343  0.9375000000154046  0.3605200052333331   F   F   F
  0.9166666865332829  0.9375000000154046  0.3605200052333331   F   F   F
  0.9177382380212080  0.0632299311073012  0.5475000560615300   F   F   F
  0.2499999999799343  0.6874999999963620  0.3605200052333331   F   F   F
  0.7499999404149307  0.9375000000154046  0.3605200052333331   F   F   F
  0.7441124905814576  0.1601407431819623  0.7663373776562517   T   T   T
  0.5845655689473972  0.5628692331536129  0.4548516942059990   F   F   F
  0.7499999404149307  0.6874999999963620  0.3605200052333331   F   F   F
  0.4166666269218169  0.9375000000154046  0.3605200052333331   F   F   F
  0.4166666269218169  0.6874999999963620  0.3605200052333331   F   F   F
  0.4166666269218169  0.4374999701794380  0.3605200052333331   F   F   F
  0.2499999999799343  0.4374999701794380  0.3605200052333331   F   F   F
  0.0833333358191695  0.0625000000159659  0.3605200052333331   F   F   F
  0.9153561254024680  0.6867393347746642  0.4531793545203371   F   F   F
  0.6654771730159226  0.3785683798709414  0.5030875878523275   F   F   F
  0.3343686957857201  0.3784689762652889  0.5030038698818728   F   F   F
  0.3355962726302053  0.6257971945919536  0.5037859844323407   F   F   F
  0.2499097678599256  0.1884599444563335  0.4541151297105586   F   F   F
  0.2499999999799343  0.1875000000030838  0.3605200052333331   F   F   F
  0.2505059472284898  0.0620408812057747  0.4542672119684212   F   F   F
  0.7494946652020360  0.9384249366438979  0.4553480979052935   F   F   F
  0.7499999404149307  0.4374999701794380  0.3605200052333331   F   F   F
  0.7499999404149307  0.1875000000030838  0.3605200052333331   F   F   F
  0.5833333134730552  0.0625000000159659  0.3605200052333331   F   F   F
  0.7490895092170717  0.6886851587903138  0.4573856999829928   F   F   F
  0.7496474040820118  0.4383794442414981  0.4557272311447491   F   F   F
  0.9157857169017376  0.4369797850986714  0.4536239278712202   F   F   F
  0.7507255588509025  0.1898757606770403  0.4556592190873872   F   F   F
  0.4171685219829442  0.9358394408345561  0.4540319777631012   F   F   F
  0.4171294973013175  0.6847626675710572  0.4547073281975074   F   F   F
  0.4164354004657582  0.4354488464397406  0.4538149632529311   F   F   F
  0.0845862573527256  0.6868856523439604  0.4530565953666255   F   F   F
  0.0838972174649157  0.9366434464749744  0.4534674808943606   F   F   F
  0.0828136382527234  0.4368342095958369  0.4528370807430520   F   F   F
  0.0838582246769448  0.1865719063788163  0.4529763959714614   F   F   F
  0.9165876531283246  0.8121204599730660  0.4540379854308085   F   F   F
  0.9161255759445481  0.0621934354910962  0.4540983110827668   F   F   F
  0.7493901902726847  0.8131948499685677  0.4530509556075870   F   F   F
  0.9162748195538839  0.3122483642844642  0.4538608972151366   F   F   F
  0.2520925337401536  0.6876517172583974  0.4561444202755283   F   F   F
  0.7465208455623369  0.5581955724576417  0.5446690663744960   F   F   F
  0.9164360805357035  0.9371288600777703  0.4536734339191071   F   F   F
  0.0000501918701730  0.1250284087284896  0.4983940829486357   F   F   F
  0.5832791058158904  0.8105083345680697  0.4553218529973435   F   F   F
  0.9999684094738086  0.3737644396324882  0.4982763003864861   F   F   F
  0.9998392002228300  0.6271853297739867  0.4976845899604712   F   F   F
  0.3337160521512672  0.1257217587784751  0.4985187017543993   F   F   F
  0.0000325800954357  0.8751359289859764  0.4995246864426690   F   F   F
  0.3334718185795680  0.8740211328531231  0.4993054283521161   F   F   F
  0.6660895120292807  0.1265051277075315  0.4989897304710595   F   F   F
  0.2511794847450375  0.4392673011050903  0.4549293814883697   F   F   F
  0.0833333358191695  0.5625000000092442  0.3605200052333331   F   F   F
  0.9166666865332829  0.0625000000159659  0.3605200052333331   F   F   F
  0.4172229321299952  0.1871564879390988  0.4535664488744828   F   F   F
  0.9152849936490028  0.3127368186895367  0.5467056531192469   F   F   F
  0.4230416162003579  0.6880575402217275  0.5466952362892030   F   F   F
  0.5827070384924014  0.1903278898181924  0.4556111720185214   F   F   F
  0.2510797413383798  0.0625847289119150  0.5472658770586705   F   F   F
  0.5827877339939747  0.3109386761798589  0.5447400820996151   F   F   F
  0.2499999999799343  0.8124999999834799  0.3605200052333331   F   F   F
  0.0833333358191695  0.1875000000030838  0.3605200052333331   F   F   F
  0.0000000000000000  0.2500000000190425  0.4070133268666680   F   F   F
  0.0000000000000000  0.4999999999932783  0.4070133268666680   F   F   F
  0.7482167317682027  0.5643062587766465  0.4537990555755584   F   F   F
  0.3333333432766779  0.0000000000000000  0.4070133268666680   F   F   F
  0.3333333432766779  0.4999999999932783  0.4070133268666680   F   F   F
  0.3333333432766779  0.7500000000123208  0.4070133268666680   F   F   F
  0.5827600897967073  0.6861622478461769  0.4546228995911008   F   F   F
  0.6666666865533486  0.0000000000000000  0.4070133268666680   F   F   F
  0.6666666865533486  0.4999999999932783  0.4070133268666680   F   F   F
  0.8333332538436267  0.2500000000190425  0.4070133268666680   F   F   F
  0.1666666716383389  0.0000000000000000  0.4070133268666680   F   F   F
  0.1666666716383389  0.4999999999932783  0.4070133268666680   F   F   F
  0.1666666716383389  0.7500000000123208  0.4070133268666680   F   F   F
  0.5000000000021103  0.4999999999932783  0.4070133268666680   F   F   F
  0.5000000000021103  0.2500000000190425  0.4070133268666680   F   F   F
  0.9166666865332829  0.3124999999901945  0.3605200052333331   F   F   F
  0.3333333432766779  0.2500000000190425  0.4070133268666680   F   F   F
  0.7473163980629707  0.3141613531102365  0.4547415168882836   F   F   F
  0.0000000000000000  0.7500000000123208  0.4070133268666680   F   F   F
  0.4166288981367288  0.8100064426696036  0.4551279165862923   F   F   F
  0.5843524574999321  0.3154535064529043  0.4535527474487040   F   F   F
  0.5827373847946120  0.9371643155450116  0.4543343317349624   F   F   F
  0.6666666865533486  0.2500000000190425  0.4070133268666680   F   F   F
  0.2522617235343816  0.3141431673316575  0.4541611782428419   F   F   F
  0.1666666716383389  0.2500000000190425  0.4070133268666680   F   F   F
  0.2504754810805423  0.8108190741466430  0.4553192828846164   F   F   F
  0.5833333134730552  0.5625000000092442  0.3605200052333331   F   F   F
  0.2500341549475067  0.9360602275811374  0.4540252743984894   F   F   F
  0.8333332538436267  0.0000000000000000  0.4070133268666680   F   F   F
  0.5000000000021103  0.7500000000123208  0.4070133268666680   F   F   F
  0.6666666865533486  0.7500000000123208  0.4070133268666680   F   F   F
  0.5000000000021103  0.0000000000000000  0.4070133268666680   F   F   F
  0.6654190536281632  0.6260920948909288  0.5029863456807604   F   F   F
  0.2499999999799343  0.0625000000159659  0.3605200052333331   F   F   F
  0.2499999999799343  0.5625000000092442  0.3605200052333331   F   F   F
  0.2499999999799343  0.3124999999901945  0.3605200052333331   F   F   F
  0.7499999404149307  0.5625000000092442  0.3605200052333331   F   F   F
  0.7499999404149307  0.3124999999901945  0.3605200052333331   F   F   F
  0.7499999404149307  0.0625000000159659  0.3605200052333331   F   F   F
  0.4166666269218169  0.8124999999834799  0.3605200052333331   F   F   F
  0.4166666269218169  0.3124999999901945  0.3605200052333331   F   F   F
  0.7499999404149307  0.8124999999834799  0.3605200052333331   F   F   F
  0.4166666269218169  0.0625000000159659  0.3605200052333331   F   F   F
  0.4169969276653660  0.0616067058870868  0.4553726805252936   F   F   F
  0.0834544569016273  0.8121053206226136  0.4541918621887504   F   F   F
  0.4166666269218169  0.5625000000092442  0.3605200052333331   F   F   F
  0.5833333134730552  0.3124999999901945  0.3605200052333331   F   F   F
  0.5833333134730552  0.8124999999834799  0.3605200052333331   F   F   F
  0.0834196708668813  0.3120461142722917  0.4539937988850724   F   F   F
  0.8333332538436267  0.7500000000123208  0.4070133268666680   F   F   F
  0.4143811408010976  0.8117855347407072  0.5479325005119406   F   F   F
  0.8333332538436267  0.4999999999932783  0.4070133268666680   F   F   F
  0.7495425758797651  0.0640795245758738  0.4533609282425672   F   F   F
  0.4166666269218169  0.1875000000030838  0.3605200052333331   F   F   F
  0.0833333358191695  0.9375000000154046  0.3605200052333331   F   F   F
  0.0833333358191695  0.8124999999834799  0.3605200052333331   F   F   F
  0.0833333358191695  0.4374999701794380  0.3605200052333331   F   F   F
  0.2518946116142402  0.5646324445007807  0.4537926422556637   F   F   F
  0.4154854543146413  0.3113909553797427  0.4573600774249797   F   F   F
  0.0837328835111322  0.0618737829338443  0.4541942809610617   F   F   F
  0.4160338630839533  0.5595122851473704  0.4578901619019433   F   F   F
  0.0839394711350963  0.5624826692628062  0.4538878699345261   F   F   F
  0.0833333358191695  0.6874999999963620  0.3605200052333331   F   F   F
  0.8360488917761373  0.7517030846005639  0.5026139477398885   F   F   F
  0.1666666716383389  0.8749999404036828  0.4070133268666680   F   F   F
  0.0000000000000000  0.1249999999871179  0.4070133268666680   F   F   F
  0.8358145312968972  0.2483934858842147  0.5029257484472325   F   F   F
  0.9997100563795769  0.6230688567028579  0.6257304039723977   F   F   F
  0.8333332538436267  0.3750000000061604  0.4070133268666680   F   F   F
  0.8376368348853305  0.3725754756653927  0.6032555428099755   F   F   F
  0.5000000000021103  0.6249999999803961  0.4070133268666680   F   F   F
  0.1636347670742495  0.4998955958964189  0.5020423222705617   F   F   F
  0.9990506794090948  0.8751713496635958  0.6224114214034842   F   F   F
  0.3317552347304513  0.1199561497788153  0.6136379715866980   F   F   F
  0.8395517339769683  0.6270206436710950  0.6039005035357334   F   F   F
  0.5000000000021103  0.3750000000061604  0.4070133268666680   F   F   F
  0.5000000000021103  0.1249999999871179  0.4070133268666680   F   F   F
  0.8320325706406706  0.8762075818193082  0.6182024839731568   F   F   F
  0.8333332538436267  0.1249999999871179  0.4070133268666680   F   F   F
  0.6665880079120967  0.6261943075937992  0.5933599795091808   F   F   F
  0.5000000000021103  0.8749999404036828  0.4070133268666680   F   F   F
  0.5014422788292663  0.3714959683201187  0.5948212874344918   F   F   F
  0.5037284927347088  0.6251142388960673  0.5940479730916337   F   F   F
  0.8332932897377532  0.1254598012365165  0.6228404917523989   F   F   F
  0.0001990832701324  0.3750023533180311  0.6245421439293608   F   F   F
  0.6652840056774423  0.8810175055496785  0.6072363744782265   F   F   F
  0.1666666716383389  0.6249999999803961  0.4070133268666680   F   F   F
  0.1633734293747011  0.3713488593157805  0.6077291082880265   F   F   F
  0.1595984463912288  0.6274557506473144  0.6014997050861268   F   F   F
  0.6707541866750049  0.3725578782837218  0.5929218117191155   F   F   F
  0.1662388096683571  0.8735959311623844  0.6181097323087812   F   F   F
  0.3344703122636687  0.8787560454660408  0.6028370158587961   F   F   F
  0.6666666865533486  0.8749999404036828  0.4070133268666680   F   F   F
  0.1677212323446540  0.1229762603621509  0.6220227753843943   F   F   F
  0.3340943530694105  0.6245484602500966  0.5951402486249933   F   F   F
  0.6652276837871085  0.1249570536678206  0.6113959231250234   F   F   F
  0.5005381535865254  0.1223781899441860  0.6064859103100062   F   F   F
  0.3259265637174309  0.3736137214173780  0.5927065886747513   F   F   F
  0.1666666716383389  0.1249999999871179  0.4070133268666680   F   F   F
  0.8361516167150640  0.5000930026334700  0.5027252795650341   F   F   F
  0.1643782308463599  0.7515762334766620  0.5034238234141384   F   F   F
  0.5012477681738474  0.4998221061549941  0.5002091870061207   F   F   F
  0.3302659642595103  0.2480206399815685  0.5029036530540552   F   F   F
  0.6666666865533486  0.3750000000061604  0.4070133268666680   F   F   F
  0.3311936027708313  0.4992474080619047  0.5009258639498100   F   F   F
  0.0005805462907276  0.1226400755454407  0.6197222987840050   F   F   F
  0.1666666716383389  0.3750000000061604  0.4070133268666680   F   F   F
  0.3331635985871060  0.0012615864159358  0.5058210164459851   F   F   F
  0.6659272205872284  0.9999972222089681  0.5054715164789201   F   F   F
  0.1659931172154856  0.0012578417544304  0.5065571781242255   F   F   F
  0.6654586219409495  0.7519139444104681  0.5022438637348046   F   F   F
  0.6669485772642787  0.2479837004880707  0.5026402200868247   F   F   F
  0.8333332538436267  0.6249999999803961  0.4070133268666680   F   F   F
  0.0000000000000000  0.3750000000061604  0.4070133268666680   F   F   F
  0.3338307371469611  0.7511817579078652  0.5015216323816887   F   F   F
  0.5011278601549520  0.2479826959115812  0.5021751744603264   F   F   F
  0.9999540734432699  0.0000111228776305  0.5066602418949984   F   F   F
  0.5011227068397091  0.7528348318621454  0.5038802008447831   F   F   F
  0.3333333432766779  0.3750000000061604  0.4070133268666680   F   F   F
  0.6685705499247092  0.4998815048665435  0.5006183336296530   F   F   F
  0.0000000000000000  0.8749999404036828  0.4070133268666680   F   F   F
  0.5003283102499623  0.9993323599393520  0.5054755825643937   F   F   F
  0.5007335596556146  0.8768177180967385  0.6095370738457646   F   F   F
  0.1663753225555524  0.2482422140122651  0.5062441201695123   F   F   F
  0.3333333432766779  0.8749999404036828  0.4070133268666680   F   F   F
  0.8342317345185180  0.0004406225710269  0.5066320198310379   F   F   F
  0.0000000000000000  0.6249999999803961  0.4070133268666680   F   F   F
  0.3333333432766779  0.1249999999871179  0.4070133268666680   F   F   F
  0.3333333432766779  0.6249999999803961  0.4070133268666680   F   F   F
  0.8333332538436267  0.8749999404036828  0.4070133268666680   F   F   F
  0.6666666865533486  0.6249999999803961  0.4070133268666680   F   F   F
  0.0008021168585444  0.2499164929501561  0.5059035231718312   F   F   F
  0.9999310194997904  0.7510825872513891  0.5065571933899164   F   F   F
  0.9997141643820555  0.5002207982318794  0.5068201588423662   F   F   F
  0.6666666865533486  0.1249999999871179  0.4070133268666680   F   F   F
  0.7519402906732111  0.7526325825996167  0.5905468840137331   F   F   F
  0.0833333358191695  0.2500000000190425  0.4070133268666680   F   F   F
  0.9180091549529052  0.7519503876029248  0.6032937331472255   F   F   F
  0.0833333358191695  0.4999999999932783  0.4070133268666680   F   F   F
  0.4166666269218169  0.4999999999932783  0.4070133268666680   F   F   F
  0.2499999999799343  0.2500000000190425  0.4070133268666680   F   F   F
  0.5838458563541593  0.8757744120871962  0.5057318663397723   F   F   F
  0.9186430335123603  0.3744637505383537  0.5058893176579815   F   F   F
  0.0833333358191695  0.0000000000000000  0.4070133268666680   F   F   F
  0.9166666865332829  0.4999999999932783  0.4070133268666680   F   F   F
  0.9166666865332829  0.7500000000123208  0.4070133268666680   F   F   F
  0.5836703778068824  0.1235031031990417  0.5047656573156232   F   F   F
  0.7524834308482866  0.6247225307401081  0.5023529565320004   F   F   F