Au  C  H  O Sr Ti                       
   1.00000000000000     
    23.6707801818999997    0.0000000000000000    0.0000000000000000
     0.0000000000000000   22.3170261383000010    0.0000000000000000
     0.0000000000000000    0.0000000000000000   30.0000000000000000
   Au   C    H    O    Sr   Ti
    50     1     2   264    72    72
Selective dynamics
Direct
  0.7146086085890212  0.5247702341483235  0.7530267378652138   F   F   F 
  0.6207619498931258  0.5706218311012452  0.7039514884637310   F   F   F
  0.7289684187191684  0.2600818236599179  0.6917360121657566   F   F   F
  0.2932549857959360  0.7467746895323328  0.6972044177447581   F   F   F
  0.5118661808073734  0.6034730345526128  0.7770101750923053   F   F   F
  0.5782566468667334  0.7258195870872486  0.7937860666106401   F   F   F
  0.2400929644634513  0.4696555593133467  0.7090609395819415   F   F   F
  0.2848275053174009  0.6627600537076368  0.7646499760798482   F   F   F
  0.5935054299812608  0.2929763408419391  0.7870697673686127   F   F   F
  0.5140184947905907  0.4842692891182011  0.6781959164807261   F   F   F
  0.5628623590438967  0.4860828323004364  0.7623127271696157   F   F   F
  0.5540216408250028  0.2144223763824424  0.7129653389781584   F   F   F
  0.5458933335193505  0.3893089654828368  0.8305287672675219   F   F   F
  0.3912578031183579  0.8177049532037252  0.7064443023788418   F   F   F
  0.4638917462115791  0.6958232032621213  0.8298771432140812   F   F   F
  0.4354314249791507  0.2273699175923788  0.6981964559129423   F   F   F
  0.3682553587497627  0.3001327446029874  0.7564084346010462   F   F   F
  0.3487539450440229  0.5009631758835300  0.6978689470198397   F   F   F
  0.4271619387767945  0.3737903862628129  0.8169858497000778   F   F   F
  0.5964192720673580  0.7845466734742389  0.7129577399353357   F   F   F
  0.6341584091844242  0.5844565199282949  0.8002081244491303   F   F   F
  0.7324834374388468  0.6145727019308574  0.6940604842164780   F   F   F
  0.4857004706409860  0.7770855816624009  0.7549527073659004   F   F   F
  0.7630289194125001  0.4307179972888059  0.7046714171901098   F   F   F
  0.4804072148067771  0.2700009338785222  0.7758865308825216   F   F   F
  0.2884151098198952  0.5385806496763043  0.7776919681175596   F   F   F
  0.6186091744458162  0.3187684223383168  0.6967927694740059   F   F   F
  0.3681452344747308  0.6193791775201642  0.8201738505690773   F   F   F
  0.5686935158565771  0.5114105315679673  0.8571925680485716   F   F   F
  0.6753796598944217  0.2141807801476152  0.7613673431850693   T   T   T
  0.4685320481742012  0.4534366353178655  0.8816308031624994   F   F   F
  0.5178398139417847  0.3767369224017604  0.7334569352731312   F   F   F
  0.2812422049312467  0.3404619727367922  0.7025633445675004   F   F   F
  0.6693463708036802  0.6811936837496546  0.7488138412155415   F   F   F
  0.3969091295866568  0.3827454051230804  0.6908021244044300   F   F   F
  0.4521944732040819  0.5799967818498283  0.7029297397853674   F   F   F
  0.3746247059262188  0.4938319537784336  0.8327986883268308   F   F   F
  0.3238289737038936  0.4155862830023594  0.7696236436924457   F   F   F
  0.4176827658428946  0.6967786833319367  0.6994310298666462   F   F   F
  0.7004222520453820  0.3420994432675714  0.7590194897461595   F   F   F
  0.7727578524654815  0.4285451673579135  0.7946706374839024   F   F   F
  0.2566096172317305  0.5934804878270019  0.6945284683823262   F   F   F
  0.6482426705891063  0.4446984162432284  0.6944548386653587   F   F   F
  0.5646257445207948  0.6406008852913374  0.8616711867338731   F   F   F
  0.5405443563193119  0.6677129051741930  0.7019776160980092   F   F   F
  0.4433898590799549  0.4735924685439532  0.7561088860926148   F   F   F
  0.3741089101470335  0.7399322985121689  0.7786960279718106   F   F   F
  0.4621896861482223  0.5750172556548597  0.8644396473249928   F   F   F
  0.6547495514560671  0.4407027093908487  0.8129473783674827   F   F   F
  0.7065326875674252  0.7568332271773365  0.6883526103238117   F   F   F
  0.7125544984846135  0.1370220795565103  0.7623735170671481   T   T   T 
  0.7378035226919809  0.1243426357130722  0.7912061165516981   T   T   T 
  0.7125345938285049  0.1060262029890750  0.7343106267390745   T   T   T 
  0.2492275019037281  0.3138107364143321  0.5459464097497305   F   F   F
  0.7503893365622543  0.1896621883133071  0.4557469034193526   F   F   F
  0.4174918930027092  0.9357677474841709  0.4539351349670240   F   F   F
  0.4171869697394263  0.6847308462895479  0.4547494248728360   F   F   F
  0.4170324368691825  0.4355701089629720  0.4540496467227513   F   F   F
  0.0844359934386388  0.6869466342402810  0.4531439823145078   F   F   F
  0.0840854899489633  0.9368343022744572  0.4536888715155803   F   F   F
  0.0827959853201848  0.4368044115298162  0.4528384077977300   F   F   F
  0.0838602533689526  0.1865886815030948  0.4529894009113714   F   F   F
  0.9166378171348856  0.8121339721037487  0.4540741401218584   F   F   F
  0.7465547902498847  0.5574747673006422  0.5446342921194071   F   F   F
  0.9160946455521605  0.5622139988876560  0.4540553884022016   F   F   F
  0.9161297305591389  0.0622680994764074  0.4541124195314385   F   F   F
  0.9161662329307629  0.3122079011090828  0.4538277417431931   F   F   F
  0.4169309839686903  0.1872516607465837  0.4536111840049266   F   F   F
  0.2520391387007902  0.6876437705881081  0.4561648164998139   F   F   F
  0.9164582722230549  0.9371184865014073  0.4536596926264579   F   F   F
  0.5830044040221074  0.1903445271065910  0.4557132324948702   F   F   F
  0.0001963267873023  0.1250323587635495  0.4983088108634798   F   F   F
  0.5832759404297431  0.8104221923503534  0.4553408750268470   F   F   F
  0.0000249171729586  0.3737461165735412  0.4982101932142793   F   F   F
  0.9997115125622013  0.6271307128718178  0.4976711750831707   F   F   F
  0.3336255544020718  0.1256253557655572  0.4985632188641803   F   F   F
  0.0001234201258114  0.8752009931179277  0.4996177337226146   F   F   F
  0.3335460653121542  0.8743049472132373  0.4992400193729545   F   F   F
  0.6657905161266353  0.1262940147927044  0.4997541023613739   F   F   F
  0.2512084076467200  0.4392989711200750  0.4549216202535118   F   F   F
  0.0833333358191695  0.5625000000092442  0.3605200052333331   F   F   F
  0.9166666865332829  0.0625000000159659  0.3605200052333331   F   F   F
  0.7493410362708344  0.8131705889551152  0.4529966211818974   F   F   F
  0.7496337270725190  0.4383049505040123  0.4559361044466242   F   F   F
  0.2504861948436954  0.0619950481574530  0.4542578631107195   F   F   F
  0.7490651153198016  0.6886221803773557  0.4575393177632753   F   F   F
  0.2498705474759856  0.1884843610725701  0.4540934450130873   F   F   F
  0.2500130895876541  0.9361241597668825  0.4540881428044093   F   F   F
  0.6653624753416554  0.6258699689362609  0.5030152188582995   F   F   F
  0.5845004147426019  0.5628098834973120  0.4548887840397496   F   F   F
  0.5832651206126432  0.0636749450630704  0.4538559481642573   F   F   F
  0.9166666865332829  0.6874999999963620  0.3605200052333331   F   F   F
  0.9166666865332829  0.4374999701794380  0.3605200052333331   F   F   F
  0.9166666865332829  0.1875000000030838  0.3605200052333331   F   F   F
  0.5833333134730552  0.9375000000154046  0.3605200052333331   F   F   F
  0.5833333134730552  0.6874999999963620  0.3605200052333331   F   F   F
  0.5833333134730552  0.4374999701794380  0.3605200052333331   F   F   F
  0.5833333134730552  0.1875000000030838  0.3605200052333331   F   F   F
  0.2499999999799343  0.9375000000154046  0.3605200052333331   F   F   F
  0.9166666865332829  0.9375000000154046  0.3605200052333331   F   F   F
  0.2499999999799343  0.6874999999963620  0.3605200052333331   F   F   F
  0.2499999999799343  0.1875000000030838  0.3605200052333331   F   F   F
  0.7499999404149307  0.9375000000154046  0.3605200052333331   F   F   F
  0.7499999404149307  0.6874999999963620  0.3605200052333331   F   F   F
  0.7499999404149307  0.4374999701794380  0.3605200052333331   F   F   F
  0.7499999404149307  0.1875000000030838  0.3605200052333331   F   F   F
  0.4166666269218169  0.9375000000154046  0.3605200052333331   F   F   F
  0.4166666269218169  0.6874999999963620  0.3605200052333331   F   F   F
  0.4166666269218169  0.4374999701794380  0.3605200052333331   F   F   F
  0.2499999999799343  0.4374999701794380  0.3605200052333331   F   F   F
  0.0833333358191695  0.0625000000159659  0.3605200052333331   F   F   F
  0.9152796253680602  0.6868349668721934  0.4533294772111694   F   F   F
  0.6653708441045303  0.3786358670111440  0.5031437574436444   F   F   F
  0.3343678947477012  0.3784622103956627  0.5029618829757458   F   F   F
  0.3356155617534181  0.6258000618720033  0.5037725119134013   F   F   F
  0.9176712431732815  0.0634002485841335  0.5475374474356768   F   F   F
  0.7494750399578352  0.9384100526111564  0.4553495025641925   F   F   F
  0.5826228821588897  0.4394497749023255  0.4564774708826265   F   F   F
  0.9156650873066163  0.3126444051349242  0.5465504204518965   F   F   F
  0.2518265532351666  0.5645939976838243  0.4538489927129310   F   F   F
  0.5833333134730552  0.0625000000159659  0.3605200052333331   F   F   F
  0.2499999999799343  0.8124999999834799  0.3605200052333331   F   F   F
  0.2499999999799343  0.5625000000092442  0.3605200052333331   F   F   F
  0.2499999999799343  0.3124999999901945  0.3605200052333331   F   F   F
  0.2499999999799343  0.0625000000159659  0.3605200052333331   F   F   F
  0.7499999404149307  0.5625000000092442  0.3605200052333331   F   F   F
  0.7499999404149307  0.3124999999901945  0.3605200052333331   F   F   F
  0.7499999404149307  0.0625000000159659  0.3605200052333331   F   F   F
  0.4166666269218169  0.8124999999834799  0.3605200052333331   F   F   F
  0.4166666269218169  0.5625000000092442  0.3605200052333331   F   F   F
  0.4166666269218169  0.3124999999901945  0.3605200052333331   F   F   F
  0.7499999404149307  0.8124999999834799  0.3605200052333331   F   F   F
  0.0834829330943351  0.3120107322745339  0.4540390967320501   F   F   F
  0.4166666269218169  0.0625000000159659  0.3605200052333331   F   F   F
  0.4168264679120782  0.0615127267804015  0.4553526458717675   F   F   F
  0.0834481913950794  0.8121382388554199  0.4541630665230120   F   F   F
  0.0839640305191647  0.5624998925480424  0.4539988151435269   F   F   F
  0.4160371755338452  0.5595297212930100  0.4578879761754011   F   F   F
  0.0837616818395691  0.0619233208872542  0.4541576572516976   F   F   F
  0.4156329892967822  0.3114264167859861  0.4573802689275026   F   F   F
  0.8333332538436267  0.7500000000123208  0.4070133268666680   F   F   F
  0.0833333358191695  0.4374999701794380  0.3605200052333331   F   F   F
  0.0833333358191695  0.6874999999963620  0.3605200052333331   F   F   F
  0.0833333358191695  0.9375000000154046  0.3605200052333331   F   F   F
  0.4166666269218169  0.1875000000030838  0.3605200052333331   F   F   F
  0.0833333358191695  0.8124999999834799  0.3605200052333331   F   F   F
  0.8333332538436267  0.4999999999932783  0.4070133268666680   F   F   F
  0.2510988888280062  0.0625639317007173  0.5472646117180936   F   F   F
  0.4140597664305862  0.8117230964132311  0.5477462832624473   F   F   F
  0.5833333134730552  0.3124999999901945  0.3605200052333331   F   F   F
  0.2522341216742833  0.3141517608908983  0.4541452324866826   F   F   F
  0.5833333134730552  0.8124999999834799  0.3605200052333331   F   F   F
  0.5833333134730552  0.5625000000092442  0.3605200052333331   F   F   F
  0.2507348734734385  0.8108765750626807  0.4553174006181858   F   F   F
  0.8333332538436267  0.2500000000190425  0.4070133268666680   F   F   F
  0.5842971131864209  0.3152105823685652  0.4540522158488590   F   F   F
  0.7477919688643554  0.8076395990351164  0.5454226303817615   F   F   F
  0.5000000000021103  0.4999999999932783  0.4070133268666680   F   F   F
  0.0833333358191695  0.1875000000030838  0.3605200052333331   F   F   F
  0.0000000000000000  0.0000000000000000  0.4070133268666680   F   F   F
  0.0000000000000000  0.2500000000190425  0.4070133268666680   F   F   F
  0.0000000000000000  0.4999999999932783  0.4070133268666680   F   F   F
  0.7482748186475436  0.5642220646364642  0.4538233802080599   F   F   F
  0.3333333432766779  0.0000000000000000  0.4070133268666680   F   F   F
  0.3333333432766779  0.4999999999932783  0.4070133268666680   F   F   F
  0.3333333432766779  0.7500000000123208  0.4070133268666680   F   F   F
  0.6666666865533486  0.0000000000000000  0.4070133268666680   F   F   F
  0.6666666865533486  0.2500000000190425  0.4070133268666680   F   F   F
  0.6666666865533486  0.4999999999932783  0.4070133268666680   F   F   F
  0.6666666865533486  0.7500000000123208  0.4070133268666680   F   F   F
  0.1666666716383389  0.0000000000000000  0.4070133268666680   F   F   F
  0.1666666716383389  0.2500000000190425  0.4070133268666680   F   F   F
  0.1666666716383389  0.4999999999932783  0.4070133268666680   F   F   F
  0.1666666716383389  0.7500000000123208  0.4070133268666680   F   F   F
  0.5000000000021103  0.0000000000000000  0.4070133268666680   F   F   F
  0.5000000000021103  0.2500000000190425  0.4070133268666680   F   F   F
  0.5000000000021103  0.7500000000123208  0.4070133268666680   F   F   F
  0.9166666865332829  0.3124999999901945  0.3605200052333331   F   F   F
  0.3333333432766779  0.2500000000190425  0.4070133268666680   F   F   F
  0.7473442120054169  0.3141297296161402  0.4546047469467537   F   F   F
  0.0000000000000000  0.7500000000123208  0.4070133268666680   F   F   F
  0.4165920082472083  0.8099584614017625  0.4550685025883557   F   F   F
  0.7492889968768036  0.0642451865477030  0.4533630830208101   F   F   F
  0.5827706668196803  0.6860762977365905  0.4546439572957371   F   F   F
  0.8333332538436267  0.0000000000000000  0.4070133268666680   F   F   F
  0.9157307527579975  0.1867821603964957  0.4531616005207854   F   F   F
  0.4160263137902978  0.9370942705141748  0.5460577672344475   F   F   F
  0.4982395189875493  0.2538075256573338  0.5910805727054913   F   F   F
  0.4158918908373332  0.1914467610743830  0.5466064451241466   F   F   F
  0.0857452830241922  0.6893546979969306  0.5454167060142672   F   F   F
  0.0828901903685803  0.4389865441656521  0.5448287324281154   F   F   F
  0.0836013236259170  0.1888340032063661  0.5456416027554004   F   F   F
  0.4994314729659325  0.1256847226667951  0.4990718993744200   F   F   F
  0.9995703521305480  0.4987307057388283  0.5941259716664206   F   F   F
  0.5796049846086139  0.1848154345677512  0.5507217615992863   F   F   F
  0.9996912341844426  0.7535317061219033  0.5926570557636366   F   F   F
  0.3340442718318084  0.9998655099547563  0.5919952354863532   F   F   F
  0.9999218366418868  0.9988028436389295  0.5930732659917157   F   F   F
  0.0012270090913671  0.2502190511892006  0.5919937271397114   F   F   F
  0.3331732765896960  0.4962917664912631  0.5911029207114922   F   F   F
  0.3353434672683561  0.7411335271543960  0.5904839209630395   F   F   F
  0.6631752159344951  0.2461171943452916  0.5916621364801504   F   F   F
  0.6659711839600482  0.0007708716932602  0.5918978780546693   F   F   F
  0.6656084442855479  0.7412110315668403  0.5908888179179074   F   F   F
  0.6665657429189874  0.4945167128556044  0.5912552644817173   F   F   F
  0.1675072857252251  0.9983418511340959  0.5923404785786450   F   F   F
  0.1684974892247354  0.2482726105333805  0.5931244957328123   F   F   F
  0.1707790705155961  0.7503147200240803  0.5950137523271615   F   F   F
  0.2483432168511121  0.4359471711969492  0.5491130211708273   F   F   F
  0.1654750169849132  0.5033575675704112  0.5872736241170508   F   F   F
  0.3345373111267975  0.2546869518507189  0.5926133452554673   F   F   F
  0.4996736486415223  0.0001484737313544  0.5911459116500125   F   F   F
  0.8326727735181522  0.8741874721448822  0.4986354467321574   F   F   F
  0.7483948022381079  0.9375344720777044  0.6402649240489681   F   F   F
  0.8321520665582801  0.0021101661526402  0.5922634240060182   F   F   F
  0.7483382474868510  0.1829754156972583  0.5508823004999559   F   F   F
  0.4229658495246682  0.6878870683366658  0.5467660848261066   F   F   F
  0.4230708814396201  0.4436454127564839  0.5458996429677426   F   F   F
  0.7522549856606339  0.4341910312657436  0.5493612301655733   F   F   F
  0.5834678465183982  0.3113300095891556  0.5458960062428860   F   F   F
  0.2533071931933988  0.8125919568714083  0.5506898800388448   F   F   F
  0.5825248719041373  0.9371518191054156  0.4545012738602674   F   F   F
  0.5825720033635852  0.0616851212470216  0.5454638147777415   F   F   F
  0.5859887471431054  0.8142254533942429  0.5503910989703560   F   F   F
  0.7468962062196669  0.3102875097481365  0.5476124502370355   F   F   F
  0.5810937640174189  0.5600340799848850  0.5490245967109291   F   F   F
  0.2526067270691943  0.5591322030355212  0.5439346799919909   F   F   F
  0.4159116991383345  0.3196519545681521  0.5527105160521755   F   F   F
  0.5764977901856498  0.4358599972941293  0.5523347792713659   F   F   F
  0.4165684195780461  0.0654345552902442  0.5473304906597549   F   F   F
  0.0850814148132083  0.8126291933148344  0.5473353518593018   F   F   F
  0.0809539300557951  0.5645308934896179  0.5464804036527727   F   F   F
  0.0866934881473037  0.3136003341952194  0.5471214895987653   F   F   F
  0.5005310469771131  0.7568400845577005  0.5925406453493188   F   F   F
  0.0824162795023697  0.0631125454609348  0.5475852072233057   F   F   F
  0.9143100054957679  0.6887337192123922  0.5456652410280320   F   F   F
  0.5836938723887197  0.9375264054927004  0.5463212438854314   F   F   F
  0.9173452849529473  0.1889575125654322  0.5451404018543896   F   F   F
  0.9154495750641312  0.4374118032654450  0.5456974891033232   F   F   F
  0.5795121904313837  0.6861603964963757  0.5475139454689512   F   F   F
  0.2515074916690663  0.9372788728982785  0.5452891851006604   F   F   F
  0.4974254800263998  0.5044137069277544  0.6091370368964925   F   F   F
  0.9176490586528686  0.5636447638197752  0.5469958823752664   F   F   F
  0.4199763546186051  0.5648232930156738  0.5554219691747044   F   F   F
  0.9155017823750781  0.8127153556867391  0.5468091975156387   F   F   F
  0.0840993686758612  0.9383677755442464  0.5461222218432527   F   F   F
  0.2490727192534746  0.6832871730774591  0.5520055174716879   F   F   F
  0.7493194106199310  0.9338492456072446  0.5476982057728333   F   F   F
  0.7517379248594798  0.6799837934031887  0.5534643164015611   F   F   F
  0.9156408836597700  0.9385056449819756  0.5464184088376887   F   F   F
  0.4176324098797527  0.0651211793648691  0.6401223643477266   F   F   F
  0.0833333358191695  0.3124999999901945  0.3605200052333331   F   F   F
  0.4124734079733461  0.8128400920981316  0.6395363799618693   F   F   F
  0.9160739668067855  0.0624548806071545  0.6414168978444065   F   F   F
  0.9135899979596392  0.5628562414383140  0.6406041946355681   F   F   F
  0.9148501015544267  0.3117541272882117  0.6396210785415534   F   F   F
  0.9133573097325632  0.8133508171331089  0.6419512963008089   F   F   F
  0.5828294768047990  0.0669591752380117  0.6388608770858651   F   F   F
  0.5843246226928084  0.3208928836129579  0.6345220538447769   F   F   F
  0.5905352192118404  0.5661249521227616  0.6388304347862779   F   F   F
  0.2476414764308346  0.5740168294670023  0.6287435551371481   F   F   F
  0.7539220737677851  0.6918415884188465  0.6572466262513402   F   F   F
  0.2621201404618027  0.7997512571492507  0.6464543987673241   F   F   F
  0.2510049632680780  0.0594189381530828  0.6423370453543465   F   F   F
  0.9166666865332829  0.5625000000092442  0.3605200052333331   F   F   F
  0.4996530296012497  0.3739821895368460  0.5003346994632319   F   F   F
  0.5003083891279663  0.6210988230164203  0.5000991010465928   F   F   F
  0.8323681980197803  0.6230665072119090  0.5001371220804516   F   F   F
  0.2519979645184949  0.1882729978530435  0.5471460627355320   F   F   F
  0.8323217215979785  0.3729032312336315  0.4998309733348419   F   F   F
  0.8328104025619731  0.1243826321258972  0.5001978511764397   F   F   F
  0.1667686597191760  0.3762895404232046  0.4977016238527484   F   F   F
  0.1675669544545565  0.6242797846116360  0.5002308047288198   F   F   F
  0.5812116251158952  0.4389437645994036  0.6463537950665903   F   F   F
  0.5768727730444564  0.6861330395214390  0.6394423668989091   F   F   F
  0.9167499977386583  0.1861231251858165  0.6395867797344785   F   F   F
  0.2491048063457094  0.3164689441135161  0.6412500827833417   F   F   F
  0.1677943732355402  0.8732280619248718  0.4998492497910893   F   F   F
  0.9157221810451542  0.4369494184871503  0.4536377371914521   F   F   F
  0.1670800342378586  0.1243067064118970  0.4993247487556265   F   F   F
  0.7482390373571273  0.0596828129899362  0.5445330827642574   F   F   F
  0.4255456865893986  0.3045745553822646  0.6568844468973457   F   F   F
  0.5909791244747451  0.8103152471595959  0.6460452246398589   F   F   F
  0.4204806192004125  0.6761635451088632  0.6335857026262539   F   F   F
  0.5000111238460526  0.8729671695607398  0.5009418054677677   F   F   F
  0.7538193272198020  0.4331897570431301  0.6380613402219465   F   F   F
  0.7533368499011519  0.5680961225839690  0.6357933467253171   F   F   F
  0.3973625249678915  0.5506677385603939  0.6520525351057180   F   F   F
  0.4174899244899266  0.9348884435409549  0.6397844059699873   F   F   F
  0.7411266228736446  0.8098798269919221  0.6399692915538652   F   F   F
  0.7477981021754883  0.3120984362889216  0.6394202113226446   F   F   F
  0.7478061765621116  0.0684266884583772  0.6392179834671278   F   F   F
  0.0843653323972849  0.3112350055223030  0.6409478500639052   F   F   F
  0.6664021535358956  0.8744077583339871  0.4988308696684113   F   F   F
  0.0864788256025223  0.5628423088563256  0.6400992534336387   F   F   F
  0.0873515920522138  0.4365718573526047  0.6397077643020531   F   F   F
  0.0835852150983875  0.1853916909437599  0.6411897913122482   F   F   F
  0.4176279315292418  0.1874729054463030  0.6397212691039689   F   F   F
  0.4152375856134732  0.4187021055878999  0.6301479753917405   F   F   F
  0.0844765314934057  0.9355772599340083  0.6410206028747218   F   F   F
  0.0831412336237443  0.6870605193464844  0.6389013558672445   F   F   F
  0.0841489741867763  0.0602756703853614  0.6421593095311200   F   F   F
  0.8331351137998053  0.5023045106388269  0.5890948732974465   F   F   F
  0.9125130902315366  0.4361170320252064  0.6400088759486967   F   F   F
  0.8303499927985539  0.7508300935512341  0.5927346171741507   F   F   F
  0.8319931851068257  0.2483528463109596  0.5900892592174746   F   F   F
  0.7474769103729667  0.1950135222529484  0.6467554864987735   F   F   F
  0.9166666865332829  0.8124999999834799  0.3605200052333331   F   F   F
  0.5820884214287940  0.9363407884001500  0.6395669753061942   F   F   F
  0.0843635006142814  0.8126202394376466  0.6424168444911643   F   F   F
  0.5767769812284941  0.1931809230591510  0.6466840604446560   F   F   F
  0.2544877144328268  0.6779103795269444  0.6628900869233456   F   F   F
  0.2401150069627034  0.4423280145705648  0.6415820718611389   F   F   F
  0.9142891850968452  0.9369685756895836  0.6412473893443691   F   F   F
  0.9163324510171657  0.6876677356460370  0.6390379236075185   F   F   F
  0.2520927720292537  0.9302405960633835  0.6373945439585038   F   F   F
  0.2535732030233869  0.1864996871306331  0.6412073480145311   F   F   F
  0.0008426393708933  0.1224797342946785  0.6193962347429826   F   F   F
  0.1666666716383389  0.3750000000061604  0.4070133268666680   F   F   F
  0.6653661869591204  0.7518787683933333  0.5021770122229606   F   F   F
  0.5010484279572239  0.7528565605357372  0.5038279394887324   F   F   F
  0.6658694570525714 -0.0001153470297474  0.5055832996629008   F   F   F
  0.1644627478438813  0.7514422314289113  0.5034607222883298   F   F   F
  0.8333332538436267  0.6249999999803961  0.4070133268666680   F   F   F
  0.6684660545685761  0.4998470051329636  0.5006058272580708   F   F   F
  0.3312376049414723  0.4992299777653271  0.5009974707101508   F   F   F
  0.3301748541968046  0.2480547063067902  0.5028502437070856   F   F   F
  0.3331219389505613  0.0011184433012498  0.5058032924978317   F   F   F
  0.6667419509137524  0.2477490561489532  0.5027154513845754   F   F   F
  0.5010642209086256  0.4996841717826351  0.5002799608550444   F   F   F
  0.9996339227104627  0.5000487828637081  0.5067648993980055   F   F   F
  0.8361842379515251  0.5000883580734924  0.5028665735962544   F   F   F
  0.8362287669572978  0.2484786179263088  0.5022291722967768   F   F   F
  0.6666666865533486  0.3750000000061604  0.4070133268666680   F   F   F
  0.1660425460559225  0.0011389843040057  0.5065715202639429   F   F   F
  0.0000000000000000  0.8749999404036828  0.4070133268666680   F   F   F
  0.5012125377188780  0.2478628479182408  0.5024503583282816   F   F   F
  0.9999186879543783  0.7510978575754852  0.5066503208937951   F   F   F
  0.0011692955801998  0.2499062779167871  0.5059834925545259   F   F   F
  0.0001932888633608  0.9998909418821813  0.5066981070448336   F   F   F
  0.6666666865533486  0.6249999999803961  0.4070133268666680   F   F   F
  0.8333332538436267  0.8749999404036828  0.4070133268666680   F   F   F
  0.3333333432766779  0.6249999999803961  0.4070133268666680   F   F   F
  0.3333333432766779  0.1249999999871179  0.4070133268666680   F   F   F
  0.3333333432766779  0.3750000000061604  0.4070133268666680   F   F   F
  0.8343322272147787  0.0000930358436222  0.5065384008888369   F   F   F
  0.3333333432766779  0.8749999404036828  0.4070133268666680   F   F   F
  0.6666666865533486  0.1249999999871179  0.4070133268666680   F   F   F
  0.0000000000000000  0.6249999999803961  0.4070133268666680   F   F   F
  0.1664072112722879  0.2482015958120895  0.5062432132224127   F   F   F
  0.3338688109106359  0.7511640128420014  0.5015245160800405   F   F   F
  0.5001758871134486  0.9993496279923699  0.5055562034720470   F   F   F
  0.5009238459906593  0.8770961158835042  0.6096889569709030   F   F   F
  0.3260181797599572  0.3734741102546638  0.5928589637606824   F   F   F
  0.0000000000000000  0.3750000000061604  0.4070133268666680   F   F   F
  0.3341446907220353  0.6245611549882342  0.5950393343309142   F   F   F
  0.5000000000021103  0.8749999404036828  0.4070133268666680   F   F   F
  0.8333332538436267  0.1249999999871179  0.4070133268666680   F   F   F
  0.1666666716383389  0.1249999999871179  0.4070133268666680   F   F   F
  0.6655581792125621  0.1248644012659871  0.6098978840722997   F   F   F
  0.5000000000021103  0.6249999999803961  0.4070133268666680   F   F   F
  0.8394244829425810  0.6272268930952118  0.6040050191278347   F   F   F
  0.3315494150964491  0.1197872717678625  0.6130710183113419   F   F   F
  0.9990986022222438  0.8749513845489059  0.6233302958437393   F   F   F
  0.5000000000021103  0.1249999999871179  0.4070133268666680   F   F   F
  0.1635376519796093  0.4999129285472848  0.5019834273934826   F   F   F
  0.8317405428354384  0.8766296466767949  0.6182414196296060   F   F   F
  0.8380010831507828  0.3730657180039663  0.6029964113365445   F   F   F
  0.8361300327281153  0.7517535359752268  0.5026332102620853   F   F   F
  0.1666666716383389  0.8749999404036828  0.4070133268666680   F   F   F
  0.8333332538436267  0.3750000000061604  0.4070133268666680   F   F   F
  0.0000000000000000  0.1249999999871179  0.4070133268666680   F   F   F
  0.5035298968196263  0.6249515286316774  0.5940076552417289   F   F   F
  0.1666666716383389  0.6249999999803961  0.4070133268666680   F   F   F
  0.5000000000021103  0.3750000000061604  0.4070133268666680   F   F   F
  0.6666666865533486  0.8749999404036828  0.4070133268666680   F   F   F
  0.6705327612245754  0.3722019240794023  0.5931833187704856   F   F   F
  0.3345825059042368  0.8787840917325709  0.6027894482936100   F   F   F
  0.1663756531431006  0.8735536286615398  0.6180356548905894   F   F   F
  0.5017665426865380  0.3712849075866819  0.5952902188698320   F   F   F
  0.1595863545788573  0.6274669289490062  0.6015230612005014   F   F   F
  0.1677905031485082  0.1227777016852182  0.6220312044123659   F   F   F
  0.1632845481189649  0.3712315875712774  0.6075078099224382   F   F   F
  0.6654283162408673  0.8815424561228412  0.6074001219785485   F   F   F
  0.6665484154211224  0.6259976407609478  0.5932646209055171   F   F   F
  0.0002966845454304  0.3748840643073618  0.6251464134532985   F   F   F
  0.9996849002877286  0.6234552703592976  0.6241396349865692   F   F   F
  0.8347412395193288  0.1239647547590461  0.6154325571207677   F   F   F
  0.5002389082885317  0.1225428682892323  0.6071821122950006   F   F   F
  0.5847647029409327  0.7501514896657872  0.5996278402921247   F   F   F
  0.0839023070940932  0.2478671540081192  0.6038442376077868   F   F   F
  0.7495855863071738  0.0022262421803633  0.6044940099106937   F   F   F
  0.5825625554809528  0.0013439861717858  0.6041838504965550   F   F   F
  0.9165976618860022  0.9998277011398794  0.6038204078220472   F   F   F
  0.5901945923529142  0.5012633051360933  0.5934820767637943   F   F   F
  0.4147996958248203  0.2483834410100129  0.5913333702045858   F   F   F
  0.2497162571367949  0.7528599861912572  0.5920456841267446   F   F   F
  0.5843876698024586  0.2477164604541887  0.5977335142131683   F   F   F
  0.2497554450070310  0.9977083454515165  0.6042468647844953   F   F   F
  0.7546860991764969  0.2477437086575500  0.5917989097622965   F   F   F
  0.2493245729228706  0.2458780936259681  0.6037328556111504   F   F   F
  0.4170922523122886  0.0001039082631701  0.6047546182524731   F   F   F
  0.2422949359497670  0.4980091038798127  0.5939317999515924   F   F   F
  0.0814637049487095  0.4998044365747717  0.6031426217474460   F   F   F
  0.0811861455664988  0.6258931528519710  0.5054850113520528   F   F   F