Au  C  H  O Sr Ti 
 1.0000000000000000
    23.6707801818999997    0.0000000000000000    0.0000000000000000
     0.0000000000000000   22.3170261383000010    0.0000000000000000
     0.0000000000000000    0.0000000000000000   30.0000000000000000
 Au  C   H   O   Sr  Ti 
  50   3   7 264  72  72
Selective dynamics
Cartesian
 16.9489621301611990 11.6899441311027896 22.5804739050004848   F   F   F
 17.0434295123363313  5.6587124481065487 20.7567236073461920   F   F   F
  6.9506751676066996 16.6526320490133628 20.9067236036481034   F   F   F
 12.1153723267411078 13.4669750897913083 23.3046995436721183   F   F   F
 13.6899927289397709 16.1938122385727894 23.8192150513877685   F   F   F
  5.6917890156529332 10.4796042288161626 21.2750026113584596   F   F   F
  6.7577638705136156 14.7772416360880996 22.9387576192884701   F   F   F
 14.2324454587592175  6.3508564234441325 23.5152671540179803   F   F   F
 12.1768727081630104 10.8088548576990853 20.3415579794641914   F   F   F
 11.4794834968555080  6.0408392212921402 23.2468136201652236   F   F   F
  6.8525902383026995 12.0078301855969869 23.3257802223967055   F   F   F
 18.0603975751472454  9.5786237904471001 21.1169377855022908   F   F   F
 13.3269865032288930 10.8392900731010844 22.8706843434528082   F   F   F
 10.9812852687351015 15.5099268215206134 24.9243731011838037   F   F   F
 10.3370430405845894  5.0798553739606263 20.9336012405266558   F   F   F
  8.7444043030558714  6.6663657645833299 22.6653524998783631   F   F   F
  8.2741518583664870 11.1470885700923077 20.9328759917760188   F   F   F
 10.1288091601220032  8.2803049554031727 24.4651915575440668   F   F   F
 14.1177351861088880 17.5084223841001361 21.3908619065936563   F   F   F
 15.0400472545655006 13.0273633088896652 23.9919587488880950   F   F   F
 17.3431020677543799 13.7130371630816565 20.8233585934401262   F   F   F
 11.5010231481835650 17.3228687463053959 22.6526015194398305   F   F   F
 12.9895062206772316  8.5251721687881101 24.8010910575798817   F   F   F
  9.2682434731407000 18.2283024128866735 21.1984972343274656   F   F   F
 16.7245174940670012 16.8905972816892493 20.6509852131847289   F   F   F
 13.0844257191191407  4.7593572788837681 21.2850094893234996   F   F   F
  7.6992319122916664  9.2616729071787507 23.0818762647066222   F   F   F
 15.5256926068643448  9.8196416698708724 24.3670196033012729   F   F   F
  8.7285852103377017 13.8061945620337294 24.6167655206666431   F   F   F
 13.5075161357524181 11.3570749285033266 25.6843236113371987   F   F   F
 15.6764751160356823  4.0795317248185885 22.4090988719864974   T   T   T
 11.1756478987029730 10.0263694473811320 26.3294557942777629   F   F   F
 12.2591639914232697  8.4140945668163543 21.9559546900516409   F   F   F
  6.6714034018565416  7.6010068274487228 21.0678202388127680   F   F   F
 10.7061712134630138 12.9337733687564924 21.0834425326884407   F   F   F
  9.4146123876810837  8.5155144246128387 20.7137002188264070   F   F   F
 14.7034960039855811 12.7338527146354785 21.1256505759802025   F   F   F
 10.9677035853401232 12.7745899776907841 25.9265362169275946   F   F   F
 14.6036026326264512  7.1382364214429410 20.8734159500161631   F   F   F
  8.8677507905060526 16.4996421189347693 23.3704139583438497   F   F   F
 15.3429577335843526  9.9282876197521084 20.8349166544505273   F   F   F
 15.8456706879881004 15.2029370718727126 22.4632775368991915   F   F   F
 16.5731088024780320  7.6330433031923155 22.7133537564334347   F   F   F
 18.3111127923720112  9.5249579367276649 23.8156723273225595   F   F   F
  9.8710332975023682 15.5280043317268586 20.9885116849499411   F   F   F
 10.5097990177565066 10.5627156678225500 22.6895730377892306   F   F   F
 13.3726135481011230 14.2582040819463742 25.8234340193730532   F   F   F
 12.7952717860229246 14.8972888699280173 21.0506908427256896   F   F   F
  8.8937085725866591 11.0001698484976327 24.9852144460821286   F   F   F
  6.0804731625326660 13.2334572752652573 20.8350990906000320   F   F   F
 15.1738704378612521  1.1655390235077210 23.9549872878165999   T   T   T
 17.0445417541579225  2.5033047448843706 22.7661226227704887   T   T   T
 16.3237111809509088  1.1805731549922578 22.9390726937406946   T   T   T
 14.2918658239230982  1.6777560503575140 23.5558008063623596   T   T   T
 14.8733165754319128  0.1411272787657310 24.1879954970840245   T   T   T
 15.4567473957202210  1.6523137852489591 24.8940709244341640   T   T   T
 17.5441371950135547  2.8523502133151326 23.6734605110719016   T   T   T
 17.1079960348538975  0.4841185641191025 23.2818218795014147   T   T   T
 15.9868958337849900  0.7968807639804302 21.9722015877536059   T   T   T
 17.7200460932181763  2.5120259749713791 21.9107540275397099   T   T   T
  5.9719740774584498  7.0099146819294162 13.6252400680192594   F   F   F
  5.9678591038095909 15.3455232671950501 13.6824688210829741   F   F   F
  9.8758690689440289  4.1758488076484168 13.6064834989817136   F   F   F
 21.6857993193779812  6.9665704838545874 13.6168724647374564   F   F   F
 13.7949259608358865  6.9396212943638975 16.3457068144777367   F   F   F
 21.6852376333449008 12.5460557367568271 13.6214087020958843   F   F   F
 21.6956743226118292 18.1240513058092851 13.6218835776757956   F   F   F
  1.9849099655232896  4.1630716649652308 13.5892975945318675   F   F   F
  1.9597315553991417  9.7480865938512036 13.5863708340436045   F   F   F
  1.9856411896400776 20.9032216066054133 13.6049307122822647   F   F   F
  2.0021304444331185 15.3283424697384589 13.5917127405745699   F   F   F
  9.8580676406536565  9.7180249196175428 13.6152504402525789   F   F   F
 21.6933622818798391 20.9136013781556613 13.6102305180012610   F   F   F
  0.0003577184829421  2.7934332727597777 14.9545331926843019   F   F   F
 13.8067413495529152 18.0875519011284531 13.6603176328300506   F   F   F
 -0.0000816168354552  8.3329645835340465 14.9529274643262724   F   F   F
 23.6668228179671267 13.9950336854648629 14.9310436964281052   F   F   F
  7.8959773333385188  2.8020961132777304 14.9547774593802067   F   F   F
  0.0009612577185124 19.5298438927750055 14.9859629103179035   F   F   F
  7.8928624064138662 19.5013110868990296 14.9799132033745295   F   F   F
 15.7665725342135890  2.8240883944654405 14.9728465444587719   F   F   F
  5.9449011035568766  9.8034033715284856 13.6478204355412984   F   F   F
  1.9725650740000149 12.5533272030000536 10.8156001569999933   F   F   F
 21.6982156369999721  1.3948141340000613 10.8156001569999933   F   F   F
 17.7386767065511712 18.1475583489199792 13.5912564593005598   F   F   F
  5.9290094348663214  1.3832781171638737 13.6266260329156736   F   F   F
 21.6713783676260121  6.9775263850896323 16.4020134434227955   F   F   F
 13.7930294405333349  4.2458437796430992 13.6659432576316942   F   F   F
 13.8051971384000804  1.3929807347779810 16.3795444594816715   F   F   F
  0.0000000000000000  0.0000000000000000 12.2103998060000407   F   F   F
  9.8727952270837438 15.2830381505814668 13.6431374016059728   F   F   F
  9.8747446601427136 20.8854057988181552 13.6211740583035201   F   F   F
 21.6982156369999721  9.7636982699999884 10.8156001569999933   F   F   F
 21.6982156369999721  4.1844424010000720 10.8156001569999933   F   F   F
 13.8079546360000549 20.9222120050000342 10.8156001569999933   F   F   F
 13.8079546360000549 15.3429554700000619 10.8156001569999933   F   F   F
 13.8079546360000549  9.7636982699999884 10.8156001569999933   F   F   F
 13.8079546360000549  4.1844424010000720 10.8156001569999933   F   F   F
  5.9176950450000287 20.9222120050000342 10.8156001569999933   F   F   F
 21.6982156369999721 20.9222120050000342 10.8156001569999933   F   F   F
  5.9176950450000287 15.3429554700000619 10.8156001569999933   F   F   F
  5.9176950450000287  4.1844424010000720 10.8156001569999933   F   F   F
 17.7530837259999217 20.9222120050000342 10.8156001569999933   F   F   F
 17.7530837259999217 15.3429554700000619 10.8156001569999933   F   F   F
 17.7428241944842604  9.7777167782024215 13.6719020451673643   F   F   F
 17.7530837259999217  9.7636982699999884 10.8156001569999933   F   F   F
  5.9295896032916131 18.0948788639246843 13.6596310016063480   F   F   F
  9.8628241350000643 20.9222120050000342 10.8156001569999933   F   F   F
  9.8628241350000643  9.7636982699999884 10.8156001569999933   F   F   F
  5.9176950450000287  9.7636982699999884 10.8156001569999933   F   F   F
  1.9725650740000149  1.3948141340000613 10.8156001569999933   F   F   F
 21.6671530483497463 15.3256996443892159 13.5946975808276296   F   F   F
 15.7511399770643017  8.4466703162252390 15.0935073233506785   F   F   F
  7.9138885929573854  8.4460688585240398 15.0886621884757428   F   F   F
  7.9425831654845700 13.9615881296513660 15.1133201068727363   F   F   F
 21.7235680264148812  1.4137483078168227 16.4274114496947803   F   F   F
  5.9146458186188484  4.2067929655829550 13.6233362970178575   F   F   F
 17.7418197588705588 20.9418775092176723 13.6601122321090216   F   F   F
 17.7309040574994654 15.3681196407170120 13.7236018150267878   F   F   F
 17.7685219535929271  4.2242018459386221 13.6641999195459238   F   F   F
 17.7530837259999217  4.1844424010000720 10.8156001569999933   F   F   F
  5.9624282649821243 12.6006235657813441 13.6123042307896203   F   F   F
  9.8628241350000643 15.3429554700000619 10.8156001569999933   F   F   F
  1.9400247259016028 12.5940897138770040 16.3894447141976300   F   F   F
  5.9176950450000287  6.9740706679999214 10.8156001569999933   F   F   F
 19.7256482699999580  0.0000000000000000 12.2103998060000407   F   F   F
 13.8079546360000549  1.3948141340000613 10.8156001569999933   F   F   F
  5.9176950450000287  1.3948141340000613 10.8156001569999933   F   F   F
 17.7530837259999217  6.9740706679999214 10.8156001569999933   F   F   F
 17.7530837259999217  1.3948141340000613 10.8156001569999933   F   F   F
  9.8628241350000643 18.1325837370000720 10.8156001569999933   F   F   F
  9.8628241350000643 12.5533272030000536 10.8156001569999933   F   F   F
  9.8628241350000643  6.9740706679999214 10.8156001569999933   F   F   F
 17.7530837259999217 18.1325837370000720 10.8156001569999933   F   F   F
  9.8628241350000643  1.3948141340000613 10.8156001569999933   F   F   F
  9.8669386336295641  1.3736771025446461 13.6604471081918692   F   F   F
  1.9778038872695480 18.1221439929789803 13.6261260165912077   F   F   F
  1.9871850897858743 12.5523794777187998 13.6169815603645254   F   F   F
  9.8480660830139648 12.4863593298853495 13.7360810950495260   F   F   F
  1.9805599595637449  1.3807816450527346 13.6269504016509195   F   F   F
  1.9766618724812843  6.9614185901118191 13.6219128047502753   F   F   F
  5.9006484373777424  7.0010080086476476 16.3771001797474796   F   F   F
 19.7256482699999580 16.7377696039999648 12.2103998060000407   F   F   F
  1.9725650740000149  9.7636982699999884 10.8156001569999933   F   F   F
  1.9725650740000149 15.3429554700000619 10.8156001569999933   F   F   F
  1.9725650740000149 20.9222120050000342 10.8156001569999933   F   F   F
  9.8628241350000643  4.1844424010000720 10.8156001569999933   F   F   F
  1.9725650740000149 18.1325837370000720 10.8156001569999933   F   F   F
 19.7256482699999580 11.1585130689999925 12.2103998060000407   F   F   F
  5.9176950450000287 12.5533272030000536 10.8156001569999933   F   F   F
 17.7134684175751467 18.0341484433686965 16.3715194638112465   F   F   F
 17.6733424743227268 12.4521379612773160 16.3435570798453682   F   F   F
  5.9428181396272288  1.3939003126140390 16.4183290651647162   F   F   F
  9.8354633595331027  6.9476438963517086 13.7203828823638592   F   F   F
  9.8116186635527889 18.1146240894037156 16.4364548128801609   F   F   F
 17.7530837259999217 12.5533272030000536 10.8156001569999933   F   F   F
 21.6982156369999721 15.3429554700000619 10.8156001569999933   F   F   F
  5.9176950450000287 18.1325837370000720 10.8156001569999933   F   F   F
 13.8079546360000549  6.9740706679999214 10.8156001569999933   F   F   F
 11.8353900909999528 11.1585130689999925 12.2103998060000407   F   F   F
  1.9725650740000149  4.1844424010000720 10.8156001569999933   F   F   F
  0.0000000000000000  5.5792565349999723 12.2103998060000407   F   F   F
  0.0000000000000000 11.1585130689999925 12.2103998060000407   F   F   F
 17.7129844880034888 12.5894721112672592 13.6162161996491911   F   F   F
  7.8902602960000570  0.0000000000000000 12.2103998060000407   F   F   F
  7.8902602960000570 11.1585130689999925 12.2103998060000407   F   F   F
  7.8902602960000570 16.7377696039999648 12.2103998060000407   F   F   F
 15.7805205919999434  0.0000000000000000 12.2103998060000407   F   F   F
 15.7805205919999434  5.5792565349999723 12.2103998060000407   F   F   F
 15.7805205919999434 11.1585130689999925 12.2103998060000407   F   F   F
 13.8341652594048767 12.5596232637635783 13.6458318870150865   F   F   F
 13.8314125399085555  7.0392429980191187 13.6066894556993265   F   F   F
  3.9451301480000271  5.5792565349999723 12.2103998060000407   F   F   F
  3.9451301480000271 16.7377696039999648 12.2103998060000407   F   F   F
 11.8353900909999528  0.0000000000000000 12.2103998060000407   F   F   F
 11.8353900909999528  5.5792565349999723 12.2103998060000407   F   F   F
 11.8353900909999528 16.7377696039999648 12.2103998060000407   F   F   F
 21.6982156369999721  6.9740706679999214 10.8156001569999933   F   F   F
  7.8902602960000570  5.5792565349999723 12.2103998060000407   F   F   F
 17.6920033516210147  7.0005291607861384 13.6586308290699296   F   F   F
  0.0000000000000000 16.7377696039999648 12.2103998060000407   F   F   F
  9.8620714504151969 18.0767513148296644 13.6524857762192706   F   F   F
 13.8079546360000549 12.5533272030000536 10.8156001569999933   F   F   F
 17.7472724932307919  1.4215152960239261 13.6120626080327991   F   F   F
 13.8079546360000549 18.1325837370000720 10.8156001569999933   F   F   F
  3.9451301480000271  0.0000000000000000 12.2103998060000407   F   F   F
 19.7256482699999580  5.5792565349999723 12.2103998060000407   F   F   F
  3.9451301480000271 11.1585130689999925 12.2103998060000407   F   F   F
 15.7805205919999434 16.7377696039999648 12.2103998060000407   F   F   F
 13.8031031562152560  1.4196840231811763 13.6195515850236237   F   F   F
  5.9877195963416918 18.1329598415785362 16.5221941683419580   F   F   F
 13.9862259682724215 12.6131484190760865 19.1707395018615934   F   F   F
  1.9793738653226844  4.2167785707875538 16.3641199101995127   F   F   F
 11.8229203808630370  2.8011232399008557 14.9885953460549874   F   F   F
 23.6649070394535670 11.1570821954182016 17.8201969339406325   F   F   F
 13.7438832750194990  4.1365536177460793 16.4915879571978401   F   F   F
 23.6637382952441584 16.8051074474097142 17.7706041019002470   F   F   F
  7.9064891206854107 22.3128752912226638 17.7604778672914954   F   F   F
 23.6671501711759191 22.2989543866202240 17.7982434165665744   F   F   F
  0.0244294419919879  5.5755520143784993 17.7597876788378066   F   F   F
  7.8878247485497859 11.0744065861826098 17.7296513800469633   F   F   F
  7.9424722637350982 16.5410561345154150 17.7115359573637079   F   F   F
 15.7055380258172299  5.5235032933785941 17.7144417206098410   F   F   F
 15.7637898194322759  0.0092124147741700 17.7640837949540860   F   F   F
 15.7592427564713446 16.5496012315571370 17.7064340956402191   F   F   F
  9.4027449649173978 12.2853280723381300 19.5589412508095037   F   F   F
  1.9552849590829737  9.7869563197400034 16.3516294269308524   F   F   F
 15.7813571901287357 11.0333998447635384 17.7377238729672442   F   F   F
  4.0388873863992600 16.7391867252310718 17.8464700157816765   F   F   F
  5.8816005266124955  9.7260280340033063 16.4732088755363826   F   F   F
  3.9189368559184796 11.2181972100661795 17.6218032274012550   F   F   F
  7.9214045858162185  5.6797173471764548 17.7808831498842750   F   F   F
 11.8285701305314319  0.0006956054506493 17.7311629575650933   F   F   F
 19.7111131097101016 19.5103872515088632 14.9580596362593266   F   F   F
 17.7168780549189577 20.9072368030522178 19.2066951417625376   F   F   F
 19.6992143503528752  0.0454467418558011 17.7677157533632091   F   F   F
 11.8573898058136145 16.8742215356920333 17.7876642781548746   F   F   F
  9.8861200645234959  1.4529467130621603 19.2034086513705056   F   F   F
 10.1109155924190990  6.7989020991456739 19.6585779498492563   F   F   F
  9.8386482520104774  4.2676857585816403 16.3937457724323536   F   F   F
 11.7994033787619568  5.6434436129756831 17.7160999824170950   F   F   F
  3.9641106288614103 22.2807277539203632 17.7689196337131712   F   F   F
  3.9889886282835132  5.5387900375081394 17.7935503317035675   F   F   F
 21.6848914059087008  1.3893630649196080 13.6242995641532012   F   F   F
  9.8449067170715399 20.9112214137227319 16.3832356008533573   F   F   F
 13.8642461813766040 18.1721671808361585 16.5098174546677008   F   F   F
 15.7515431365862177 13.9650857494199574 15.0893898311223964   F   F   F
  9.7627365929178076 18.1386489450985344 19.1867967350493629   F   F   F
 21.6339763073911655 15.3779159452325835 16.3594005977101205   F   F   F
 21.6739607916885504 20.9449671448563279 16.3928259945146877   F   F   F
  1.9472979241495889  1.4119540753295408 16.4279072222883507   F   F   F
  2.0529065888189502  6.9962934735693922 16.4142742066279403   F   F   F
  2.0098954246439962 18.1407703733544636 16.4201495664557306   F   F   F
  9.8577973501531844  1.4568460003026658 16.4196056468099911   F   F   F
 13.6479907625358052  9.7214759640671282 16.5654407464352644   F   F   F
  5.9199464546073743 20.8894954077698429 13.6221497600687620   F   F   F
  9.8466136093654821  7.1274758964257900 16.5710855156344294   F   F   F
  5.9744157187851838 12.4757188082696793 16.3170155446992027   F   F   F
 13.7563434808140155 12.4969160999597708 16.4682121433085200   F   F   F
 13.8194875614620365 20.9266992263382825 16.3843496994637547   F   F   F
 17.7252204305621675  4.1117714602414948 16.5168697145012118   F   F   F
 21.6754272602552156  9.7652275732401943 16.3688125242987148   F   F   F
  5.9532941032593634 20.9170363809862749 16.3579042036397944   F   F   F
 11.7737891933035339 11.2555153857717460 18.2711060137260937   F   F   F
 21.7149682058313189 12.5813869194225170 16.4104097812762788   F   F   F
  9.9408098110886147 12.6058468402640358 16.6615048898902138   F   F   F
 21.6708567034835653 18.1395418944056459 16.4046692308139725   F   F   F
  1.9809373465634046 20.9501391253634637 16.3770780178019741   F   F   F
  5.8989018589746953 15.2466076390642744 16.5597476842811204   F   F   F
 17.7362736536498957 20.8444964303682454 16.4281747397834330   F   F   F
 17.7958746917552588 15.1786024374383040 16.6000125411997352   F   F   F
 17.7965884815879534  9.7208171608049980 16.4625029668195495   F   F   F
 10.0167093751791203  9.9000107213060691 16.3745901671164837   F   F   F
 10.0129311295281163 15.3509358040371318 16.4027238350670039   F   F   F
 21.6944929076128297  4.2159940882872107 16.3652310477036487   F   F   F
 17.6976850464272992  6.9734738658625730 16.4799854932707035   F   F   F
 13.7169964429300233 15.3098688926340571 16.4209159002037772   F   F   F
 17.5438367281691612 18.0712178022781416 19.1998243736384993   F   F   F
  1.9725650740000149  6.9740706679999214 10.8156001569999933   F   F   F
 21.6761091180254013  1.3928161343768628 19.2499146430654164   F   F   F
 13.8107237826641835  7.1523869805325591 18.9998721327732021   F   F   F
  5.8580728884819573 12.8022401439818712 18.8623621796226075   F   F   F
 17.8374829450107839 15.4390275495950338 19.7107215191648777   F   F   F
  6.2017141026715263 17.8367538239304260 19.3907579239089891   F   F   F
  5.9427765293924644  1.3240999125697510 19.2700727883746836   F   F   F
 21.6982156369999721 12.5533272030000536 10.8156001569999933   F   F   F
 11.8251294789092469  8.3511504674389361 14.9917652802721282   F   F   F
 11.8348296860520712 19.4912577443349697 15.0248542968922081   F   F   F
 11.8419659897310883 13.8607472424179754 15.0017895574565880   F   F   F
 19.7038434070693427 13.9050289628590402 15.0008325113377374   F   F   F
 19.7016272406880617  8.3251244660099601 14.9974155350120615   F   F   F
 19.7138298042213549  2.7750658363686718 15.0086262615011634   F   F   F
  3.9463519304142780  8.3970287691653294 14.9330177698065896   F   F   F
  3.9706067183762563 13.9329124513419398 15.0005722611518362   F   F   F
 13.7901109447069974  1.4655259548517416 19.1885634015535835   F   F   F
 13.7055547267760502 15.2988811711268067 19.1872720071143021   F   F   F
  5.8965153940370794  7.0567168353699303 19.2365637153873834   F   F   F
  3.9704683338140208 19.4890035360377034 14.9967127318548599   F   F   F
 13.7955180513636293 15.3112364174482209 13.6382320853021479   F   F   F
 13.7941728933510230 20.9139044217460501 13.6301533610925141   F   F   F
 21.6772462781886190  4.1701265218109782 13.5976918107962419   F   F   F
 21.6777073918393022  9.7503165588627745 13.6081001380646480   F   F   F
  3.9548114734954258  2.7744286155922451 14.9796946559813833   F   F   F
 17.7064080737117528  1.3443037333044034 16.3495779193543491   F   F   F
 17.8318788207028582 12.6770253297449536 19.0744718985831909   F   F   F
 21.6635049646134874  6.9586324620371913 19.1898697403710550   F   F   F
 21.6098885314360878 12.5407424800456102 19.2417802760229719   F   F   F
 13.9918455699636262 18.0750576767830644 19.3790805460966453   F   F   F
 13.7948070723781537  9.8108652099300873 13.6920254758300466   F   F   F
 21.6362891732920062 18.1492840251109087 19.2462607766617673   F   F   F
 21.6916799665377624  4.1544866366717894 19.1975423454136518   F   F   F
  5.9653388171486696  4.1982305424701671 16.4157934260914935   F   F   F
 13.7564589980908263  9.7831724201742993 19.3832991176980620   F   F   F
  2.0372326053341268 15.3827776540673149 16.3597459037768935   F   F   F
 15.7773262831958423 19.5103079252426248 14.9676519671237962   F   F   F
 17.7093712176569831  1.4979122713062145 19.1909842754382680   F   F   F
  1.9961383983186927  6.9456201600777243 19.2169092476775489   F   F   F
  2.0565256634961355 12.5559701364505223 19.2138903918132193   F   F   F
  1.9932866207071258  1.3463925025974066 19.2676560913222339   F   F   F
  2.0586562463582858  9.7414551535671734 19.1882242763528517   F   F   F
  1.9795563133346863  4.1338778668538891 19.2317660725821966   F   F   F
  9.8905094248688616  4.1790272869718192 19.1868445281351896   F   F   F
  1.9953528372323435 20.8771465478581248 19.2241988641804191   F   F   F
 21.6044187651878303  9.7238538059209372 19.1876555420892778   F   F   F
 21.6899809740565139 15.3413933960361089 19.1761508546619339   F   F   F
 21.6429703138332883 20.9089847001998592 19.2366801619612318   F   F   F
  9.8243799246907848  9.3430107342647535 18.9028194258738758   F   F   F
 17.8616096402375923  9.6525704488779791 19.1182646867431494   F   F   F
  9.8823510316519556 20.8638607336193793 19.1937253687097744   F   F   F
  1.9672952160255626 15.3307945282464395 19.1725631022697520   F   F   F
  5.9639255222905820 20.7575691894240855 19.1213675203129974   F   F   F
 17.6661042611007950  4.2952472312570826 19.3752094187765458   F   F   F
  6.0024583707411612  4.1597477859636491 19.2381225226702135   F   F   F
 19.6583621257133707 16.7531162413375299 17.7839632454750607   F   F   F
 19.6815185276091604  5.5630177805555920 17.7373337840344689   F   F   F
 13.7785360743668779 20.8766526410007067 19.1838628269927263   F   F   F
 21.6982156369999721 18.1325837370000720 10.8156001569999933   F   F   F
  1.9938909105663829 18.1288840251373529 19.2656715097838820   F   F   F
 17.6633194108534255  6.9082069978790344 19.2916799099141265   F   F   F
 13.7110736165848710  4.2662175110112281 19.3347229466896877   F   F   F
  6.0317918817235316 15.1162978329173008 19.8820227128503078   F   F   F
 19.7231656913049740 11.2087768745722922 17.6691657678730571   F   F   F
  5.6926631036019470  9.8632053156987993 19.2489449844050142   F   F   F
  9.9505750730963936 15.0795583307752246 19.0091012633178806   F   F   F
 11.8615213089064060 16.7995155159285012 15.1193058273292706   F   F   F
 19.7256482699999580 13.9481413360000008 12.2103998060000407   F   F   F
 23.6634520505622135 11.1642127114104142 15.2070304017566755   F   F   F
  7.7178318817503602  8.3322644712076617 17.7811825420987830   F   F   F
 15.7805205919999434  8.3688848019999824 12.2103998060000407   F   F   F
 15.7653363553392900 22.3147115483819647 15.1697974978968890   F   F   F
  3.8906444287789417 16.7705009831596037 15.1005437431397986   F   F   F
 15.8262187803003407 11.1542953922482546 15.0210170860765651   F   F   F
  0.0151712444520582  2.7307464127688852 18.5951938090151323   F   F   F
  7.8135877387886294  5.5345551070428360 15.0841656361780903   F   F   F
  7.8846779650573815  0.0218970184147101 15.1736448834367419   F   F   F
  7.9024977843579807 16.7624442636590025 15.0460542525107623   F   F   F
 19.7911920623663100 11.1582463295222638 15.0841234684023160   F   F   F
 15.7500440620992439 16.7789382955089827 15.0664131727096446   F   F   F
  3.9451301480000271  8.3688848019999824 12.2103998060000407   F   F   F
 15.7876057246979684  5.5326643608511956 15.0804695307906851   F   F   F
  0.0004975263385105 22.3161826635944180 15.2023317207966215   F   F   F
  0.0000000000000000 19.5273965409999306 12.2103998060000407   F   F   F
  7.8902602960000570  8.3688848019999824 12.2103998060000407   F   F   F
 11.8584018858594558  5.5306162157305607 15.0594587051707602   F   F   F
 23.6682513678998347 16.7578789522453206 15.1979713333369872   F   F   F
  0.0187190989467118  5.5733515666780038 15.1797961904967789   F   F   F
 15.7805205919999434 13.9481413360000008 12.2103998060000407   F   F   F
 19.7256482699999580 19.5273965409999306 12.2103998060000407   F   F   F
  7.8902602960000570 13.9481413360000008 12.2103998060000407   F   F   F
  7.8902602960000570  2.7896282670000101 12.2103998060000407   F   F   F
 15.7805205919999434  2.7896282670000101 12.2103998060000407   F   F   F
 19.7448655424157309  0.0041614718737903 15.1949372705243118   F   F   F
  7.8902602960000570 19.5273965409999306 12.2103998060000407   F   F   F
  0.0000000000000000 13.9481413360000008 12.2103998060000407   F   F   F
  3.9290228369884956  0.0248745333738574 15.1972340898771847   F   F   F
  7.8398519868001761 11.1406921886046728 15.0282687655668816   F   F   F
  3.8708689818108302 11.1532900298562634 15.0626381881421594   F   F   F
 19.7796130831667867  5.5453606080008226 15.0871758326435721   F   F   F
 11.8522086077801756 19.5630825297110000 18.2850662344615387   F   F   F
 11.8644719241599663 11.1523890287266223 15.0084270104592470   F   F   F
  0.0000000000000000  8.3688848019999824 12.2103998060000407   F   F   F
 23.6505809401416940 19.5255236479109868 18.6725138536596482   F   F   F
  0.0000000000000000  2.7896282670000101 12.2103998060000407   F   F   F
 19.7256482699999580  2.7896282670000101 12.2103998060000407   F   F   F
 11.8353900909999528 13.9481413360000008 12.2103998060000407   F   F   F
 19.8734197027940489 13.9894951175518099 18.1169881741937147   F   F   F
  3.9385354951352776  5.5371170583384153 15.1857633398938177   F   F   F
  7.8483875836587611  2.6705134447665855 18.3894224224666125   F   F   F
 15.7483694291400891  2.7641778721333852 18.3007412645352545   F   F   F
 19.7904156433066376 16.7746377290078392 15.0781263183156398   F   F   F
  7.9069789487767608 13.9334084193902399 17.8519103107853638   F   F   F
  3.9451301480000271 19.5273965409999306 12.2103998060000407   F   F   F
 19.7256482699999580  8.3688848019999824 12.2103998060000407   F   F   F
 19.8324638667475242  8.3088938746230134 18.0975013137458731   F   F   F
 19.6947982643144712 19.5539447284695669 18.5347422380798932   F   F   F
  3.9451301480000271  2.7896282670000101 12.2103998060000407   F   F   F
  7.9173251361576558 19.6082253278152727 18.0894855719610064   F   F   F
  0.0085282610749478  8.3578856446990528 18.7073299148726022   F   F   F
 11.8353900909999528  2.7896282670000101 12.2103998060000407   F   F   F
 11.8729550239777062  8.2840920100940014 17.8450322218274842   F   F   F
  3.9451301480000271 13.9481413360000008 12.2103998060000407   F   F   F
 11.9240627145337861 13.9469238313695101 17.8226921399315721   F   F   F
 11.8353900909999528  8.3688848019999824 12.2103998060000407   F   F   F
 15.7805205919999434 19.5273965409999306 12.2103998060000407   F   F   F
 11.8416938269885144 22.2997541126068306 15.1668953948823670   F   F   F
  3.9335707465983396 19.4912360680328867 18.5388109821805287   F   F   F
 15.8791615937234560  8.3078492487752147 17.8082982761185811   F   F   F
  3.7741244839169501 13.9968998272188010 18.0432716986453059   F   F   F
  3.9722957773432377  2.7377187307679680 18.6606592724866047   F   F   F
  3.8656198476242185  8.2855690202238055 18.2257019979919477   F   F   F
 15.7505542667229079 19.6598350874108085 18.2110548772709819   F   F   F
 15.7764196723016248 13.9725992073262386 17.8070396013780261   F   F   F
 19.7467717381128622  2.7647483251714777 18.4669341948976893   F   F   F
 23.6608454373443244 13.8919697817298999 18.8511946666297128   F   F   F
 11.8353900909999528 19.5273965409999306 12.2103998060000407   F   F   F
 11.8437242121410407  2.7217393302300668 18.1924896933711473   F   F   F
 13.7888396891890217  0.0180001941054989 18.1321629589640061   F   F   F
 13.8333091815294260  5.5234861846662682 17.8931746476748152   F   F   F
 13.8079546360000549  5.5792565349999723 12.2103998060000407   F   F   F
  1.9828751059511145  5.5268424265622569 18.1099728259578256   F   F   F
 17.7454619066309078  0.0393216496747089 18.1360766996924063   F   F   F
 21.6935542379294262 22.3150913988569890 18.1188262972819771   F   F   F
  1.9309925239714609 11.1563488185506756 18.0949023270466824   F   F   F
  5.7411563764509053 11.1071509315834724 17.8206834137815058   F   F   F
  1.9407412571303755  8.3582984238744409 15.1861738019047579   F   F   F
  5.9023167935839336 16.7975607084960998 17.7596758231909924   F   F   F