Au  O Sr Ti                             
   1.00000000000000     
    23.6707801818999997    0.0000000000000000    0.0000000000000000
     0.0000000000000000   22.3170261383000010    0.0000000000000000
     0.0000000000000000    0.0000000000000000   30.0000000000000000
   Au   O    Sr   Ti
    50   264    72    72
Selective dynamics
Direct
  0.7195136415375750  0.5233434606574718  0.7578525113367347   T   T   T
  0.6276673119018725  0.5616346105820258  0.7071122023041074   T   T   T
  0.7176369105791888  0.2593437394596607  0.6943258551702433   T   T   T
  0.2830626247977824  0.7414441931932848  0.7026239155041795   T   T   T
  0.5189392112454368  0.6043467289339293  0.7791160913058933   T   T   T
  0.5776503520262649  0.7249117609614151  0.7955307878279376   T   T   T
  0.5509577425767392  0.3833979443700905  0.8317113968428821   T   T   T
  0.2485910081947465  0.4668927154135676  0.7122907783436354   T   T   T
  0.2854438181646655  0.6582964728724431  0.7691072969589144   T   T   T
  0.6019320517716755  0.2876782307628494  0.7907691276965375   T   T   T
  0.5172150312336692  0.4834682600661899  0.6810557922069005   T   T   T
  0.5628961424183589  0.4842881612244488  0.7662610042415490   T   T   T
  0.4637431092999486  0.6924980641390380  0.8326155755150786   T   T   T
  0.7628879834175438  0.4306102537908440  0.7078423468931965   T   T   T
  0.7334460240049167  0.6134223321535142  0.6977336122848584   T   T   T
  0.6384063345987657  0.5808358698416928  0.8043109646517161   T   T   T
  0.5960107313201067  0.7819402384123284  0.7162037458618783   T   T   T
  0.4822303512666856  0.7791353160430197  0.7630864554880991   T   T   T
  0.3502751115090303  0.5166491421040240  0.7038608541097977   T   T   T
  0.4316204608807429  0.3734577107468898  0.8169639281440586   T   T   T
  0.3726829582750013  0.2995832118442929  0.7592038952184819   T   T   T
  0.4411210104746503  0.2324619976882173  0.6996812241817008   T   T   T
  0.3819820578105366  0.8053305320822551  0.7084953373600557   T   T   T
  0.2899513496691473  0.5349569687775888  0.7832391821217013   T   T   T
  0.5541450795035455  0.2078523527743320  0.7143282330418604   T   T   T
  0.4589577922580368  0.5813591318505911  0.7056438232538248   T   T   T
  0.6116088626311211  0.3172070810132478  0.7008490558437892   T   T   T
  0.7059006791723494  0.7540872578714056  0.6925353164152658   T   T   T
  0.6569359283408257  0.4401821384159000  0.8168287962589320   T   T   T
  0.3666880184729405  0.6184106861279695  0.8275673413606778   T   T   T
  0.5723913382079598  0.5094310158253763  0.8605188880771495   T   T   T
  0.6635788746063700  0.1941133199651419  0.7544111721366940   T   T   T
  0.4738479313259160  0.4510344689255348  0.8806274146430655   T   T   T
  0.5153299994204519  0.3777370322334472  0.7363221821469805   T   T   T
  0.2837153907928266  0.3382432112012943  0.7063318515616889   T   T   T
  0.6702295566881935  0.6785550874021107  0.7532149887676221   T   T   T
  0.3982675434186094  0.3821446401702699  0.6947750709270930   T   T   T
  0.3779956880997419  0.4929912801103178  0.8361293796139204   T   T   T
  0.4649990939135805  0.5729812405858792  0.8653668756577896   T   T   T
  0.3267178727590366  0.4137672421711728  0.7736047065497297   T   T   T
  0.4875621185941327  0.2702387341091218  0.7778057866571444   T   T   T
  0.4416516826825885  0.7024604987457990  0.6997639247270141   T   T   T
  0.6981382474650796  0.3455560765060028  0.7589624782743890   T   T   T
  0.7737045952137828  0.4259844796365276  0.7978194510201070   T   T   T
  0.2521729972550251  0.5917370619873128  0.6989534095756565   T   T   T
  0.6466397096468658  0.4370960560918249  0.6996886147425051   T   T   T
  0.5663750195523610  0.6388249423574044  0.8630609363208629   T   T   T
  0.5535511382906311  0.6603359265310969  0.7032608063899525   T   T   T
  0.4423528292481180  0.4750477413028305  0.7561389155795243   T   T   T
  0.3730595228645069  0.7340150558996906  0.7818112706654430   T   T   T
  0.2501823130258314  0.1890164503822829  0.4549009939198988   T   T   T
  0.7492280949742398  0.9377038905179276  0.4553012924279591   T   T   T
  0.7489648239448540  0.6874477519094158  0.4573193724947421   T   T   T
  0.7489933431300708  0.4381018350334502  0.4564659702271252   T   T   T
  0.7500925530780475  0.1897195370979913  0.4560620499253688   T   T   T
  0.4174087987992288  0.9363908740788056  0.4551800558243489   T   T   T
  0.4170303498774917  0.6846296382465001  0.4557008153721048   T   T   T
  0.4172622494387555  0.4360615158060866  0.4555948778194354   T   T   T
  0.0847081977244781  0.6869054279250587  0.4534851377702093   T   T   T
  0.0839832541849581  0.9369373669328763  0.4540611073956753   T   T   T
  0.0835243177796860  0.4375120323238017  0.4537568277415920   T   T   T
  0.0834432731184816  0.1875040618050426  0.4541253768157138   T   T   T
  0.9166598349762305  0.8122769672614413  0.4542664229494173   T   T   T
  0.9159805226611756  0.5623334780419704  0.4541254206732466   T   T   T
  0.2517350396017509  0.4399713423180804  0.4560348462105858   T   T   T
  0.9161786207782251  0.0624558168601738  0.4544310182019074   T   T   T
  0.9165909342388882  0.3124708221847468  0.4541528239215611   T   T   T
  0.4169113533724538  0.1882541852212325  0.4549119328779956   T   T   T
  0.2521388363175106  0.6871995637071936  0.4569486030111877   T   T   T
  0.9166255981983593  0.9372955678214020  0.4539379392634962   T   T   T
  0.5829928212277355  0.1896627541653002  0.4556116492072922   T   T   T
  0.0004104995110860  0.1243516469561802  0.4997195794786510   T   T   T
  0.5834065680844299  0.8099039770124535  0.4559323465330491   T   T   T
  0.0000144839364944  0.3747119784320474  0.4999708311441861   T   T   T
  0.9997178435625254  0.6269428579231661  0.4982292653938569   T   T   T
  0.3333711113429433  0.1254539202211601  0.4997194154368842   T   T   T
 -0.0000873125028166  0.8750592700374469  0.5003439643615456   T   T   T
  0.3332468737625527  0.8732664780398108  0.4997102351931769   T   T   T
  0.6661213552484183  0.1255629604908994  0.5002211083551855   T   T   T
  0.3360720262258514  0.6249315889807022  0.5059718511960971   T   T   T
  0.3345822147826146  0.3791031503289631  0.5048895075988682   T   T   T
  0.6652455941458780  0.3787167942556927  0.5052323795732127   T   T   T
  0.9151710193113239  0.6869990685564934  0.4537572205687622   T   T   T
  0.9159921949800391  0.4370809444918516  0.4540474503797995   T   T   T
  0.9166311009630778  0.1873287464053356  0.4539021394944118   T   T   T
  0.5822739727839047  0.9364955299734898  0.4545471432436095   T   T   T
  0.5826117152690315  0.6858157739462870  0.4552895233558005   T   T   T
  0.5824944870508237  0.4390485691828551  0.4570373483050865   T   T   T
  0.2502111153495296  0.9359417537665862  0.4543375603679313   T   T   T
  0.6653952344992322  0.6261277188101687  0.5039090442901444   T   T   T
  0.5846321156811969  0.5625784480308287  0.4555780101312058   T   T   T
  0.5832230932594097  0.0627283972688800  0.4548258356135279   T   T   T
  0.9166666865332829  0.6874999999963620  0.3605200052333331   F   F   F
  0.9166666865332829  0.4374999701794380  0.3605200052333331   F   F   F
  0.9166666865332829  0.1875000000030838  0.3605200052333331   F   F   F
  0.5833333134730552  0.9375000000154046  0.3605200052333331   F   F   F
  0.5833333134730552  0.6874999999963620  0.3605200052333331   F   F   F
  0.5833333134730552  0.4374999701794380  0.3605200052333331   F   F   F
  0.5833333134730552  0.1875000000030838  0.3605200052333331   F   F   F
  0.2499999999799343  0.9375000000154046  0.3605200052333331   F   F   F
  0.9166666865332829  0.9375000000154046  0.3605200052333331   F   F   F
  0.2499999999799343  0.6874999999963620  0.3605200052333331   F   F   F
  0.2499999999799343  0.1875000000030838  0.3605200052333331   F   F   F
  0.7499999404149307  0.9375000000154046  0.3605200052333331   F   F   F
  0.7499999404149307  0.6874999999963620  0.3605200052333331   F   F   F
  0.7499999404149307  0.4374999701794380  0.3605200052333331   F   F   F
  0.7499999404149307  0.1875000000030838  0.3605200052333331   F   F   F
  0.4166666269218169  0.9375000000154046  0.3605200052333331   F   F   F
  0.4166666269218169  0.6874999999963620  0.3605200052333331   F   F   F
  0.4166666269218169  0.4374999701794380  0.3605200052333331   F   F   F
  0.2499999999799343  0.4374999701794380  0.3605200052333331   F   F   F
  0.0833333358191695  0.0625000000159659  0.3605200052333331   F   F   F
  0.0833333358191695  0.3124999999901945  0.3605200052333331   F   F   F
  0.0833333358191695  0.5625000000092442  0.3605200052333331   F   F   F
  0.9166666865332829  0.3124999999901945  0.3605200052333331   F   F   F
  0.9166666865332829  0.0625000000159659  0.3605200052333331   F   F   F
  0.5833333134730552  0.8124999999834799  0.3605200052333331   F   F   F
  0.5833333134730552  0.5625000000092442  0.3605200052333331   F   F   F
  0.5833333134730552  0.3124999999901945  0.3605200052333331   F   F   F
  0.5833333134730552  0.0625000000159659  0.3605200052333331   F   F   F
  0.2499999999799343  0.8124999999834799  0.3605200052333331   F   F   F
  0.2499999999799343  0.5625000000092442  0.3605200052333331   F   F   F
  0.2499999999799343  0.3124999999901945  0.3605200052333331   F   F   F
  0.2499999999799343  0.0625000000159659  0.3605200052333331   F   F   F
  0.7499999404149307  0.8124999999834799  0.3605200052333331   F   F   F
  0.7499999404149307  0.5625000000092442  0.3605200052333331   F   F   F
  0.7499999404149307  0.3124999999901945  0.3605200052333331   F   F   F
  0.7499999404149307  0.0625000000159659  0.3605200052333331   F   F   F
  0.4166666269218169  0.8124999999834799  0.3605200052333331   F   F   F
  0.4166666269218169  0.5625000000092442  0.3605200052333331   F   F   F
  0.4166666269218169  0.3124999999901945  0.3605200052333331   F   F   F
  0.4166666269218169  0.0625000000159659  0.3605200052333331   F   F   F
  0.0833333358191695  0.8124999999834799  0.3605200052333331   F   F   F
  0.4166666269218169  0.1875000000030838  0.3605200052333331   F   F   F
  0.0833333358191695  0.9375000000154046  0.3605200052333331   F   F   F
  0.0833333358191695  0.6874999999963620  0.3605200052333331   F   F   F
  0.0833333358191695  0.4374999701794380  0.3605200052333331   F   F   F
  0.8333332538436267  0.4999999999932783  0.4070133268666680   F   F   F
  0.8333332538436267  0.7500000000123208  0.4070133268666680   F   F   F
  0.0837608355025182  0.0621109273126328  0.4544348128830614   T   T   T
  0.0833613965610582  0.3126995302698512  0.4542036384388369   T   T   T
  0.0841390136608954  0.5627963671081955  0.4542730467686291   T   T   T
  0.0832573839585127  0.8122562420320280  0.4543285542713865   T   T   T
  0.4163186762034732  0.0624660862836931  0.4550017282608583   T   T   T
  0.4152389505123746  0.3121686696373139  0.4577009668778941   T   T   T
  0.4158228027600086  0.5595821484053878  0.4584336658871470   T   T   T
  0.4165536560677913  0.8096966950734313  0.4556775436525177   T   T   T
  0.7496569089644650  0.0636309096529132  0.4542046295172801   T   T   T
  0.7472366440395968  0.3140101914966488  0.4554892991881914   T   T   T
  0.7483318099940028  0.5634933272621885  0.4549414224146367   T   T   T
  0.7492759887322827  0.8117100781609869  0.4547863083569648   T   T   T
  0.2503675090927449  0.0616478281867146  0.4550272137946770   T   T   T
  0.9145789391996721  0.3119718072469796  0.5476465650981330   T   T   T
  0.2526905769313982  0.3145188380885480  0.4551393644529255   T   T   T
  0.2521064371121830  0.5647764347641092  0.4548389187520788   T   T   T
  0.2503881056240687  0.8103018061301441  0.4557223256039359   T   T   T
  0.8333332538436267  0.2500000000190425  0.4070133268666680   F   F   F
  0.5845543711299243  0.3147849870563965  0.4553186985836430   T   T   T
  0.8333332538436267  0.0000000000000000  0.4070133268666680   F   F   F
  0.5000000000021103  0.4999999999932783  0.4070133268666680   F   F   F
  0.0833333358191695  0.1875000000030838  0.3605200052333331   F   F   F
  0.0000000000000000  0.0000000000000000  0.4070133268666680   F   F   F
  0.0000000000000000  0.2500000000190425  0.4070133268666680   F   F   F
  0.0000000000000000  0.4999999999932783  0.4070133268666680   F   F   F
  0.0000000000000000  0.7500000000123208  0.4070133268666680   F   F   F
  0.3333333432766779  0.0000000000000000  0.4070133268666680   F   F   F
  0.3333333432766779  0.2500000000190425  0.4070133268666680   F   F   F
  0.3333333432766779  0.4999999999932783  0.4070133268666680   F   F   F
  0.3333333432766779  0.7500000000123208  0.4070133268666680   F   F   F
  0.6666666865533486  0.0000000000000000  0.4070133268666680   F   F   F
  0.6666666865533486  0.2500000000190425  0.4070133268666680   F   F   F
  0.6666666865533486  0.4999999999932783  0.4070133268666680   F   F   F
  0.6666666865533486  0.7500000000123208  0.4070133268666680   F   F   F
  0.1666666716383389  0.0000000000000000  0.4070133268666680   F   F   F
  0.1666666716383389  0.2500000000190425  0.4070133268666680   F   F   F
  0.1666666716383389  0.4999999999932783  0.4070133268666680   F   F   F
  0.1666666716383389  0.7500000000123208  0.4070133268666680   F   F   F
  0.5000000000021103  0.0000000000000000  0.4070133268666680   F   F   F
  0.5000000000021103  0.2500000000190425  0.4070133268666680   F   F   F
  0.5000000000021103  0.7500000000123208  0.4070133268666680   F   F   F
  0.1669931446991292  0.1247297176103893  0.4998877343581258   T   T   T
  0.9171858262659768  0.0625188557514565  0.5484107860061785   T   T   T
  0.1676339738531076  0.8731112831877428  0.4999475028714788   T   T   T
  0.2511649443588264  0.1886180696116986  0.5488107483184448   T   T   T
  0.7486139366961474  0.9350180938422910  0.5481452558981035   T   T   T
  0.7527216763821133  0.6824012935340845  0.5536359366028160   T   T   T
  0.7537598683182307  0.4349467541587892  0.5506241357014281   T   T   T
  0.4243288451685939  0.4418369350714205  0.5493166335766162   T   T   T
  0.4231066190624032  0.6876541939139732  0.5486885037120133   T   T   T
  0.7480038711518420  0.1837529905078476  0.5520858346378249   T   T   T
  0.4152561807105127  0.9355634891005580  0.5477882789858758   T   T   T
  0.0842645910445134  0.9383960412326413  0.5473967120281393   T   T   T
  0.4163498657386367  0.1883574166759275  0.5492968230206567   T   T   T
  0.0859049154872035  0.6894253684803149  0.5464297988214462   T   T   T
  0.0841195487439159  0.4384949314595809  0.5467334981361042   T   T   T
  0.0838281402106434  0.1882453171324245  0.5477991088638302   T   T   T
  0.4995016037755309  0.1256373975517661  0.4996911484084758   T   T   T
  0.9990203091824020  0.4951915798625293  0.5959057598081354   T   T   T
  0.9989143278334993  0.7579409934077915  0.5942646849897441   T   T   T
  0.3343455315834144  0.2508759028315006  0.5948498569029190   T   T   T
  0.3337326996173159  0.0009786738662006  0.5933147302723946   T   T   T
  0.0000035966102414  0.9962998922009670  0.5958745325066738   T   T   T
  0.0010780230460734  0.2499390137452967  0.5947076617817423   T   T   T
  0.3343389224927045  0.4968410982383687  0.5944774528952487   T   T   T
  0.3349702287815453  0.7395857785018816  0.5944843134467069   T   T   T
  0.6634010281353119  0.2462581525361921  0.5930265182246577   T   T   T
  0.6658636162563062  0.0008536771260948  0.5935327419363720   T   T   T
  0.6670018927690016  0.7416359601310798  0.5929452023204163   T   T   T
  0.6674055608517405  0.4920754050755824  0.5923900925360388   T   T   T
  0.1675490233148925 -0.0003891637819357  0.5952721067958586   T   T   T
  0.1683999943465852  0.2495033286374388  0.5963640554699224   T   T   T
  0.1702317129488277  0.7505802135208773  0.5972450420985278   T   T   T
  0.2481652974925380  0.4360932500086011  0.5521914022525403   T   T   T
  0.1652060633799726  0.5042945392699588  0.5902919047955840   T   T   T
  0.2491382721603524  0.6843208040806649  0.5535872778460048   T   T   T
  0.5809908910308857  0.1856920078203095  0.5504691069185328   T   T   T
  0.9137446729718518  0.8123727777409939  0.5475932350707381   T   T   T
  0.9175082607771837  0.5632318153903280  0.5475092767856018   T   T   T
  0.5821949188093821  0.5602835214105129  0.5515095838819953   T   T   T
  0.5876756202644192  0.8145874217515990  0.5521242797371787   T   T   T
  0.5837364658900969  0.3119302144445597  0.5478550857070997   T   T   T
  0.5821441413316897  0.0631758675367433  0.5475876361551028   T   T   T
  0.2537236613983679  0.8132240540334557  0.5525313881202314   T   T   T
  0.2526025800005829  0.5592706082176990  0.5461207514459870   T   T   T
  0.2503791851621716  0.3138189116435207  0.5477383447057692   T   T   T
  0.2507136974326445  0.0633911287966421  0.5491500089949937   T   T   T
  0.7484976351261626  0.8101859978952793  0.5487552827099180   T   T   T
  0.7462515657822910  0.5589197555830944  0.5465670026390697   T   T   T
  0.4132772234304941  0.8112551286953700  0.5502384428963590   T   T   T
  0.7493050776862248  0.0599315953444583  0.5460718386629175   T   T   T
  0.7482360952469309  0.3112572703393474  0.5502383572907348   T   T   T
  0.4151073691851503  0.3168358411845175  0.5534222974096227   T   T   T
  0.4213047268542864  0.5635329395932916  0.5575265598619780   T   T   T
  0.4171929568246432  0.0631601204784572  0.5468955868683528   T   T   T
  0.0852700129413567  0.8121324544668803  0.5478348755197301   T   T   T
  0.0821198269809845  0.5634844351464691  0.5475252633967294   T   T   T
  0.0866163055512569  0.3131912277701944  0.5481127924994151   T   T   T
  0.0831806382231819  0.0623778836145871  0.5487723312554417   T   T   T
  0.9158531812523261  0.9384321600874753  0.5476376837736143   T   T   T
  0.9131940131011812  0.6887001012074219  0.5468371373961205   T   T   T
  0.5838551753298824  0.9383584167217633  0.5466043030060210   T   T   T
  0.9175815374929477  0.1884337492673551  0.5469287276215090   T   T   T
  0.9140611172609761  0.4372529175724884  0.5468375715232578   T   T   T
  0.5750150019774961  0.4364033526829746  0.5534953277488058   T   T   T
  0.5795995785439693  0.6868943399326685  0.5483524821469379   T   T   T
  0.2516780365287786  0.9380189812050700  0.5460089268500152   T   T   T
  0.4996858732633452  0.5046341005716476  0.6129036950955967   T   T   T
  0.4987639339666372  0.2525048971405667  0.5922569000609392   T   T   T
  0.4994754579485282 -0.0002124335458542  0.5926929720072569   T   T   T
  0.7560791355441505  0.6905127287959308  0.6637460948093119   T   T   T
  0.7466469039671695  0.9365216238795903  0.6428541631575102   T   T   T
  0.2525332141574682  0.1869407646514216  0.6446301518765344   T   T   T
  0.7455712590813501  0.1946741660337193  0.6506056010475297   T   T   T
  0.7575943379045278  0.4362809068595342  0.6414250624706851   T   T   T
  0.4163826580560316  0.9369898348793249  0.6416806180627443   T   T   T
  0.4228024100073495  0.6778354104021075  0.6365086870783440   T   T   T
  0.5906161705292055  0.8083365702511432  0.6499465673666215   T   T   T
  0.9163213533431537  0.0609372222692735  0.6444270354293493   T   T   T
  0.9152316970986283  0.5617114721578635  0.6446285743656351   T   T   T
  0.9146114993599161  0.3114111581600177  0.6417350349734787   T   T   T
  0.9137105691622585  0.8116420579755481  0.6459032781199923   T   T   T
  0.5822714043733324  0.0647221371359804  0.6415781075316073   T   T   T
  0.5825948786894116  0.3179196832729420  0.6371062062659323   T   T   T
  0.5966635932676434  0.5632136889017550  0.6428806945971131   T   T   T
  0.2480932752247669  0.5764933168228674  0.6317888592855366   T   T   T
  0.2598479391606706  0.7963380364366538  0.6506804290266984   T   T   T
  0.2509401824829786  0.3164840124867460  0.6445541374390718   T   T   T
  0.2513991981740815  0.0588889090271967  0.6455023023982672   T   T   T
  0.9166666865332829  0.5625000000092442  0.3605200052333331   F   F   F
  0.4994728815684356  0.3728927586967656  0.5017205491988138   T   T   T
  0.4999327612010391  0.8723935297827623  0.5019549247062386   T   T   T
  0.5005075979779939  0.6205090772426443  0.5015543773222964   T   T   T
  0.8324027198230763  0.6228912756499576  0.5011008176287426   T   T   T
  0.8326610298465486  0.8753142404458556  0.4987920682969851   T   T   T
  0.8324042584874376  0.3727605253721150  0.4998991020298696   T   T   T
  0.8329490466607452  0.1251349552822270  0.5004194909130318   T   T   T
  0.1671276003462128  0.3762020915535737  0.4988225494337328   T   T   T
  0.1678103221627839  0.6240946945809128  0.5013720081534381   T   T   T
  0.5820009220521198  0.4366574821111437  0.6486839121339336   T   T   T
  0.5802323945894925  0.6832779928764242  0.6392080976014191   T   T   T
  0.9170817125101123  0.1866594173276093  0.6433563821431701   T   T   T
  0.5818265487317327  0.9349110176009834  0.6406294010566220   T   T   T
  0.8302048947829196  0.7504799128374938  0.5965299486695801   T   T   T
  0.8313560073488760  0.2463691104662752  0.5936707231981865   T   T   T
  0.8334110407352866  0.5047607088757073  0.5912597381328234   T   T   T
  0.8321959821497401  0.9999273725590985  0.5952251616134189   T   T   T
  0.5017148651392049  0.7582414357898700  0.5953619222858545   T   T   T
  0.4176284942144782  0.0667088979457153  0.6408764271568125   T   T   T
  0.4216214517543082  0.3052101738474386  0.6563769938104765   T   T   T
  0.4107895278485538  0.8127104933747473  0.6437338679182341   T   T   T
  0.4019021394690133  0.5535149947413812  0.6556415391361237   T   T   T
  0.7526805726693294  0.5706971991331105  0.6373483643052431   T   T   T
  0.7406556502022781  0.8079225027706369  0.6448245885718286   T   T   T
  0.7467975644836031  0.3120101564266701  0.6430406349695642   T   T   T
  0.7482754721648824  0.0658442394416717  0.6419092812956337   T   T   T
  0.0840846473309146  0.3118158352674770  0.6436967600648219   T   T   T
  0.6664859536952098  0.8746373242443517  0.4994489659312324   T   T   T
  0.0838695206305641  0.5618542981843080  0.6440981296672265   T   T   T
  0.0828051496650387  0.0590151141794103  0.6450845147467396   T   T   T
  0.0866061773380521  0.4375789284149414  0.6423965045227724   T   T   T
  0.0831438319652785  0.1861728483869795  0.6449020812187428   T   T   T
  0.4198313286285371  0.1891369827077801  0.6436917684790553   T   T   T
  0.4155286931949200  0.4200442421434680  0.6349728446483608   T   T   T
  0.0859415871654019  0.9352206463705448  0.6450684277619428   T   T   T
  0.0808463258443616  0.6871441879607995  0.6410410056656530   T   T   T
  0.9111510208712117  0.4366944111159139  0.6426750620294714   T   T   T
  0.9178864069848390  0.6876332452069641  0.6419721193903444   T   T   T
  0.9144505757991208  0.9368369308490322  0.6451333299916227   T   T   T
  0.2387193610394516  0.4454319094104475  0.6460434463706664   T   T   T
  0.2310533998734724  0.6766871116942149  0.6775898102908737   T   T   T
  0.5780600396107309  0.1902896809928547  0.6468664018821290   T   T   T
  0.2530670121185717  0.9307912229829358  0.6398820261859255   T   T   T
  0.0839698120336335  0.8099822551835150  0.6460120704133917   T   T   T
  0.9166666865332829  0.8124999999834799  0.3605200052333331   F   F   F
  0.0005972933662180  0.1223775854875848  0.6244290169309705   T   T   T
  0.8333332538436267  0.6249999999803961  0.4070133268666680   F   F   F
  0.9994713687947085  0.4998958006421259  0.5086183887505350   T   T   T
  0.3312061655305364  0.4994416609551137  0.5025695382978578   T   T   T
  0.3300912624904734  0.2477955967668813  0.5039565231515977   T   T   T
  0.3327205562232932  0.0013098247424553  0.5067701579182774   T   T   T
  0.3333853318458076  0.7509640764282673  0.5024858561976075   T   T   T
  0.6661702231157015  0.0002586683773388  0.5068309739864142   T   T   T
  0.6688327499472453  0.4999247611660090  0.5016629360145922   T   T   T
  0.6672884448206375  0.2473029030962746  0.5043556358835718   T   T   T
  0.6657486664591779  0.7522317317916654  0.5035813842312135   T   T   T
  0.1659978369880863  0.0012288006953979  0.5086195798040084   T   T   T
  0.1662335287497375  0.2481795614462199  0.5083392978982840   T   T   T
  0.1635124960038455  0.4997449387307306  0.5036732654862541   T   T   T
  0.5000677658628765  0.9987543264103059  0.5065615945597891   T   T   T
  0.1638741705026961  0.7513923489216550  0.5042407371638391   T   T   T
  0.5006072252183883  0.7531731448730293  0.5054236885014822   T   T   T
  0.8344995002594042  0.0002996868057686  0.5085539617165500   T   T   T
  0.5008795968877560  0.4995261093572878  0.5014292750752347   T   T   T
  0.5008546883404366  0.2475427204480017  0.5031328331426873   T   T   T
  0.8354369311340537  0.2479968822681856  0.5047242788968259   T   T   T
  0.9992383152714740  0.7508922716118823  0.5081403890919127   T   T   T
  0.0012170502265894  0.2496541808089861  0.5077787528990820   T   T   T
  0.0002458886977093  0.9996415423619759  0.5087535898638859   T   T   T
  0.8333332538436267  0.8749999404036828  0.4070133268666680   F   F   F
  0.0000000000000000  0.6249999999803961  0.4070133268666680   F   F   F
  0.0000000000000000  0.8749999404036828  0.4070133268666680   F   F   F
  0.3333333432766779  0.1249999999871179  0.4070133268666680   F   F   F
  0.3333333432766779  0.3750000000061604  0.4070133268666680   F   F   F
  0.3333333432766779  0.6249999999803961  0.4070133268666680   F   F   F
  0.3333333432766779  0.8749999404036828  0.4070133268666680   F   F   F
  0.6666666865533486  0.1249999999871179  0.4070133268666680   F   F   F
  0.6666666865533486  0.3750000000061604  0.4070133268666680   F   F   F
  0.6666666865533486  0.6249999999803961  0.4070133268666680   F   F   F
  0.8360518895103598  0.4999124751386562  0.5041921488251048   T   T   T
  0.6666666865533486  0.8749999404036828  0.4070133268666680   F   F   F
  0.1666666716383389  0.3750000000061604  0.4070133268666680   F   F   F
  0.1666666716383389  0.6249999999803961  0.4070133268666680   F   F   F
  0.1666666716383389  0.8749999404036828  0.4070133268666680   F   F   F
  0.5000000000021103  0.1249999999871179  0.4070133268666680   F   F   F
  0.5000000000021103  0.3750000000061604  0.4070133268666680   F   F   F
  0.5000000000021103  0.6249999999803961  0.4070133268666680   F   F   F
  0.5000000000021103  0.8749999404036828  0.4070133268666680   F   F   F
  0.8333332538436267  0.1249999999871179  0.4070133268666680   F   F   F
  0.8333332538436267  0.3750000000061604  0.4070133268666680   F   F   F
  0.1666666716383389  0.1249999999871179  0.4070133268666680   F   F   F
  0.0000000000000000  0.3750000000061604  0.4070133268666680   F   F   F
  0.8355628815795308  0.7515716516022160  0.5042428980450496   T   T   T
  0.8375388384903302  0.3721020375851677  0.6064285610521467   T   T   T
  0.8312781449337696  0.8753479702846160  0.6275360291773024   T   T   T
  0.8417823165839919  0.6270624441344093  0.6061225759480171   T   T   T
  0.9993587138204673  0.8745376135779569  0.6307989626897821   T   T   T
  0.3308010464787575  0.1205467356224344  0.6170487594213954   T   T   T
  0.3358277892332729  0.6228724105460230  0.5960669470100410   T   T   T
  0.3270489838225726  0.3732995719063849  0.5953564726151398   T   T   T
  0.6708556756370396  0.3709734457063550  0.5958918440093429   T   T   T
  0.6657606219855067  0.1234976306887836  0.6158818995048524   T   T   T
  0.3348749379357847  0.8803453917811807  0.6057530521420059   T   T   T
  0.1567655771257371  0.6272996390837479  0.6046931367047658   T   T   T
  0.1678655748077358  0.8706096943142437  0.6293605922746622   T   T   T
  0.5006574436181134  0.3704167726466177  0.5969425295471301   T   T   T
  0.5006749296755444  0.1215119653062675  0.6084105625795388   T   T   T
  0.1670467453763882  0.1219074235545949  0.6301749919520477   T   T   T
  0.1630039068971977  0.3720376726425105  0.6118662766956882   T   T   T
  0.6650974743257512  0.8803117733642982  0.6108352649462940   T   T   T
  0.6668925786510613  0.6268670032819754  0.5949775006056522   T   T   T
 -0.0004686034948635  0.3753981553176029  0.6309319532988763   T   T   T
  0.9993909873402771  0.6233497808317563  0.6556053374605610   T   T   T
  0.8339108231965348  0.1242820152074725  0.6254129104188438   T   T   T
  0.4989690330734815  0.8776700469236386  0.6148788640591201   T   T   T
  0.0000000000000000  0.1249999999871179  0.4070133268666680   F   F   F
  0.5031938459710091  0.6252888087074129  0.5949229519313711   T   T   T
  0.9164401604312504  0.9981386065532319  0.6062661781626489   T   T   T
  0.5831583062012248  0.7509230956983126  0.6014032634707809   T   T   T
  0.5908733432002344  0.5000478693422356  0.5949353054610189   T   T   T
  0.2418895487082268  0.4997718256842631  0.5962977298327378   T   T   T
  0.2487695636017976  0.7534670445244926  0.5931749893388851   T   T   T
  0.5839172261554628  0.2463461686331348  0.5986495433615311   T   T   T
  0.5827930960499815  0.0004589626312349  0.6055802855004659   T   T   T
  0.2492490634388253  0.9981393315428324  0.6063232650377294   T   T   T
  0.2485854520257649  0.2453765810599981  0.6065592335373035   T   T   T
  0.4168187356508938  0.0014202271613131  0.6058104213397596   T   T   T
  0.4143148319041979  0.2471511530492645  0.5925486896340622   T   T   T
  0.4146809022113000  0.7505173462971193  0.5965797456879179   T   T   T
  0.7565617936725164  0.5031081507612811  0.5974359322798261   T   T   T
  0.7508910834950904  0.7538968660556643  0.5925420100835159   T   T   T
  0.7536503540384951  0.2475686997108393  0.5963661656746782   T   T   T
  0.7496946375421331  0.0006594814651360  0.6063387479113457   T   T   T
  0.0834863290566648  0.2479901426763236  0.6068290931031175   T   T   T
  0.0799534158677979  0.5003699131629965  0.6052476278617768   T   T   T
  0.0792141013515067  0.7517766812004923  0.6048233868839912   T   T   T
  0.0837425117880672  0.9970593696332020  0.6065257672798524   T   T   T