Au  C  H  O Sr Ti                       
   1.00000000000000     
    23.6707801818999997    0.0000000000000000    0.0000000000000000
     0.0000000000000000   22.3170261383000010    0.0000000000000000
     0.0000000000000000    0.0000000000000000   30.0000000000000000
   Au   C    H    O    Sr   Ti
    50     2     4   264    72    72
Selective dynamics
Direct
  0.7133826343623475  0.5267781869149332  0.7531196475852217   T   T   T
  0.2809633492347337  0.3418657350120693  0.7023691868914885   T   T   T
  0.6689375748939956  0.6825737311543298  0.7484717630743173   T   T   T
  0.3972319302448675  0.3826013810817379  0.6905993589790433   T   T   T
  0.4508952651833974  0.5801785502916572  0.7034256431974274   T   T   T
  0.3740660027229257  0.4950931045463747  0.8329168412635667   T   T   T
  0.3234592370560634  0.4164733092487090  0.7697100060703947   T   T   T
  0.3686343064529408  0.6205341522546433  0.8201450111952122   T   T   T
  0.3478049727846000  0.5001144514787453  0.6967842824148314   T   T   T
  0.5178274974952142  0.3786234340637576  0.7325667180438781   T   T   T
  0.2560063450353591  0.5940909763813508  0.6945098461446703   T   T   T
  0.4684444793931673  0.4531816769571107  0.8803402185586453   T   T   T
  0.6485559732208789  0.4475360760206723  0.6939117099609822   T   T   T
  0.5383547068738115  0.6693406407632841  0.7021500968347523   T   T   T
  0.4418872744244307  0.4735917490786868  0.7559447914322954   T   T   T
  0.7066024597650564  0.7576650807323837  0.6880110274866860   T   T   T
  0.3743286529077126  0.7420609346491496  0.7795133086943865   T   T   T
  0.4617379917177647  0.5755108894637825  0.8653166150930295   T   T   T
  0.6533021850385009  0.4421208530339894  0.8123876587859009   T   T   T
  0.4138898821072092  0.6957284281543930  0.6999869623693586   T   T   T
  0.7713233276356394  0.4312328552901195  0.7951328169975715   T   T   T
  0.6630502372743586  0.2027462544688320  0.7520691290521477   T   T   T
  0.5679949795756544  0.5120207124780085  0.8570250622446193   T   T   T
  0.5634875537092127  0.6416216017026058  0.8621186072985497   T   T   T
  0.5525638543416040  0.2152359294655036  0.7118508389758651   T   T   T
  0.2886454818048375  0.5397298558423921  0.7770984650394283   T   T   T
  0.5780374947738310  0.7263321038713478  0.7939956196194430   T   T   T
  0.2392608220776543  0.4702799627386282  0.7091186177553248   T   T   T
  0.2864294347355133  0.6637045522921919  0.7637408383770080   T   T   T
  0.5956475563971837  0.2932435279086259  0.7850594852677540   T   T   T
  0.5135146688431348  0.4854851974137640  0.6780308631733313   T   T   T
  0.5613059884983900  0.4882209326197732  0.7622156228046553   T   T   T
  0.4815498852334903  0.2720562165994950  0.7754635575593496   T   T   T
  0.5452640196828499  0.3887096444089936  0.8289097547420465   T   T   T
  0.6182785608658458  0.3211098554240930  0.6960640772856352   T   T   T
  0.3915232481889004  0.8182433724366734  0.7065365230634716   T   T   T
  0.4348094776875106  0.2274239663300221  0.6983418849679814   T   T   T
  0.7000188091415861  0.3439205323564520  0.7583580316216226   T   T   T
  0.3681171337936578  0.3002161427408624  0.7558028747229094   T   T   T
  0.5964641574458667  0.7849798280945716  0.7125437963303316   T   T   T
  0.6319860579355890  0.5864569473086484  0.7995171892662810   T   T   T
  0.7312840722519112  0.6155605590100262  0.6934143613344075   T   T   T
  0.4858463147610467  0.7769929630483398  0.7545312970615311   T   T   T
  0.7630143974581646  0.4324616310088416  0.7050268918750765   T   T   T
  0.7256846002522850  0.2601253302216039  0.6913009061492305   T   T   T
  0.6193713272412757  0.5727380700410772  0.7037651938349127   T   T   T
  0.4632232683177136  0.6981263319535606  0.8315319571804171   T   T   T
  0.5094430764173888  0.6056253209926065  0.7776072484966265   T   T   T
  0.2939718447301355  0.7475106411120962  0.6960314099054246   T   T   T
  0.4257920795915602  0.3737696162753522  0.8166531776124306   T   T   T
  0.7108247299264571  0.1311746906131392  0.7503609557693554   T   T   T
  0.7369656429318107  0.1030703954571580  0.7893423978834666   T   T   T
  0.7832005651856403  0.1073448346407606  0.7855633280309158   T   T   T
  0.7245690915484035  0.1217795493412471  0.8213814138567408   T   T   T
  0.7199034284637769  0.1102981851047112  0.7181278756520825   T   T   T
  0.7294271738725913  0.0544419149642008  0.7885904266824959   T   T   T
  0.0843170517016770  0.6869570942660814  0.4531705447189338   T   T   T
  0.5856528662204639  0.8139957291881273  0.5503586591532695   T   T   T
  0.7472174999492985  0.3113867425667333  0.5481258866511430   T   T   T
  0.5811677415516483  0.5600348305397298  0.5488656502870863   T   T   T
  0.2525733441420944  0.5590717534276504  0.5438246774077122   T   T   T
  0.4156107234586585  0.3195722339086521  0.5525781099863711   T   T   T
  0.5766782615891424  0.4359813866254197  0.5522959993059964   T   T   T
  0.4167149594264037  0.0654186085202359  0.5473354262368026   T   T   T
  0.4996750935454538  0.7572114383844176  0.5925664603907831   T   T   T
  0.0824518908727487  0.0630956087636141  0.5475857852772936   T   T   T
  0.0833333358191695  0.3124999999901945  0.3605200052333331   F   F   F
  0.9145111453305578  0.6885994695094483  0.5459185574631508   T   T   T
  0.7500410706845659  0.1897405536743920  0.4557097650350770   T   T   T
  0.9169531280959138  0.1886518974747338  0.5454905222107356   T   T   T
  0.5790432990787172  0.6859986849862313  0.5476256266752780   T   T   T
  0.2515418409561234  0.9372830067751429  0.5452490131029161   T   T   T
  0.4973553983197330  0.5044498488873566  0.6089396153912324   T   T   T
  0.9179888846630032  0.5637300083137818  0.5470973725984123   T   T   T
  0.4197982357246379  0.5649488207380865  0.5553828309046813   T   T   T
  0.9155700599125943  0.8125995607780855  0.5468184463537031   T   T   T
  0.0841234699994534  0.9383222693197373  0.5461359506074234   T   T   T
  0.2488136917767204  0.6833137985537721  0.5516451200345863   T   T   T
  0.7487236539843949  0.9333854776984745  0.5481530660267464   T   T   T
  0.7516411172048698  0.6800602037984309  0.5534461080665366   T   T   T
  0.9156380928192319  0.9384911030568364  0.5464041238880314   T   T   T
  0.4177839593847923  0.0651013396218323  0.6401040671353216   T   T   T
  0.5843093677797060  0.9374754319604155  0.5464149172373767   T   T   T
  0.4118095305484923  0.8128599287513837  0.6396589765804909   T   T   T
  0.2475313008054913  0.5740146333462047  0.6287330451693536   T   T   T
  0.5825259359513809  0.0616844486714518  0.5453419965548779   T   T   T
  0.9157901369782968  0.1868438886258754  0.4532613041620421   T   T   T
  0.1686350758209727  0.2482140948154141  0.5931647878179117   T   T   T
  0.4994169398500979  0.1257032700769199  0.4989677785639071   T   T   T
  0.9997483911343599  0.4984229219332911  0.5940884513044333   T   T   T
  0.5794194369706823  0.1848344242532312  0.5506851415992160   T   T   T
  0.9998137164591310  0.7537426139037567  0.5928904281846841   T   T   T
  0.3340905392002453  0.9998731030211343  0.5919925925264559   T   T   T
  0.9999164373887297  0.9988421515451914  0.5930314284134927   T   T   T
  0.0013474306035633  0.2497259834116432  0.5922336447496486   T   T   T
  0.3330747484900647  0.4961916105206308  0.5911182650436688   T   T   T
  0.3347625996408735  0.7406776063621918  0.5903599925878318   T   T   T
  0.6632460854852793  0.2463880950378078  0.5916247365872483   T   T   T
  0.6666691554298925  0.0024212436427300  0.5918839205784379   T   T   T
  0.6652449888400006  0.7412288575924417  0.5910199478220330   T   T   T
  0.6665861959175694  0.4947179152191672  0.5915457901320430   T   T   T
  0.5824917372158336  0.9372190320781394  0.4545604140201868   T   T   T
  0.9154369161080669  0.4373445252408329  0.5457095772481412   T   T   T
  0.2482982513332898  0.4358595806248780  0.5491378351653782   T   T   T
  0.1655230050298259  0.5033425257596312  0.5872023047486407   T   T   T
  0.3346115803123817  0.2544469761800703  0.5926693023085493   T   T   T
  0.4999899356760542  0.0000298430645644  0.5911767737567839   T   T   T
  0.8326326206878595  0.8741156778011472  0.4989390292073295   T   T   T
  0.7481185301143878  0.9391200427474637  0.6413274137447345   T   T   T
  0.8321175982738716  0.0020488168073295  0.5923020982197995   T   T   T
  0.7488446951598376  0.1840062121024858  0.5506872694017204   T   T   T
  0.4227074828773780  0.6878105904875351  0.5469702781569225   T   T   T
  0.4229727870335745  0.4436897799360485  0.5459760635007931   T   T   T
  0.7519434306285456  0.4351238539069704  0.5492072478219320   T   T   T
  0.5834551318565983  0.3110692911159018  0.5454772269329851   T   T   T
  0.2533113871117975  0.8126251482399497  0.5504649743828895   T   T   T
  0.1675056492489564  0.9983023962040025  0.5923231080234680   T   T   T
  0.1708665452155410  0.7503285988245809  0.5948502532133674   T   T   T
  0.9142381548703554  0.5626667223521052  0.6408332681937650   T   T   T
  0.4169029392373669  0.4356001813703072  0.4540594500099621   T   T   T
  0.5831392154674402  0.0672095880455412  0.6387741898595723   T   T   T
  0.0829897154958655  0.4388641157169108  0.5448451973587647   T   T   T
  0.4177338055417377  0.9348794546302444  0.6398058298149385   T   T   T
  0.7487019494759551  0.0700007643187067  0.6398852060987790   T   T   T
  0.0843718694796421  0.3111930472081202  0.6409520279581760   T   T   T
  0.6664527329664857  0.8741732459276809  0.4987108253643146   T   T   T
  0.0864917641734205  0.5629157500392097  0.6399116142035148   T   T   T
  0.0874408824720881  0.4365563882968609  0.6397172541000349   T   T   T
  0.4178264277333804  0.1873874778387722  0.6396782451726508   T   T   T
  0.0843888268999302  0.9355745196422077  0.6410854224089415   T   T   T
  0.0833888963078205  0.6871096986916481  0.6388437545475212   T   T   T
  0.0841125380205538  0.0602459988729660  0.6421608681449237   T   T   T
  0.8333127703990847  0.5030422643545006  0.5889881983891417   T   T   T
  0.0839350935840530  0.1851937897140774  0.6413031356861219   T   T   T
  0.2399822599537619  0.4422149946271584  0.6415931504385648   T   T   T
  0.4150828316006939  0.4187648911905211  0.6300811460413436   T   T   T
  0.5829944561078140  0.9367503438952031  0.6395538023813468   T   T   T
  0.2521118087554272  0.9303617279431827  0.6374432069991198   T   T   T
  0.9163650408708036  0.6876351249266526  0.6390761888536416   T   T   T
  0.9143682093688471  0.9371222455993037  0.6413545868373232   T   T   T
  0.3971636984174459  0.5506008823389898  0.6519994896823961   T   T   T
  0.2542557181560369  0.6783964187419482  0.6627067089255348   T   T   T
  0.2536140952770784  0.1861922349177318  0.6413714457273109   T   T   T
  0.5759366758501853  0.1935037827175533  0.6459869980683630   T   T   T
  0.0847958465735927  0.8126329259129098  0.6425715674559236   T   T   T
  0.9166666865332829  0.8124999999834799  0.3605200052333331   F   F   F
  0.7470830435638572  0.1949159776048645  0.6467714667202923   T   T   T
  0.8320253073621993  0.2492870661982935  0.5905229404448307   T   T   T
  0.9125135967122915  0.4361245582620882  0.6399820111379392   T   T   T
  0.8304377497469912  0.7507332589390761  0.5926146090855077   T   T   T
  0.7475596023978150  0.3125761312922814  0.6400265920618821   T   T   T
  0.7530677216391647  0.5683376769862454  0.6357707756757706   T   T   T
  0.5758505841488372  0.6871149722397426  0.6398868101715889   T   T   T
  0.7413476160987436  0.8104163350541660  0.6395699443184700   T   T   T
  0.2492727213921056  0.3137575810319312  0.5459250718050394   T   T   T
  0.5901651977496007  0.5668696670146172  0.6384542686363469   T   T   T
  0.7540640036084947  0.6925015484860642  0.6568285650803052   T   T   T
  0.2510267312594303  0.0594037951294901  0.6423369087948979   T   T   T
  0.9166666865332829  0.5625000000092442  0.3605200052333331   F   F   F
  0.4995159814401031  0.3740132063407687  0.5004502741577286   T   T   T
  0.5001432863776193  0.6210087908449192  0.5000564207410334   T   T   T
  0.8324701601032188  0.6231149609594141  0.5002160497066549   T   T   T
  0.2519787037867168  0.1880905370142427  0.5473198169615953   T   T   T
  0.8323062325155091  0.3730029394912706  0.4999010779172761   T   T   T
  0.9151941561194827  0.3118660619886245  0.6397781298745638   T   T   T
  0.1667464710018613  0.3761785872266182  0.4976779543635201   T   T   T
  0.5809340203057415  0.4398048926775233  0.6467787915210096   T   T   T
  0.8328720179157587  0.1245946990101982  0.5000581656536016   T   T   T
  0.0837208229067532  0.1888302163205504  0.5456865687746307   T   T   T
  0.9162538017179680  0.1863423464781149  0.6398502318821490   T   T   T
  0.9158266187207289  0.4368940890157265  0.4536612134029680   T   T   T
  0.1670604238462592  0.1243429738689445  0.4993064105449904   T   T   T
  0.7488346093146750  0.0604511021072618  0.5448882826318427   T   T   T
  0.4259731224402604  0.3048769756424070  0.6567040837442971   T   T   T
  0.5903196847955196  0.8113045373573285  0.6456673870517934   T   T   T
  0.4202680260788104  0.6762112318288251  0.6339434801461542   T   T   T
  0.7548766311245505  0.4336423028821117  0.6382843127969924   T   T   T
  0.4981816588506331  0.2544101534020748  0.5909084737921148   T   T   T
  0.9160233173597292  0.0625980038478970  0.6412698662311587   T   T   T
  0.1674910524322397  0.6242450745149140  0.5001758674934222   T   T   T
  0.4999341000424833  0.8733262132377032  0.5010449868579244   T   T   T
  0.4161441778559080  0.1913819108399774  0.5465610212374651   T   T   T
  0.9130978760861728  0.8134319019158187  0.6419633177472837   T   T   T
  0.2492888337361951  0.3161534834112869  0.6413008344612298   T   T   T
  0.1677477591188846  0.8732911004488756  0.4998740824423043   T   T   T
  0.0854925823401821  0.6891564824753341  0.5454440030555230   T   T   T
  0.2624385513214586  0.8010889915581990  0.6458541327657644   T   T   T
  0.4169166606586942  0.1873040892608406  0.4536074994771572   T   T   T
  0.5833333134730552  0.9375000000154046  0.3605200052333331   F   F   F
  0.0808828844201405  0.5644354286513401  0.5464187540016276   T   T   T
  0.5833333134730552  0.4374999701794380  0.3605200052333331   F   F   F
  0.5833333134730552  0.1875000000030838  0.3605200052333331   F   F   F
  0.2499999999799343  0.9375000000154046  0.3605200052333331   F   F   F
  0.9166666865332829  0.9375000000154046  0.3605200052333331   F   F   F
  0.2499999999799343  0.6874999999963620  0.3605200052333331   F   F   F
  0.2499999999799343  0.1875000000030838  0.3605200052333331   F   F   F
  0.7499999404149307  0.9375000000154046  0.3605200052333331   F   F   F
  0.7499999404149307  0.6874999999963620  0.3605200052333331   F   F   F
  0.4172242207921477  0.9360441813869337  0.4540267734137630   T   T   T
  0.7499999404149307  0.4374999701794380  0.3605200052333331   F   F   F
  0.9166666865332829  0.6874999999963620  0.3605200052333331   F   F   F
  0.0000277588919969  0.3734719285809106  0.4983730422360034   T   T   T
  0.9166666865332829  0.1875000000030838  0.3605200052333331   F   F   F
  0.4166666269218169  0.9375000000154046  0.3605200052333331   F   F   F
  0.0833333358191695  0.0625000000159659  0.3605200052333331   F   F   F
  0.9152886863549711  0.6868607852074428  0.4533448497583676   T   T   T
  0.6653636251543981  0.3786517980289161  0.5030071388174420   T   T   T
  0.3343329985133007  0.3785350513501771  0.5029597626050757   T   T   T
  0.3354708138173381  0.6256882918100947  0.5036754793007752   T   T   T
  0.9173386340078673  0.0633656514052176  0.5474565687226903   T   T   T
  0.7496335575479817  0.9383971753235405  0.4554231829721071   T   T   T
  0.2499793625118032  0.9360723888831786  0.4540132372217877   T   T   T
  0.2498820134028953  0.1884962901292858  0.4541187386281533   T   T   T
  0.7490959790038435  0.6886129939306592  0.4575347505969458   T   T   T
  0.7499999404149307  0.1875000000030838  0.3605200052333331   F   F   F
  0.5833333134730552  0.0625000000159659  0.3605200052333331   F   F   F
  0.4166666269218169  0.6874999999963620  0.3605200052333331   F   F   F
  0.4166666269218169  0.4374999701794380  0.3605200052333331   F   F   F
  0.2499999999799343  0.4374999701794380  0.3605200052333331   F   F   F
  0.7477773482752891  0.8073049430335075  0.5452412456253715   T   T   T
  0.4168565997586637  0.8103785602851022  0.4549598289216173   T   T   T
  0.5833333134730552  0.6874999999963620  0.3605200052333331   F   F   F
  0.7482583375723805  0.5642874686293321  0.4538284474479464   T   T   T
  0.2520040910529381  0.6875720723678563  0.4559802920241779   T   T   T
  0.0840541866144760  0.9368347664605221  0.4536921003720058   T   T   T
  0.0827293167474064  0.4367854244917741  0.4528137493277577   T   T   T
  0.0838790762697917  0.1865834200101397  0.4530011400540113   T   T   T
  0.9165847743437781  0.8121628171130428  0.4540804199861742   T   T   T
  0.7464309673835279  0.5577448139381124  0.5446439151984832   T   T   T
  0.9160968196006620  0.5621721832920239  0.4540867645679745   T   T   T
  0.9161287804518474  0.0622330543610574  0.4541176238620347   T   T   T
  0.9160832767280503  0.3121935842407217  0.4538228442343922   T   T   T
  0.5825788039574142  0.4392838916494408  0.4563809565644235   T   T   T
  0.5835235094438381  0.1902830865054631  0.4557364443816767   T   T   T
  0.9164316478995960  0.9371052791196288  0.4536745028828718   T   T   T
  0.2504945910162257  0.0620406924676753  0.4542713984744939   T   T   T
  0.5836048532800594  0.0640338262577009  0.4537677517496996   T   T   T
  0.5831529936254405  0.8104938578280116  0.4553212980636611   T   T   T
  0.3336458348671380  0.1256828410103734  0.4986006916062969   T   T   T
  0.0000930932585417  0.8751798180829835  0.4995982573062959   T   T   T
  0.3334777109095837  0.8742756964656951  0.4989504180349546   T   T   T
  0.6659236114029439  0.1266326273884798  0.5008054510318641   T   T   T
  0.2511693589635285  0.4393179235877616  0.4549335467464700   T   T   T
  0.0833333358191695  0.5625000000092442  0.3605200052333331   F   F   F
  0.9166666865332829  0.0625000000159659  0.3605200052333331   F   F   F
  0.7494010269825470  0.8131337805317466  0.4529827595341027   T   T   T
  0.7496725156011372  0.4383105444094118  0.4558689756516071   T   T   T
  0.9158249207952367  0.3124049053890396  0.5464951963029338   T   T   T
  0.4171791882453871  0.6851519817049746  0.4550829108104169   T   T   T
  0.0002186130181949  0.1250839475053249  0.4984508198679081   T   T   T
  0.4159471540383636  0.9372027457265409  0.5460478345121764   T   T   T
  0.5840786675131577  0.3217169073514928  0.6338952288439081   T   T   T
  0.9996701188890527  0.6271570310588451  0.4976245351117661   T   T   T
  0.0867253756061650  0.3135204229366766  0.5471392499678952   T   T   T
  0.0851040381009058  0.8126112180103516  0.5473274459263953   T   T   T
  0.6666666865533486  0.7500000000123208  0.4070133268666680   F   F   F
  0.0000000000000000  0.2500000000190425  0.4070133268666680   F   F   F
  0.0000000000000000  0.4999999999932783  0.4070133268666680   F   F   F
  0.3333333432766779  0.0000000000000000  0.4070133268666680   F   F   F
  0.3333333432766779  0.4999999999932783  0.4070133268666680   F   F   F
  0.3333333432766779  0.7500000000123208  0.4070133268666680   F   F   F
  0.6666666865533486  0.0000000000000000  0.4070133268666680   F   F   F
  0.6666666865533486  0.2500000000190425  0.4070133268666680   F   F   F
  0.6666666865533486  0.4999999999932783  0.4070133268666680   F   F   F
  0.8333332538436267  0.2500000000190425  0.4070133268666680   F   F   F
  0.1666666716383389  0.0000000000000000  0.4070133268666680   F   F   F
  0.5841358107220320  0.3152597895038634  0.4539002719006919   T   T   T
  0.1666666716383389  0.4999999999932783  0.4070133268666680   F   F   F
  0.0833333358191695  0.1875000000030838  0.3605200052333331   F   F   F
  0.9166666865332829  0.4374999701794380  0.3605200052333331   F   F   F
  0.0000000000000000  0.0000000000000000  0.4070133268666680   F   F   F
  0.3333333432766779  0.2500000000190425  0.4070133268666680   F   F   F
  0.0000000000000000  0.7500000000123208  0.4070133268666680   F   F   F
  0.5844244963312941  0.5627759372603819  0.4548774500436252   T   T   T
  0.7489263287943231  0.0641763793908762  0.4536015565181479   T   T   T
  0.8333332538436267  0.0000000000000000  0.4070133268666680   F   F   F
  0.5827452684078910  0.6861316066981752  0.4546534029918772   T   T   T
  0.2518119815361249  0.5646760023541787  0.4536529164910715   T   T   T
  0.1666666716383389  0.2500000000190425  0.4070133268666680   F   F   F
  0.2504194389828611  0.8108584302878407  0.4552705283349147   T   T   T
  0.1666666716383389  0.7500000000123208  0.4070133268666680   F   F   F
  0.6653173470338337  0.6260126889867613  0.5030048216780475   T   T   T
  0.2499999999799343  0.8124999999834799  0.3605200052333331   F   F   F
  0.5000000000021103  0.7500000000123208  0.4070133268666680   F   F   F
  0.9166666865332829  0.3124999999901945  0.3605200052333331   F   F   F
  0.2499999999799343  0.3124999999901945  0.3605200052333331   F   F   F
  0.7473180616697768  0.3140881398779865  0.4549237319219612   T   T   T
  0.5000000000021103  0.4999999999932783  0.4070133268666680   F   F   F
  0.5000000000021103  0.2500000000190425  0.4070133268666680   F   F   F
  0.5833333134730552  0.8124999999834799  0.3605200052333331   F   F   F
  0.7499999404149307  0.3124999999901945  0.3605200052333331   F   F   F
  0.5000000000021103  0.0000000000000000  0.4070133268666680   F   F   F
  0.2499999999799343  0.0625000000159659  0.3605200052333331   F   F   F
  0.7499999404149307  0.0625000000159659  0.3605200052333331   F   F   F
  0.4166666269218169  0.8124999999834799  0.3605200052333331   F   F   F
  0.4166666269218169  0.3124999999901945  0.3605200052333331   F   F   F
  0.7499999404149307  0.8124999999834799  0.3605200052333331   F   F   F
  0.0834920695215587  0.3119681748537164  0.4540417079167288   T   T   T
  0.4168489641508049  0.0615876757842748  0.4553356369806481   T   T   T
  0.4166666269218169  0.5625000000092442  0.3605200052333331   F   F   F
  0.4134803204882512  0.8118572036988110  0.5478175049407015   T   T   T
  0.5833333134730552  0.3124999999901945  0.3605200052333331   F   F   F
  0.0839467756462217  0.5624616291081631  0.4539883469759306   T   T   T
  0.4166666269218169  0.0625000000159659  0.3605200052333331   F   F   F
  0.0837011395452269  0.0618738813172100  0.4542132537376106   T   T   T
  0.0834372650809112  0.8121638050539833  0.4541772082820595   T   T   T
  0.4159092566314193  0.5596265598896321  0.4578695602417321   T   T   T
  0.4166666269218169  0.1875000000030838  0.3605200052333331   F   F   F
  0.0833333358191695  0.9375000000154046  0.3605200052333331   F   F   F
  0.0833333358191695  0.8124999999834799  0.3605200052333331   F   F   F
  0.0833333358191695  0.4374999701794380  0.3605200052333331   F   F   F
  0.8333332538436267  0.7500000000123208  0.4070133268666680   F   F   F
  0.4155640843332720  0.3114240094166671  0.4573790847167823   T   T   T
  0.2499999999799343  0.5625000000092442  0.3605200052333331   F   F   F
  0.7499999404149307  0.5625000000092442  0.3605200052333331   F   F   F
  0.0833333358191695  0.6874999999963620  0.3605200052333331   F   F   F
  0.2522472189215970  0.3141513990477605  0.4541311657236382   T   T   T
  0.2510647232226021  0.0625268530202173  0.5472603638341682   T   T   T
  0.8333332538436267  0.4999999999932783  0.4070133268666680   F   F   F
  0.5833333134730552  0.5625000000092442  0.3605200052333331   F   F   F
  0.8333332538436267  0.1249999999871179  0.4070133268666680   F   F   F
  0.1666666716383389  0.8749999404036828  0.4070133268666680   F   F   F
  0.3317375229388875  0.1196212007780852  0.6130297364034267   T   T   T
  0.6656033610242899  0.1248239675083965  0.6077076707746251   T   T   T
  0.5004044823485962  0.1224268958127359  0.6068775312130589   T   T   T
  0.5000000000021103  0.1249999999871179  0.4070133268666680   F   F   F
  0.9998759687693189  0.6236762927867036  0.6236532224134999   T   T   T
  0.5000000000021103  0.8749999404036828  0.4070133268666680   F   F   F
  0.8362912387066541  0.5001511648003636  0.5028319905651840   T   T   T
  0.5000000000021103  0.6249999999803961  0.4070133268666680   F   F   F
  0.8315294386827125  0.8774776422280365  0.6180309159872068   T   T   T
  0.1634903846703917  0.4998408210950952  0.5019751167449128   T   T   T
  0.8333332538436267  0.3750000000061604  0.4070133268666680   F   F   F
  0.6665339948403168  0.6259067946190979  0.5928349873832984   T   T   T
  0.1666666716383389  0.6249999999803961  0.4070133268666680   F   F   F
  0.8362220317953514  0.7517017355335489  0.5025959125297801   T   T   T
  0.0005008690120573  0.3750555532131912  0.6247863145594844   T   T   T
  0.0000000000000000  0.3750000000061604  0.4070133268666680   F   F   F
  0.6706311330766086  0.3727429290816688  0.5929600066823414   T   T   T
  0.8381588860556758  0.3729168403473029  0.6032166587344138   T   T   T
  0.9991139632213017  0.8747742745006937  0.6235248869789144   T   T   T
  0.8354612092205365  0.1240695547069580  0.6130118944097007   T   T   T
  0.6660246261236074  0.8821565781195426  0.6072013659469472   T   T   T
  0.1633914503031019  0.3710770246533135  0.6074850816728210   T   T   T
  0.1678201851343033  0.1225692672524757  0.6217284127013960   T   T   T
  0.1596995011627637  0.6275077807174184  0.6013443596057838   T   T   T
  0.3340172577422741  0.6247126839682696  0.5949561152597463   T   T   T
  0.1664777341998317  0.8737548361672876  0.6177302368019175   T   T   T
  0.3347250478834860  0.8790282612325591  0.6026320264069269   T   T   T
  0.6666666865533486  0.8749999404036828  0.4070133268666680   F   F   F
  0.5000000000021103  0.3750000000061604  0.4070133268666680   F   F   F
  0.5035407645220922  0.6249797311571982  0.5941626491791295   T   T   T
  0.1666666716383389  0.1249999999871179  0.4070133268666680   F   F   F
  0.5016546651116526  0.3716765572327814  0.5949449873802983   T   T   T
  0.0000000000000000  0.1249999999871179  0.4070133268666680   F   F   F
  0.8396094618296094  0.6269471887279932  0.6042322483485065   T   T   T
  0.3332152503876183  0.0011400536096284  0.5057779399059440   T   T   T
  0.6666666865533486  0.3750000000061604  0.4070133268666680   F   F   F
  0.5010320997966461  0.7529098755841209  0.5037921425865275   T   T   T
  0.3339572331142781  0.7511692218918019  0.5015323426702150   T   T   T
  0.1644362871483582  0.7513827599905796  0.5034819643399030   T   T   T
  0.6662143664671385 -0.0000658393023778  0.5056719752125890   T   T   T
  0.3301949786178756  0.2479384623887861  0.5028841296108062   T   T   T
  0.0008549541335120  0.1227773133165549  0.6195987103077303   T   T   T
  0.8333332538436267  0.6249999999803961  0.4070133268666680   F   F   F
  0.1666666716383389  0.3750000000061604  0.4070133268666680   F   F   F
 -0.0000129115100275  0.7511005172435750  0.5067755568959861   T   T   T
  0.5014085654425533  0.8773555565654845  0.6098193191068129   T   T   T
  0.3311337139710989  0.4992270273246799  0.5009132535467005   T   T   T
  0.3260175635635935  0.3732681431303549  0.5927036143156154   T   T   T
  0.6669233086441827  0.2480531237343641  0.5025855617662606   T   T   T
  0.6684586762213010  0.4999357839939066  0.5005609618188079   T   T   T
  0.6654122797357198  0.7518496017179243  0.5021342051442745   T   T   T
  0.0001923046245018  0.9998393744708581  0.5067001922059936   T   T   T
  0.8362903290294201  0.2485806340768160  0.5022979351953746   T   T   T
  0.3333333432766779  0.3750000000061604  0.4070133268666680   F   F   F
  0.5010653651651843  0.4996865108248658  0.5001889821855883   T   T   T
  0.3333333432766779  0.1249999999871179  0.4070133268666680   F   F   F
  0.9996018664488594  0.4999268663981430  0.5067408159609562   T   T   T
  0.1660206571794747  0.0011025970073753  0.5065447825156312   T   T   T
  0.5003479142148619  0.9992196644255742  0.5056055952495214   T   T   T
  0.6666666865533486  0.1249999999871179  0.4070133268666680   F   F   F
  0.8342915836587310 -0.0000587961048231  0.5065958244752475   T   T   T
  0.1664282013634132  0.2481679251747731  0.5062325315749783   T   T   T
  0.3333333432766779  0.8749999404036828  0.4070133268666680   F   F   F
  0.3333333432766779  0.6249999999803961  0.4070133268666680   F   F   F
  0.8333332538436267  0.8749999404036828  0.4070133268666680   F   F   F
  0.6666666865533486  0.6249999999803961  0.4070133268666680   F   F   F
  0.0011403318479315  0.2498193913901265  0.5061288279541630   T   T   T
  0.5012258905102295  0.2479516684832108  0.5023004796199553   T   T   T
  0.0000000000000000  0.8749999404036828  0.4070133268666680   F   F   F
  0.0000000000000000  0.6249999999803961  0.4070133268666680   F   F   F
  0.0833333358191695  0.2500000000190425  0.4070133268666680   F   F   F
  0.0833333358191695  0.4999999999932783  0.4070133268666680   F   F   F
  0.0836537364869520  0.9984714927481149  0.6037040431751927   T   T   T
  0.0833333358191695  0.7500000000123208  0.4070133268666680   F   F   F
  0.9187301631033618  0.3742777906658050  0.5058218209183949   T   T   T
  0.7523073500939421  0.7524494902935839  0.5905025694244675   T   T   T
  0.5838776353193977  0.8759202204447584  0.5057362882016863   T   T   T
  0.4166666269218169  0.4999999999932783  0.4070133268666680   F   F   F
  0.0833333358191695  0.0000000000000000  0.4070133268666680   F   F   F
  0.9166666865332829  0.7500000000123208  0.4070133268666680   F   F   F
  0.9185543907520737  0.4999103739052936  0.6038147195413830   T   T   T
  0.5832437972614934  0.1235224865821500  0.5045744025242589   T   T   T
  0.7524957479749872  0.6247142288151341  0.5023411968815327   T   T   T