Au  C  H  O Sr Ti                       
   1.00000000000000     
    23.6707801818999997    0.0000000000000000    0.0000000000000000
     0.0000000000000000   22.3170261383000010    0.0000000000000000
     0.0000000000000000    0.0000000000000000   30.0000000000000000
   Au   C    H    O    Sr   Ti
    50     1     2   265    72    72
Selective dynamics
Direct
  0.7149116772535055  0.5260594786774667  0.7533828329433097   T   T   T
  0.6218935637348336  0.5711964685172274  0.7038561975629333   T   T   T
  0.7181261135534804  0.2604235430336507  0.6906569782341558   T   T   T
  0.2937220337094560  0.7474020291513960  0.6968070908687495   T   T   T
  0.5078772627203344  0.6084097555134869  0.7767564078895964   T   T   T
  0.5785904479369944  0.7262169977737807  0.7938106367464483   T   T   T
  0.2387370359779665  0.4701341611381558  0.7086837526002007   T   T   T
  0.2839881897127438  0.6637507282556492  0.7647130597041873   T   T   T
  0.5994916387568298  0.2970373851109417  0.7882005866327071   T   T   T
  0.5130351210580946  0.4866211416237753  0.6778818633121522   T   T   T
  0.5600801037248943  0.4913491064816818  0.7625542406336488   T   T   T
  0.5467248511662471  0.2136732083663097  0.7085357248810049   T   T   T
  0.5446419379596112  0.3895874507697078  0.8297891821799467   T   T   T
  0.3915322809558393  0.8191167351900774  0.7065638154980055   T   T   T
  0.4619501008232641  0.6990111471146233  0.8318625975916875   T   T   T
  0.4304551803292130  0.2286593121247877  0.6982458661758840   T   T   T
  0.3679025275987191  0.3010316862158515  0.7569506253541612   T   T   T
  0.3474160437119191  0.5003674712206052  0.6966538106508767   T   T   T
  0.4261054405240401  0.3749980437331050  0.8167335831524161   T   T   T
  0.5966683212630769  0.7851903028236807  0.7130490487086234   T   T   T
  0.6329221873717046  0.5858563025593877  0.7999102701345725   T   T   T
  0.7331444357147990  0.6151097490110649  0.6940161745039207   T   T   T
  0.4855524440799688  0.7763054942868379  0.7551394197273663   T   T   T
  0.7623398902757190  0.4315059789021689  0.7045396084988648   T   T   T
  0.2885637053578214  0.5392930705084434  0.7769536084302721   T   T   T
  0.4838040416945407  0.2737811041322957  0.7735434736629150   T   T   T
  0.4506424597129796  0.5814420360611322  0.7024287605927124   T   T   T
  0.7065322098571156  0.7574948400361990  0.6879815729122608   T   T   T
  0.6524819887424164  0.4417832039184562  0.8104500164873852   T   T   T
  0.3673375400979769  0.6204413938980035  0.8195875029517409   T   T   T
  0.5678813488521246  0.5115748471017685  0.8572565706695521   T   T   T
  0.6574857260869811  0.2019767662892170  0.7527861436490763   T   T   T
  0.4682249420600372  0.4529518792001541  0.8825604106390252   T   T   T
  0.5160549462328889  0.3814403034166101  0.7337834076551620   T   T   T
  0.2807484373947876  0.3407929466873610  0.7026053749312864   T   T   T
  0.6697113440224504  0.6818400646232258  0.7487606624605293   T   T   T
  0.3967848438100479  0.3832386726435310  0.6908702597202819   T   T   T
  0.6122074962865425  0.3189963193611113  0.6977013591329525   T   T   T
  0.3730289467510639  0.4939625365493965  0.8338930348565510   T   T   T
  0.3227737434861463  0.4167236784945894  0.7695291205299339   T   T   T
  0.4154268516157504  0.6974024461751500  0.6997484782041138   T   T   T
  0.7005058995453122  0.3456572121026429  0.7564360393906626   T   T   T
  0.7721826393132653  0.4299216093458243  0.7948454214805654   T   T   T
  0.2558752787119921  0.5942048550542016  0.6945001346554990   T   T   T
  0.6458199104964759  0.4434754190857519  0.6968642086359539   T   T   T
  0.5619503517619152  0.6410429359056844  0.8611819666086923   T   T   T
  0.5402531244997276  0.6684119494937877  0.7012627186999598   T   T   T
  0.4406376792465716  0.4765850220708131  0.7565106649166821   T   T   T
  0.3729801692976378  0.7416728197869348  0.7790597839756118   T   T   T
  0.4604815773032086  0.5748522349549208  0.8629481524766210   T   T   T
  0.7371913727611793  0.1130058616750138  0.7956564509034548   T   T   T
  0.7390954889146143  0.0653005886311576  0.8053093375333386   T   T   T
  0.7756564938247181  0.1304480144141872  0.8057396808858537   T   T   T
  0.7479215945317833  0.8075588104387499  0.5451536982123124   T   T   T
  0.7494063460095490  0.4384893197321076  0.4560800800146184   T   T   T
  0.7505015253530825  0.1898527278807781  0.4559097900312068   T   T   T
  0.4171185113897814  0.9362063177727472  0.4541830320535125   T   T   T
  0.4172674791344664  0.6855966561484166  0.4552180028764893   T   T   T
  0.4165531784554365  0.4353492776759552  0.4538805392716582   T   T   T
  0.0844663443944838  0.6869252064750877  0.4531942983482899   T   T   T
  0.0843146099059967  0.9367228382941299  0.4537136438390952   T   T   T
  0.0827013490289614  0.4369191508361756  0.4528319738379609   T   T   T
  0.0839326884740991  0.1866089954528141  0.4529677124477768   T   T   T
  0.9164501259907810  0.8119744727696837  0.4540552648501902   T   T   T
  0.2513139604984165  0.0625235955512640  0.5470851441206175   T   T   T
  0.9161662899909104  0.5621717629412895  0.4538880819942713   T   T   T
  0.9160710135535133  0.0620814154122644  0.4540876859050216   T   T   T
  0.9163123587694091  0.3120701282110181  0.4539319770442071   T   T   T
  0.4170322477262202  0.1870883318243629  0.4536242138493550   T   T   T
  0.2519288170906929  0.6874432163804616  0.4561128690277408   T   T   T
  0.9167878139438530  0.9366577576604650  0.4533692706770729   T   T   T
  0.5826893414365728  0.1900990988250774  0.4555023636153132   T   T   T
  0.0002589796839952  0.1250725547450069  0.4982768112098155   T   T   T
  0.5832782713002999  0.8104449649454960  0.4555173829683478   T   T   T
 -0.0000377120891089  0.3733180603127047  0.4986015883769064   T   T   T
  0.9995933399829359  0.6270720860172114  0.4976386321301557   T   T   T
  0.3336487065454405  0.1256198346583427  0.4988255840687697   T   T   T
  0.0003675257887705  0.8744857430278542  0.4991262952489329   T   T   T
  0.3336104991451312  0.8742174966542121  0.4992730066684867   T   T   T
  0.6660913365843991  0.1258652399663991  0.4994394841482588   T   T   T
  0.2512123654434268  0.4391773323906936  0.4548613257096564   T   T   T
  0.0833333358191695  0.5625000000092442  0.3605200052333331   F   F   F
  0.9166666865332829  0.0625000000159659  0.3605200052333331   F   F   F
  0.7488459323318358  0.6886006358743245  0.4573718568917328   T   T   T
  0.7499568701048162  0.8132339246638925  0.4531101611540697   T   T   T
  0.7495266988684868  0.9384966024015076  0.4554979023867817   T   T   T
  0.9172734329343282  0.0634068269993696  0.5471644633430983   T   T   T
  0.5827396265894683  0.4393634865160664  0.4564046963166792   T   T   T
  0.2500472390509816  0.9360801139185576  0.4540710896084313   T   T   T
  0.6651975872448699  0.6253756558583442  0.5029852982812486   T   T   T
  0.5844713707735663  0.5628485137101967  0.4549628338843761   T   T   T
  0.5830219216335225  0.0635113681649072  0.4540705558519631   T   T   T
  0.9166666865332829  0.6874999999963620  0.3605200052333331   F   F   F
  0.9166666865332829  0.4374999701794380  0.3605200052333331   F   F   F
  0.9166666865332829  0.1875000000030838  0.3605200052333331   F   F   F
  0.5833333134730552  0.9375000000154046  0.3605200052333331   F   F   F
  0.5833333134730552  0.6874999999963620  0.3605200052333331   F   F   F
  0.5833333134730552  0.4374999701794380  0.3605200052333331   F   F   F
  0.5833333134730552  0.1875000000030838  0.3605200052333331   F   F   F
  0.2499999999799343  0.9375000000154046  0.3605200052333331   F   F   F
  0.9166666865332829  0.9375000000154046  0.3605200052333331   F   F   F
  0.2499999999799343  0.6874999999963620  0.3605200052333331   F   F   F
  0.2499999999799343  0.1875000000030838  0.3605200052333331   F   F   F
  0.7499999404149307  0.9375000000154046  0.3605200052333331   F   F   F
  0.7499999404149307  0.6874999999963620  0.3605200052333331   F   F   F
  0.7499999404149307  0.4374999701794380  0.3605200052333331   F   F   F
  0.7499999404149307  0.1875000000030838  0.3605200052333331   F   F   F
  0.4166666269218169  0.9375000000154046  0.3605200052333331   F   F   F
  0.4166666269218169  0.6874999999963620  0.3605200052333331   F   F   F
  0.4166666269218169  0.4374999701794380  0.3605200052333331   F   F   F
  0.2499999999799343  0.4374999701794380  0.3605200052333331   F   F   F
  0.0833333358191695  0.0625000000159659  0.3605200052333331   F   F   F
  0.9152045492170253  0.6867310046100379  0.4533132368271854   T   T   T
  0.6655233087668813  0.3782804776796942  0.5031345109603824   T   T   T
  0.3344452197681059  0.3783609207774765  0.5029297366164968   T   T   T
  0.3356523061498740  0.6258744309332626  0.5036829664177627   T   T   T
  0.2500034692670203  0.1883610022558457  0.4540895369553667   T   T   T
  0.2505712661646238  0.0620405533769421  0.4542237007649998   T   T   T
  0.9152179802691710  0.3126615253789978  0.5467590333307927   T   T   T
  0.2522858316222906  0.3140691710799721  0.4541991680796140   T   T   T
  0.5833333134730552  0.0625000000159659  0.3605200052333331   F   F   F
  0.2499999999799343  0.8124999999834799  0.3605200052333331   F   F   F
  0.2499999999799343  0.5625000000092442  0.3605200052333331   F   F   F
  0.2499999999799343  0.3124999999901945  0.3605200052333331   F   F   F
  0.2499999999799343  0.0625000000159659  0.3605200052333331   F   F   F
  0.7499999404149307  0.5625000000092442  0.3605200052333331   F   F   F
  0.7499999404149307  0.3124999999901945  0.3605200052333331   F   F   F
  0.7499999404149307  0.0625000000159659  0.3605200052333331   F   F   F
  0.4166666269218169  0.8124999999834799  0.3605200052333331   F   F   F
  0.4166666269218169  0.5625000000092442  0.3605200052333331   F   F   F
  0.4166666269218169  0.3124999999901945  0.3605200052333331   F   F   F
  0.7499999404149307  0.8124999999834799  0.3605200052333331   F   F   F
  0.0836269476874991  0.3121223664290583  0.4539430201865027   T   T   T
  0.4166666269218169  0.0625000000159659  0.3605200052333331   F   F   F
  0.4169244894554645  0.0616281306696536  0.4552744095389687   T   T   T
  0.0837756088905278  0.8120617455399357  0.4539818835587765   T   T   T
  0.0837538366200349  0.5625176610978821  0.4537979739438714   T   T   T
  0.4159560923303253  0.5597016372152139  0.4578063524860881   T   T   T
  0.0836813187301101  0.0618873067291385  0.4542357882430122   T   T   T
  0.4155646806956598  0.3112638393193781  0.4574573849948561   T   T   T
  0.8333332538436267  0.7500000000123208  0.4070133268666680   F   F   F
  0.0833333358191695  0.4374999701794380  0.3605200052333331   F   F   F
  0.0833333358191695  0.6874999999963620  0.3605200052333331   F   F   F
  0.0833333358191695  0.9375000000154046  0.3605200052333331   F   F   F
  0.4166666269218169  0.1875000000030838  0.3605200052333331   F   F   F
  0.0833333358191695  0.8124999999834799  0.3605200052333331   F   F   F
  0.8333332538436267  0.4999999999932783  0.4070133268666680   F   F   F
  0.6901968506000258  0.1346367052272023  0.7777865391584006   T   T   T
  0.4146283088197368  0.8117167333061096  0.5478562386059979   T   T   T
  0.5833333134730552  0.3124999999901945  0.3605200052333331   F   F   F
  0.5833333134730552  0.8124999999834799  0.3605200052333331   F   F   F
  0.7493035110574205  0.0645137328996620  0.4530577769998338   T   T   T
  0.5833333134730552  0.5625000000092442  0.3605200052333331   F   F   F
  0.2518403241687282  0.5647700130028409  0.4538873360898595   T   T   T
  0.2507266567239264  0.8106843435461212  0.4553356756614931   T   T   T
  0.8333332538436267  0.2500000000190425  0.4070133268666680   F   F   F
  0.5840865815130779  0.3153088800142181  0.4538179552986873   T   T   T
  0.7465942056558390  0.5576238769955472  0.5446127263947348   T   T   T
  0.5000000000021103  0.4999999999932783  0.4070133268666680   F   F   F
  0.0833333358191695  0.1875000000030838  0.3605200052333331   F   F   F
  0.0000000000000000  0.0000000000000000  0.4070133268666680   F   F   F
  0.0000000000000000  0.2500000000190425  0.4070133268666680   F   F   F
  0.0000000000000000  0.4999999999932783  0.4070133268666680   F   F   F
  0.7483988866127114  0.5641372129503937  0.4537539978403359   T   T   T
  0.3333333432766779  0.0000000000000000  0.4070133268666680   F   F   F
  0.3333333432766779  0.4999999999932783  0.4070133268666680   F   F   F
  0.3333333432766779  0.7500000000123208  0.4070133268666680   F   F   F
  0.5829111177963250  0.6860617590103600  0.4547188790538472   T   T   T
  0.6666666865533486  0.0000000000000000  0.4070133268666680   F   F   F
  0.6666666865533486  0.4999999999932783  0.4070133268666680   F   F   F
  0.6666666865533486  0.7500000000123208  0.4070133268666680   F   F   F
  0.1666666716383389  0.0000000000000000  0.4070133268666680   F   F   F
  0.1666666716383389  0.2500000000190425  0.4070133268666680   F   F   F
  0.1666666716383389  0.4999999999932783  0.4070133268666680   F   F   F
  0.1666666716383389  0.7500000000123208  0.4070133268666680   F   F   F
  0.5000000000021103  0.0000000000000000  0.4070133268666680   F   F   F
  0.5000000000021103  0.2500000000190425  0.4070133268666680   F   F   F
  0.5000000000021103  0.7500000000123208  0.4070133268666680   F   F   F
  0.9166666865332829  0.3124999999901945  0.3605200052333331   F   F   F
  0.3333333432766779  0.2500000000190425  0.4070133268666680   F   F   F
  0.7475461255909233  0.3142288559280205  0.4548807427577466   T   T   T
  0.0000000000000000  0.7500000000123208  0.4070133268666680   F   F   F
  0.4171081325040445  0.8105485113807631  0.4549524386108013   T   T   T
  0.6666666865533486  0.2500000000190425  0.4070133268666680   F   F   F
  0.5828611144604516  0.9372241687724342  0.4544521542203540   T   T   T
  0.8333332538436267  0.0000000000000000  0.4070133268666680   F   F   F
  0.9160173196248337  0.4368781635659447  0.4537116329574799   T   T   T
  0.7481608527140883  0.1830837399838564  0.5509034028558504   T   T   T
  0.4161734296426141  0.9370101586273638  0.5463639426451522   T   T   T
  0.4985055754493805  0.2534455810605660  0.5914336537284710   T   T   T
  0.4161424717816579  0.1913822008755864  0.5466957166772407   T   T   T
  0.0854255043860730  0.6889834776566071  0.5454664358967550   T   T   T
  0.0829731472670538  0.4387932325466801  0.5449230991346832   T   T   T
  0.0836583632681437  0.1888195960933420  0.5456116494565363   T   T   T
  0.4995035534970474  0.1255025767891396  0.4995870177899439   T   T   T
  0.9996612078098204  0.4990411000025220  0.5939564552104981   T   T   T
  0.5807043662199504  0.1856075669053485  0.5499615625401613   T   T   T
  0.9996643808794173  0.7540749563011027  0.5928900901954994   T   T   T
  0.3340566922057837  0.9997735033224942  0.5919406323290234   T   T   T
 -0.0000193299744529  0.9989191463217555  0.5929707924707994   T   T   T
  0.0013280862297734  0.2505239157509910  0.5919013368108371   T   T   T
  0.3332440700455091  0.4963875038995239  0.5909132228062192   T   T   T
  0.3358000525274991  0.7412752314707962  0.5903566870536489   T   T   T
  0.6633505574841744  0.2480003767917813  0.5900473223742790   T   T   T
  0.6670163697899192  0.0031272077366028  0.5923859543105828   T   T   T
  0.6658887841655570  0.7415009201363441  0.5904965785852073   T   T   T
  0.6664544370088055  0.4944350639731389  0.5917127072226028   T   T   T
  0.1675762024333620  0.9982396035427730  0.5921802995149510   T   T   T
  0.1683129793257073  0.2487657483612978  0.5932829122571828   T   T   T
  0.1709254851059583  0.7502950820420762  0.5949626964552139   T   T   T
  0.2486248233187373  0.4360913802774931  0.5489693871488890   T   T   T
  0.1655645515637803  0.5034284158538870  0.5870360985661635   T   T   T
  0.3344429460360007  0.2546049185008766  0.5926397864117320   T   T   T
  0.4999567047352261  0.0003692019294363  0.5911091404767971   T   T   T
  0.8327684342117152  0.8749456909682682  0.4988614642577641   T   T   T
  0.7481280911211712  0.9397942122887999  0.6416229068383854   T   T   T
  0.4232752871056505  0.6876410175914025  0.5470859819995755   T   T   T
  0.4230043756767723  0.4435851121694121  0.5458831257151395   T   T   T
  0.7518431985945274  0.4349107323273142  0.5491474408849403   T   T   T
  0.7516779154556076  0.6797755136766792  0.5531927417900957   T   T   T
  0.2493885670849735  0.3136220847630973  0.5459750089509323   T   T   T
  0.5824415020521925  0.3113741396688341  0.5452415994315643   T   T   T
  0.9158673775066140  0.1865822708026663  0.4531219058621616   T   T   T
  0.2533954064137611  0.8124520658675078  0.5507045527250121   T   T   T
  0.5829563891755062  0.0624875077146454  0.5460739051454299   T   T   T
  0.5865248568226467  0.8148002457968507  0.5506594302173822   T   T   T
  0.7482389777238222  0.3114380400641767  0.5484017080396243   T   T   T
  0.5811595668187244  0.5601269679833630  0.5492448563448677   T   T   T
  0.2526568236349466  0.5593795283815725  0.5438147682061941   T   T   T
  0.4160518098789091  0.3194064021474968  0.5526019635631580   T   T   T
  0.5768535508979443  0.4360188282670523  0.5523797726718572   T   T   T
  0.4165794798450617  0.0650580993211879  0.5472487532322505   T   T   T
  0.0853155405824642  0.8125640322562220  0.5472247650268572   T   T   T
  0.0812834671372872  0.5641809310845308  0.5460911936177105   T   T   T
  0.8323150688071509  0.0010436917818671  0.5919191358862809   T   T   T
  0.0865414123201529  0.3134765296541477  0.5473023299725419   T   T   T
  0.9164207314876126  0.9387685826377177  0.5461207211085393   T   T   T
  0.9143646848915523  0.6887810917220307  0.5456236213352578   T   T   T
  0.5844821699296530  0.9378954627586971  0.5463087504371181   T   T   T
  0.9169529810664457  0.1888244954163516  0.5454320109962189   T   T   T
  0.9157288767627169  0.4374077066202147  0.5457599906477398   T   T   T
  0.5795109360750648  0.6863251183031122  0.5472664322439285   T   T   T
  0.2515281489594862  0.9373178523842025  0.5452821193537648   T   T   T
  0.4974167087165599  0.5050170640874315  0.6086880515342744   T   T   T
  0.9173995189667546  0.5637929274925606  0.5468294564370223   T   T   T
  0.4198960355042580  0.5649257778312764  0.5552114535927754   T   T   T
  0.9155706814092032  0.8127187666362595  0.5467281410842401   T   T   T
  0.0836873024491433  0.9384478058471092  0.5458771373100914   T   T   T
  0.2492512284360274  0.6832120707093019  0.5518947951442319   T   T   T
  0.7485769014131105  0.9333061388765408  0.5481949300771538   T   T   T
  0.0824840767601059  0.0631604898828712  0.5475964322738621   T   T   T
  0.5011930825935000  0.7564031805925763  0.5927543086134973   T   T   T
  0.0833333358191695  0.3124999999901945  0.3605200052333331   F   F   F
  0.4248805079286189  0.3053712108931060  0.6557964971606202   T   T   T
  0.5911046477652406  0.8107688721838457  0.6461520089844227   T   T   T
  0.9157096804633581  0.0628769307077272  0.6403577156004683   T   T   T
  0.9136172592247880  0.5626161485760193  0.6406112420786594   T   T   T
  0.9146965380645515  0.3116383903970192  0.6398190533089936   T   T   T
  0.9129446403472570  0.8135027390649736  0.6420006258574568   T   T   T
  0.5822839700897051  0.0669034099490852  0.6391704016683635   T   T   T
  0.5842335963765469  0.3211896918779287  0.6338792499970362   T   T   T
  0.5905019989347411  0.5661668867745022  0.6391542794065829   T   T   T
  0.2475629289548506  0.5743087052827708  0.6286748002683928   T   T   T
  0.7536793849415199  0.6921406899253985  0.6570718029721093   T   T   T
  0.2627386150479080  0.8003389971797178  0.6462510358502852   T   T   T
  0.2509627828670563  0.0593677004979299  0.6422873931066900   T   T   T
  0.9166666865332829  0.5625000000092442  0.3605200052333331   F   F   F
  0.5004093929252829  0.8735949702773059  0.5009913634709656   T   T   T
  0.5003963321766134  0.6210110491438446  0.4999392660098805   T   T   T
  0.8322695665618078  0.6231881126019337  0.5000656675010517   T   T   T
  0.2518210704719733  0.1879844325522783  0.5472583912361829   T   T   T
  0.8324002898161874  0.3733848357874452  0.4997495136403131   T   T   T
  0.8327603385296037  0.1245775632720742  0.5003660825459124   T   T   T
  0.1666787255055865  0.3762469029218835  0.4978284371649564   T   T   T
  0.1676811303131341  0.6243643487420302  0.5002109834093347   T   T   T
  0.5793418095185902  0.4394463247678094  0.6468873902835360   T   T   T
  0.5790005870812605  0.6863938389190345  0.6394237568763634   T   T   T
  0.9167390996409506  0.1858571978552919  0.6394670658464247   T   T   T
  0.2490493387798518  0.3166244514707757  0.6412150909128321   T   T   T
  0.1672476101557489  0.1243341087607079  0.4991967076931442   T   T   T
  0.7492775286557173  0.0596451405509374  0.5442608110113943   T   T   T
  0.1680063224176590  0.8732999175456972  0.4998724093530534   T   T   T
  0.4176859286746919  0.0653224720097496  0.6399871120283532   T   T   T
  0.4204863746297924  0.6763418272098912  0.6339546229331250   T   T   T
  0.4177194823606113  0.9348851605989221  0.6397744941535166   T   T   T
  0.4996062390944263  0.3742596123308673  0.5001452102310728   T   T   T
  0.7442509403552162  0.1948349653752220  0.6471908260332893   T   T   T
  0.3968177810512162  0.5507437538277171  0.6516791082475167   T   T   T
  0.4130520795744388  0.8128248705463854  0.6397201002906072   T   T   T
  0.7539445675635477  0.4330747884010098  0.6380309610389355   T   T   T
  0.7532726758535337  0.5683846372477277  0.6357636601278871   T   T   T
  0.7413748872572538  0.8103385514566481  0.6396606119727120   T   T   T
  0.7472081365454120  0.3119704254633408  0.6399683914048439   T   T   T
  0.7508676614265000  0.0699691417530731  0.6403004411632410   T   T   T
  0.0841218691505899  0.3113892838931112  0.6413248308356262   T   T   T
  0.6666399968475911  0.8743964715249117  0.4985653337418401   T   T   T
  0.0843277540295055  0.0600574383779219  0.6420869518806298   T   T   T
  0.0873625751828595  0.4367001191479134  0.6397142019535246   T   T   T
  0.0835685122876236  0.1853335198261184  0.6412918194028686   T   T   T
  0.4170760480085169  0.1875790415773598  0.6398268100152595   T   T   T
  0.4151197718003220  0.4188823171128122  0.6301800985776778   T   T   T
  0.0843017283983331  0.9354015351437797  0.6410429612288739   T   T   T
  0.0865828345042747  0.5629677590114461  0.6396541882453963   T   T   T
  0.9166666865332829  0.8124999999834799  0.3605200052333331   F   F   F
  0.0830920488968373  0.6871047678690108  0.6388491918383280   T   T   T
  0.8315397721142128  0.2473903575373498  0.5910439236190523   T   T   T
  0.8331051244399748  0.5023443085605849  0.5890477511241891   T   T   T
  0.2536903885173798  0.1864654155275516  0.6413136891732361   T   T   T
  0.0847449410686599  0.8126270783403972  0.6426301446554430   T   T   T
  0.8302845030390043  0.7505007315600255  0.5923796288911235   T   T   T
  0.2520958779605572  0.9302314425043493  0.6374110219667415   T   T   T
  0.2545626500291645  0.6784893056738769  0.6625432404130221   T   T   T
  0.2406230283550213  0.4423181731676227  0.6413055078087045   T   T   T
  0.9142752372528898  0.9374728060313408  0.6415339095733150   T   T   T
  0.9162096544083498  0.6874612038723135  0.6387424126323082   T   T   T
  0.9124057855371018  0.4360838657551623  0.6399199121555591   T   T   T
  0.5796014631912335  0.1919507321712309  0.6451188969722886   T   T   T
  0.5826720627062644  0.9363423448962446  0.6393936072957945   T   T   T
  0.0011883804426913  0.1220589832170396  0.6187570612852477   T   T   T
  0.1666666716383389  0.3750000000061604  0.4070133268666680   F   F   F
  0.6653065167577035  0.7519899233750261  0.5020550815824921   T   T   T
  0.5012406303256144  0.7531248321796931  0.5038602039358947   T   T   T
  0.6660946003652117  0.0001718011306430  0.5057281140557912   T   T   T
  0.1643480307705269  0.7513021029099918  0.5033876370972824   T   T   T
  0.8333332538436267  0.6249999999803961  0.4070133268666680   F   F   F
  0.6683428985234576  0.4999275221888811  0.5006907158710991   T   T   T
  0.3311408916907361  0.4992877185135485  0.5007657292746879   T   T   T
  0.3300120142830760  0.2478860182095868  0.5028335024071944   T   T   T
  0.3331290713748351  0.0007287426522560  0.5057502878653136   T   T   T
  0.6664562872544838  0.2478531516691269  0.5025217142036120   T   T   T
  0.5011831206167516  0.4999760016531681  0.5003551954628100   T   T   T
  0.9995355380329968  0.4999653852703896  0.5066524722764802   T   T   T
  0.8361023130457385  0.4999195554292759  0.5028799535619987   T   T   T
  0.8356765888055990  0.2483326156606414  0.5027427941939610   T   T   T
  0.6666666865533486  0.3750000000061604  0.4070133268666680   F   F   F
  0.1660092259456431  0.0010143993863132  0.5065686476953407   T   T   T
  0.0000000000000000  0.8749999404036828  0.4070133268666680   F   F   F
  0.5008479118060399  0.2479492051585387  0.5021314503249308   T   T   T
  0.9998871654282391  0.7511070052993046  0.5067210723561016   T   T   T
  0.0009668748071361  0.2498460156278645  0.5060845545112855   T   T   T
  0.0003010277573891 -0.0001513049902204  0.5065973825351644   T   T   T
  0.6666666865533486  0.6249999999803961  0.4070133268666680   F   F   F
  0.8333332538436267  0.8749999404036828  0.4070133268666680   F   F   F
  0.3333333432766779  0.6249999999803961  0.4070133268666680   F   F   F
  0.3333333432766779  0.1249999999871179  0.4070133268666680   F   F   F
  0.3333333432766779  0.3750000000061604  0.4070133268666680   F   F   F
  0.8343931229804287  0.9998178824573700  0.5062646936039656   T   T   T
  0.3333333432766779  0.8749999404036828  0.4070133268666680   F   F   F
  0.6666666865533486  0.1249999999871179  0.4070133268666680   F   F   F
  0.0000000000000000  0.6249999999803961  0.4070133268666680   F   F   F
  0.1662464182250061  0.2480097295491958  0.5064509987115414   T   T   T
  0.3340222560497400  0.7512461027268167  0.5014662108022209   T   T   T
  0.5004074442864463  0.9990427043703743  0.5055880031600849   T   T   T
  0.5011218446732472  0.8771528037854051  0.6095702489738750   T   T   T
  0.3259855154173441  0.3734982100361012  0.5928287434825036   T   T   T
  0.0000000000000000  0.3750000000061604  0.4070133268666680   F   F   F
  0.3341112236098553  0.6248349511530896  0.5949192727220637   T   T   T
  0.5000000000021103  0.8749999404036828  0.4070133268666680   F   F   F
  0.8333332538436267  0.1249999999871179  0.4070133268666680   F   F   F
  0.1666666716383389  0.1249999999871179  0.4070133268666680   F   F   F
  0.6654807095534092  0.1243318614727967  0.6089850812540277   T   T   T
  0.5000000000021103  0.6249999999803961  0.4070133268666680   F   F   F
  0.8395076351785221  0.6270211972852898  0.6037395978954891   T   T   T
  0.3313820332903818  0.1196589469020780  0.6123738059968101   T   T   T
  0.9989814319307188  0.8746213402808697  0.6244195457074951   T   T   T
  0.5000000000021103  0.1249999999871179  0.4070133268666680   F   F   F
  0.1633544935206233  0.4998726403100355  0.5018899440183803   T   T   T
  0.8313465298395862  0.8774527535665334  0.6184878825637443   T   T   T
  0.8375359242900927  0.3724409478791290  0.6037271893413955   T   T   T
  0.8361890886214856  0.7520158914227415  0.5025672432965975   T   T   T
  0.1666666716383389  0.8749999404036828  0.4070133268666680   F   F   F
  0.8333332538436267  0.3750000000061604  0.4070133268666680   F   F   F
  0.0000000000000000  0.1249999999871179  0.4070133268666680   F   F   F
  0.5036949537543953  0.6257028717620727  0.5939045931597228   T   T   T
  0.1666666716383389  0.6249999999803961  0.4070133268666680   F   F   F
  0.5000000000021103  0.3750000000061604  0.4070133268666680   F   F   F
  0.6666666865533486  0.8749999404036828  0.4070133268666680   F   F   F
  0.6704959920231099  0.3723236674123492  0.5933941826851667   T   T   T
  0.3346416987563381  0.8786656814976869  0.6027345481977729   T   T   T
  0.1663715507027847  0.8736845173126071  0.6172971235960814   T   T   T
  0.5019062136949832  0.3716529075319708  0.5952835013364505   T   T   T
  0.1594095011752274  0.6275663430456052  0.6012019452091324   T   T   T
  0.1676828136329094  0.1227725421516832  0.6222106044571656   T   T   T
  0.1631385000390044  0.3714208920671372  0.6074684232815970   T   T   T
  0.6658694669523141  0.8821827817502931  0.6073389116080504   T   T   T
  0.6664391267482849  0.6263710583816873  0.5935671165942473   T   T   T
  0.0001636219572373  0.3749537928506938  0.6250073268237532   T   T   T
  0.9995646009926829  0.6234049412564636  0.6240648199688021   T   T   T
  0.8361362038445656  0.1244908074071943  0.6106387602834090   T   T   T
  0.5000844816391118  0.1224100501923485  0.6067336324591542   T   T   T
  0.5849414065061430  0.7504409846861133  0.5997171531708150   T   T   T
  0.0836790449320865  0.2480465227376565  0.6041074686906274   T   T   T
  0.7502300297311625  0.0029869053507672  0.6053117610546048   T   T   T
  0.5829882048602013  0.0019526286833853  0.6042420666959891   T   T   T
  0.9169937715393589  0.9994012074021996  0.6034573772602640   T   T   T
  0.5902629741323622  0.5013397697794281  0.5936731078313076   T   T   T
  0.4145473730430065  0.2485668993084084  0.5910903160320307   T   T   T
  0.2496861356665589  0.7528848715163302  0.5919210769288585   T   T   T
  0.5843690163356612  0.2473514199057137  0.5965668262326039   T   T   T
  0.2499126938048282  0.9976502389273626  0.6042467326992572   T   T   T
  0.7537492893680365  0.2475435038187413  0.5928959625942811   T   T   T
  0.2491829117396806  0.2460038421769468  0.6036865928657299   T   T   T
  0.4173898227684316  0.0001165736419822  0.6046186561576552   T   T   T
  0.2424452783338630  0.4983035926413924  0.5937414402264951   T   T   T
  0.0814437322799287  0.4999320668385936  0.6028999424020077   T   T   T