Au  C  O                                
   1.00000000000000     
    17.3099740034466869    0.0000000000000000    0.0000000000000000
     8.6549870017233435   14.9908772258330494    0.0000000000000000
     0.0000000000000000    0.0000000000000000   33.0667672948810178
   Au   C    O 
   144     1     1
Selective dynamics
Direct
  0.0000000000000000  0.0000000000000000  0.3931439648777655   F   F   F
  0.1666666666666643  0.0000000000000000  0.3931439648777655   F   F   F
  0.3333333333333357  0.0000000000000000  0.3931439648777655   F   F   F
  0.5000000000000000  0.0000000000000000  0.3931439648777655   F   F   F
  0.6666666666666643  0.0000000000000000  0.3931439648777655   F   F   F
  0.8333333333333357  0.0000000000000000  0.3931439648777655   F   F   F
  0.0000000000000000  0.1666666666666643  0.3931439648777655   F   F   F
  0.1666666666666643  0.1666666666666643  0.3931439648777655   F   F   F
  0.3333333333333357  0.1666666666666643  0.3931439648777655   F   F   F
  0.5000000000000000  0.1666666666666643  0.3931439648777655   F   F   F
  0.6666666666666643  0.1666666666666643  0.3931439648777655   F   F   F
  0.8333333333333357  0.1666666666666643  0.3931439648777655   F   F   F
  0.0000000000000000  0.3333333333333357  0.3931439648777655   F   F   F
  0.1666666666666643  0.3333333333333357  0.3931439648777655   F   F   F
  0.3333333333333357  0.3333333333333357  0.3931439648777655   F   F   F
  0.5000000000000000  0.3333333333333357  0.3931439648777655   F   F   F
  0.6666666666666643  0.3333333333333357  0.3931439648777655   F   F   F
  0.8333333333333357  0.3333333333333357  0.3931439648777655   F   F   F
  0.0000000000000000  0.5000000000000000  0.3931439648777655   F   F   F
  0.1666666666666643  0.5000000000000000  0.3931439648777655   F   F   F
  0.3333333333333357  0.5000000000000000  0.3931439648777655   F   F   F
  0.5000000000000000  0.5000000000000000  0.3931439648777655   F   F   F
  0.6666666666666643  0.5000000000000000  0.3931439648777655   F   F   F
  0.8333333333333357  0.5000000000000000  0.3931439648777655   F   F   F
  0.0000000000000000  0.6666666666666643  0.3931439648777655   F   F   F
  0.1666666666666643  0.6666666666666643  0.3931439648777655   F   F   F
  0.3333333333333357  0.6666666666666643  0.3931439648777655   F   F   F
  0.5000000000000000  0.6666666666666643  0.3931439648777655   F   F   F
  0.6666666666666643  0.6666666666666643  0.3931439648777655   F   F   F
  0.8333333333333357  0.6666666666666643  0.3931439648777655   F   F   F
  0.0000000000000000  0.8333333333333357  0.3931439648777655   F   F   F
  0.1666666666666643  0.8333333333333357  0.3931439648777655   F   F   F
  0.3333333333333357  0.8333333333333357  0.3931439648777655   F   F   F
  0.5000000000000000  0.8333333333333357  0.3931439648777655   F   F   F
  0.6666666666666643  0.8333333333333357  0.3931439648777655   F   F   F
  0.8333333333333357  0.8333333333333357  0.3931439648777655   F   F   F
  0.0555555555555571  0.0555555555555571  0.4643813216259218   F   F   F
  0.2222222222222214  0.0555555555555571  0.4643813216259218   F   F   F
  0.3888888888888857  0.0555555555555571  0.4643813216259218   F   F   F
  0.5555555555555571  0.0555555555555571  0.4643813216259218   F   F   F
  0.7222222222222214  0.0555555555555571  0.4643813216259218   F   F   F
  0.8888888888888857  0.0555555555555571  0.4643813216259218   F   F   F
  0.0555555555555571  0.2222222222222214  0.4643813216259218   F   F   F
  0.2222222222222214  0.2222222222222214  0.4643813216259218   F   F   F
  0.3888888888888857  0.2222222222222214  0.4643813216259218   F   F   F
  0.5555555555555571  0.2222222222222214  0.4643813216259218   F   F   F
  0.7222222222222214  0.2222222222222214  0.4643813216259218   F   F   F
  0.8888888888888857  0.2222222222222214  0.4643813216259218   F   F   F
  0.0555555555555571  0.3888888888888857  0.4643813216259218   F   F   F
  0.2222222222222214  0.3888888888888857  0.4643813216259218   F   F   F
  0.3888888888888857  0.3888888888888857  0.4643813216259218   F   F   F
  0.5555555555555571  0.3888888888888857  0.4643813216259218   F   F   F
  0.7222222222222214  0.3888888888888857  0.4643813216259218   F   F   F
  0.8888888888888857  0.3888888888888857  0.4643813216259218   F   F   F
  0.0555555555555571  0.5555555555555571  0.4643813216259218   F   F   F
  0.2222222222222214  0.5555555555555571  0.4643813216259218   F   F   F
  0.3888888888888857  0.5555555555555571  0.4643813216259218   F   F   F
  0.5555555555555571  0.5555555555555571  0.4643813216259218   F   F   F
  0.7222222222222214  0.5555555555555571  0.4643813216259218   F   F   F
  0.8888888888888857  0.5555555555555571  0.4643813216259218   F   F   F
  0.0555555555555571  0.7222222222222214  0.4643813216259218   F   F   F
  0.2222222222222214  0.7222222222222214  0.4643813216259218   F   F   F
  0.3888888888888857  0.7222222222222214  0.4643813216259218   F   F   F
  0.5555555555555571  0.7222222222222214  0.4643813216259218   F   F   F
  0.7222222222222214  0.7222222222222214  0.4643813216259218   F   F   F
  0.8888888888888857  0.7222222222222214  0.4643813216259218   F   F   F
  0.0555555555555571  0.8888888888888857  0.4643813216259218   F   F   F
  0.2222222222222214  0.8888888888888857  0.4643813216259218   F   F   F
  0.3888888888888857  0.8888888888888857  0.4643813216259218   F   F   F
  0.5555555555555571  0.8888888888888857  0.4643813216259218   F   F   F
  0.7222222222222214  0.8888888888888857  0.4643813216259218   F   F   F
  0.8888888888888857  0.8888888888888857  0.4643813216259218   F   F   F
  0.9444284271083445  0.1111119434169665  0.5403458824104833   T   T   T
  0.1110991431396085  0.1110991431396085  0.5403109464910325   T   T   T
  0.2778017137207902  0.1110991431396085  0.5403109464910325   T   T   T
  0.4444596294746886  0.1111119434169665  0.5403458824104833   T   T   T
  0.6110386975897915  0.1111559204093557  0.5403620513137333   T   T   T
  0.7778053820008594  0.1111559204093557  0.5403620513137333   T   T   T
  0.9445335225594529  0.2777332387202736  0.5403599546885702   T   T   T
  0.1110991431396085  0.2778017137207902  0.5403109464910325   T   T   T
  0.2777332387202736  0.2777332387202736  0.5403599546885702   T   T   T
  0.4440790370979402  0.2775958252171024  0.5398060960764937   T   T   T
  0.6112566639995893  0.2774866720008285  0.5401342769000866   T   T   T
  0.7783251376849574  0.2775958252171024  0.5398060960764937   T   T   T
  0.9444284271083445  0.4444596294746886  0.5403458824104833   T   T   T
  0.1111119434169665  0.4444596294746886  0.5403458824104833   T   T   T
  0.2775958252171024  0.4440790370979402  0.5398060960764937   T   T   T
  0.4447785765562347  0.4447785765562347  0.5417802227469106   T   T   T
  0.6104428468875306  0.4447785765562347  0.5417802227469106   T   T   T
  0.7783251376849574  0.4440790370979402  0.5398060960764937   T   T   T
  0.9444449266745042  0.6111101466509921  0.5403149431935537   T   T   T
  0.1111559204093557  0.6110386975897915  0.5403620513137333   T   T   T
  0.2774866720008285  0.6112566639995893  0.5401342769000866   T   T   T
  0.4447785765562347  0.6104428468875306  0.5417802227469106   T   T   T
  0.6112566639995893  0.6112566639995893  0.5401342769000866   T   T   T
  0.7778053820008594  0.6110386975897915  0.5403620513137333   T   T   T
  0.9444391619808753  0.7777804190095624  0.5402984146917709   T   T   T
  0.1111559204093557  0.7778053820008594  0.5403620513137333   T   T   T
  0.2775958252171024  0.7783251376849574  0.5398060960764937   T   T   T
  0.4440790370979402  0.7783251376849574  0.5398060960764937   T   T   T
  0.6110386975897915  0.7778053820008594  0.5403620513137333   T   T   T
  0.7777804190095624  0.7777804190095624  0.5402984146917709   T   T   T
  0.9444449266745042  0.9444449266745042  0.5403149431935537   T   T   T
  0.1111119434169665  0.9444284271083445  0.5403458824104833   T   T   T
  0.2777332387202736  0.9445335225594529  0.5403599546885702   T   T   T
  0.4444596294746886  0.9444284271083445  0.5403458824104833   T   T   T
  0.6111101466509921  0.9444449266745042  0.5403149431935537   T   T   T
  0.7777804190095624  0.9444391619808753  0.5402984146917709   T   T   T
  0.0000099724657677  0.0000099724657677  0.6183695288726031   T   T   T
  0.1665715975566694  0.0001891248556381  0.6183718271954303   T   T   T
  0.3332392775876926  0.0001891248556381  0.6183718271954303   T   T   T
  0.4999800550684644  0.0000099724657677  0.6183695288726031   T   T   T
  0.6667698430044028 -0.0002441117824867  0.6183742695049900   T   T   T
  0.8334742687780835 -0.0002441117824867  0.6183742695049900   T   T   T
  0.0001891248556381  0.1665715975566694  0.6183718271954303   T   T   T
  0.1666666666666643  0.1666666666666643  0.6182040049576742   T   T   T
  0.3332392775876926  0.1665715975566694  0.6183718271954303   T   T   T
  0.4999842243079897  0.1653416055371421  0.6187200185549911   T   T   T
  0.6673616447523738  0.1652767104952459  0.6188382075303049   T   T   T
  0.8346741701548684  0.1653416055371421  0.6187200185549911   T   T   T
  0.0001891248556381  0.3332392775876926  0.6183718271954303   T   T   T
  0.1665715975566694  0.3332392775876926  0.6183718271954303   T   T   T
  0.3327356907780907  0.3327356907780907  0.6186374054199998   T   T   T
  0.5002024374011742  0.3297439702865121  0.6168708506469722   T   T   T
  0.6700535923123140  0.3297439702865121  0.6168708506469722   T   T   T
  0.8345286184438258  0.3327356907780907  0.6186374054199998   T   T   T
  0.0000099724657677  0.4999800550684644  0.6183695288726031   T   T   T
  0.1653416055371421  0.4999842243079897  0.6187200185549911   T   T   T
  0.3297439702865121  0.5002024374011742  0.6168708506469722   T   T   T
  0.5000000000000000  0.5000000000000000  0.6184832933490243   T   T   T
  0.6700535923123140  0.5002024374011742  0.6168708506469722   T   T   T
  0.8346741701548684  0.4999842243079897  0.6187200185549911   T   T   T
 -0.0002441117824867  0.6667698430044028  0.6183742695049900   T   T   T
  0.1652767104952459  0.6673616447523738  0.6188382075303049   T   T   T
  0.3297439702865121  0.6700535923123140  0.6168708506469722   T   T   T
  0.5002024374011742  0.6700535923123140  0.6168708506469722   T   T   T
  0.6673616447523738  0.6673616447523738  0.6188382075303049   T   T   T
  0.8334742687780835  0.6667698430044028  0.6183742695049900   T   T   T
 -0.0002441117824867  0.8334742687780835  0.6183742695049900   T   T   T
  0.1653416055371421  0.8346741701548684  0.6187200185549911   T   T   T
  0.3327356907780907  0.8345286184438258  0.6186374054199998   T   T   T
  0.4999842243079897  0.8346741701548684  0.6187200185549911   T   T   T
  0.6667698430044028  0.8334742687780835  0.6183742695049900   T   T   T
  0.8333333333333357  0.8333333333333357  0.6182169270226308   T   T   T
  0.5000000000000000  0.5000000000000000  0.6816746626416206   T   T   T
  0.5000000000000000  0.5000000000000000  0.7163208604433889   T   T   T
 
  0.00000000E+00  0.00000000E+00  0.00000000E+00
  0.00000000E+00  0.00000000E+00  0.00000000E+00
  0.00000000E+00  0.00000000E+00  0.00000000E+00
  0.00000000E+00  0.00000000E+00  0.00000000E+00
  0.00000000E+00  0.00000000E+00  0.00000000E+00
  0.00000000E+00  0.00000000E+00  0.00000000E+00
  0.00000000E+00  0.00000000E+00  0.00000000E+00
  0.00000000E+00  0.00000000E+00  0.00000000E+00
  0.00000000E+00  0.00000000E+00  0.00000000E+00
  0.00000000E+00  0.00000000E+00  0.00000000E+00
  0.00000000E+00  0.00000000E+00  0.00000000E+00
  0.00000000E+00  0.00000000E+00  0.00000000E+00
  0.00000000E+00  0.00000000E+00  0.00000000E+00
  0.00000000E+00  0.00000000E+00  0.00000000E+00
  0.00000000E+00  0.00000000E+00  0.00000000E+00
  0.00000000E+00  0.00000000E+00  0.00000000E+00
  0.00000000E+00  0.00000000E+00  0.00000000E+00
  0.00000000E+00  0.00000000E+00  0.00000000E+00
  0.00000000E+00  0.00000000E+00  0.00000000E+00
  0.00000000E+00  0.00000000E+00  0.00000000E+00
  0.00000000E+00  0.00000000E+00  0.00000000E+00
  0.00000000E+00  0.00000000E+00  0.00000000E+00
  0.00000000E+00  0.00000000E+00  0.00000000E+00
  0.00000000E+00  0.00000000E+00  0.00000000E+00
  0.00000000E+00  0.00000000E+00  0.00000000E+00
  0.00000000E+00  0.00000000E+00  0.00000000E+00
  0.00000000E+00  0.00000000E+00  0.00000000E+00
  0.00000000E+00  0.00000000E+00  0.00000000E+00
  0.00000000E+00  0.00000000E+00  0.00000000E+00
  0.00000000E+00  0.00000000E+00  0.00000000E+00
  0.00000000E+00  0.00000000E+00  0.00000000E+00
  0.00000000E+00  0.00000000E+00  0.00000000E+00
  0.00000000E+00  0.00000000E+00  0.00000000E+00
  0.00000000E+00  0.00000000E+00  0.00000000E+00
  0.00000000E+00  0.00000000E+00  0.00000000E+00
  0.00000000E+00  0.00000000E+00  0.00000000E+00
  0.00000000E+00  0.00000000E+00  0.00000000E+00
  0.00000000E+00  0.00000000E+00  0.00000000E+00
  0.00000000E+00  0.00000000E+00  0.00000000E+00
  0.00000000E+00  0.00000000E+00  0.00000000E+00
  0.00000000E+00  0.00000000E+00  0.00000000E+00
  0.00000000E+00  0.00000000E+00  0.00000000E+00
  0.00000000E+00  0.00000000E+00  0.00000000E+00
  0.00000000E+00  0.00000000E+00  0.00000000E+00
  0.00000000E+00  0.00000000E+00  0.00000000E+00
  0.00000000E+00  0.00000000E+00  0.00000000E+00
  0.00000000E+00  0.00000000E+00  0.00000000E+00
  0.00000000E+00  0.00000000E+00  0.00000000E+00
  0.00000000E+00  0.00000000E+00  0.00000000E+00
  0.00000000E+00  0.00000000E+00  0.00000000E+00
  0.00000000E+00  0.00000000E+00  0.00000000E+00
  0.00000000E+00  0.00000000E+00  0.00000000E+00
  0.00000000E+00  0.00000000E+00  0.00000000E+00
  0.00000000E+00  0.00000000E+00  0.00000000E+00
  0.00000000E+00  0.00000000E+00  0.00000000E+00
  0.00000000E+00  0.00000000E+00  0.00000000E+00
  0.00000000E+00  0.00000000E+00  0.00000000E+00
  0.00000000E+00  0.00000000E+00  0.00000000E+00
  0.00000000E+00  0.00000000E+00  0.00000000E+00
  0.00000000E+00  0.00000000E+00  0.00000000E+00
  0.00000000E+00  0.00000000E+00  0.00000000E+00
  0.00000000E+00  0.00000000E+00  0.00000000E+00
  0.00000000E+00  0.00000000E+00  0.00000000E+00
  0.00000000E+00  0.00000000E+00  0.00000000E+00
  0.00000000E+00  0.00000000E+00  0.00000000E+00
  0.00000000E+00  0.00000000E+00  0.00000000E+00
  0.00000000E+00  0.00000000E+00  0.00000000E+00
  0.00000000E+00  0.00000000E+00  0.00000000E+00
  0.00000000E+00  0.00000000E+00  0.00000000E+00
  0.00000000E+00  0.00000000E+00  0.00000000E+00
  0.00000000E+00  0.00000000E+00  0.00000000E+00
  0.00000000E+00  0.00000000E+00  0.00000000E+00
  0.00000000E+00  0.00000000E+00  0.00000000E+00
  0.00000000E+00  0.00000000E+00  0.00000000E+00
  0.00000000E+00  0.00000000E+00  0.00000000E+00
  0.00000000E+00  0.00000000E+00  0.00000000E+00
  0.00000000E+00  0.00000000E+00  0.00000000E+00
  0.00000000E+00  0.00000000E+00  0.00000000E+00
  0.00000000E+00  0.00000000E+00  0.00000000E+00
  0.00000000E+00  0.00000000E+00  0.00000000E+00
  0.00000000E+00  0.00000000E+00  0.00000000E+00
  0.00000000E+00  0.00000000E+00  0.00000000E+00
  0.00000000E+00  0.00000000E+00  0.00000000E+00
  0.00000000E+00  0.00000000E+00  0.00000000E+00
  0.00000000E+00  0.00000000E+00  0.00000000E+00
  0.00000000E+00  0.00000000E+00  0.00000000E+00
  0.00000000E+00  0.00000000E+00  0.00000000E+00
  0.00000000E+00  0.00000000E+00  0.00000000E+00
  0.00000000E+00  0.00000000E+00  0.00000000E+00
  0.00000000E+00  0.00000000E+00  0.00000000E+00
  0.00000000E+00  0.00000000E+00  0.00000000E+00
  0.00000000E+00  0.00000000E+00  0.00000000E+00
  0.00000000E+00  0.00000000E+00  0.00000000E+00
  0.00000000E+00  0.00000000E+00  0.00000000E+00
  0.00000000E+00  0.00000000E+00  0.00000000E+00
  0.00000000E+00  0.00000000E+00  0.00000000E+00
  0.00000000E+00  0.00000000E+00  0.00000000E+00
  0.00000000E+00  0.00000000E+00  0.00000000E+00
  0.00000000E+00  0.00000000E+00  0.00000000E+00
  0.00000000E+00  0.00000000E+00  0.00000000E+00
  0.00000000E+00  0.00000000E+00  0.00000000E+00
  0.00000000E+00  0.00000000E+00  0.00000000E+00
  0.00000000E+00  0.00000000E+00  0.00000000E+00
  0.00000000E+00  0.00000000E+00  0.00000000E+00
  0.00000000E+00  0.00000000E+00  0.00000000E+00
  0.00000000E+00  0.00000000E+00  0.00000000E+00
  0.00000000E+00  0.00000000E+00  0.00000000E+00
  0.00000000E+00  0.00000000E+00  0.00000000E+00
  0.00000000E+00  0.00000000E+00  0.00000000E+00
  0.00000000E+00  0.00000000E+00  0.00000000E+00
  0.00000000E+00  0.00000000E+00  0.00000000E+00
  0.00000000E+00  0.00000000E+00  0.00000000E+00
  0.00000000E+00  0.00000000E+00  0.00000000E+00
  0.00000000E+00  0.00000000E+00  0.00000000E+00
  0.00000000E+00  0.00000000E+00  0.00000000E+00
  0.00000000E+00  0.00000000E+00  0.00000000E+00
  0.00000000E+00  0.00000000E+00  0.00000000E+00
  0.00000000E+00  0.00000000E+00  0.00000000E+00
  0.00000000E+00  0.00000000E+00  0.00000000E+00
  0.00000000E+00  0.00000000E+00  0.00000000E+00
  0.00000000E+00  0.00000000E+00  0.00000000E+00
  0.00000000E+00  0.00000000E+00  0.00000000E+00
  0.00000000E+00  0.00000000E+00  0.00000000E+00
  0.00000000E+00  0.00000000E+00  0.00000000E+00
  0.00000000E+00  0.00000000E+00  0.00000000E+00
  0.00000000E+00  0.00000000E+00  0.00000000E+00
  0.00000000E+00  0.00000000E+00  0.00000000E+00
  0.00000000E+00  0.00000000E+00  0.00000000E+00
  0.00000000E+00  0.00000000E+00  0.00000000E+00
  0.00000000E+00  0.00000000E+00  0.00000000E+00
  0.00000000E+00  0.00000000E+00  0.00000000E+00
  0.00000000E+00  0.00000000E+00  0.00000000E+00
  0.00000000E+00  0.00000000E+00  0.00000000E+00
  0.00000000E+00  0.00000000E+00  0.00000000E+00
  0.00000000E+00  0.00000000E+00  0.00000000E+00
  0.00000000E+00  0.00000000E+00  0.00000000E+00
  0.00000000E+00  0.00000000E+00  0.00000000E+00
  0.00000000E+00  0.00000000E+00  0.00000000E+00
  0.00000000E+00  0.00000000E+00  0.00000000E+00
  0.00000000E+00  0.00000000E+00  0.00000000E+00
  0.00000000E+00  0.00000000E+00  0.00000000E+00
  0.00000000E+00  0.00000000E+00  0.00000000E+00
  0.00000000E+00  0.00000000E+00  0.00000000E+00
  0.00000000E+00  0.00000000E+00  0.00000000E+00
  0.00000000E+00  0.00000000E+00  0.00000000E+00
  0.00000000E+00  0.00000000E+00  0.00000000E+00
