ENCUT = 500.000000
SIGMA = 0.010000
EDIFF = 1.00e-05
ALGO = A
ISMEAR = 0
NELM = 200
NSW = 500
NCORE = 8
LCHARG = .FALSE.
LWAVE = .FALSE.
LREAL = Auto
NCORE = 8

IBRION = 2
EDIFFG = -0.02

GGA = BF
LUSE_VDW=.TRUE.
Zab_VDW = -1.8867
LBEEFENS=.TRUE. !to calculate error estimates

DIPOL = 0.5 0.5 0.5
IDIPOL = 3
LDIPOL = .TRUE.
