Au  C  O 
 1.0000000000000000
    17.3099740034466869    0.0000000000000000    0.0000000000000000
     8.6549870017233435   14.9908772258330494    0.0000000000000000
     0.0000000000000000    0.0000000000000000   33.0667672948810178
 Au  C   O  
 144   1   1
Selective dynamics
Cartesian
  0.0000000000000000  0.0000000000000000 12.9999999999999467   F   F   F
  2.8849956672410735  0.0000000000000000 12.9999999999999467   F   F   F
  5.7699913344822695  0.0000000000000000 12.9999999999999467   F   F   F
  8.6549870017233435  0.0000000000000000 12.9999999999999467   F   F   F
 11.5399826689644165  0.0000000000000000 12.9999999999999467   F   F   F
 14.4249783362056139  0.0000000000000000 12.9999999999999467   F   F   F
  1.4424978336205367  2.4984795376388060 12.9999999999999467   F   F   F
  4.3274935008616104  2.4984795376388060 12.9999999999999467   F   F   F
  7.2124891681028060  2.4984795376388060 12.9999999999999467   F   F   F
 10.0974848353438809  2.4984795376388060 12.9999999999999467   F   F   F
 12.9824805025849539  2.4984795376388060 12.9999999999999467   F   F   F
 15.8674761698261513  2.4984795376388060 12.9999999999999467   F   F   F
  2.8849956672411348  4.9969590752777187 12.9999999999999467   F   F   F
  5.7699913344822082  4.9969590752777187 12.9999999999999467   F   F   F
  8.6549870017234038  4.9969590752777187 12.9999999999999467   F   F   F
 11.5399826689644787  4.9969590752777187 12.9999999999999467   F   F   F
 14.4249783362055517  4.9969590752777187 12.9999999999999467   F   F   F
 17.3099740034467473  4.9969590752777187 12.9999999999999467   F   F   F
  4.3274935008616717  7.4954386129165247 12.9999999999999467   F   F   F
  7.2124891681027457  7.4954386129165247 12.9999999999999467   F   F   F
 10.0974848353439413  7.4954386129165247 12.9999999999999467   F   F   F
 12.9824805025850161  7.4954386129165247 12.9999999999999467   F   F   F
 15.8674761698260873  7.4954386129165247 12.9999999999999467   F   F   F
 18.7524718370672865  7.4954386129165247 12.9999999999999467   F   F   F
  5.7699913344822082  9.9939181505553307 12.9999999999999467   F   F   F
  8.6549870017232813  9.9939181505553307 12.9999999999999467   F   F   F
 11.5399826689644787  9.9939181505553307 12.9999999999999467   F   F   F
 14.4249783362055517  9.9939181505553307 12.9999999999999467   F   F   F
 17.3099740034466265  9.9939181505553307 12.9999999999999467   F   F   F
 20.1949696706878221  9.9939181505553307 12.9999999999999467   F   F   F
  7.2124891681028069 12.4923976881942433 12.9999999999999467   F   F   F
 10.0974848353438809 12.4923976881942433 12.9999999999999467   F   F   F
 12.9824805025850765 12.4923976881942433 12.9999999999999467   F   F   F
 15.8674761698261495 12.4923976881942433 12.9999999999999467   F   F   F
 18.7524718370672225 12.4923976881942433 12.9999999999999467   F   F   F
 21.6374675043084217 12.4923976881942433 12.9999999999999467   F   F   F
  1.4424978336205974  0.8328265125463037 15.3555890982936525   F   F   F
  4.3274935008616708  0.8328265125463037 15.3555890982936525   F   F   F
  7.2124891681027439  0.8328265125463037 15.3555890982936525   F   F   F
 10.0974848353439413  0.8328265125463037 15.3555890982936525   F   F   F
 12.9824805025850143  0.8328265125463037 15.3555890982936525   F   F   F
 15.8674761698260891  0.8328265125463037 15.3555890982936525   F   F   F
  2.8849956672411343  3.3313060501851099 15.3555890982936525   F   F   F
  5.7699913344822082  3.3313060501851099 15.3555890982936525   F   F   F
  8.6549870017232813  3.3313060501851099 15.3555890982936525   F   F   F
 11.5399826689644787  3.3313060501851099 15.3555890982936525   F   F   F
 14.4249783362055517  3.3313060501851099 15.3555890982936525   F   F   F
 17.3099740034466265  3.3313060501851099 15.3555890982936525   F   F   F
  4.3274935008616708  5.8297855878239151 15.3555890982936525   F   F   F
  7.2124891681027448  5.8297855878239151 15.3555890982936525   F   F   F
 10.0974848353438169  5.8297855878239151 15.3555890982936525   F   F   F
 12.9824805025850143  5.8297855878239151 15.3555890982936525   F   F   F
 15.8674761698260873  5.8297855878239151 15.3555890982936525   F   F   F
 18.7524718370671621  5.8297855878239151 15.3555890982936525   F   F   F
  5.7699913344822695  8.3282651254628295 15.3555890982936525   F   F   F
  8.6549870017233435  8.3282651254628295 15.3555890982936525   F   F   F
 11.5399826689644165  8.3282651254628295 15.3555890982936525   F   F   F
 14.4249783362056139  8.3282651254628295 15.3555890982936525   F   F   F
 17.3099740034466869  8.3282651254628295 15.3555890982936525   F   F   F
 20.1949696706877617  8.3282651254628295 15.3555890982936525   F   F   F
  7.2124891681028060 10.8267446631016355 15.3555890982936525   F   F   F
 10.0974848353438791 10.8267446631016355 15.3555890982936525   F   F   F
 12.9824805025849521 10.8267446631016355 15.3555890982936525   F   F   F
 15.8674761698261495 10.8267446631016355 15.3555890982936525   F   F   F
 18.7524718370672225 10.8267446631016355 15.3555890982936525   F   F   F
 21.6374675043082974 10.8267446631016355 15.3555890982936525   F   F   F
  8.6549870017233435 13.3252242007404416 15.3555890982936525   F   F   F
 11.5399826689644165 13.3252242007404416 15.3555890982936525   F   F   F
 14.4249783362054895 13.3252242007404416 15.3555890982936525   F   F   F
 17.3099740034466869 13.3252242007404416 15.3555890982936525   F   F   F
 20.1949696706877582 13.3252242007404416 15.3555890982936525   F   F   F
 23.0799653379288330 13.3252242007404416 15.3555890982936525   F   F   F
 17.3099740034466869  1.6656530250926087 17.8620325197416854   T   T   T
  2.8849956672411974  1.6656530250926087 17.8620325197416854   T   T   T
  5.7699913344822713  1.6656530250926087 17.8620325197416854   T   T   T
  8.6549870017233452  1.6656530250926087 17.8620325197416854   T   T   T
 11.5399826689645391  1.6656530250926087 17.8620325197416854   T   T   T
 14.4249783362056139  1.6656530250926087 17.8620325197416854   T   T   T
 18.7524718370672261  4.1641325627314156 17.8620325197416854   T   T   T
  4.3274935008617339  4.1641325627314156 17.8620325197416854   T   T   T
  7.2124891681028078  4.1641325627314156 17.8620325197416854   T   T   T
 10.0974848353438826  4.1641325627314156 17.8620325197416854   T   T   T
 12.9824805025850765  4.1641325627314156 17.8620325197416854   T   T   T
 15.8674761698261513  4.1641325627314156 17.8620325197416854   T   T   T
 20.1949696706877617  6.6626121003702217 17.8620325197416854   T   T   T
  5.7699913344822713  6.6626121003702217 17.8620325197416854   T   T   T
  8.6549870017233452  6.6626121003702217 17.8620325197416854   T   T   T
 11.5399826689644183  6.6626121003702217 17.8620325197416854   T   T   T
 14.4249783362056139  6.6626121003702217 17.8620325197416854   T   T   T
 17.3099740034466869  6.6626121003702217 17.8620325197416854   T   T   T
 21.6374675043083577  9.1610916380091325 17.8620325197416854   T   T   T
  7.2124891681028691  9.1610916380091325 17.8620325197416854   T   T   T
 10.0974848353439430  9.1610916380091325 17.8620325197416854   T   T   T
 12.9824805025850161  9.1610916380091325 17.8620325197416854   T   T   T
 15.8674761698262117  9.1610916380091325 17.8620325197416854   T   T   T
 18.7524718370672865  9.1610916380091325 17.8620325197416854   T   T   T
 23.0799653379288969 11.6595711756479385 17.8620325197416854   T   T   T
  8.6549870017234056 11.6595711756479385 17.8620325197416854   T   T   T
 11.5399826689644787 11.6595711756479385 17.8620325197416854   T   T   T
 14.4249783362055535 11.6595711756479385 17.8620325197416854   T   T   T
 17.3099740034467473 11.6595711756479385 17.8620325197416854   T   T   T
 20.1949696706878221 11.6595711756479385 17.8620325197416854   T   T   T
 24.5224631715494326 14.1580507132867446 17.8620325197416854   T   T   T
 10.0974848353439430 14.1580507132867446 17.8620325197416854   T   T   T
 12.9824805025850161 14.1580507132867446 17.8620325197416854   T   T   T
 15.8674761698260891 14.1580507132867446 17.8620325197416854   T   T   T
 18.7524718370672829 14.1580507132867446 17.8620325197416854   T   T   T
 21.6374675043083577 14.1580507132867446 17.8620325197416854   T   T   T
  0.0000000000000000  0.0000000000000000 20.4394730160370308   T   T   T
  2.8849956672410735  0.0000000000000000 20.4394730160370308   T   T   T
  5.7699913344822695  0.0000000000000000 20.4394730160370308   T   T   T
  8.6549870017233435  0.0000000000000000 20.4394730160370308   T   T   T
 11.5399826689644165  0.0000000000000000 20.4394730160370308   T   T   T
 14.4249783362056139  0.0000000000000000 20.4394730160370308   T   T   T
  1.4424978336205367  2.4984795376388060 20.4394730160370308   T   T   T
  4.3274935008616104  2.4984795376388060 20.4394730160370308   T   T   T
  7.2124891681028060  2.4984795376388060 20.4394730160370308   T   T   T
 10.0974848353438809  2.4984795376388060 20.4394730160370308   T   T   T
 12.9824805025849539  2.4984795376388060 20.4394730160370308   T   T   T
 15.8674761698261513  2.4984795376388060 20.4394730160370308   T   T   T
  2.8849956672411348  4.9969590752777187 20.4394730160370308   T   T   T
  5.7699913344822082  4.9969590752777187 20.4394730160370308   T   T   T
  8.6549870017234038  4.9969590752777187 20.4394730160370308   T   T   T
 11.5399826689644787  4.9969590752777187 20.4394730160370308   T   T   T
 14.4249783362055517  4.9969590752777187 20.4394730160370308   T   T   T
 17.3099740034467473  4.9969590752777187 20.4394730160370308   T   T   T
  4.3274935008616717  7.4954386129165247 20.4394730160370308   T   T   T
  7.2124891681027457  7.4954386129165247 20.4394730160370308   T   T   T
 10.0974848353439413  7.4954386129165247 20.4394730160370308   T   T   T
 12.9824805025850161  7.4954386129165247 20.4394730160370308   T   T   T
 15.8674761698260873  7.4954386129165247 20.4394730160370308   T   T   T
 18.7524718370672865  7.4954386129165247 20.4394730160370308   T   T   T
  5.7699913344822082  9.9939181505553307 20.4394730160370308   T   T   T
  8.6549870017232813  9.9939181505553307 20.4394730160370308   T   T   T
 11.5399826689644787  9.9939181505553307 20.4394730160370308   T   T   T
 14.4249783362055517  9.9939181505553307 20.4394730160370308   T   T   T
 17.3099740034466265  9.9939181505553307 20.4394730160370308   T   T   T
 20.1949696706878221  9.9939181505553307 20.4394730160370308   T   T   T
  7.2124891681028069 12.4923976881942433 20.4394730160370308   T   T   T
 10.0974848353438809 12.4923976881942433 20.4394730160370308   T   T   T
 12.9824805025850765 12.4923976881942433 20.4394730160370308   T   T   T
 15.8674761698261495 12.4923976881942433 20.4394730160370308   T   T   T
 18.7524718370672225 12.4923976881942433 20.4394730160370308   T   T   T
 21.6374675043084217 12.4923976881942433 20.4394730160370308   T   T   T
 12.9824805025850161  7.4954386129165247 22.4427100016203482   T   T   T
 12.9824805025850161  7.4954386129165247 23.5827100016203488   T   T   T
