Au  C  H  O Sr Ti 
 1.0000000000000000
    23.6707801818999997    0.0000000000000000    0.0000000000000000
     0.0000000000000000   22.3170261383000010    0.0000000000000000
     0.0000000000000000    0.0000000000000000   30.0000000000000000
 Au  C   H   O   Sr  Ti 
  50   2   3 265  72  72
Selective dynamics
Cartesian
 16.8727812547926170 11.7240156276314451 22.6233956430712517   F   F   F
  6.8214991519116888 12.0432631788860292 23.3218363684569958   F   F   F
 13.4338000116166167 11.4193630366006413 25.7118954566047222   F   F   F
 15.6222104114197187  4.3907184660795560 22.4545337602095501   T   T   T
 11.0776327518077071 10.1287575033467103 26.4305327926168445   F   F   F
  6.6461309796204997  7.6237578926476122 21.0774239963252512   F   F   F
 15.8264391383430763 15.2199379708598723 22.4630629660080601   F   F   F
  9.3856966361504508  8.5461140828108562 20.7271867590928771   F   F   F
 10.6717733912978492 12.9518421815112621 21.1051148168440257   F   F   F
  8.8433575422276700 11.0592648427089646 25.0021684930056196   F   F   F
  7.6424137938045416  9.3012530203464863 23.1090952493073871   F   F   F
 16.5403325695308361  7.6958462037580144 22.7194322271970179   F   F   F
  8.7117679953436866 13.8544363722460595 24.5986067510838033   F   F   F
 18.2278216925034826  9.5867277369500918 23.8742292052552934   F   F   F
  6.0578845814910238 13.2608145266498383 20.8351095885031548   F   F   F
 15.3228361643910223  9.9512198694325420 20.8521313629809413   F   F   F
 12.7742187831109391 14.9066860669768673 21.0634428041746418   F   F   F
 10.4364069473617942 10.5684029360724683 22.6920409502341691   F   F   F
 16.7182225545689889 16.8998002937862530 20.6505790979662542   F   F   F
  8.8436871512793669 16.5449089242103717 23.3655847630019942   F   F   F
 10.9154591041199893 12.8583819238380475 25.9621654474280810   F   F   F
 15.4145193472847062  9.8277693510255464 24.3757126732518543   F   F   F
  9.8635611510760022 15.5617442829917003 20.9869882601377746   F   F   F
 12.2296394167807048  8.4532755757024631 21.9910677315820386   F   F   F
  8.2250706412004142 11.1746408676831610 20.9096568587802736   F   F   F
 13.3310608449541608 14.3201937321666168 25.8661689075773467   F   F   F
 10.9518381114941938 15.5887705993433219 24.9441666231120820   F   F   F
 14.5735793071834916  7.1776141584405133 20.8807076305607175   F   F   F
  6.9567320939825903 16.6802761194855798 20.8973352470014291   F   F   F
 12.0461537705673400 13.5275021622308813 23.3349097054855470   F   F   F
 13.6784064216023040 16.2139965704907425 23.8242168278844524   F   F   F
  6.7419196483056654 14.8069520427921546 22.9315031414987800   F   F   F
 14.1206394563536275  6.5521325456787558 23.5447183051607283   F   F   F
 12.1324400325849968 10.8223764032268797 20.3434150632847910   F   F   F
 13.2559282751891683 10.8967202845248643 22.8759422550318483   F   F   F
 11.3960471379114665  6.0809455254775884 23.2622965065902285   F   F   F
 12.8682707842907949  8.6400533596783955 24.8970589909021136   F   F   F
 13.0049050081052506  4.8421967067535716 21.2999557732578353   F   F   F
  5.6612848875739390 10.4916410653601115 21.2793299223540195   F   F   F
 10.2311732838845995  5.0961143996922509 20.9598874959762291   F   F   F
  8.6956357024880120  6.7180018911784734 22.7062344062500863   F   F   F
 10.0554667974880694  8.3429254499509984 24.5417847187958991   F   F   F
 14.6710282447451057 12.7452182341918601 21.1219071948903547   F   F   F
 14.1085733546331848 17.5185177154071390 21.3852015200567465   F   F   F
 14.9496655363076449 13.0819452844562250 23.9952482939845417   F   F   F
 17.3080751418605630 13.7201319985180028 20.8236980359137256   F   F   F
  9.2645588477184670 18.2688735853860216 21.1947645176274015   F   F   F
 11.4916087816208989 17.3427844065204440 22.6439101271260483   F   F   F
 18.0480653176098080  9.6468202657315452 21.1583803793365099   F   F   F
 17.0376508178176422  5.7831724335288852 20.7040866199070877   F   F   F
 18.3031020872507426  3.4558090608135648 23.4885456974227260   T   T   T
 17.1826747512724651  3.0075672625250434 22.5964602693484515   T   T   T
 17.5480537035054986  2.7485500827534191 21.5970713458383123   T   T   T
 16.7121834474026905  2.1070007530491441 23.0135128233767254   T   T   T
 19.1704298437167608  2.7561383832536812 23.4726633735684409   T   T   T
 17.6996837908371241  6.9520079186078352 16.4377456742167212   F   F   F
 13.8702458723480397 18.1720264218562306 16.5115417395277468   F   F   F
 13.7575167099703091 12.4951214467787430 16.4689552539640722   F   F   F
  5.9790167390671201 12.4785161237780162 16.3164869477467249   F   F   F
  9.8448652257586939  7.1263307610219515 16.5777156764614304   F   F   F
 13.6456972808242103  9.7234555928754922 16.5692299300838393   F   F   F
  9.8609915493267497  1.4568487061810749 16.4186715793881923   F   F   F
  2.0157594845822042 18.1348002578813698 16.4202718374219465   F   F   F
  2.0518141170988238  6.9970508448962194 16.4124903728982900   F   F   F
 11.8475672571506720 16.8844380454665703 17.7752982395214687   F   F   F
  1.9503862679979302  1.4087722696104719 16.4264660411820635   F   F   F
  1.9725650740000149  6.9740706679999214 10.8156001569999933   F   F   F
 21.7024033792453643  4.2133977258725226 16.3617918745915105   F   F   F
 13.8206958224193954 20.9242546563790910 16.3872748005450397   F   F   F
 13.7157309563483896 15.3116994405358611 16.4257580094577982   F   F   F
  5.9537526173508768 20.9173924178312483 16.3564804941406372   F   F   F
 11.7689577787813047 11.2580551238176110 18.2710149714255401   F   F   F
 21.7274169485356587 12.5818521532630001 16.4129695455894691   F   F   F
  9.9367796194816069 12.6071706295280030 16.6616503342747713   F   F   F
 21.6695510181430748 18.1356075326047410 16.4036923021241066   F   F   F
  1.9906967906289748 20.9419578250258276 16.3834401253317914   F   F   F
  5.8929168862759465 15.2505281032786471 16.5547992547094722   F   F   F
 17.7370170319983913 20.8425178245586160 16.4293453118263066   F   F   F
 17.7926507744023645 15.1775941918523927 16.6015081791267143   F   F   F
 21.6738345298957142 20.9441796549984502 16.3916596551322584   F   F   F
  9.8864338681514692  1.4548908113523531 19.2023924253991964   F   F   F
  9.7612392768147966 18.1405235679516217 19.1820285872457639   F   F   F
 13.7876885771277369  1.3759740896787589 16.3597577220437920   F   F   F
 21.6694514951756858  9.7640837340945357 16.3730214043094620   F   F   F
 17.7552896598379064  4.2331993140484458 13.6682013586455717   F   F   F
  7.9072333603708085 22.3143102286521646 17.7581757896106431   F   F   F
 13.7897770520073415 20.9169871201176711 13.6328145092855451   F   F   F
 11.8211631826253587  2.8041576366441081 14.9695903416810019   F   F   F
 23.6618535432001273 11.1297918439241244 17.8243698027096613   F   F   F
 13.7137599250121074  4.1220268813651835 16.5157330360256616   F   F   F
 23.6628845364941789 16.8202046203021816 17.7845538412368498   F   F   F
 21.6365367217181230 12.5597978383759852 19.2250513726529135   F   F   F
 23.6681471649974817 22.2911027335660776 17.7914853336319965   F   F   F
  0.0285832221679274  5.5739484508480066 17.7615257464473189   F   F   F
  7.8841928901631873 11.0730619851202619 17.7332910785117797   F   F   F
  7.9386099945683259 16.5358468120983026 17.7105461150809909   F   F   F
 15.7056759756584778  5.5076098109685017 17.7095093596918822   F   F   F
 15.7679322732104605  0.0243320010724060 17.7565934666760725   F   F   F
 15.7539851109477631 16.5423011153593862 17.7257607243452782   F   F   F
 15.7764103038716481 11.0208344204065067 17.7465820543713413   F   F   F
  3.9647592888364356 22.2795413529205177 17.7688350182058947   F   F   F
  3.9897223506179600  5.5408859676029767 17.7945438175994077   F   F   F
  4.0461192203817937 16.7475041661158741 17.8527559258729802   F   F   F
  5.8769001127440585  9.7278957865772568 16.4740888814457449   F   F   F
  3.9171699735717507 11.2344558027694230 17.6173475180934567   F   F   F
  7.9213027229294433  5.6789791513293899 17.7780527528576471   F   F   F
 11.8286471915894928  0.0028620775458540 17.7330268788340391   F   F   F
 19.7101541896228483 19.5095655037168747 14.9589618537323332   F   F   F
 17.7158520488527635 20.9205574916254662 19.2065783494729274   F   F   F
 19.7027843356172312  0.0375517377128659 17.7621974145500623   F   F   F
 17.7313787678220756  4.0986233511700751 16.5195613023229448   F   F   F
 10.0109935769177234 15.3503609651473543 16.4023507568104741   F   F   F
 10.0130875141980873  9.9004392532055636 16.3798188597657699   F   F   F
 17.8115146743541466  9.7083364339911480 16.4778120716417504   F   F   F
 13.8013005056349733  6.9325323972637172 16.3432778755292389   F   F   F
  5.9941280504076859 18.1343785153051194 16.5188878384026836   F   F   F
 21.6781846810079024  4.1712941725734183 13.5957511737685852   F   F   F
 21.6168665870895609 18.1523736736784400 19.2582092942021355   F   F   F
 17.8719146243465161  9.6889331399060357 19.1544590660122829   F   F   F
  5.9000353924360356  7.0027779994197408 16.3788448505802755   F   F   F
  9.8835700618548259 20.8653803064888876 19.1921274440268164   F   F   F
 17.6735275873154762  6.9713162949908440 19.2128859926316977   F   F   F
 17.7284547839804567  1.5259771584287865 19.1606476763704272   F   F   F
  1.9972290375733983  6.9496682564046486 19.2224308641866486   F   F   F
 15.7762775995169306 19.5122983957810270 14.9633320795397751   F   F   F
  2.0477963853456043 12.5620174320244669 19.2026432009919255   F   F   F
  2.0696417247512748  9.7455444148009711 19.1918276057342965   F   F   F
  9.8779619036317605  4.1835103300230339 19.1993701734756961   F   F   F
  9.8261768213473317  9.3445808284256007 18.9090058372380554   F   F   F
  1.9998653511647677 20.8810467283572798 19.2299273883488873   F   F   F
  1.9739149013322421 15.3346370826226419 19.1643320035986768   F   F   F
  1.9909528241480259  1.3471829027648390 19.2642024542971981   F   F   F
 19.7217875625523291 11.2345216235296128 17.6786913555702441   F   F   F
  1.9819595172975086  4.1381232121389235 19.2367670067972369   F   F   F
  5.6824435404946509  9.8724049637044136 19.2494596481486333   F   F   F
 21.5990969255160792  9.7335311364398009 19.1994952722864056   F   F   F
  5.9668734215893862 20.7617451700126665 19.1193728501642042   F   F   F
 21.6894525691449793 15.3464151680223679 19.1709230689192296   F   F   F
 21.6437893607807155 20.9142022797338605 19.2418871365484385   F   F   F
  9.4012979335578226 12.2886838827855644 19.5604831329362234   F   F   F
  6.0225857006687296 15.1438175850978443 19.8788834459379196   F   F   F
  6.0030685645045052  4.1616714105609010 19.2382087446925851   F   F   F
 13.7052979813336346  4.3083766603522609 19.3776371475207867   F   F   F
 13.7796623640534968 20.8923342838763837 19.1804047944196832   F   F   F
 21.6982156369999721 18.1325837370000720 10.8156001569999933   F   F   F
 17.6669986821000045  4.3524789015770491 19.3851800106946790   F   F   F
 19.6935258678967919  5.5646241637801435 17.7176006761380052   F   F   F
 19.6543109070596778 16.7544779877489880 17.7814334790872763   F   F   F
  2.0034134698915071 18.1361074499835482 19.2736957155333357   F   F   F
 17.8114420955652299 12.6934845799969676 19.0721638903634698   F   F   F
 13.7951322275041441  1.4923020080701801 19.1636168384683820   F   F   F
 17.5430361728950430 18.0742269385579633 19.1981235451517804   F   F   F
 19.7149643647453345  2.7793418421361986 14.9949364633381919   F   F   F
 13.9810248139822910 12.6343465107039687 19.1587636061685025   F   F   F
  5.8612065001271123 12.8113443638438280 18.8623650661558493   F   F   F
 17.8375070328998504 15.4447905096143181 19.7242732485833194   F   F   F
  6.2188688715071363 17.8679839098475739 19.3805396375796768   F   F   F
  5.9416662717588924  1.3263966598626298 19.2692311417203115   F   F   F
 21.6982156369999721 12.5533272030000536 10.8156001569999933   F   F   F
 11.8222762229192710  8.3470366855747091 15.0111353359990431   F   F   F
 11.8421134756000441 13.8598533554595384 15.0037851572409959   F   F   F
 19.7025879833762545 13.9047903688730976 15.0047077865356968   F   F   F
  5.9650163083183081  4.2016689700255050 16.4154806839377940   F   F   F
 19.7070363143705265  8.3264504864558120 14.9879551506797632   F   F   F
 21.6640219180514961  6.9601869659183757 19.1927998267512301   F   F   F
  3.9468040365286892  8.3958652671804330 14.9309776851180942   F   F   F
 13.7324886148285952  9.8057996357540311 19.4097138873498203   F   F   F
 13.6551143383763698 15.3193375461418064 19.1941134618143927   F   F   F
 21.6850663443291332  4.1562751314567574 19.1905144161074581   F   F   F
  5.8985325571018956  7.0623119008672788 19.2387109054324164   F   F   F
  3.9711872806539144 19.4884699988310537 14.9966077842513439   F   F   F
 21.6801582518017000  9.7516018472966302 13.6078852188437303   F   F   F
  3.9552040390212704  2.7765585468228280 14.9804752423619387   F   F   F
 17.7177051131295755  1.3355307920893138 16.3320080635487415   F   F   F
 10.0740824148066608  6.8112978583848163 19.7022976996027559   F   F   F
 13.9810098390382773 18.0904579610741436 19.3775166005439132   F   F   F
  9.9508465270325814 15.0910857848973041 19.0119697531730658   F   F   F
  1.9787396654575966  4.2147802612761467 16.3684865017093202   F   F   F
 11.7958867515433230  5.6676537964272526 17.7526364900409561   F   F   F
 21.6792402098968999  1.3983098766817206 19.2354224240924552   F   F   F
  3.9659567538455218 13.9320667393814315 15.0072313850508419   F   F   F
 11.8353761094489442 19.4867097069568729 15.0263758254080209   F   F   F
  9.8591670016061208  4.2657844252179080 16.4056478631084950   F   F   F
  1.9628675934613764  9.7960052438282812 16.3446259220761441   F   F   F
 21.6423438685419818 15.3709814244121734 16.3700876264757653   F   F   F
 13.8489514706884478  7.1800962794037462 18.9767753513176132   F   F   F
 21.6982156369999721 15.3429554700000619 10.8156001569999933   F   F   F
 21.6982156369999721  9.7636982699999884 10.8156001569999933   F   F   F
 21.6982156369999721  4.1844424010000720 10.8156001569999933   F   F   F
 13.8079546360000549 20.9222120050000342 10.8156001569999933   F   F   F
  1.9160439073718190 12.5986467679957546 16.3930562562610973   F   F   F
 13.8079546360000549  9.7636982699999884 10.8156001569999933   F   F   F
 13.8079546360000549  4.1844424010000720 10.8156001569999933   F   F   F
  5.9176950450000287 20.9222120050000342 10.8156001569999933   F   F   F
 21.6982156369999721 20.9222120050000342 10.8156001569999933   F   F   F
  5.9176950450000287 15.3429554700000619 10.8156001569999933   F   F   F
  5.9176950450000287  4.1844424010000720 10.8156001569999933   F   F   F
 17.7530837259999217 20.9222120050000342 10.8156001569999933   F   F   F
 17.7530837259999217 15.3429554700000619 10.8156001569999933   F   F   F
  9.8806222696078745 20.8838828787224529 13.6172465343410831   F   F   F
 13.8078543015462127  1.4263549287958728 13.6122901655073747   F   F   F
 17.7530837259999217  9.7636982699999884 10.8156001569999933   F   F   F
  9.8628241350000643 15.3429554700000619 10.8156001569999933   F   F   F
  9.8628241350000643  9.7636982699999884 10.8156001569999933   F   F   F
  5.9176950450000287  9.7636982699999884 10.8156001569999933   F   F   F
  1.9725650740000149  1.3948141340000613 10.8156001569999933   F   F   F
 21.6658754520404173 15.3287562616355206 13.5997950214229100   F   F   F
 15.7503326928625853  8.4588264946329801 15.0941016103939383   F   F   F
  7.9144281076272165  8.4465278744567058 15.0902462281761593   F   F   F
  7.9433573173647973 13.9657676956920849 15.1121883442754736   F   F   F
 21.7170946157378673  1.4152901319788083 16.4219267337686681   F   F   F
 17.7411580965346154 20.9429634149914712 13.6606338297159606   F   F   F
  5.9174940902870219 20.8904653232103215 13.6195826337413166   F   F   F
  5.9201053555357657  4.2062802645230537 13.6231152474512580   F   F   F
 17.7311941767249053 15.3687522648831081 13.7238517554979982   F   F   F
 17.7530837259999217  4.1844424010000720 10.8156001569999933   F   F   F
  9.8628241350000643 20.9222120050000342 10.8156001569999933   F   F   F
 13.8079546360000549  1.3948141340000613 10.8156001569999933   F   F   F
  5.9302814884523523  1.3845469991437094 13.6276244444321737   F   F   F
  9.8465913751900640 20.9110616267635230 16.3811276902944023   F   F   F
  1.9972359294076243 15.3308891070199405 13.5949876759915345   F   F   F
  5.9669546197678898 15.3444300515231831 13.6800551038446141   F   F   F
  1.9899490895511229 20.9078795721753927 13.6105352042739423   F   F   F
  1.9597296617715965  9.7482516360529559 13.5844774131771420   F   F   F
  2.0281719003491827 15.3837332145236534 16.3629094486912585   F   F   F
  1.9849372254326898  4.1636454694196141 13.5894191678516982   F   F   F
 21.6964964666297888 18.1245412920936744 13.6219387790037842   F   F   F
 17.6678474010220476 12.4461024701353224 16.3400188568508398   F   F   F
 21.6848349970870515 12.5471655817849079 13.6217726266206416   F   F   F
 21.6851773029058350  1.3891528784927503 13.6220014835360832   F   F   F
 21.6880057307400591  6.9673628265601595 13.6142933085963360   F   F   F
  9.8690394049150001  9.7199305643586857 13.6217756521809719   F   F   F
 13.7828662262487605  9.8101661265255569 13.6927495624875419   F   F   F
 13.8002821190983092  4.2496315490091350 13.6705713586648052   F   F   F
 13.8079546360000549 15.3429554700000619 10.8156001569999933   F   F   F
 21.6935184233414979 20.9137454081133605 13.6099106202215125   F   F   F
  0.0021711247290227  8.3405099285955391 14.9458881602742846   F   F   F
 23.6633204333062608 13.9963974598210541 14.9291476171779358   F   F   F
  7.8996110654475107  2.8063418552959467 14.9626726159571639   F   F   F
  0.0021234693180874 19.5311863596941500 14.9879331152345259   F   F   F
  7.8941433173383091 19.5086487996737930 14.9732233313876986   F   F   F
 15.7615848776443350  2.8190462371957499 14.9963192440457096   F   F   F
  5.9452901080827170  9.8033779096809521 13.6476391281327878   F   F   F
  1.9725650740000149 12.5533272030000536 10.8156001569999933   F   F   F
 21.6982156369999721  1.3948141340000613 10.8156001569999933   F   F   F
 17.7392337841822005 18.1477384167553630 13.5913737279225177   F   F   F
 17.7450332286451733  9.7842122735620052 13.6737866980448377   F   F   F
 21.6771229628868660  6.9767789045997892 16.3961975199049022   F   F   F
  9.8746320463772026 15.2816869833698892 13.6421387666729999   F   F   F
  0.0032360442891053  2.7912572289533921 14.9502824725329440   F   F   F
 13.8065712384415615 18.0878277867028139 13.6600562205235150   F   F   F
  9.8613960126673987 18.0763864947524482 13.6516211997653425   F   F   F
 18.3319092470399703  4.4496764173556533 24.1919340724899570   T   T   T
  5.9176950450000287 18.1325837370000720 10.8156001569999933   F   F   F
  0.0000000000000000  5.5792565349999723 12.2103998060000407   F   F   F
  0.0000000000000000 11.1585130689999925 12.2103998060000407   F   F   F
 17.7104878098638636 12.5929176397597153 13.6138278518398028   F   F   F
  7.8902602960000570  0.0000000000000000 12.2103998060000407   F   F   F
  7.8902602960000570 11.1585130689999925 12.2103998060000407   F   F   F
  7.8902602960000570 16.7377696039999648 12.2103998060000407   F   F   F
 15.7805205919999434  0.0000000000000000 12.2103998060000407   F   F   F
 15.7805205919999434  5.5792565349999723 12.2103998060000407   F   F   F
 15.7805205919999434 11.1585130689999925 12.2103998060000407   F   F   F
 19.7256482699999580  5.5792565349999723 12.2103998060000407   F   F   F
  3.9451301480000271  0.0000000000000000 12.2103998060000407   F   F   F
 13.8310312370225734  7.0416955281015472 13.6087906931600635   F   F   F
  3.9451301480000271 11.1585130689999925 12.2103998060000407   F   F   F
 11.8353900909999528  5.5792565349999723 12.2103998060000407   F   F   F
  0.0000000000000000  0.0000000000000000 12.2103998060000407   F   F   F
 11.8353900909999528 16.7377696039999648 12.2103998060000407   F   F   F
  7.8902602960000570  5.5792565349999723 12.2103998060000407   F   F   F
 17.6896703568366291  7.0106810189269275 13.6420543502071006   F   F   F
  0.0000000000000000 16.7377696039999648 12.2103998060000407   F   F   F
 13.8353511590257732 12.5600580232339958 13.6461144393861975   F   F   F
 17.7365179563553568  1.4339034700645634 13.6000404694360419   F   F   F
 19.7256482699999580  0.0000000000000000 12.2103998060000407   F   F   F
 13.7940064118463077 15.3120176962661283 13.6393854001933477   F   F   F
  5.9600863355531111 12.6000302548379874 13.6133219200872038   F   F   F
  9.8681224333852686  4.1792696254772981 13.6111400574054446   F   F   F
 15.7489885629313555 13.9702184737023352 15.0899154327508143   F   F   F
  3.9451301480000271 16.7377696039999648 12.2103998060000407   F   F   F
  5.9296291091990643 18.0949474583448549 13.6597210533245690   F   F   F
  3.9451301480000271  5.5792565349999723 12.2103998060000407   F   F   F
 17.7019927195268849 18.0285139420628653 16.3666863843011186   F   F   F
 21.6982156369999721  6.9740706679999214 10.8156001569999933   F   F   F
  1.9725650740000149  4.1844424010000720 10.8156001569999933   F   F   F
 11.8353900909999528  0.0000000000000000 12.2103998060000407   F   F   F
 15.7805205919999434 16.7377696039999648 12.2103998060000407   F   F   F
  9.8022516432485425 18.1136156212934694 16.4298029339371574   F   F   F
  9.8628241350000643 12.5533272030000536 10.8156001569999933   F   F   F
  1.9754743782702864 18.1252325076016447 13.6251712092107908   F   F   F
  9.8662327587118526  1.3732130120771939 13.6600353914549419   F   F   F
  1.9765869520219490  6.9619001885830976 13.6209086457981510   F   F   F
 17.7530837259999217 18.1325837370000720 10.8156001569999933   F   F   F
 13.8079546360000549  6.9740706679999214 10.8156001569999933   F   F   F
  9.8628241350000643  6.9740706679999214 10.8156001569999933   F   F   F
 17.7530837259999217  1.3948141340000613 10.8156001569999933   F   F   F
 17.7530837259999217  6.9740706679999214 10.8156001569999933   F   F   F
 17.7530837259999217 12.5533272030000536 10.8156001569999933   F   F   F
 11.8353900909999528 11.1585130689999925 12.2103998060000407   F   F   F
  5.9176950450000287  6.9740706679999214 10.8156001569999933   F   F   F
  5.9176950450000287  1.3948141340000613 10.8156001569999933   F   F   F
  9.8628241350000643 18.1325837370000720 10.8156001569999933   F   F   F
  1.9876268388715024 12.5534604389663684 13.6195826026370579   F   F   F
  9.8628241350000643  1.3948141340000613 10.8156001569999933   F   F   F
 13.8079546360000549 12.5533272030000536 10.8156001569999933   F   F   F
  5.9176950450000287 12.5533272030000536 10.8156001569999933   F   F   F
  5.9438796549620179  1.3970920857437370 16.4171774243557032   F   F   F
  5.9714126436307371  7.0104127782882806 13.6251390602034235   F   F   F
  1.9725650740000149 15.3429554700000619 10.8156001569999933   F   F   F
 13.8079546360000549 18.1325837370000720 10.8156001569999933   F   F   F
  1.9826893701333896  1.3812024809819863 13.6253501146888247   F   F   F
  9.8365581579655448  6.9499887784613250 13.7209332582991355   F   F   F
  9.8482521493081077 12.4868776535292785 13.7359789939418491   F   F   F
  1.9725650740000149  9.7636982699999884 10.8156001569999933   F   F   F
  1.9725650740000149 18.1325837370000720 10.8156001569999933   F   F   F
  1.9725650740000149 20.9222120050000342 10.8156001569999933   F   F   F
  9.8628241350000643  4.1844424010000720 10.8156001569999933   F   F   F
 19.7256482699999580 11.1585130689999925 12.2103998060000407   F   F   F
 19.7256482699999580 16.7377696039999648 12.2103998060000407   F   F   F
  7.8483251320710385  2.6731141652108628 18.3825549727661439   F   F   F
  3.9451301480000271 13.9481413360000008 12.2103998060000407   F   F   F
 23.6658830144316710 13.9169080833697745 18.7297187942215366   F   F   F
 19.7901457728289785 11.1598457396134449 15.0902573343742361   F   F   F
  3.9451301480000271 19.5273965409999306 12.2103998060000407   F   F   F
 11.8353900909999528  2.7896282670000101 12.2103998060000407   F   F   F
 11.8353900909999528 13.9481413360000008 12.2103998060000407   F   F   F
 19.8307095118198049  8.3188554333791114 18.1181016160157498   F   F   F
 19.6891077738338716 19.5657650509057319 18.5410418438867239   F   F   F
 11.8353900909999528 19.5273965409999306 12.2103998060000407   F   F   F
 19.8675957845122184 13.9936676866874148 18.1300759250234371   F   F   F
 11.8439789377679805  2.7369617150208252 18.2130851891470620   F   F   F
 19.7894940190460744 16.7732976823529114 15.0791914596114367   F   F   F
  3.9451301480000271  2.7896282670000101 12.2103998060000407   F   F   F
 19.7636448009775627  2.7685345449842016 18.4028327807184482   F   F   F
 11.9198589542055746 13.9475646665567297 17.8235773674473243   F   F   F
 15.7565754079569214  2.7833972199019472 18.3054187049743611   F   F   F
 11.8759995843570447  8.2891616527123109 17.8512666890207505   F   F   F
  0.0086872277993186  8.3732078493253805 18.7572185946309204   F   F   F
 15.7728881568913089 13.9715152221828820 17.7983580931888383   F   F   F
 15.7492119422486052 19.6716033095375771 18.2189884314357933   F   F   F
  3.8675238769157061  8.2864755179430141 18.2234354294185081   F   F   F
  0.0000000000000000  8.3688848019999824 12.2103998060000407   F   F   F
  3.9725318187099092  2.7399084383836056 18.6622363118315739   F   F   F
 15.8898287529356530  8.3195499855795614 17.7964982857614835   F   F   F
  3.9374444957511567 19.5001509261804422 18.5290631652658071   F   F   F
  7.9211061867742805 19.6133985449071595 18.0785374911590644   F   F   F
  7.9072826340915645 13.9410078245979197 17.8518516327215728   F   F   F
 15.7805205919999434 19.5273965409999306 12.2103998060000407   F   F   F
 11.8353900909999528  8.3688848019999824 12.2103998060000407   F   F   F
  3.7778751736492864 14.0033608287545572 18.0395046574241924   F   F   F
 19.7256482699999580  2.7896282670000101 12.2103998060000407   F   F   F
  3.8713621465874120 11.1560216672807364 15.0595014794918249   F   F   F
 23.6490326985756454 19.5241255790939547 18.7182660360189956   F   F   F
 23.6673443643261976 16.7622081872279907 15.2027371173139780   F   F   F
  0.0000000000000000 19.5273965409999306 12.2103998060000407   F   F   F
 11.8607870542664831 16.8003093816955484 15.1153951201349948   F   F   F
  7.8387479336245587 11.1406526580464718 15.0284731527831674   F   F   F
 15.8226248039058177 11.1555975499826960 15.0206572532328089   F   F   F
  3.8921623223821609 16.7694840907474756 15.1033741722571175   F   F   F
 15.7633859002705243 22.3162984435976774 15.1673539884576840   F   F   F
  7.9026481455690396 16.7624532580571426 15.0447146244533609   F   F   F
  7.8174993767436884  5.5360034877046411 15.0863954712063340   F   F   F
  0.0170104702564601  2.7406849454199436 18.5952054664121214   F   F   F
 15.7805205919999434  8.3688848019999824 12.2103998060000407   F   F   F
 19.7256482699999580  8.3688848019999824 12.2103998060000407   F   F   F
 19.7885111583835567  5.5496331892221251 15.0750524770056664   F   F   F
 15.7888951735481111  5.5358359617766979 15.0757392441253089   F   F   F
  7.7193809491166361  8.3318548645882835 17.7821398132476816   F   F   F
  3.9451301480000271  8.3688848019999824 12.2103998060000407   F   F   F
 15.7481217072121620 16.7780290456643932 15.0666132197726466   F   F   F
 11.8628480174546986 11.1521894325079156 15.0078978547113380   F   F   F
 19.7256482699999580 13.9481413360000008 12.2103998060000407   F   F   F
 11.8637984274726733  5.5338601468362807 15.0666919799518215   F   F   F
  7.8902602960000570  2.7896282670000101 12.2103998060000407   F   F   F
  3.9297791274408960  0.0262414400866839 15.1959934134470682   F   F   F
  7.8854994209286531  0.0249248826585547 15.1718999171978925   F   F   F
 11.8567452263541906 19.5712989498144339 18.2861262300704865   F   F   F
  0.0000000000000000  2.7896282670000101 12.2103998060000407   F   F   F
 11.8406762239141319 22.2981923130836286 15.1656774566566046   F   F   F
  3.9393622925548337  5.5391054980667667 15.1875179689118038   F   F   F
  0.0000000000000000 13.9481413360000008 12.2103998060000407   F   F   F
 23.6619124159386160 11.1594863343431463 15.2028615610905451   F   F   F
 19.7491969775321685  0.0022090968295116 15.1884792599390508   F   F   F
 15.7805205919999434  2.7896282670000101 12.2103998060000407   F   F   F
  0.0030547492695793 22.3150512641276570 15.2007880095449206   F   F   F
 15.7805205919999434 13.9481413360000008 12.2103998060000407   F   F   F
  0.0240550683231009  5.5767355873192068 15.1802296564712904   F   F   F
  7.8902602960000570 13.9481413360000008 12.2103998060000407   F   F   F
  7.8902602960000570 19.5273965409999306 12.2103998060000407   F   F   F
  7.8902602960000570  8.3688848019999824 12.2103998060000407   F   F   F
 19.7256482699999580 19.5273965409999306 12.2103998060000407   F   F   F
  9.8612951490338556 19.5672101648576984 15.1162086918008143   F   F   F
  5.8986911530996577 19.6104224464145744 15.0721195662465686   F   F   F
 21.7498808204749210  8.3578140691369711 15.1773462416530958   F   F   F
  1.9725650740000149  5.5792565349999723 12.2103998060000407   F   F   F
 17.7956693424396803 16.7943663832497982 17.7155784653652688   F   F   F
  5.9176950450000287  5.5792565349999723 12.2103998060000407   F   F   F
  1.9725650740000149 11.1585130689999925 12.2103998060000407   F   F   F
  1.9725650740000149  0.0000000000000000 12.2103998060000407   F   F   F
 21.6982156369999721 16.7377696039999648 12.2103998060000407   F   F   F
 21.7369259298141699 11.1575706434322548 18.1159490436154975   F   F   F
 13.8038397363564460  2.7542597482381912 15.1380528173764013   F   F   F
 17.8073490911883141 13.9365595330674008 15.0744722177938186   F   F   F
  1.9725650740000149 16.7377696039999648 12.2103998060000407   F   F   F
 21.6982156369999721  0.0000000000000000 12.2103998060000407   F   F   F