C  H                                    
   1.00000000000000     
    23.6707801818999997    0.0000000000000000    0.0000000000000000
     0.0000000000000000   27.8962826732999716    0.0000000000000000
     0.0000000000000000    0.0000000000000000   30.0000000000000000
   C    H 
     5    12
Direct
  0.4999807094649569  0.4812457268736807  0.4574331671378999
  0.5000366351661611  0.4818033096426291  0.5427569046261738
  0.5000306579148273  0.5123284677159248  0.5851171769211234
  0.5000002682730909  0.5116113538530556  0.4999291538233166
  0.4999596705444844  0.5113001790758887  0.4147694903667229
  0.4999500159613817  0.4886246565524459  0.3850282318312637
  0.4999471013040448  0.4899321453112719  0.6149738545380785
  0.4627132738672728  0.5354435451187953  0.5864523405679805
  0.5374122813906510  0.5353599920606342  0.5865355873192897
  0.5370935708292066  0.4581910528839401  0.5427625228992596
  0.4630128576980113  0.4581588880661087  0.5427770164052816
  0.4629096857177188  0.4576322904461634  0.4577056542963760
  0.5372352127693603  0.5343770661895491  0.4132171974202308
  0.4626696840813054  0.5343743136443706  0.4132329139670503
  0.4629013262388639  0.5352885324729044  0.4998340052739323
  0.5370731751781932  0.5353162567017478  0.4997984991072499
  0.5370460261477846  0.4576293859566434  0.4571814902065962
 
  0.00000000E+00  0.00000000E+00  0.00000000E+00
  0.00000000E+00  0.00000000E+00  0.00000000E+00
  0.00000000E+00  0.00000000E+00  0.00000000E+00
  0.00000000E+00  0.00000000E+00  0.00000000E+00
  0.00000000E+00  0.00000000E+00  0.00000000E+00
  0.00000000E+00  0.00000000E+00  0.00000000E+00
  0.00000000E+00  0.00000000E+00  0.00000000E+00
  0.00000000E+00  0.00000000E+00  0.00000000E+00
  0.00000000E+00  0.00000000E+00  0.00000000E+00
  0.00000000E+00  0.00000000E+00  0.00000000E+00
  0.00000000E+00  0.00000000E+00  0.00000000E+00
  0.00000000E+00  0.00000000E+00  0.00000000E+00
  0.00000000E+00  0.00000000E+00  0.00000000E+00
  0.00000000E+00  0.00000000E+00  0.00000000E+00
  0.00000000E+00  0.00000000E+00  0.00000000E+00
  0.00000000E+00  0.00000000E+00  0.00000000E+00
  0.00000000E+00  0.00000000E+00  0.00000000E+00
