Au  C  H  O Sr Ti 
 1.0000000000000000
    23.6707801818999997    0.0000000000000000    0.0000000000000000
     0.0000000000000000   22.3170261383000010    0.0000000000000000
     0.0000000000000000    0.0000000000000000   30.0000000000000000
 Au  C   H   O   Sr  Ti 
  50   2   5 265  72  72
Selective dynamics
Cartesian
 16.9405249019656701 11.7286114537255894 22.5999579591088988   F   F   F
 15.6965638467367921  4.2898455982534580 22.4800954282169663   T   T   T
 11.1502249317896283 10.0482809775379405 26.3439478932701299   F   F   F
 12.2390689086585134  8.4299409221668178 21.9743490357028932   F   F   F
  6.6940640352792622  7.5830147549199767 21.0686062120361406   F   F   F
 15.8476749373747730 15.2032936630634250 22.4657834385774464   F   F   F
  9.4227911216406373  8.5164780250220158 20.7049806008680015   F   F   F
 10.9500219744510758 12.7919305546726960 25.9198937418697568   F   F   F
 16.5960768673139007  7.7450166974578583 22.7025323598432678   F   F   F
 10.7017480959350682 12.9461209589392379 21.0842003402971372   F   F   F
  9.8868772908411788 15.5512309676508629 20.9823491489416867   F   F   F
 13.4852457601821314 11.3777209479851642 25.6946075813291799   F   F   F
 18.3428626487675501  9.6019591843294165 23.8400769111633117   F   F   F
 15.3862870273913650  9.9995627190694769 20.7991513617963300   F   F   F
 13.3584789383432820 14.2767344438914598 25.8411041430891757   F   F   F
 12.7929384659247720 14.9037758407780832 21.0542162359520617   F   F   F
 10.5073789299528446 10.5912035417632957 22.7055500987799057   F   F   F
  8.8566836923183274 16.5112548111797004 23.3611128657516893   F   F   F
  8.8742575107526509 11.0032371077585616 24.9874125229410460   F   F   F
 14.6143615199776473  7.2334931550676798 20.8800716693799870   F   F   F
  7.7134771892279934  9.2504824148700848 23.0732363044028475   F   F   F
  8.7184116177060034 13.8137255286261009 24.6087290704163273   F   F   F
 15.5287806712551486  9.8440405663712536 24.3853851426735488   F   F   F
  6.0801917595707797 13.2343771354235038 20.8347834058700769   F   F   F
 11.4993196463030571 17.3301221140262065 22.6468859862931211   F   F   F
 16.7249596944722825 16.8917519262717661 20.6510644160133729   F   F   F
 17.0551051078043550  5.7992770478064708 20.7360068698919520   F   F   F
  6.9489188241700655 16.6628635740062023 20.9103095990891035   F   F   F
 13.6891358807142733 16.1946822960849417 23.8183117656752188   F   F   F
  5.6953319487729379 10.4771916791253634 21.2723617218733594   F   F   F
  6.7506068951643723 14.7809404318075082 22.9362226407877934   F   F   F
 14.2420214520862132  6.4616459931609844 23.5427546028354548   F   F   F
 12.1684775545485628 10.8157423386733900 20.3467697022693343   F   F   F
  6.8490187813818624 12.0092330052286442 23.3203282880912504   F   F   F
 12.9898263554507487  8.5660667418941596 24.8440006071080468   F   F   F
 12.1164932066145656 13.4666016369402755 23.3056968297847469   F   F   F
 17.3509286840743577 13.7235206591922676 20.8198028192611879   F   F   F
 11.5195229188664445  6.0310210544573994 23.2540635456846161   F   F   F
 13.3401042325619628 10.8428985177161099 22.8662817547429782   F   F   F
 10.1452147424868411  8.2866483022064532 24.4626566809713069   F   F   F
  8.2767090041213045 11.1459893035025885 20.9326290434025779   F   F   F
 14.1188631787179038 17.5095047468456499 21.3912890183664892   F   F   F
  8.7912233265281525  6.6577248270492273 22.6473244191089975   F   F   F
 10.4444155430883487  5.0812135267534808 20.9229888228152276   F   F   F
 10.9745908609424330 15.5168347382985790 24.9032273533869457   F   F   F
  9.2623505866315679 18.2483642222469307 21.1940287003841235   F   F   F
 18.1062751455991240  9.6555581049019636 21.1341142329845013   F   F   F
 14.6984308802365824 12.7605337160773953 21.1203885303457000   F   F   F
 13.2252374057390991  4.7621345174830934 21.3309227639673296   F   F   F
 15.0201156824352875 13.0399011867529850 24.0056590756456920   F   F   F
 19.2994834627341163  3.2738686634229572 24.6236737052213783   T   T   T
 17.8574107344722997  3.7549537248141922 24.4423464139748141   T   T   T
 19.9987436009619834  3.9136239145785292 24.0828956992630339   T   T   T
 17.1886417065020538  3.1737745965918687 25.0919434431862562   T   T   T
 19.4126161233045309  2.2510396433195563 24.2604580036399433   T   T   T
 17.7865458004126502  4.8128838146630626 24.7386035888022882   T   T   T
 19.5487435526382640  3.2943310399749910 25.6887864033321804   T   T   T
 17.7698851799099486  4.2374359892033491 13.6697440610534180   F   F   F
  2.0098253060411193 18.1417233515270908 16.4196201388943379   F   F   F
  9.8599663340061010  1.4597139240492387 16.4212037285294770   F   F   F
  9.8504588289143982  7.1296497716752443 16.5768622820862213   F   F   F
  5.9910858901188391 18.1338575346426722 16.5207993559724642   F   F   F
 13.7561385893408890 12.4984601549638352 16.4671447781999021   F   F   F
 17.7136695856483755  6.9595006019346579 16.4521988567106803   F   F   F
 13.8689726005134819 18.1732605705837997 16.5109190526869760   F   F   F
 13.7962988977066097  1.3761027104191415 16.3593706348020795   F   F   F
  1.9474358286359357  1.4127838105509356 16.4272159499839780   F   F   F
  5.8963717747188849 15.2456313263593515 16.5625385036217665   F   F   F
 17.7359245574170394 20.8449392204100263 16.4277293558535504   F   F   F
 13.7954144602085940  9.8108067307649964 13.6929686522730520   F   F   F
 21.6371497694808603 15.3786295265922419 16.3617223544272719   F   F   F
 21.6770451533060502  9.7684345773234664 16.3715996966674169   F   F   F
 13.7184046229879559 15.3119872910633603 16.4229267859190919   F   F   F
  5.9534778338697070 20.9184105759561945 16.3577073185654349   F   F   F
 11.7753728270687876 11.2569509085384247 18.2702511313332963   F   F   F
 21.7261817011359391 12.5859764387348392 16.4146746906631300   F   F   F
  9.9433296677348633 12.6104717152574093 16.6625905172258904   F   F   F
 21.6727099412294493 18.1410140922627754 16.4048167808510570   F   F   F
  1.9788054292698201 20.9558208604072007 16.3722417605435240   F   F   F
  2.0509412507268259  6.9972278797989649 16.4106751880911439   F   F   F
 19.6978139711571103  0.0462515201819042 17.7685182840418605   F   F   F
 21.6787835479209825  4.1706338155063785 13.5946948128712766   F   F   F
 21.6746080938804369 20.9458360300980999 16.3930776374678828   F   F   F
  5.9065063556339101  7.0009235019919807 16.3795943917311959   F   F   F
 13.8181828584942856 20.9243702344471565 16.3847548216328249   F   F   F
 13.6502196054343052  9.7250179480249290 16.5668006321335071   F   F   F
 13.9820219641695775 12.6331953930353613 19.1633698245865460   F   F   F
 17.7149525052804258 20.9073720334500273 19.1962513828898729   F   F   F
 11.8238607109152341  2.8046216635213326 14.9873099408309169   F   F   F
 23.6658858576400775 11.1462761479828441 17.8248668530038223   F   F   F
 13.7454675496865093  4.1212764357200822 16.5141437812829999   F   F   F
 23.6674588981630478 16.8083470626583065 17.7700396156180283   F   F   F
  7.9069228967965985 22.3144226080517996 17.7596479946102228   F   F   F
 23.6647251991719045 22.3030782804057317 17.7955558437215231   F   F   F
  0.0256104281487528  5.5838571427816719 17.7563595183010214   F   F   F
  7.8887419313453808 11.0780123492756903 17.7265738224690708   F   F   F
  7.9409721130513242 16.5427032355429553 17.7123380446940963   F   F   F
 15.7044071876260372  5.5352151185736593 17.7095409532649803   F   F   F
 15.7611665060536517  0.0085607297989739 17.7539068430323184   F   F   F
  9.8445724674362172  4.2718025628291780 16.3959649236776777   F   F   F
 15.7598164705053154 16.5484524975195306 17.7122603915038752   F   F   F
 11.8134188429506484  5.6376788731891203 17.7163644558166098   F   F   F
 10.1791278505591318  6.8089108231320532 19.6644197708891753   F   F   F
 21.7150320511626980  4.2232023432348278 16.3570249587084255   F   F   F
  4.0404875653570747 16.7443190107551594 17.8487290262981624   F   F   F
  3.9212896577800178 11.2196627722229447 17.6213036880122047   F   F   F
  7.9319511241083838  5.6785381616284916 17.7908210615400861   F   F   F
 11.8267669841766541 -0.0000565663931162 17.7292544393665672   F   F   F
 19.7116813681271701 19.5117291359730203 14.9588125217725398   F   F   F
 10.0155909136556005  9.9068470771844623 16.3663090134006453   F   F   F
 17.8020760031084855  9.7164884319294629 16.4685306770656936   F   F   F
 17.7976791094967197 15.1868556802996419 16.5952580322198884   F   F   F
 17.7127931598044412 18.0351222582399728 16.3709160005214116   F   F   F
  9.8908654762059030  1.4546182296025481 19.2025219802049314   F   F   F
  5.9001268193284755  7.0566383214943817 19.2399395075087689   F   F   F
 15.7806616579959140 11.0386425181337433 17.7417319321453988   F   F   F
 13.9921085138032382 18.0773993838971059 19.3819750453675006   F   F   F
  3.9631351564305310 22.2810083551622142 17.7693706587300895   F   F   F
  3.9888547957504330  5.5446161829270020 17.7947172562647324   F   F   F
  5.8801944015939007  9.7272132620660052 16.4725638747329768   F   F   F
 21.6852900054430258 12.5474390762896135 13.6218387669586924   F   F   F
 21.6852843482048279  1.3875964878174265 13.6229492660416529   F   F   F
 21.6403424033312142 18.1500397592371989 19.2476227493558198   F   F   F
  1.9606201840953670  9.7957094307950090 16.3458993169517228   F   F   F
 21.6834106987177897  1.3943454972836749 19.2617808709227880   F   F   F
 17.6868301588913965  1.4978521748035873 19.1723298380775944   F   F   F
  1.9933521742745781  6.9513866474714430 19.2194035272434363   F   F   F
  2.0559961355307186 12.5600637676621414 19.2068077792550831   F   F   F
  1.9941686773080021  1.3537323344729506 19.2628812113348609   F   F   F
  2.0631508488856953  9.7428168552577272 19.1916365450010318   F   F   F
  1.9759873627794344  4.1423354376683941 19.2299863365060553   F   F   F
 15.7772790726754746 19.5136022909542710 14.9679601165564531   F   F   F
 19.6887004931273708  5.5345368769195522 17.7424390686672666   F   F   F
 19.6603022858362309 16.7585348876066398 17.7853603986717879   F   F   F
  1.9946481883954703 20.8816280262126739 19.2192588758389888   F   F   F
 19.7267989861924598 11.2272158734653420 17.6632442085526407   F   F   F
  9.9114982284105224  4.1854712968471759 19.1960356511654524   F   F   F
  9.8224239560229716  9.3477563608612098 18.8950286722617804   F   F   F
  6.0018207987167784  4.1621800782003122 19.2361677404988605   F   F   F
  5.9657404097775224 20.7610828834230752 19.1201540926672635   F   F   F
 13.7322783450926433  4.2787124124078089 19.3652797355909492   F   F   F
  1.9942085951764952 18.1343814277674831 19.2691640819998291   F   F   F
  5.6983633967861600  9.8649592998182243 19.2473922242834590   F   F   F
 21.6432779396560626 20.9162048356719978 19.2290140702585148   F   F   F
 21.6909380442439996 15.3446078073597736 19.1711819972114945   F   F   F
 21.5988242340324881  9.7317262265766669 19.1948193020730073   F   F   F
  9.7688301141820340 18.1412605569165279 19.1865213641600789   F   F   F
  6.0332494235046221 15.1194235885190604 19.8884660449795767   F   F   F
 13.7765228544443055 20.8800526466549066 19.1782169981773372   F   F   F
 17.6455145980301040  4.3531800535633467 19.3988829565156742   F   F   F
  1.9693395063254941 15.3346923605886847 19.1698589869283857   F   F   F
 21.6982156369999721 18.1325837370000720 10.8156001569999933   F   F   F
 17.5427553759930568 18.0743052658250569 19.2002489080674756   F   F   F
 17.6792917500164783  6.9752541558293162 19.2211334541901202   F   F   F
 13.7630084129643357  9.8110916091387725 19.3969905779211409   F   F   F
 11.8261326170745598  8.3528223495891023 14.9924306473445519   F   F   F
 13.7876769409927817  1.4791716226333826 19.1613176284196811   F   F   F
 13.8056481925278902  7.1621921142345810 19.0046355712762178   F   F   F
  5.8609575028475343 12.8040483613734466 18.8628916991017803   F   F   F
 17.8465415366148257 15.4486674090035478 19.7078912796308892   F   F   F
  5.9409168253306923  1.3272573655735880 19.2697649565499489   F   F   F
 21.6982156369999721 12.5533272030000536 10.8156001569999933   F   F   F
  9.8795624451240904 20.8663373196395305 19.1938753233726231   F   F   F
 11.8351497163458106 19.4919383281515728 15.0263083187049133   F   F   F
  9.9523456564627359 15.0874712470557206 19.0070431460209015   F   F   F
 19.7044245420125606 13.9046621185514709 15.0015070631091874   F   F   F
 19.7088034499672631  8.3316309598870166 14.9873331878154890   F   F   F
 21.6616926738502649  6.9604296124688236 19.1875943363999575   F   F   F
  3.9474004495234079  8.3968064540263398 14.9321188958490296   F   F   F
 21.6199029158254064 12.5492174555427418 19.2361047102278562   F   F   F
  1.9725650740000149  6.9740706679999214 10.8156001569999933   F   F   F
 13.6891744005836227 15.3069119915647462 19.1869288608390463   F   F   F
  3.9548240435598125  2.7741723947278865 14.9798672596902147   F   F   F
 17.7094229456562999  1.3353394695727077 16.3331514471221624   F   F   F
  3.9703342355428983 19.4898339906984610 14.9964485533659584   F   F   F
 11.8552509586215127 16.8792896826617778 17.7821074681880305   F   F   F
 11.8428657879211823 13.8619594413961309 15.0018708630464026   F   F   F
 17.8765346361715665  9.6849118073375404 19.1342979539429123   F   F   F
  5.9655264229235305  4.2026420909879052 16.4156340404204322   F   F   F
 17.7123046547159362  4.1035311316595573 16.5200302242200578   F   F   F
  1.9391057415022135 12.5954772870758855 16.3895235967412454   F   F   F
  9.4024914040151000 12.2877449146537518 19.5597509856709415   F   F   F
  3.9703118701444557 13.9329399350094985 15.0019300145405428   F   F   F
 19.7167509208650920  2.7797312545272859 14.9891561220615870   F   F   F
 17.8327506813430290 12.6871334389708856 19.0695166668362575   F   F   F
 21.7116763142040234  4.1718212479284551 19.2224433102891652   F   F   F
  9.8454906732708611 20.9127159565373191 16.3827955413768116   F   F   F
  1.9795555420652788  4.2170841664443346 16.3652858566288550   F   F   F
  6.2007443207043815 17.8453072389106033 19.3898005061072460   F   F   F
 17.7111022900079575 12.5938251359956688 13.6141564845185368   F   F   F
 21.6982156369999721  4.1844424010000720 10.8156001569999933   F   F   F
 13.8079546360000549 20.9222120050000342 10.8156001569999933   F   F   F
 13.8079546360000549 15.3429554700000619 10.8156001569999933   F   F   F
 13.8079546360000549  9.7636982699999884 10.8156001569999933   F   F   F
 13.8079546360000549  4.1844424010000720 10.8156001569999933   F   F   F
  5.9176950450000287 20.9222120050000342 10.8156001569999933   F   F   F
 21.6982156369999721 20.9222120050000342 10.8156001569999933   F   F   F
 21.7249862818143669  1.4118879767879520 16.4261225766772618   F   F   F
  5.9176950450000287 15.3429554700000619 10.8156001569999933   F   F   F
 17.7530837259999217 20.9222120050000342 10.8156001569999933   F   F   F
 17.5056208833369062  3.5726355662899358 23.0707479291677586   T   T   T
 13.8362318645578029 12.5608667459053951 13.6458829805834121   F   F   F
 13.7938715890272920  4.2474055889199223 13.6691562001194598   F   F   F
 17.7530837259999217 15.3429554700000619 10.8156001569999933   F   F   F
  9.8628241350000643 15.3429554700000619 10.8156001569999933   F   F   F
  9.8628241350000643  9.7636982699999884 10.8156001569999933   F   F   F
  5.9176950450000287  9.7636982699999884 10.8156001569999933   F   F   F
  1.9725650740000149  1.3948141340000613 10.8156001569999933   F   F   F
 21.6677480291378259 15.3264379668799382 13.5952506936106694   F   F   F
 15.7543794183976509  8.4467195090636924 15.0933925602930756   F   F   F
  7.9149193845775638  8.4466496178898520 15.0901147479645470   F   F   F
  7.9446236445380665 13.9658468048725393 15.1135793426968466   F   F   F
  5.9149339996951253  4.2064691417754361 13.6230142704664079   F   F   F
  5.9176950450000287  4.1844424010000720 10.8156001569999933   F   F   F
  5.9300538271195533  1.3842182119618700 13.6277191554592978   F   F   F
 17.7417512178599601 20.9423802708665860 13.6602039303224956   F   F   F
 17.7530837259999217  9.7636982699999884 10.8156001569999933   F   F   F
 17.7530837259999217  4.1844424010000720 10.8156001569999933   F   F   F
  9.8628241350000643 20.9222120050000342 10.8156001569999933   F   F   F
 21.6982156369999721  9.7636982699999884 10.8156001569999933   F   F   F
 21.6982156369999721 15.3429554700000619 10.8156001569999933   F   F   F
 13.8079546360000549  1.3948141340000613 10.8156001569999933   F   F   F
 17.7312557562795625 15.3689285748056932 13.7215000576026078   F   F   F
  2.0369927466900712 15.3831394167601836 16.3597692335217850   F   F   F
  9.8749078087606890 20.8855723140819443 13.6199100182081700   F   F   F
  9.8732791283842865 15.2825486689986079 13.6406630535964570   F   F   F
  9.8578161333415153  9.7177366742166207 13.6145985153767981   F   F   F
  2.0020615857261150 15.3298571176032574 13.5918536251513924   F   F   F
  1.9854884146828973 20.9039484408233847 13.6041036092408909   F   F   F
  1.9601678313335258  9.7484000040699605 13.5855199330886709   F   F   F
  1.9856368762647891  4.1641487262195360 13.5891303849617575   F   F   F
 21.6961328987957600 18.1242467522383741 13.6217742938311499   F   F   F
 17.7393975130480399 18.1475346252954530 13.5919342052551713   F   F   F
 21.6893710322225601  6.9683809902228644 13.6157410941759238   F   F   F
  5.9673546695522246 15.3462407245274566 13.6840990360094672   F   F   F
 17.6709014951361816 12.4570047104783423 16.3404489913489606   F   F   F
 21.6937011719017896 20.9137191063332857 13.6098217396898100   F   F   F
  5.9432172042875075  1.3966318847224282 16.4178205912769641   F   F   F
  0.0026753238677096  2.7896650046474627 14.9488542985957515   F   F   F
  0.0017293150040491  8.3390620097354695 14.9479586761795851   F   F   F
 23.6685079844930470 13.9965273001276334 14.9314780342390261   F   F   F
  7.8984575396962491  2.8050214593730805 14.9557235204041223   F   F   F
  0.0011792315755582 19.5308379729197732 14.9860053133603230   F   F   F
  7.8934015145028678 19.5051684181778597 14.9793903742633407   F   F   F
 15.7666697240114466  2.8238368529833915 14.9709005739596570   F   F   F
  5.9457903752403798  9.8034703832252923 13.6476121004865867   F   F   F
  1.9725650740000149 12.5533272030000536 10.8156001569999933   F   F   F
 21.6982156369999721  1.3948141340000613 10.8156001569999933   F   F   F
  9.8738096351537532  4.1761244918843641 13.6071926891757986   F   F   F
 21.6677063140157244  6.9838026361817906 16.4017191350351936   F   F   F
 10.0138260503995102 15.3563627309825179 16.3976690231740001   F   F   F
 21.6813328641094927  9.7528886694361585 13.6077436893536312   F   F   F
 17.7449315929699303  9.7831698723435974 13.6729179219593604   F   F   F
 13.8066154427017747 18.0877874919761403 13.6602258425660086   F   F   F
 13.7954696707006104  6.9387302338961776 16.3442890993831966   F   F   F
  5.9773400733028348 12.4763358385957872 16.3156368417874624   F   F   F
  5.9176950450000287 12.5533272030000536 10.8156001569999933   F   F   F
  0.0000000000000000 11.1585130689999925 12.2103998060000407   F   F   F
  7.8902602960000570  0.0000000000000000 12.2103998060000407   F   F   F
  7.8902602960000570 11.1585130689999925 12.2103998060000407   F   F   F
  7.8902602960000570 16.7377696039999648 12.2103998060000407   F   F   F
 13.7946429101107917 15.3123845384699742 13.6386057302676580   F   F   F
 15.7805205919999434  0.0000000000000000 12.2103998060000407   F   F   F
 15.7805205919999434 11.1585130689999925 12.2103998060000407   F   F   F
 19.7256482699999580  5.5792565349999723 12.2103998060000407   F   F   F
  3.9451301480000271  0.0000000000000000 12.2103998060000407   F   F   F
  3.9451301480000271 11.1585130689999925 12.2103998060000407   F   F   F
  3.9451301480000271 16.7377696039999648 12.2103998060000407   F   F   F
 11.8353900909999528 11.1585130689999925 12.2103998060000407   F   F   F
 13.8058521938966230  1.4215440979575100 13.6146640853042218   F   F   F
 11.8353900909999528  5.5792565349999723 12.2103998060000407   F   F   F
  0.0000000000000000  5.5792565349999723 12.2103998060000407   F   F   F
 17.6922455467042390  7.0114638673659471 13.6433878204665202   F   F   F
  9.8638114582059728 18.0779039029698119 13.6529839832988245   F   F   F
 13.8321822692389809  7.0406775141067337 13.6072276043098945   F   F   F
 13.7938054793409020 20.9145667892007481 13.6296292887961279   F   F   F
 15.7805205919999434  5.5792565349999723 12.2103998060000407   F   F   F
  5.9717235283297976  7.0101009255508968 13.6244261542818101   F   F   F
  3.9451301480000271  5.5792565349999723 12.2103998060000407   F   F   F
  5.9300370976940044 18.0948654283050594 13.6594736019446952   F   F   F
 13.8079546360000549 12.5533272030000536 10.8156001569999933   F   F   F
  5.9180400560202902 20.8901039964217610 13.6206644069944112   F   F   F
 19.7256482699999580  0.0000000000000000 12.2103998060000407   F   F   F
 11.8353900909999528 16.7377696039999648 12.2103998060000407   F   F   F
 21.6982156369999721  6.9740706679999214 10.8156001569999933   F   F   F
  0.0000000000000000  0.0000000000000000 12.2103998060000407   F   F   F
  5.9176950450000287 18.1325837370000720 10.8156001569999933   F   F   F
  0.0000000000000000 16.7377696039999648 12.2103998060000407   F   F   F
  1.9725650740000149  4.1844424010000720 10.8156001569999933   F   F   F
  7.8902602960000570  5.5792565349999723 12.2103998060000407   F   F   F
 11.8353900909999528  0.0000000000000000 12.2103998060000407   F   F   F
 17.7530837259999217 12.5533272030000536 10.8156001569999933   F   F   F
 15.7805205919999434 16.7377696039999648 12.2103998060000407   F   F   F
  5.9176950450000287  6.9740706679999214 10.8156001569999933   F   F   F
 17.7530837259999217  6.9740706679999214 10.8156001569999933   F   F   F
 17.7530837259999217  1.3948141340000613 10.8156001569999933   F   F   F
  9.8628241350000643 18.1325837370000720 10.8156001569999933   F   F   F
  9.8628241350000643  6.9740706679999214 10.8156001569999933   F   F   F
 17.7530837259999217 18.1325837370000720 10.8156001569999933   F   F   F
  9.8628241350000643  1.3948141340000613 10.8156001569999933   F   F   F
  1.9760363780724872 18.1240665847973546 13.6253071903104601   F   F   F
  9.8628241350000643 12.5533272030000536 10.8156001569999933   F   F   F
 13.8079546360000549  6.9740706679999214 10.8156001569999933   F   F   F
 13.8079546360000549 18.1325837370000720 10.8156001569999933   F   F   F
  1.9769744726642544  6.9635507566164456 13.6194112261649227   F   F   F
 19.7256482699999580 16.7377696039999648 12.2103998060000407   F   F   F
  9.8692991979705074  1.3741924659412914 13.6602241347030091   F   F   F
  1.9830869961044988  1.3805109210543052 13.6251610109351660   F   F   F
  9.8093689872741745 18.1167908799321147 16.4366544111704620   F   F   F
  1.9725650740000149 15.3429554700000619 10.8156001569999933   F   F   F
  1.9875002131506654 12.5530207986625157 13.6165455881196369   F   F   F
  9.8486443331113218 12.4870474691003661 13.7362184816048547   F   F   F
 15.7513369425799095 13.9717252171827422 15.0892144975802882   F   F   F
  9.8365794779249285  6.9483722086104240 13.7211127617746751   F   F   F
  5.9176950450000287  1.3948141340000613 10.8156001569999933   F   F   F
  5.9626093396013777 12.6016185897975141 13.6113323752032667   F   F   F
  1.9725650740000149 18.1325837370000720 10.8156001569999933   F   F   F
  1.9725650740000149 20.9222120050000342 10.8156001569999933   F   F   F
  9.8628241350000643  4.1844424010000720 10.8156001569999933   F   F   F
 17.7428554681831052  1.4303067707943238 13.6014772900789698   F   F   F
 19.7256482699999580 11.1585130689999925 12.2103998060000407   F   F   F
  1.9725650740000149  9.7636982699999884 10.8156001569999933   F   F   F
  0.0000000000000000  2.7896282670000101 12.2103998060000407   F   F   F
  3.9451301480000271 19.5273965409999306 12.2103998060000407   F   F   F
 11.8353900909999528  8.3688848019999824 12.2103998060000407   F   F   F
  3.9451301480000271  2.7896282670000101 12.2103998060000407   F   F   F
 19.7256482699999580  2.7896282670000101 12.2103998060000407   F   F   F
 19.7913620301720350 16.7770901003301098 15.0788495833337723   F   F   F
 19.7894277128635139  5.5436166524953627 15.0861478220505543   F   F   F
  7.8534012837417739  2.6766324269475446 18.4076111725965283   F   F   F
 19.7256482699999580  8.3688848019999824 12.2103998060000407   F   F   F
 11.8353900909999528 13.9481413360000008 12.2103998060000407   F   F   F
  3.8735789069011952 11.1563267650548497 15.0616188307418355   F   F   F
 23.6486715270060834 19.5321111798077993 18.6702248986674775   F   F   F
 15.7796601979772291 13.9749240327282287 17.8014643107341257   F   F   F
 23.6646405029728122 13.9046682340255323 18.7877559623533692   F   F   F
 19.8313912987914662  8.3166129384445728 18.0979910148626040   F   F   F
 19.7256719631527169  2.7970197581574667 18.6991519433972329   F   F   F
 11.8353900909999528 19.5273965409999306 12.2103998060000407   F   F   F
 11.8353900909999528  2.7896282670000101 12.2103998060000407   F   F   F
 15.8831646699892666  8.3140032388852827 17.7904393676473020   F   F   F
 11.9238224547084659 13.9502166269778343 17.8220566413850463   F   F   F
  0.0062598025789045  8.3678347110392046 18.7296720256673694   F   F   F
 15.7482751215532772 19.6619733149984910 18.2165035194206055   F   F   F
  3.9451301480000271 13.9481413360000008 12.2103998060000407   F   F   F
  3.8674236249211726  8.2872498118826865 18.2318309664147478   F   F   F
  3.7782415324509504 14.0023383728809403 18.0446611463448328   F   F   F
 15.7805205919999434 19.5273965409999306 12.2103998060000407   F   F   F
  3.9351620984633113 19.4964389948591190 18.5410238504190978   F   F   F
  7.9175706246513631 19.6104403122309918 18.0848349951262151   F   F   F
  3.9703680039394658  2.7437575969941741 18.6585993443191427   F   F   F
  7.9082414475820713 13.9368944228200462 17.8543489882218829   F   F   F
 15.7481369338338304  2.7886596604942691 18.3376047585287658   F   F   F
 11.8481614901479926  2.7308852761610471 18.1886199657769474   F   F   F
 11.8717451776580365  8.2909019540485200 17.8473520738042311   F   F   F
 19.6954336829673338 19.5527865718426774 18.5516574571229249   F   F   F
 19.8745860364494185 13.9933076941903582 18.1159032707983911   F   F   F
 15.7805205919999434  8.3688848019999824 12.2103998060000407   F   F   F
  3.9289442309244866  0.0267831217086547 15.1966749470230233   F   F   F
 11.8646106340594866 11.1554736138739603 15.0064913180496973   F   F   F
 -0.0002870692274663  0.0000425649241411 15.1993598975400186   F   F   F
  0.0142802758547962  2.7362933551015267 18.5855551099637104   F   F   F
  3.9451301480000271  8.3688848019999824 12.2103998060000407   F   F   F
  7.8856934972812542  0.0260794236869993 15.1740644933410049   F   F   F
 15.7632116788334145  0.0002644633771879 15.1637708900394017   F   F   F
 15.7520966034539782 16.7806193182205696 15.0676068183889775   F   F   F
  0.0000000000000000  8.3688848019999824 12.2103998060000407   F   F   F
 11.8618131889144234  5.5339947429071357 15.0646229601880819   F   F   F
  7.9028191008515547 16.7639202760422954 15.0457498965987320   F   F   F
  7.8169771668032970  5.5355145102512644 15.0867185686448675   F   F   F
 19.7256482699999580 13.9481413360000008 12.2103998060000407   F   F   F
 15.7907850533692429  5.5348289458889193 15.0772951319214741   F   F   F
  7.7159258520100131  8.3367567283212214 17.7810647486343356   F   F   F
 11.8623613811721338 16.8016633847324464 15.1167452416124046   F   F   F
  0.0215577659327633  5.5769957865550559 15.1756954625112073   F   F   F
  7.8404066958730132 11.1413851329435101 15.0276331476500626   F   F   F
 15.7805205919999434  2.7896282670000101 12.2103998060000407   F   F   F
 19.7941486534046653 11.1611039869044273 15.0819477816746375   F   F   F
  7.8902602960000570  8.3688848019999824 12.2103998060000407   F   F   F
  0.0000000000000000 19.5273965409999306 12.2103998060000407   F   F   F
 11.8423468140167110 22.3020212677706198 15.1633794084899112   F   F   F
 11.8525201690366053 19.5674828753007297 18.2841750892821580   F   F   F
 15.8279319058603765 11.1569517477797646 15.0188628924350969   F   F   F
  7.8902602960000570 19.5273965409999306 12.2103998060000407   F   F   F
 19.7477134822462723  0.0107567351630003 15.1991457945348589   F   F   F
  3.9384294482606377  5.5399658849005844 15.1865021832180584   F   F   F
  7.8902602960000570  2.7896282670000101 12.2103998060000407   F   F   F
  7.8902602960000570 13.9481413360000008 12.2103998060000407   F   F   F
 19.7256482699999580 19.5273965409999306 12.2103998060000407   F   F   F
 15.7805205919999434 13.9481413360000008 12.2103998060000407   F   F   F
 23.6696459940219448 16.7618063702070046 15.1966764719643930   F   F   F
 23.6660667199244727 11.1660383085586918 15.2050264000419126   F   F   F
  3.8916904224634821 16.7724826058550214 15.1022055969709275   F   F   F
  0.0000000000000000 13.9481413360000008 12.2103998060000407   F   F   F
 21.7377440368878183 11.1587555829198841 18.1143393363407448   F   F   F
  5.9176950450000287  5.5792565349999723 12.2103998060000407   F   F   F
  1.9199397427911977 16.7775607385594228 18.1054776756637565   F   F   F
 17.7999388187918974 16.7971308017640837 17.7166889900570581   F   F   F
  1.9725650740000149  5.5792565349999723 12.2103998060000407   F   F   F
 21.7311489006711973 16.7822090262763375 18.0979226605258638   F   F   F
 21.6982156369999721 16.7377696039999648 12.2103998060000407   F   F   F
  9.8628241350000643 11.1585130689999925 12.2103998060000407   F   F   F
 13.8196684133560872 19.5449280940068810 15.1720759676479702   F   F   F
  1.9725650740000149 16.7377696039999648 12.2103998060000407   F   F   F
 21.7499249998832127  8.3602187345938823 15.1767981012685205   F   F   F
  1.9725650740000149  0.0000000000000000 12.2103998060000407   F   F   F