Au  C  H  O Sr Ti                       
   1.00000000000000     
    23.6707801818999997    0.0000000000000000    0.0000000000000000
     0.0000000000000000   22.3170261383000010    0.0000000000000000
     0.0000000000000000    0.0000000000000000   30.0000000000000000
   Au   O    Sr   Ti
    50   265    72    72
Selective dynamics
Direct
  0.7143388761237182  0.5227678846747154  0.7528552237359618   T   T   T
  0.6205310381331629  0.5705581584052213  0.7042435556979418   T   T   T
  0.7251912013035055  0.2586930827238135  0.6917121346780091   T   T   T
  0.2932791024071672  0.7463406588475289  0.6967596765829757   T   T   T
  0.5118569796552279  0.6034241122731613  0.7768842958393553   T   T   T
  0.5784365883695635  0.7257443330331252  0.7939964182175095   T   T   T
  0.2404833580658038  0.4693557722808053  0.7092752441176927   T   T   T
  0.2858395560638881  0.6623886488889319  0.7643043907919761   T   T   T
  0.5968445995050435  0.2950737110819355  0.7883586786907049   T   T   T
  0.5139976381139213  0.4837280691370084  0.6779901595566560   T   T   T
  0.5624384356829891  0.4861550800067717  0.7623264391435552   T   T   T
  0.5557018016444730  0.2122035032332054  0.7126670813515142   T   T   T
  0.5444795907729055  0.3875185800104840  0.8308741234524236   T   T   T
  0.3914093626689123  0.8169201849191000  0.7066371198081256   T   T   T
  0.4640617786809619  0.6951635498004857  0.8303661968996734   T   T   T
  0.4400545830172883  0.2283327201168532  0.6971835453199228   T   T   T
  0.3703667486532299  0.2988014160616490  0.7556072985818683   T   T   T
  0.3490884877767091  0.5005370001925786  0.6976377627316506   T   T   T
  0.4268219697520403  0.3725398634209578  0.8169418740738764   T   T   T
  0.5964497728934983  0.7845336411851255  0.7129879330439188   T   T   T
  0.6347490484508780  0.5837368833816270  0.8000435070367761   T   T   T
  0.7319488372469627  0.6138366017286951  0.6941706643961563   T   T   T
  0.4858334231869129  0.7753637643401067  0.7544593277603918   T   T   T
  0.7623291876821984  0.4287259468726232  0.7045552225123943   T   T   T
  0.4838292382210074  0.2692015482690550  0.7754586862107576   T   T   T
  0.2894604936061695  0.5380738536512799  0.7774465014399203   T   T   T
  0.6177730300964912  0.3183973391286545  0.6973623645421934   T   T   T
  0.3686092953984582  0.6188117939305935  0.8201808860858997   T   T   T
  0.5690139226987310  0.5099333436837894  0.8567027846267029   T   T   T
  0.6759543542489554  0.2141760378149730  0.7622747456873046   T   T   T
  0.4685457913823858  0.4521513563414058  0.8817344509681593   T   T   T
  0.5182365173185051  0.3764839580681348  0.7337137644854124   T   T   T
  0.2826050619056417  0.3381149844835443  0.7023377658915638   T   T   T
  0.6693081646998850  0.6810088498748085  0.7488209182101987   T   T   T
  0.3971144464847596  0.3821613052247918  0.6901922453204851   T   T   T
  0.4523632138630043  0.5795868114517947  0.7027603496165226   T   T   T
  0.3753184710303978  0.4932827763329682  0.8325052745780495   T   T   T
  0.3251352653101645  0.4145184556004446  0.7691656189519509   T   T   T
  0.4156719340036178  0.6953332966860342  0.6996455824894010   T   T   T
  0.7026274362670525  0.3393822269964001  0.7595690031958605   T   T   T
  0.7720225251847093  0.4273032161077720  0.7948530094486945   T   T   T
  0.2571481204917690  0.5931714425332800  0.6945184216875694   T   T   T
  0.6476515312219124  0.4440972159468070  0.6945460281580392   T   T   T
  0.5650491658333038  0.6395624262466912  0.8612512679164825   T   T   T
  0.5401688246681421  0.6678108377020098  0.7017449834847302   T   T   T
  0.4433202884080977  0.4727986182075917  0.7555465459675804   T   T   T
  0.3745095258556457  0.7397920822549000  0.7792043629077804   T   T   T
  0.4626684975385378  0.5739402928164949  0.8644432995140973   T   T   T
  0.6534413524720195  0.4372568221135145  0.8120818057086515   T   T   T
  0.7067106114690149  0.7565354125055395  0.6883983289910289   T   T   T
  0.2494674540515208  0.3136704933924602  0.5459633047334485   T   T   T
  0.7506304566516200  0.1897652090595147  0.4554600605008199   T   T   T
  0.4170303215157656  0.9357292439319290  0.4538669018202700   T   T   T
  0.4171144785060983  0.6847415128729919  0.4547378656209229   T   T   T
  0.4165308201313828  0.4353166524801178  0.4537232134175767   T   T   T
  0.0845376819649403  0.6869159360499111  0.4530631706649422   T   T   T
  0.0838870336877240  0.9366530711349006  0.4534922929719232   T   T   T
  0.0827534839813501  0.4368010057650424  0.4528140242064279   T   T   T
  0.0838889862472813  0.1866045556326255  0.4529697068353258   T   T   T
  0.9165165846356237  0.8120263173287661  0.4540625998742747   T   T   T
  0.0833333358191695  0.3124999999901945  0.3605200052333331   F   F   F
  0.7466795788615983  0.5579807679874395  0.5447442495744037   T   T   T
  0.9164341244158143  0.0617644308824320  0.4542718308463075   T   T   T
  0.9162427838388594  0.3121615208543081  0.4538769963365777   T   T   T
  0.4171192217363522  0.1871548295445806  0.4535333393186628   T   T   T
  0.2522126644022247  0.6875993991843470  0.4560128610235324   T   T   T
  0.9167825432654259  0.9366246009985628  0.4533304265231245   T   T   T
  0.5826854217189112  0.1902561397845400  0.4555267791991049   T   T   T
  0.0002026715367866  0.1249468829402717  0.4982938676136176   T   T   T
  0.5828933737498888  0.8104637322037952  0.4552091523471722   T   T   T
  0.0000852698134753  0.3734684261497681  0.4984168293360123   T   T   T
 -0.0000955699973868  0.6271417133471354  0.4977248269114145   T   T   T
  0.3336734855349723  0.1256833374913807  0.4985107135869344   T   T   T
  0.0001434337808195  0.8748184676243868  0.4994180309267015   T   T   T
  0.3334018527713022  0.8736420825304871  0.4991664643674282   T   T   T
  0.6660584771546318  0.1260630430925795  0.4987856677149020   T   T   T
  0.2512073895490370  0.4393226383929779  0.4549409556207026   T   T   T
  0.0833333358191695  0.5625000000092442  0.3605200052333331   F   F   F
  0.9166666865332829  0.0625000000159659  0.3605200052333331   F   F   F
  0.7498943065122406  0.8132316369910004  0.4530111201809535   T   T   T
  0.7497250188510051  0.4383330982252360  0.4557257891549288   T   T   T
  0.2504853412370188  0.0619803902046752  0.4542538867822221   T   T   T
  0.7491051014197259  0.6886565562719260  0.4574061537936877   T   T   T
  0.2498941382387747  0.1884989768087613  0.4541014540610429   T   T   T
  0.2500567579139531  0.9360526937448196  0.4540229885550010   T   T   T
  0.6654204310131938  0.6258727287562257  0.5029927101290574   T   T   T
  0.5844921707285728  0.5628255569997747  0.4548206301005850   T   T   T
  0.5831416690165825  0.0635569199902457  0.4538696789738231   T   T   T
  0.9166666865332829  0.6874999999963620  0.3605200052333331   F   F   F
  0.9166666865332829  0.4374999701794380  0.3605200052333331   F   F   F
  0.9166666865332829  0.1875000000030838  0.3605200052333331   F   F   F
  0.5833333134730552  0.9375000000154046  0.3605200052333331   F   F   F
  0.5833333134730552  0.6874999999963620  0.3605200052333331   F   F   F
  0.5833333134730552  0.4374999701794380  0.3605200052333331   F   F   F
  0.5833333134730552  0.1875000000030838  0.3605200052333331   F   F   F
  0.2499999999799343  0.9375000000154046  0.3605200052333331   F   F   F
  0.9166666865332829  0.9375000000154046  0.3605200052333331   F   F   F
  0.2499999999799343  0.6874999999963620  0.3605200052333331   F   F   F
  0.2499999999799343  0.1875000000030838  0.3605200052333331   F   F   F
  0.7499999404149307  0.9375000000154046  0.3605200052333331   F   F   F
  0.7499999404149307  0.6874999999963620  0.3605200052333331   F   F   F
  0.7499999404149307  0.4374999701794380  0.3605200052333331   F   F   F
  0.7499999404149307  0.1875000000030838  0.3605200052333331   F   F   F
  0.4166666269218169  0.9375000000154046  0.3605200052333331   F   F   F
  0.4166666269218169  0.6874999999963620  0.3605200052333331   F   F   F
  0.4166666269218169  0.4374999701794380  0.3605200052333331   F   F   F
  0.2499999999799343  0.4374999701794380  0.3605200052333331   F   F   F
  0.0833333358191695  0.0625000000159659  0.3605200052333331   F   F   F
  0.9154799872169277  0.6867110151711054  0.4531746131601220   T   T   T
  0.6656485300561092  0.3784770047419720  0.5030499457852398   T   T   T
  0.3343836688174982  0.3784624742828605  0.5029917187751773   T   T   T
  0.3355609555455106  0.6256753327342734  0.5038398154899558   T   T   T
  0.9178160106103428  0.0633249174558776  0.5476115744853558   T   T   T
  0.7494494537243382  0.9384709937587170  0.4553502251098287   T   T   T
  0.9154126611760988  0.3127890633965705  0.5466580720438895   T   T   T
  0.2522680874803350  0.3141225311962048  0.4541256629666738   T   T   T
  0.2518955162389651  0.5646251103269698  0.4537286808403212   T   T   T
  0.2499999999799343  0.8124999999834799  0.3605200052333331   F   F   F
  0.2499999999799343  0.5625000000092442  0.3605200052333331   F   F   F
  0.2499999999799343  0.3124999999901945  0.3605200052333331   F   F   F
  0.2499999999799343  0.0625000000159659  0.3605200052333331   F   F   F
  0.7499999404149307  0.5625000000092442  0.3605200052333331   F   F   F
  0.7499999404149307  0.3124999999901945  0.3605200052333331   F   F   F
  0.7499999404149307  0.0625000000159659  0.3605200052333331   F   F   F
  0.4166666269218169  0.8124999999834799  0.3605200052333331   F   F   F
  0.4166666269218169  0.5625000000092442  0.3605200052333331   F   F   F
  0.4166666269218169  0.3124999999901945  0.3605200052333331   F   F   F
  0.7499999404149307  0.8124999999834799  0.3605200052333331   F   F   F
  0.0835295710333631  0.3120249440445660  0.4539827606007120   T   T   T
  0.4166666269218169  0.0625000000159659  0.3605200052333331   F   F   F
  0.4170017997581972  0.0615742998012785  0.4553645288234132   T   T   T
  0.0835721466770068  0.8120320131774024  0.4541829259895450   T   T   T
  0.0839464244235657  0.5624545516081711  0.4539102438879780   T   T   T
  0.4160679272863087  0.5594902741895665  0.4578746974903284   T   T   T
  0.0837881262220175  0.0618605388877278  0.4541734082351593   T   T   T
  0.4155312512661227  0.3113076588935700  0.4573924360116264   T   T   T
  0.8333332538436267  0.7500000000123208  0.4070133268666680   F   F   F
  0.0833333358191695  0.4374999701794380  0.3605200052333331   F   F   F
  0.0833333358191695  0.6874999999963620  0.3605200052333331   F   F   F
  0.0833333358191695  0.9375000000154046  0.3605200052333331   F   F   F
  0.4166666269218169  0.1875000000030838  0.3605200052333331   F   F   F
  0.0833333358191695  0.8124999999834799  0.3605200052333331   F   F   F
  0.8333332538436267  0.4999999999932783  0.4070133268666680   F   F   F
  0.6910249684194963  0.1333383398169494  0.7702889090268239   T   T   T
  0.2510686768332472  0.0625140251392089  0.5472660194521783   T   T   T
  0.4144056822088911  0.8117779341166494  0.5479006176127654   T   T   T
  0.5833333134730552  0.0625000000159659  0.3605200052333331   F   F   F
  0.5833333134730552  0.3124999999901945  0.3605200052333331   F   F   F
  0.5833333134730552  0.8124999999834799  0.3605200052333331   F   F   F
  0.7493777878829939  0.0644389867956341  0.4528984377566526   T   T   T
  0.2502758632396175  0.8107473366790270  0.4553403169991361   T   T   T
  0.8333332538436267  0.2500000000190425  0.4070133268666680   F   F   F
  0.5842335680357245  0.3152776010323176  0.4537549877208382   T   T   T
  0.8333332538436267  0.0000000000000000  0.4070133268666680   F   F   F
  0.7482066811479985  0.8079311948578884  0.5454698679017795   T   T   T
  0.0833333358191695  0.1875000000030838  0.3605200052333331   F   F   F
  0.0000000000000000  0.0000000000000000  0.4070133268666680   F   F   F
  0.0000000000000000  0.2500000000190425  0.4070133268666680   F   F   F
  0.0000000000000000  0.4999999999932783  0.4070133268666680   F   F   F
  0.7482395033877955  0.5642857004105536  0.4537965406052709   T   T   T
  0.3333333432766779  0.0000000000000000  0.4070133268666680   F   F   F
  0.3333333432766779  0.4999999999932783  0.4070133268666680   F   F   F
  0.3333333432766779  0.7500000000123208  0.4070133268666680   F   F   F
  0.6666666865533486  0.0000000000000000  0.4070133268666680   F   F   F
  0.5827366198091068  0.4394884210604186  0.4561875402910064   T   T   T
  0.6666666865533486  0.2500000000190425  0.4070133268666680   F   F   F
  0.6666666865533486  0.7500000000123208  0.4070133268666680   F   F   F
  0.1666666716383389  0.0000000000000000  0.4070133268666680   F   F   F
  0.1666666716383389  0.2500000000190425  0.4070133268666680   F   F   F
  0.1666666716383389  0.4999999999932783  0.4070133268666680   F   F   F
  0.1666666716383389  0.7500000000123208  0.4070133268666680   F   F   F
  0.5000000000021103  0.0000000000000000  0.4070133268666680   F   F   F
  0.5000000000021103  0.2500000000190425  0.4070133268666680   F   F   F
  0.5000000000021103  0.7500000000123208  0.4070133268666680   F   F   F
  0.9166666865332829  0.3124999999901945  0.3605200052333331   F   F   F
  0.3333333432766779  0.2500000000190425  0.4070133268666680   F   F   F
  0.7474983280671086  0.3141542440441222  0.4546114181750018   T   T   T
  0.0000000000000000  0.7500000000123208  0.4070133268666680   F   F   F
  0.4167068613377444  0.8098957748192332  0.4551121803037070   T   T   T
  0.5833333134730552  0.5625000000092442  0.3605200052333331   F   F   F
  0.6666666865533486  0.4999999999932783  0.4070133268666680   F   F   F
  0.5828015971427534  0.6861047510656760  0.4546004574462193   T   T   T
  0.5000000000021103  0.4999999999932783  0.4070133268666680   F   F   F
  0.9160357976657717  0.1866276019138183  0.4529474816064407   T   T   T
  0.4157664888862563  0.9371185116097338  0.5459040678942210   T   T   T
  0.4990432911012814  0.2531619598461857  0.5908714581561924   T   T   T
  0.4159875877446446  0.1915312736535387  0.5464983268591187   T   T   T
  0.0861183624099960  0.6893348713057835  0.5453257003793193   T   T   T
  0.0828610347891480  0.4389580918566979  0.5448582848341317   T   T   T
  0.0836202653980628  0.1889333280537461  0.5455046044591906   T   T   T
  0.4995320659560574  0.1257237704276764  0.4995681411358554   T   T   T
  0.9998448107331013  0.4996589928020335  0.5940354772182787   T   T   T
  0.5807671317067546  0.1852953645230525  0.5499382271035826   T   T   T
  0.9998262645771054  0.7531174375285147  0.5923648230858373   T   T   T
  0.3340213122637297  0.9998358918850304  0.5920068135589018   T   T   T
  0.9998908530124140  0.9993373238444372  0.5931399401865863   T   T   T
  0.0012808002573510  0.2499711896094438  0.5918294338580246   T   T   T
  0.3332989272713006  0.4963803249349263  0.5908906407335170   T   T   T
  0.3354509948264620  0.7411509843258789  0.5903686704402785   T   T   T
  0.6639170928799852  0.2462781574567042  0.5909166327020214   T   T   T
  0.6658520341934125  0.0008786994427757  0.5919501945109558   T   T   T
  0.6657684865159070  0.7415638480553159  0.5901959559659168   T   T   T
  0.6667356549053584  0.4944095672164786  0.5910760969902317   T   T   T
  0.1675242210019018  0.9982944145048681  0.5922784112556708   T   T   T
  0.1685697562223914  0.2481281394646997  0.5930530815746482   T   T   T
  0.1707564618463421  0.7501215214123814  0.5949795959562197   T   T   T
  0.2484551575881549  0.4357540205828719  0.5491854162539528   T   T   T
  0.1658219089790319  0.5027618921176197  0.5873993186845243   T   T   T
  0.3348725543923790  0.2543524965465777  0.5927341017823743   T   T   T
  0.4994686549923394 -0.0001214183947328  0.5908998302873979   T   T   T
  0.8328267838812685  0.8749744744323974  0.4987488159399729   T   T   T
  0.7483643463616662  0.9367729580374099  0.6397374037269163   T   T   T
  0.8323947810411098  0.0019089279064513  0.5925141196819633   T   T   T
  0.7483794364585084  0.1835272414408952  0.5502213567498668   T   T   T
  0.4231061855709437  0.6880293263472496  0.5467049199738608   T   T   T
  0.4231007035620188  0.4439459892023973  0.5453788954902541   T   T   T
  0.7520524272299863  0.4351010666633583  0.5488252511626207   T   T   T
  0.5834601401557432  0.3112997390213720  0.5453977423186087   T   T   T
  0.2530286257968430  0.8125138697043570  0.5507201038519680   T   T   T
  0.5824858488267349  0.0616912376253660  0.5454165783083994   T   T   T
  0.5827505427883197  0.9370816188853023  0.4542730495896799   T   T   T
  0.5857346600393802  0.8142799188933125  0.5503009035568188   T   T   T
  0.7481268383545373  0.3111297795037822  0.5480602662602865   T   T   T
  0.5811845600316923  0.5600526858141970  0.5488669600651728   T   T   T
  0.2524308752837508  0.5590717164009650  0.5439141193172702   T   T   T
  0.4160884268386386  0.3197370902593954  0.5526696734034774   T   T   T
  0.5766551610639525  0.4358902048940271  0.5518140122354270   T   T   T
  0.4165280973848566  0.0654493474866354  0.5473427741095804   T   T   T
  0.0849187636118507  0.8128752174450832  0.5473243959131876   T   T   T
  0.0821393558804712  0.5644246773565634  0.5462682229037984   T   T   T
  0.0867481899335146  0.3135667894171269  0.5469911717914769   T   T   T
  0.5008841998487567  0.7563279325830959  0.5928503414120884   T   T   T
  0.0824082599880607  0.0631669156171379  0.5475669202100576   T   T   T
  0.9140206369938866  0.6891439821208034  0.5453403011699784   T   T   T
  0.5838646030737308  0.9376143534607821  0.5461385871229025   T   T   T
  0.9177222343450453  0.1891773756416604  0.5450774084127556   T   T   T
  0.9159221731639300  0.4376481600564536  0.5457608307782944   T   T   T
  0.5794837970748283  0.6860847886767818  0.5473700975755288   T   T   T
  0.2515803249005649  0.9373036301479981  0.5452060193210876   T   T   T
  0.4975255620823312  0.5043695934872230  0.6088634983708874   T   T   T
  0.9176255537105533  0.5638109894636346  0.5471033811028710   T   T   T
  0.4201292438499651  0.5650245377279451  0.5553490708637683   T   T   T
  0.9155594147535533  0.8129025154069781  0.5468350121099558   T   T   T
  0.0836002935388935  0.9389268653837033  0.5457445218750118   T   T   T
  0.2491554212405952  0.6831888476437594  0.5519466587576094   T   T   T
  0.7489120280482108  0.9338902760365119  0.5476267737570594   T   T   T
  0.7518795752675315  0.6801756626826925  0.5533383869346373   T   T   T
  0.9161156994468092  0.9389071384912495  0.5460401820573650   T   T   T
  0.4177083557349284  0.0651800225091037  0.6400141883598912   T   T   T
  0.9161586029847663  0.5622584217416788  0.4540097615065275   T   T   T
  0.4122245345649714  0.8125693435340517  0.6396060442066082   T   T   T
  0.9167690872436018  0.0619521282376600  0.6426283816608118   T   T   T
  0.9131295927142470  0.5621406081709487  0.6412909942158739   T   T   T
  0.9152960649118078  0.3118690525079643  0.6390568845371147   T   T   T
  0.9143135143882450  0.8132120199090672  0.6415946870149017   T   T   T
  0.5815103232696189  0.0657520935098024  0.6390941446971979   T   T   T
  0.5854891016184836  0.3203143860522913  0.6341440236402972   T   T   T
  0.5912217288207868  0.5652728166108882  0.6387519368966793   T   T   T
  0.2476338398311803  0.5735717587710908  0.6288876707722888   T   T   T
  0.7534961741719659  0.6913571648577735  0.6570763249943194   T   T   T
  0.2620671041848674  0.7996714607498493  0.6463149426185996   T   T   T
  0.2510480374304222  0.0593780594235963  0.6423223484181854   T   T   T
  0.9166666865332829  0.5625000000092442  0.3605200052333331   F   F   F
  0.4996139754468162  0.3740606177798070  0.4998283930245535   T   T   T
  0.5002815738392370  0.6211422779892619  0.5000045197518224   T   T   T
  0.8324076533935484  0.6230564146088601  0.5000460113881073   T   T   T
  0.2520241684999030  0.1882148590785558  0.5471767125976827   T   T   T
  0.8325409032022533  0.3731106379545417  0.4997571151194595   T   T   T
  0.8330658234853684  0.1242858358942795  0.4993080545468706   T   T   T
  0.1668286054375917  0.3763453565134338  0.4977694600697800   T   T   T
  0.1677560668825286  0.6243423053977811  0.4999960875906400   T   T   T
  0.5810927669730808  0.4384445215907800  0.6459605386919545   T   T   T
  0.5785299567283909  0.6857549060368341  0.6395725053892630   T   T   T
  0.9178053784614777  0.1868005983028496  0.6408111737232933   T   T   T
  0.2491050972680246  0.3162182320496842  0.6411528311605929   T   T   T
  0.9158871790665384  0.4369620013083846  0.4536396582209568   T   T   T
  0.1670802699475137  0.1243188162953669  0.4993169093174307   T   T   T
  0.7485723144430607  0.0589810294748236  0.5438596815357759   T   T   T
  0.1676978619057251  0.8733264034180379  0.4998682415370280   T   T   T
  0.4269451819728127  0.3047354980386324  0.6553535868187562   T   T   T
  0.5911479962665167  0.8099554842255497  0.6460343074458448   T   T   T
  0.4204097036876932  0.6759637401691744  0.6335997636474301   T   T   T
  0.4999498890933800  0.8734702558154828  0.5008571586625085   T   T   T
  0.7543972475996649  0.4333202174832773  0.6378448677554647   T   T   T
  0.7533103800392478  0.5681014588847776  0.6357866878910863   T   T   T
  0.3974688345199495  0.5507003397995941  0.6517885977148167   T   T   T
  0.4175390299820274  0.9348803194832358  0.6397370373761845   T   T   T
  0.7411668814347596  0.8096901765880378  0.6400168344655770   T   T   T
  0.7476395080873931  0.3112365443204478  0.6398254456757225   T   T   T
  0.7476918462426591  0.0665950424960793  0.6394116282961056   T   T   T
  0.0843806328933321  0.3114097051118824  0.6405162155058404   T   T   T
  0.6664702305890495  0.8741125692589011  0.4986769919605857   T   T   T
  0.0870540135878832  0.5627550085123789  0.6401665941279713   T   T   T
  0.0872377117255083  0.4365743858709212  0.6395374015722955   T   T   T
  0.0835432100913430  0.1853910283015921  0.6411206816016352   T   T   T
  0.4184347129272235  0.1878154919726458  0.6398382305057927   T   T   T
  0.4153542085161789  0.4189694138508383  0.6298333894685632   T   T   T
  0.0843871014551028  0.9355965710273838  0.6406450926876536   T   T   T
  0.0832806745739467  0.6870712946808345  0.6390064522000675   T   T   T
  0.0843775156936971  0.0603554859483714  0.6421582204153455   T   T   T
  0.8331822841331132  0.5024209097184107  0.5889558235339113   T   T   T
  0.9125853858262829  0.4359959976073121  0.6397368697821770   T   T   T
  0.8305064889387657  0.7508983960226521  0.5928698618034757   T   T   T
  0.8321459890076351  0.2469795744766951  0.5907459566893174   T   T   T
  0.7470624465081040  0.1948053137730985  0.6467506458100175   T   T   T
  0.9166666865332829  0.8124999999834799  0.3605200052333331   F   F   F
  0.5817812519327619  0.9353765953189903  0.6389028906282079   T   T   T
  0.0843509139069726  0.8124627155974140  0.6421753925401404   T   T   T
  0.5796283287393397  0.1917645582929248  0.6458439343522924   T   T   T
  0.2547388379091566  0.6775625108107511  0.6625534892943392   T   T   T
  0.2409396099462795  0.4420636206021640  0.6417095821519938   T   T   T
  0.9147577945071556  0.9368269694372968  0.6406595965568920   T   T   T
  0.9163232527367564  0.6875525698868271  0.6390715877732203   T   T   T
  0.2520727274143611  0.9301823693509028  0.6373335178172622   T   T   T
  0.2536169415449371  0.1864418980257387  0.6412595239262244   T   T   T
  0.0009280497898267  0.1223100172479702  0.6196765756976286   T   T   T
  0.1666666716383389  0.3750000000061604  0.4070133268666680   F   F   F
  0.6653935916554311  0.7518800437540919  0.5021751888863288   T   T   T
  0.5010817864772829  0.7528055596700899  0.5039414215105394   T   T   T
  0.6658940936688899  0.0001551958319309  0.5055992524240894   T   T   T
  0.1645018023923525  0.7514959533613739  0.5033709884018015   T   T   T
  0.8333332538436267  0.6249999999803961  0.4070133268666680   F   F   F
  0.6686905632299984  0.4997357625056104  0.5007341222010717   T   T   T
  0.3313193067727062  0.4991462711090272  0.5009545890630329   T   T   T
  0.3302869398404275  0.2479750242760539  0.5028057084441043   T   T   T
  0.3339493119328779  0.7510934819560791  0.5015122216271679   T   T   T
  0.6669769565095580  0.2475124940929666  0.5030140622914048   T   T   T
  0.5013567893963516  0.4997517154197268  0.5002403969252242   T   T   T
  0.9998538463932323  0.5004233475524474  0.5068347214273917   T   T   T
  0.8361283141633730  0.5000409601374531  0.5028269710097676   T   T   T
  0.8361412481357495  0.2482281249419728  0.5026272654954422   T   T   T
  0.6666666865533486  0.3750000000061604  0.4070133268666680   F   F   F
  0.1660457979561163  0.0011310128110781  0.5065391228946087   T   T   T
  0.0000000000000000  0.8749999404036828  0.4070133268666680   F   F   F
  0.5014472548783752  0.2479553477104305  0.5023337296275667   T   T   T
  0.9999700127479197  0.7509498226820439  0.5065486727170191   T   T   T
  0.0011065011932357  0.2499019002405949  0.5057943915085861   T   T   T
  0.0000936061406929 -0.0000477433796456  0.5065935707615806   T   T   T
  0.6666666865533486  0.6249999999803961  0.4070133268666680   F   F   F
  0.8333332538436267  0.8749999404036828  0.4070133268666680   F   F   F
  0.3333333432766779  0.6249999999803961  0.4070133268666680   F   F   F
  0.3333333432766779  0.1249999999871179  0.4070133268666680   F   F   F
  0.3333333432766779  0.3750000000061604  0.4070133268666680   F   F   F
  0.8344486655368640  0.0003388412146246  0.5067981368470724   T   T   T
  0.3333333432766779  0.8749999404036828  0.4070133268666680   F   F   F
  0.6666666865533486  0.1249999999871179  0.4070133268666680   F   F   F
  0.0000000000000000  0.6249999999803961  0.4070133268666680   F   F   F
  0.1664571830353996  0.2481718529285581  0.5061842182086567   T   T   T
  0.3331551113936167  0.0011972524854247  0.5057421956658337   T   T   T
  0.5002335984233255  0.9993476589815762  0.5053867787278482   T   T   T
  0.5004900651460893  0.8766299051281004  0.6094058804611737   T   T   T
  0.3261297309248924  0.3734136129458480  0.5927606164476347   T   T   T
  0.0000000000000000  0.3750000000061604  0.4070133268666680   F   F   F
  0.3342316797397814  0.6242828079597122  0.5950955931369827   T   T   T
  0.5000000000021103  0.8749999404036828  0.4070133268666680   F   F   F
  0.8333332538436267  0.3750000000061604  0.4070133268666680   F   F   F
  0.1666666716383389  0.1249999999871179  0.4070133268666680   F   F   F
  0.6651514830166856  0.1249169876867848  0.6158755978772745   T   T   T
  0.5000000000021103  0.6249999999803961  0.4070133268666680   F   F   F
  0.8394147118348413  0.6269844128137878  0.6040436014763590   T   T   T
  0.3317497076632723  0.1198671286549173  0.6135754773623452   T   T   T
  0.9992907987416677  0.8749027578234225  0.6223061066093901   T   T   T
  0.1638207611266240  0.4998444251317858  0.5021035568125084   T   T   T
  0.5000000000021103  0.1249999999871179  0.4070133268666680   F   F   F
  0.8320325980203996  0.8759170751093004  0.6190851768967848   T   T   T
  0.8378273241863304  0.3725567493201927  0.6032165942191554   T   T   T
  0.8360248051715953  0.7516992893780067  0.5025732750174664   T   T   T
  0.1666666716383389  0.8749999404036828  0.4070133268666680   F   F   F
  0.8333332538436267  0.1249999999871179  0.4070133268666680   F   F   F
  0.0000000000000000  0.1249999999871179  0.4070133268666680   F   F   F
  0.5036838110687477  0.6249163803962386  0.5941347750187144   T   T   T
  0.6711846561360455  0.3719278757481101  0.5935964725872057   T   T   T
  0.5000000000021103  0.3750000000061604  0.4070133268666680   F   F   F
  0.6666666865533486  0.8749999404036828  0.4070133268666680   F   F   F
  0.3344994517830065  0.8786200221721534  0.6028337965649113   T   T   T
  0.1597238430868574  0.6273233251100000  0.6014612615607923   T   T   T
  0.1663666978570147  0.8734207314335951  0.6182133995500302   T   T   T
  0.5021571524867364  0.3709188309495637  0.5953135941881506   T   T   T
  0.1666666716383389  0.6249999999803961  0.4070133268666680   F   F   F
  0.1678611522124852  0.1227332088246761  0.6222130953816090   T   T   T
  0.5002556294333252  0.1224107831587381  0.6066141620069900   T   T   T
  0.9997148779505066  0.6227973613413653  0.6276260781090277   T   T   T
  0.0004305043896024  0.3747367991697616  0.6238195534863270   T   T   T
  0.8339636867463975  0.1247561696478027  0.6255572007138531   T   T   T
  0.6653493912239041  0.8809539287352383  0.6072719649055510   T   T   T
  0.1635691506127137  0.3714228559090999  0.6075855367383758   T   T   T
  0.6665599592864698  0.6261981054937977  0.5936323394086948   T   T   T
  0.0838650412018684  0.2477237848849089  0.6036789718157385   T   T   T
  0.7496025675698116  0.0018424292222237  0.6040822931002858   T   T   T
  0.5825827018737343  0.0008694696998622  0.6040094598295686   T   T   T
  0.9162683839334637  0.0004690813505935  0.6039384183641558   T   T   T
  0.5846653742324575  0.7497730941415542  0.5997608562129573   T   T   T
  0.5903783084517811  0.5013843307661756  0.5935423881211014   T   T   T
  0.2427963220277476  0.4975949124888842  0.5941543394609959   T   T   T
  0.5847880870479930  0.2473321707436840  0.5978878589797940   T   T   T
  0.2497538703872260  0.9977072687964748  0.6042159074790757   T   T   T
  0.7546729486688289  0.2475208904378384  0.5924421799966092   T   T   T
  0.2492711967596186  0.2456009089092006  0.6035480195096802   T   T   T
  0.4171233389056974  0.0000726369200753  0.6047027309490692   T   T   T
  0.2495553986120027  0.7527295703486329  0.5919890264050875   T   T   T
  0.0818115398095912  0.4998916429217803  0.6030672992594232   T   T   T
  0.0813879377609178  0.6259288197770284  0.5054847731199712   T   T   T
  0.2467749937471061  0.3728169450004228  0.5027649566776301   T   T   T
  0.0836116267091908  0.9987353287858040  0.6035740422474569   T   T   T
  0.7508337626869156  0.1218343238335814  0.5047317773384561   T   T   T
  0.0811113589927601  0.7516019889654103  0.6033823925995120   T   T   T