Au O  Sr Ti H                           
   1.00000000000000     
    23.6707801818999997    0.0000000000000000    0.0000000000000000
     0.0000000000000000   22.3170261383000010    0.0000000000000000
     0.0000000000000000    0.0000000000000000   30.0000000000000000
   Au   O    Sr   Ti   H 
    50   264    72    72     1
Selective dynamics
Direct
  0.7193225686811431  0.5277830116192419  0.7530034835337247   F   F   F
  0.6229729960614492  0.5682036345607244  0.7044852004092306   F   F   F
  0.7204876283031396  0.2587965671553007  0.6922795339712238   F   F   F
  0.2934464490683339  0.7454775164091600  0.6981815364598134   F   F   F
  0.5146026977712523  0.6002647534341392  0.7760907182331493   F   F   F
  0.5773626791778739  0.7234180670327603  0.7927489070502105   F   F   F
  0.5546274698719884  0.3841604672231682  0.8265257510228494   F   F   F
  0.2407873958689137  0.4681552065554087  0.7085430682860618   F   F   F
  0.2831534627864087  0.6598787080076747  0.7653157438858571   F   F   F
  0.6048171995658151  0.2852567125714458  0.7857167211541736   F   F   F
  0.5126288671923120  0.4831109841563190  0.6778326626044446   F   F   F
  0.5632740892832970  0.4810472718863892  0.7603244629328714   F   F   F
  0.4626953338640405  0.6926158491227454  0.8283351573111091   F   F   F
  0.7653817687445539  0.4326156491462214  0.7050835979636929   F   F   F
  0.7337094024411925  0.6161900241869205  0.6930080804015901   F   F   F
  0.6359248091112732  0.5831601313265935  0.7998100139309798   F   F   F
  0.5946669614539388  0.7841497212158828  0.7127474744804658   F   F   F
  0.4842584718378475  0.7771207885551661  0.7571591865236869   F   F   F
  0.3498289354856894  0.5000567413813144  0.6981891226970092   F   F   F
  0.4242566226844104  0.3685160560501046  0.8199910248438371   F   F   F
  0.3731325557921750  0.2971922960910902  0.7535569982497421   F   F   F
  0.4541783741938090  0.2359299920810827  0.6940841340124706   F   F   F
  0.3911877767464986  0.8171143650293686  0.7060806062376628   F   F   F
  0.2888763999166244  0.5355632833413679  0.7780061024739453   F   F   F
  0.5630708202125021  0.2094977532880833  0.7147773329582279   F   F   F
  0.4520135835364130  0.5788633260026188  0.7033368387036347   F   F   F
  0.6175128287912557  0.3223447817221654  0.6962260000068170   F   F   F
  0.7056401301755315  0.7576759224120835  0.6881594739976151   F   F   F
  0.6587135197675380  0.4452921701421957  0.8111928055379281   F   F   F
  0.3669677508043705  0.6173638611047352  0.8203232410132770   F   F   F
  0.5697579550910277  0.5095528093479516  0.8545737323268341   F   F   F
  0.6726435660496719  0.1908065485546544  0.7539094460367721   F   F   F
  0.4737028912374228  0.4487480826532106  0.8783841424475227   F   F   F
  0.5161327474267736  0.3714380931686065  0.7314169526454180   F   F   F
  0.2843545549896476  0.3355766756985759  0.7016374165450472   F   F   F
  0.6702660520261503  0.6808639766509827  0.7487668396470823   F   F   F
  0.3980259722667796  0.3818723986029013  0.6897560755494325   F   F   F
  0.3760995330286150  0.4902502896261254  0.8322381425718817   F   F   F
  0.4622023746819863  0.5715960233454709  0.8621073349605837   F   F   F
  0.3258902873923688  0.4128999205544446  0.7683472781679299   F   F   F
  0.4875499540829082  0.2663128173445912  0.7795412122246148   F   F   F
  0.4230729859393705  0.6977395675657192  0.6988616760815063   F   F   F
  0.7013492317125696  0.3470618462314121  0.7567865914406582   F   F   F
  0.7760713010909726  0.4308329469319574  0.7950814118445706   F   F   F
  0.2569684157342493  0.5914743354479839  0.6943082939178922   F   F   F
  0.6508906565835915  0.4448305391407459  0.6925591624087488   F   F   F
  0.5643554091281047  0.6385164573474285  0.8610230948714914   F   F   F
  0.5432996540022472  0.6647066238824451  0.7012606515524240   F   F   F
  0.4442165628099062  0.4694106456209397  0.7565304297479614   F   F   F
  0.3724872872803004  0.7376972249114360  0.7775302815832390   F   F   F
  0.2500533070638937  0.1884540729256301  0.4541438727244582   F   F   F
  0.7495282110048223  0.9383910437240033  0.4552795260248388   F   F   F
  0.7490309665455896  0.6887051487491362  0.4573295207649508   F   F   F
  0.7496134798197644  0.4383466929617086  0.4557208247181634   F   F   F
  0.7505547347412858  0.1897243352608413  0.4556698884275932   F   F   F
  0.4170924190251952  0.9358513236973280  0.4540831326165815   F   F   F
  0.4170580695088120  0.6845508808638954  0.4546579097610248   F   F   F
  0.4165339518382325  0.4353593162207119  0.4536559213449394   F   F   F
  0.0845790197268812  0.6869277717357818  0.4530082403165494   F   F   F
  0.0839114487172523  0.9366635340201697  0.4534591998777486   F   F   F
  0.0828125755522180  0.4368176213685331  0.4528574242815395   F   F   F
  0.0838388510234438  0.1865600991751393  0.4529757161980044   F   F   F
  0.9165460974284443  0.8120799623509569  0.4540596732719493   F   F   F
  0.9161892967045020  0.5624066057456503  0.4538146911482031   F   F   F
  0.2511078502534474  0.4392080381344741  0.4549266727752510   F   F   F
  0.9160672549982252  0.0622135644135042  0.4540681346208899   F   F   F
  0.9161161450042385  0.3122133112206100  0.4538141766629806   F   F   F
  0.4168724589310244  0.1872418395859654  0.4538009981721558   F   F   F
  0.2524049412588099  0.6873224346948490  0.4561456773404018   F   F   F
  0.9164719907493080  0.9370980706411913  0.4536050767590680   F   F   F
  0.5827963643935945  0.1903069156298827  0.4555940731872496   F   F   F
  0.9999579677101877  0.1250293034055758  0.4983684633770338   F   F   F
  0.5835155251436746  0.8102180872717497  0.4554296252152170   F   F   F
  0.9998233687463625  0.3736195003016860  0.4981176619799683   F   F   F
  0.9998160439549864  0.6271882214376205  0.4976965283248731   F   F   F
  0.3335689022467108  0.1247866435131399  0.4984086756164245   F   F   F
  0.0000109952528504  0.8751430808065095  0.4995185872432870   F   F   F
  0.3333602584468665  0.8732677944064946  0.4993045288283326   F   F   F
  0.6660566927913365  0.1261225059674231  0.4991081838343945   F   F   F
  0.3359047147669258  0.6252633284444542  0.5043506755004117   F   F   F
  0.3343519748146093  0.3784375028836564  0.5029645242075773   F   F   F
  0.6655535030002255  0.3786080370820173  0.5029777034424683   F   F   F
  0.9153303074676415  0.6866967580040679  0.4529696783808532   F   F   F
  0.9157163182196228  0.4370896108838878  0.4536453795774591   F   F   F
  0.9158188570224866  0.1869264711095084  0.4532025041245262   F   F   F
  0.5828215279739197  0.9369920647964776  0.4542132481217536   F   F   F
  0.5828133629764025  0.6860697675722065  0.4546061970900439   F   F   F
  0.5827940110815604  0.4395964392615568  0.4562458471797228   F   F   F
  0.2501728742852336  0.9359070134830176  0.4540923813721633   F   F   F
  0.6654292407439613  0.6258484826148418  0.5029581300158554   F   F   F
  0.5845719134683875  0.5626915328128987  0.4549773049448191   F   F   F
  0.5833001016399209  0.0635711075667942  0.4538281531463539   F   F   F
  0.9166666865332829  0.6874999999963620  0.3605200052333331   F   F   F
  0.9166666865332829  0.4374999701794380  0.3605200052333331   F   F   F
  0.9166666865332829  0.1875000000030838  0.3605200052333331   F   F   F
  0.5833333134730552  0.9375000000154046  0.3605200052333331   F   F   F
  0.5833333134730552  0.6874999999963620  0.3605200052333331   F   F   F
  0.5833333134730552  0.4374999701794380  0.3605200052333331   F   F   F
  0.5833333134730552  0.1875000000030838  0.3605200052333331   F   F   F
  0.2499999999799343  0.9375000000154046  0.3605200052333331   F   F   F
  0.9166666865332829  0.9375000000154046  0.3605200052333331   F   F   F
  0.2499999999799343  0.6874999999963620  0.3605200052333331   F   F   F
  0.2499999999799343  0.1875000000030838  0.3605200052333331   F   F   F
  0.7499999404149307  0.9375000000154046  0.3605200052333331   F   F   F
  0.7499999404149307  0.6874999999963620  0.3605200052333331   F   F   F
  0.7499999404149307  0.4374999701794380  0.3605200052333331   F   F   F
  0.7499999404149307  0.1875000000030838  0.3605200052333331   F   F   F
  0.4166666269218169  0.9375000000154046  0.3605200052333331   F   F   F
  0.4166666269218169  0.6874999999963620  0.3605200052333331   F   F   F
  0.4166666269218169  0.4374999701794380  0.3605200052333331   F   F   F
  0.2499999999799343  0.4374999701794380  0.3605200052333331   F   F   F
  0.0833333358191695  0.0625000000159659  0.3605200052333331   F   F   F
  0.0833333358191695  0.3124999999901945  0.3605200052333331   F   F   F
  0.0833333358191695  0.5625000000092442  0.3605200052333331   F   F   F
  0.9166666865332829  0.3124999999901945  0.3605200052333331   F   F   F
  0.9166666865332829  0.0625000000159659  0.3605200052333331   F   F   F
  0.5833333134730552  0.8124999999834799  0.3605200052333331   F   F   F
  0.5833333134730552  0.5625000000092442  0.3605200052333331   F   F   F
  0.5833333134730552  0.3124999999901945  0.3605200052333331   F   F   F
  0.5833333134730552  0.0625000000159659  0.3605200052333331   F   F   F
  0.2499999999799343  0.8124999999834799  0.3605200052333331   F   F   F
  0.2499999999799343  0.5625000000092442  0.3605200052333331   F   F   F
  0.2499999999799343  0.3124999999901945  0.3605200052333331   F   F   F
  0.2499999999799343  0.0625000000159659  0.3605200052333331   F   F   F
  0.7499999404149307  0.8124999999834799  0.3605200052333331   F   F   F
  0.7499999404149307  0.5625000000092442  0.3605200052333331   F   F   F
  0.7499999404149307  0.3124999999901945  0.3605200052333331   F   F   F
  0.7499999404149307  0.0625000000159659  0.3605200052333331   F   F   F
  0.4166666269218169  0.8124999999834799  0.3605200052333331   F   F   F
  0.4166666269218169  0.5625000000092442  0.3605200052333331   F   F   F
  0.4166666269218169  0.3124999999901945  0.3605200052333331   F   F   F
  0.4166666269218169  0.0625000000159659  0.3605200052333331   F   F   F
  0.0833333358191695  0.8124999999834799  0.3605200052333331   F   F   F
  0.4166666269218169  0.1875000000030838  0.3605200052333331   F   F   F
  0.0833333358191695  0.9375000000154046  0.3605200052333331   F   F   F
  0.0833333358191695  0.6874999999963620  0.3605200052333331   F   F   F
  0.0833333358191695  0.4374999701794380  0.3605200052333331   F   F   F
  0.8333332538436267  0.4999999999932783  0.4070133268666680   F   F   F
  0.8333332538436267  0.7500000000123208  0.4070133268666680   F   F   F
  0.0837511995762270  0.0618415489425033  0.4541979677804449   F   F   F
  0.0834099604819158  0.3120166084139555  0.4539393041200270   F   F   F
  0.0839409103550182  0.5625137124017527  0.4538269368295929   F   F   F
  0.0834621966364466  0.8121373741771052  0.4541746805255187   F   F   F
  0.4171428404228834  0.0616356724986815  0.4552184169187470   F   F   F
  0.4156103491922707  0.3114908284867965  0.4571298963454709   F   F   F
  0.4160701695831932  0.5594794222022941  0.4578689407117125   F   F   F
  0.4166446086472178  0.8098496053516300  0.4551958755337608   F   F   F
  0.7495923630833161  0.0640274304926791  0.4533850649148050   F   F   F
  0.7474059858549680  0.3141070341987486  0.4546029479614120   F   F   F
  0.7481318735972309  0.5642627492303802  0.4537377268090594   F   F   F
  0.7492439201719066  0.8132352472320861  0.4530279010314615   F   F   F
  0.2500137301458167  0.0617996317476965  0.4543649380772408   F   F   F
  0.9152630194829072  0.3126428271064583  0.5466247783491482   F   F   F
  0.2523053046617960  0.3140910236548891  0.4541644870572199   F   F   F
  0.2519205371738593  0.5645712630325406  0.4538322883391928   F   F   F
  0.2501535417363741  0.8104446909056477  0.4554873603986209   F   F   F
  0.8333332538436267  0.2500000000190425  0.4070133268666680   F   F   F
  0.5843146532071586  0.3153569515692567  0.4535890262693485   F   F   F
  0.8333332538436267  0.0000000000000000  0.4070133268666680   F   F   F
  0.5000000000021103  0.4999999999932783  0.4070133268666680   F   F   F
  0.0833333358191695  0.1875000000030838  0.3605200052333331   F   F   F
  0.0000000000000000  0.0000000000000000  0.4070133268666680   F   F   F
  0.0000000000000000  0.2500000000190425  0.4070133268666680   F   F   F
  0.0000000000000000  0.4999999999932783  0.4070133268666680   F   F   F
  0.0000000000000000  0.7500000000123208  0.4070133268666680   F   F   F
  0.3333333432766779  0.0000000000000000  0.4070133268666680   F   F   F
  0.3333333432766779  0.2500000000190425  0.4070133268666680   F   F   F
  0.3333333432766779  0.4999999999932783  0.4070133268666680   F   F   F
  0.3333333432766779  0.7500000000123208  0.4070133268666680   F   F   F
  0.6666666865533486  0.0000000000000000  0.4070133268666680   F   F   F
  0.6666666865533486  0.2500000000190425  0.4070133268666680   F   F   F
  0.6666666865533486  0.4999999999932783  0.4070133268666680   F   F   F
  0.6666666865533486  0.7500000000123208  0.4070133268666680   F   F   F
  0.1666666716383389  0.0000000000000000  0.4070133268666680   F   F   F
  0.1666666716383389  0.2500000000190425  0.4070133268666680   F   F   F
  0.1666666716383389  0.4999999999932783  0.4070133268666680   F   F   F
  0.1666666716383389  0.7500000000123208  0.4070133268666680   F   F   F
  0.5000000000021103  0.0000000000000000  0.4070133268666680   F   F   F
  0.5000000000021103  0.2500000000190425  0.4070133268666680   F   F   F
  0.5000000000021103  0.7500000000123208  0.4070133268666680   F   F   F
  0.1670070621935338  0.1246337080126381  0.4995632258468348   F   F   F
  0.9176588715754335  0.0632634627036950  0.5474760504106158   F   F   F
  0.1677234888508963  0.8732589621647691  0.4999324806194494   F   F   F
  0.2520423086836416  0.1882501839942634  0.5472910902551718   F   F   F
  0.7493731155344676  0.9341005817481118  0.5476151265612899   F   F   F
  0.7518059635066905  0.6804524507134602  0.5530353097455247   F   F   F
  0.7521220699388351  0.4351158274925382  0.5490560554383634   F   F   F
  0.4230191902496188  0.4439221967724052  0.5453006582878785   F   F   F
  0.4233316628535135  0.6882314734385773  0.5464602436481840   F   F   F
  0.7484819223410710  0.1836414457490392  0.5508380592429134   F   F   F
  0.4157100073473714  0.9368442251712565  0.5461543346919484   F   F   F
  0.0835917205394665  0.9389665066416697  0.5457181539591858   F   F   F
  0.4155919594052691  0.1900753299920197  0.5470986638776623   F   F   F
  0.0865678671783812  0.6897080547371175  0.5451218241256299   F   F   F
  0.0823860109821553  0.4385760171234239  0.5449755911199503   F   F   F
  0.0833907469302346  0.1890113221643190  0.5454971382176623   F   F   F
  0.4995563542652732  0.1256542449294358  0.4993645282147057   F   F   F
  0.9995623362528008  0.5005827518128356  0.5943521008841941   F   F   F
  0.9995143855402873  0.7531764846189617  0.5922374098839356   F   F   F
  0.3349354513280147  0.2538553507270223  0.5929770850262983   F   F   F
  0.3339646098852853  0.0001052787642237  0.5920458342253596   F   F   F
  0.9997582567059382  0.9993973258054325  0.5931718348772250   F   F   F
  0.0006168815061400  0.2499743443854925  0.5918179229107139   F   F   F
  0.3331578291320199  0.4966607919488695  0.5901514000621830   F   F   F
  0.3361464711302418  0.7414271312626894  0.5905302880399574   F   F   F
  0.6636337616604280  0.2476354829041867  0.5906345227746783   F   F   F
  0.6657940403202147  0.0005119151462551  0.5917870729640313   F   F   F
  0.6658580783272967  0.7420150126262470  0.5900215351349871   F   F   F
  0.6668857392958643  0.4936564049004986  0.5916822528076295   F   F   F
  0.1674286373149698  0.9984154301944983  0.5923300100558109   F   F   F
  0.1682529853810664  0.2490159299090919  0.5928922191987667   F   F   F
  0.1707659944476916  0.7497981539418035  0.5950826595412479   F   F   F
  0.2482000465103198  0.4356938092223430  0.5488739486866763   F   F   F
  0.1654213740305650  0.5024351283673454  0.5871661585944921   F   F   F
  0.2496670203696070  0.6832124999431812  0.5521819567636044   F   F   F
  0.5809655372549969  0.1850403388161865  0.5500443341670831   F   F   F
  0.9155900496625975  0.8129954109824311  0.5468686378768481   F   F   F
  0.9167641282329200  0.5635641011200647  0.5464313314524034   F   F   F
  0.5813925198231189  0.5600543509634548  0.5493962873922484   F   F   F
  0.5861145883654402  0.8147052315232983  0.5505017606259059   F   F   F
  0.5832807112281202  0.3113790279129276  0.5450357254155946   F   F   F
  0.5824893024260476  0.0617675852843291  0.5454516600327963   F   F   F
  0.2530358731376481  0.8129178217097888  0.5513081073040169   F   F   F
  0.2521267619606604  0.5589787035178233  0.5438292811311740   F   F   F
  0.2496563356610721  0.3136828269810508  0.5459930709158769   F   F   F
  0.2508765822502994  0.0624260715499005  0.5473593845857323   F   F   F
  0.7483423129642333  0.8082523917282245  0.5456378781413562   F   F   F
  0.7464222050369997  0.5578777470268292  0.5445603211119021   F   F   F
  0.4153024798430991  0.8119623903911304  0.5482690363879854   F   F   F
  0.7482909788800356  0.0596396981332603  0.5444833270865530   F   F   F
  0.7480985005494247  0.3115019664648457  0.5479784150788518   F   F   F
  0.4160933773409852  0.3188015628033867  0.5518572740959939   F   F   F
  0.4206028997629332  0.5652200746471934  0.5553889484291332   F   F   F
  0.4170043134945303  0.0643246786105323  0.5470918754747558   F   F   F
  0.0848786983297671  0.8129674259388722  0.5473354859461850   F   F   F
  0.0824586547280504  0.5643055165646018  0.5461538322311483   F   F   F
  0.0857239642581007  0.3134888506014306  0.5469925318940057   F   F   F
  0.0823149354011719  0.0632975702943313  0.5476135273531639   F   F   F
  0.9157328478690232  0.9385996765701208  0.5463924149967312   F   F   F
  0.9132869066838154  0.6893638355706528  0.5450188140644983   F   F   F
  0.5837698686093447  0.9376955750280729  0.5461131371241876   F   F   F
  0.9168557750234854  0.1888741173238557  0.5454719041261384   F   F   F
  0.9160129204992771  0.4375457048968840  0.5457822688031300   F   F   F
  0.5766746686953468  0.4359813942905930  0.5521985956003590   F   F   F
  0.5795939892058684  0.6863114353786486  0.5472758647645648   F   F   F
  0.2516135743273864  0.9373646546706667  0.5452047136134510   F   F   F
  0.4977179354392902  0.5043783857341566  0.6089611127625858   F   F   F
  0.4994352070556474  0.2527961337234927  0.5897127602444101   F   F   F
  0.4996104412089082  0.0000188773483529  0.5910014323106196   F   F   F
  0.7532763586657651  0.6940358060752416  0.6559153189311502   F   F   F
  0.7483539732096105  0.9367950026942538  0.6398880046729403   F   F   F
  0.2529604957134239  0.1869066344367738  0.6414428186559178   F   F   F
  0.7458360727275988  0.1946046806305475  0.6468035777341257   F   F   F
  0.7554345593852148  0.4355042823024817  0.6385673816409678   F   F   F
  0.4173288579150949  0.9351363177700946  0.6395712572489032   F   F   F
  0.4213721918966868  0.6754916985851054  0.6332166352557493   F   F   F
  0.5911551658045653  0.8101267005174364  0.6461555489813762   F   F   F
  0.9157010576762872  0.0626782130678407  0.6417114663600643   F   F   F
  0.9125515783145772  0.5616293302302395  0.6418898080114133   F   F   F
  0.9150145135348282  0.3119326661238517  0.6396059920891375   F   F   F
  0.9141162745607829  0.8132434966674822  0.6414896947292235   F   F   F
  0.5823818759868047  0.0663890858755778  0.6389486419220134   F   F   F
  0.5829141411378131  0.3203879816723330  0.6338296892302893   F   F   F
  0.5918015565598296  0.5650253865169574  0.6395247847747356   F   F   F
  0.2474155666933271  0.5734362896887220  0.6284672654403280   F   F   F
  0.2619535056634561  0.7980625179172662  0.6469546029998554   F   F   F
  0.2489958565532362  0.3166703005732003  0.6407342356018120   F   F   F
  0.2510004500261402  0.0595050244663895  0.6423876137733231   F   F   F
  0.9166666865332829  0.5625000000092442  0.3605200052333331   F   F   F
  0.4996546810401767  0.3742780188273613  0.4997392825631692   F   F   F
  0.5000602432812613  0.8734253090152819  0.5008168760826379   F   F   F
  0.5005250553075129  0.6209802214815952  0.5001359038351438   F   F   F
  0.8322732065567990  0.6230024223710871  0.4999266883738329   F   F   F
  0.8328036123097604  0.8744192561555835  0.4985695682059088   F   F   F
  0.8325049446961188  0.3732132399897523  0.4996495729910606   F   F   F
  0.8328994564378362  0.1244912030245899  0.4997672520777314   F   F   F
  0.1665675670980491  0.3759074079307254  0.4977575606682834   F   F   F
  0.1677930252648281  0.6243758290342427  0.5000076166147380   F   F   F
  0.5809405888602299  0.4391020483964638  0.6469033626124485   F   F   F
  0.5801659817155738  0.6853209148800374  0.6392150802999481   F   F   F
  0.9170138763382951  0.1867065414447424  0.6407301547038458   F   F   F
  0.5817479721076069  0.9357633269404744  0.6391832553839762   F   F   F
  0.8305826898441140  0.7510430199935314  0.5927340376376762   F   F   F
  0.8315651917910074  0.2481265575571072  0.5913878132225321   F   F   F
  0.8332859205011260  0.5030375333197910  0.5887192462159376   F   F   F
  0.8321420323788118  0.0020033038536837  0.5922666189398385   F   F   F
  0.5015653678947984  0.7559576258580876  0.5930035729762011   F   F   F
  0.4178463848194198  0.0656165111900506  0.6399314194069703   F   F   F
  0.4279331577619985  0.3072328207624864  0.6519316239404276   F   F   F
  0.4138744324882424  0.8126482466960994  0.6397453384564002   F   F   F
  0.3972372387216936  0.5506173552285603  0.6519282155417656   F   F   F
  0.7531029176702546  0.5702503915583819  0.6344895201418055   F   F   F
  0.7410327500813949  0.8102500666523298  0.6399185126975055   F   F   F
  0.7468505149047147  0.3125945165665556  0.6405577097357167   F   F   F
  0.7475974696924581  0.0670417138967068  0.6390835629128304   F   F   F
  0.0837036144098633  0.3118074488560083  0.6404109569497720   F   F   F
  0.6666041925276431  0.8746546335762559  0.4989577467329624   F   F   F
  0.0874383888651735  0.5619369796877436  0.6413122192970206   F   F   F
  0.0842095614976657  0.0604602801136096  0.6422167912775407   F   F   F
  0.0866376018819111  0.4365018844753550  0.6392665158146258   F   F   F
  0.0835088642836723  0.1857319541043623  0.6409151295967632   F   F   F
  0.4208514563247405  0.1903730294438475  0.6410141079674716   F   F   F
  0.4143208082051544  0.4202318818113540  0.6295459923761086   F   F   F
  0.0841407837269017  0.9353293739209931  0.6403995156950657   F   F   F
  0.0831154264570557  0.6871015640365457  0.6395921950505610   F   F   F
  0.9125044441782535  0.4360536323872779  0.6396707031702320   F   F   F
  0.9161572985160973  0.6875152555837190  0.6394063455928105   F   F   F
  0.9144522137078255  0.9371909446950042  0.6409294184912255   F   F   F
  0.2406850245037759  0.4419685112157481  0.6412226833301986   F   F   F
  0.2559211444513565  0.6760132917505786  0.6634864834161789   F   F   F
  0.5795713233942905  0.1920993477896786  0.6456052939717267   F   F   F
  0.2520597888590643  0.9301440197810678  0.6373015341530888   F   F   F
  0.0840617569553217  0.8120316620554391  0.6418474722883829   F   F   F
  0.9166666865332829  0.8124999999834799  0.3605200052333331   F   F   F
  0.0005964136822669  0.1225973618447327  0.6199163652785842   F   F   F
  0.8333332538436267  0.6249999999803961  0.4070133268666680   F   F   F
  0.9995472742801610  0.5006809676361499  0.5069806170191811   F   F   F
  0.3310960849397446  0.4992029305560948  0.5007126261599311   F   F   F
  0.3301662549542428  0.2477813477579360  0.5027719838969560   F   F   F
  0.3330806032209281  0.0011009795333550  0.5059048780381517   F   F   F
  0.3338079370323825  0.7510536484019923  0.5015885967213976   F   F   F
  0.6659146722080749  0.0001918478802239  0.5054434021403154   F   F   F
  0.6685866683377171  0.4996367829909474  0.5006815653224450   F   F   F
  0.6669969156375828  0.2477656296895390  0.5030179747139840   F   F   F
  0.6654990217484382  0.7519572177295117  0.5022092468311570   F   F   F
  0.1659880536471974  0.0011527767531732  0.5065392753066078   F   F   F
  0.1661890664688030  0.2481986176411084  0.5061080520803216   F   F   F
  0.1632883089976076  0.4998349602520520  0.5018485499936034   F   F   F
  0.5002938387063125  0.9993118998861164  0.5053879746017245   F   F   F
  0.1643654733716389  0.7515732773921400  0.5033393019222459   F   F   F
  0.5011871144968367  0.7528276925865853  0.5037945977967198   F   F   F
  0.8341784171454165  0.0003541625683425  0.5064438539444467   F   F   F
  0.5013543220615020  0.4997327224522792  0.5002736038402773   F   F   F
  0.5009926206984474  0.2477427385690092  0.5022317595710177   F   F   F
  0.8353590029505611  0.2484333181631015  0.5032088901470075   F   F   F
  0.9997605466893162  0.7508410925192521  0.5065754346500881   F   F   F
  0.0005549564156837  0.2497834762924498  0.5058374529842027   F   F   F
  0.9999772473331845  0.0000289730209175  0.5066208256238411   F   F   F
  0.8333332538436267  0.8749999404036828  0.4070133268666680   F   F   F
  0.0000000000000000  0.6249999999803961  0.4070133268666680   F   F   F
  0.0000000000000000  0.8749999404036828  0.4070133268666680   F   F   F
  0.3333333432766779  0.1249999999871179  0.4070133268666680   F   F   F
  0.3333333432766779  0.3750000000061604  0.4070133268666680   F   F   F
  0.3333333432766779  0.6249999999803961  0.4070133268666680   F   F   F
  0.3333333432766779  0.8749999404036828  0.4070133268666680   F   F   F
  0.6666666865533486  0.1249999999871179  0.4070133268666680   F   F   F
  0.6666666865533486  0.3750000000061604  0.4070133268666680   F   F   F
  0.6666666865533486  0.6249999999803961  0.4070133268666680   F   F   F
  0.8360890045736582  0.4999200961096761  0.5027001286081116   F   F   F
  0.6666666865533486  0.8749999404036828  0.4070133268666680   F   F   F
  0.1666666716383389  0.3750000000061604  0.4070133268666680   F   F   F
  0.1666666716383389  0.6249999999803961  0.4070133268666680   F   F   F
  0.1666666716383389  0.8749999404036828  0.4070133268666680   F   F   F
  0.5000000000021103  0.1249999999871179  0.4070133268666680   F   F   F
  0.5000000000021103  0.3750000000061604  0.4070133268666680   F   F   F
  0.5000000000021103  0.6249999999803961  0.4070133268666680   F   F   F
  0.5000000000021103  0.8749999404036828  0.4070133268666680   F   F   F
  0.8333332538436267  0.1249999999871179  0.4070133268666680   F   F   F
  0.8333332538436267  0.3750000000061604  0.4070133268666680   F   F   F
  0.1666666716383389  0.1249999999871179  0.4070133268666680   F   F   F
  0.0000000000000000  0.3750000000061604  0.4070133268666680   F   F   F
  0.8358842141774261  0.7518513381879330  0.5025669719785952   F   F   F
  0.8369768875691790  0.3724311739333004  0.6040182376476935   F   F   F
  0.8320946950822261  0.8761760485994330  0.6181039101330370   F   F   F
  0.8402403992105860  0.6268424594620967  0.6028134179381084   F   F   F
  0.9990145095178349  0.8750596432236932  0.6217013850899420   F   F   F
  0.3318967527554975  0.1207421260033996  0.6154999520185598   F   F   F
  0.3341592575807582  0.6243140303697388  0.5953885822030358   F   F   F
  0.3258356046963442  0.3737094195506145  0.5924890776430090   F   F   F
  0.6708789219576730  0.3717568780199301  0.5931075930191554   F   F   F
  0.6655020119228183  0.1250654670818818  0.6118425146526079   F   F   F
  0.3346174322419770  0.8784506110602308  0.6030018083252742   F   F   F
  0.1589901694240723  0.6270972464979181  0.6012811226524448   F   F   F
  0.1660242648911279  0.8733786061259039  0.6174717344620433   F   F   F
  0.5011896550672290  0.3712045973143177  0.5946157526964058   F   F   F
  0.5004571273485254  0.1226085621838564  0.6066230348453132   F   F   F
  0.1675729511976485  0.1226596270218323  0.6216591293360807   F   F   F
  0.1630234015745629  0.3715844639689436  0.6073492661578470   F   F   F
  0.6650774063122498  0.8810581310967365  0.6069603505627796   F   F   F
  0.6663921454366957  0.6265008474482912  0.5934552931684394   F   F   F
  0.9998713153650840  0.3747136330412104  0.6227812007649405   F   F   F
  0.9995940722983150  0.6219617496167373  0.6367303029186786   F   F   F
  0.8334658453985142  0.1250558120229286  0.6193201667091941   F   F   F
  0.5005545133464508  0.8768366038308599  0.6089774293060017   F   F   F
  0.0000000000000000  0.1249999999871179  0.4070133268666680   F   F   F
  0.5041652079789287  0.6249295331164575  0.5939530163290101   F   F   F
  0.9162027373641948  0.0004117254521745  0.6038031785242808   F   F   F
  0.5845075192471043  0.7498999049626818  0.5995211077332669   F   F   F
  0.5903892998150511  0.5012321379542541  0.5937476322369690   F   F   F
  0.2422498720790713  0.4978591083935555  0.5934520029297587   F   F   F
  0.2492035346251456  0.7527051029374690  0.5922868755873765   F   F   F
  0.5841167385753536  0.2476743531224201  0.5976542183814431   F   F   F
  0.5825141388812014  0.0010468778528221  0.6041718003629200   F   F   F
  0.2498014917432627  0.9978249506003181  0.6042520079718372   F   F   F
  0.2485234342279412  0.2457274333438022  0.6033724978904829   F   F   F
  0.4170841865861377  0.0004778057741817  0.6045494629287020   F   F   F
  0.4143096310056222  0.2482736013975000  0.5913735159132116   F   F   F
  0.4164107149227689  0.7496191366819147  0.5941466916758174   F   F   F
  0.7564721527336076  0.5025531193990744  0.5947411767615378   F   F   F
  0.7518726353955643  0.7524625552312898  0.5906435746928054   F   F   F
  0.7537270921625634  0.2483589758194924  0.5941357228999919   F   F   F
  0.7494980272601524  0.0017612029225162  0.6041352941154230   F   F   F
  0.0832369987627999  0.2481541302756369  0.6035384149586278   F   F   F
  0.0813378750046780  0.5002103117501164  0.6031152342465802   F   F   F
  0.0803950700629841  0.7509570370162706  0.6032512375496069   F   F   F
  0.0835191923849834  0.9988505975252338  0.6036582475728522   F   F   F