Au O  Sr Ti H 
 1.0000000000000000
    23.6707801818999997    0.0000000000000000    0.0000000000000000
     0.0000000000000000   22.3170261383000010    0.0000000000000000
     0.0000000000000000    0.0000000000000000   30.0000000000000000
 Au  O   Sr  Ti  H  
  50 264  72  72   1
Selective dynamics
Cartesian
 17.0269264031310570 11.7785472656573198 22.5901045060117376   F   F   F
 14.7462568490301393 12.6806153643687214 21.1345560122769385   F   F   F
 17.0545042733420544  5.7755697537072104 20.7683860191367025   F   F   F
  6.9461063910557259 16.6368412192181552 20.9454460937943878   F   F   F
 12.1810473399559953 13.3961241922899639 23.2827215469945763   F   F   F
 13.6666250640522726 16.1445399108885752 23.7824672115064075   F   F   F
 13.1284649221832268  8.5733191883210367 24.7957725306854968   F   F   F
  5.6996255181852558 10.4478319814782878 21.2562920485819511   F   F   F
  6.7024633753609555 14.7265303747148995 22.9594723165756953   F   F   F
 14.3164949811548325  6.3660815105824149 23.5715016346252995   F   F   F
 12.1343252302056737 10.7816004611163851 20.3349798781334208   F   F   F
 13.3331371495848785 10.7355445404464973 22.8097338879860771   F   F   F
 10.9523595390865882 15.4571260086732050 24.8500547193333290   F   F   F
 18.1171836031861559  9.6546947498337747 21.1525079389108086   F   F   F
 17.3674739825786233 13.7515288759392114 20.7902424120477782   F   F   F
 15.0528363686897428 13.0143998936299958 23.9943004179294341   F   F   F
 14.0762309260146683 17.4998898247155523 21.3824242344140032   F   F   F
 11.4627758380965066 17.3430249508019259 22.7147755957105559   F   F   F
  8.2807238331497590 11.1597793680399651 20.9456736809103035   F   F   F
 10.0424852562780060  8.2241824552533664 24.5997307453150640   F   F   F
  8.8323387068671462  6.6324482399662239 22.6067099474923232   F   F   F
 10.7507564589144451  5.2652558000823699 20.8225240203740967   F   F   F
  9.2597198732125552 18.2355626423407777 21.1824181871299579   F   F   F
  6.8379297621650066 11.9521797930430882 23.3401830742183876   F   F   F
 13.3283256120923426  4.6753668360452973 21.4433199887469321   F   F   F
 10.6995141751233707 12.9185079769037934 21.1001051611090489   F   F   F
 14.6170104298209882  7.1937769192381218 20.8867800002044675   F   F   F
 16.7030524089123347 16.9090733648310518 20.6447842199285425   F   F   F
 15.5922629292629722  9.9375970002436755 24.3357841661378274   F   F   F
  8.6864129631365863 13.7777254251162020 24.6096972303983108   F   F   F
 13.4866153118485830 11.3717033650623840 25.6372119698050334   F   F   F
 15.9219979927311375  4.2582347314530331 22.6172833811032099   F   F   F
 11.2129170100115321 10.0147226900837207 26.3515242734256923   F   F   F
 12.2172648090193476  8.2893936340041687 21.9425085793625492   F   F   F
  6.7308941648820166  7.4890734429689996 21.0491224963514583   F   F   F
 15.8657203809010028 15.1948591635469334 22.4630051894124385   F   F   F
  9.4215852962139586  8.5222563011162542 20.6926822664829473   F   F   F
  8.9025693728356305 10.9409285278953750 24.9671442771563754   F   F   F
 10.9406908106494818 12.7563233935491969 25.8632200488174782   F   F   F
  7.7140773562809839  9.2146983195155112 23.0504183450379188   F   F   F
 11.5406877907920347  5.9433101056435795 23.3862363667384408   F   F   F
 10.0144676510708450 15.5714721670902314 20.9658502824452420   F   F   F
 16.6014834946127152  7.7453882939530132 22.7035977432197988   F   F   F
 18.3702131736055172  9.6149101379212603 23.8524423553371889   F   F   F
  6.0826428825364633 13.1999482043262439 20.8292488175368646   F   F   F
 15.4070896544427320  9.9272947691181344 20.7767748722624539   F   F   F
 13.3587328339375713 14.2497884683572149 25.8306928461447249   F   F   F
 12.8603266827894753 14.8342750994856303 21.0378195465726456   F   F   F
 10.5149526114324932 10.4758496479188263 22.6959128924389404   F   F   F
  8.8170646977642342 16.4632082504998287 23.3259084474971559   F   F   F
  5.9189568652666198  4.2057344713504108 13.6243161817337590   F   F   F
 17.7419175228279826 20.9420974507351900 13.6583857807451139   F   F   F
 17.7301473585367972 15.3698508062162844 13.7198856229484729   F   F   F
 17.7439359022028036  9.7825946044638297 13.6716247415449921   F   F   F
 17.7662161405451791  4.2340829490877496 13.6700966528276968   F   F   F
  9.8729029662823145 20.8854184525159532 13.6224939784974506   F   F   F
  9.8720898864306008 15.2771399012358451 13.6397372928306524   F   F   F
  9.8596836122609286  9.7159252396499873 13.6096776403481812   F   F   F
  2.0020513839556529 15.3301850369516046 13.5902472094964999   F   F   F
  1.9862494573308753 20.9035445715205661 13.6037759963325620   F   F   F
  1.9602382721935858  9.7484702737516375 13.5857227284461555   F   F   F
  1.9845310132789526  4.1634666096554644 13.5892714859401487   F   F   F
 21.6953611988070811 18.1232097461759629 13.6217901981585463   F   F   F
 21.6869154473018781 12.5512429207783001 13.6144407344460756   F   F   F
  5.9439187252988459  9.8018172671985262 13.6478001832574609   F   F   F
 21.6840266248994915  1.3884217431729260 13.6220440386267061   F   F   F
 21.6851838894848967  6.9676726272355705 13.6144252998894242   F   F   F
  9.8676963392444428  4.1786810282233899 13.6140299451647557   F   F   F
  5.9746218813626122 15.3389927405248976 13.6843703202120874   F   F   F
 21.6936070358951021 20.9132421366500125 13.6081523027720710   F   F   F
 13.7952446323711957  4.2470844104113299 13.6678221956174699   F   F   F
 -0.0009949370927244  2.7902822321556320 14.9510539013109511   F   F   F
 13.8122677284018422 18.0816582313671255 13.6628887564564589   F   F   F
 -0.0041809995781233  8.3380761540112758 14.9435298593989945   F   F   F
 23.6664257987953484 13.9969759314573210 14.9308958497462676   F   F   F
  7.8958361605995133  2.7848667849935098 14.9522602684926973   F   F   F
  0.0002602662132236 19.5305910091113155 14.9855576172986744   F   F   F
  7.8908973990771063 19.4887401935052686 14.9791358648500026   F   F   F
 15.7660815637471057  2.8146792623029393 14.9732455150318025   F   F   F
  7.9511266653117953 13.9540180442154078 15.1305202650124500   F   F   F
  7.9143720992208149  8.4455996435675651 15.0889357262272856   F   F   F
 15.7541706688118257  8.4494054597297907 15.0893311032741551   F   F   F
 21.6665825018975582 15.3250294974627241 13.5890903514256163   F   F   F
 21.6757196775554242  9.7545402708751165 13.6093613873238439   F   F   F
 21.6781468510182407  4.1716429416911236 13.5960751237357798   F   F   F
 13.7958402739497537 20.9108764014427422 13.6263974436525661   F   F   F
 13.7956470020883675 15.3110369356064062 13.6381859127014131   F   F   F
 13.7951889276393835  9.8104852253037897 13.6873754153916369   F   F   F
  5.9217871146798009 20.8866612829188512 13.6227714411648684   F   F   F
 15.7512292842589385 13.9670769451308807 15.0887439004755901   F   F   F
 13.8372732642228300 12.5576016455855637 13.6493191483445280   F   F   F
 13.8071684859984671  1.4187180692088381 13.6148445943905969   F   F   F
 21.6982156369999721 15.3429554700000619 10.8156001569999933   F   F   F
 21.6982156369999721  9.7636982699999884 10.8156001569999933   F   F   F
 21.6982156369999721  4.1844424010000720 10.8156001569999933   F   F   F
 13.8079546360000549 20.9222120050000342 10.8156001569999933   F   F   F
 13.8079546360000549 15.3429554700000619 10.8156001569999933   F   F   F
 13.8079546360000549  9.7636982699999884 10.8156001569999933   F   F   F
 13.8079546360000549  4.1844424010000720 10.8156001569999933   F   F   F
  5.9176950450000287 20.9222120050000342 10.8156001569999933   F   F   F
 21.6982156369999721 20.9222120050000342 10.8156001569999933   F   F   F
  5.9176950450000287 15.3429554700000619 10.8156001569999933   F   F   F
  5.9176950450000287  4.1844424010000720 10.8156001569999933   F   F   F
 17.7530837259999217 20.9222120050000342 10.8156001569999933   F   F   F
 17.7530837259999217 15.3429554700000619 10.8156001569999933   F   F   F
 17.7530837259999217  9.7636982699999884 10.8156001569999933   F   F   F
 17.7530837259999217  4.1844424010000720 10.8156001569999933   F   F   F
  9.8628241350000643 20.9222120050000342 10.8156001569999933   F   F   F
  9.8628241350000643 15.3429554700000619 10.8156001569999933   F   F   F
  9.8628241350000643  9.7636982699999884 10.8156001569999933   F   F   F
  5.9176950450000287  9.7636982699999884 10.8156001569999933   F   F   F
  1.9725650740000149  1.3948141340000613 10.8156001569999933   F   F   F
  1.9725650740000149  6.9740706679999214 10.8156001569999933   F   F   F
  1.9725650740000149 12.5533272030000536 10.8156001569999933   F   F   F
 21.6982156369999721  6.9740706679999214 10.8156001569999933   F   F   F
 21.6982156369999721  1.3948141340000613 10.8156001569999933   F   F   F
 13.8079546360000549 18.1325837370000720 10.8156001569999933   F   F   F
 13.8079546360000549 12.5533272030000536 10.8156001569999933   F   F   F
 13.8079546360000549  6.9740706679999214 10.8156001569999933   F   F   F
 13.8079546360000549  1.3948141340000613 10.8156001569999933   F   F   F
  5.9176950450000287 18.1325837370000720 10.8156001569999933   F   F   F
  5.9176950450000287 12.5533272030000536 10.8156001569999933   F   F   F
  5.9176950450000287  6.9740706679999214 10.8156001569999933   F   F   F
  5.9176950450000287  1.3948141340000613 10.8156001569999933   F   F   F
 17.7530837259999217 18.1325837370000720 10.8156001569999933   F   F   F
 17.7530837259999217 12.5533272030000536 10.8156001569999933   F   F   F
 17.7530837259999217  6.9740706679999214 10.8156001569999933   F   F   F
 17.7530837259999217  1.3948141340000613 10.8156001569999933   F   F   F
  9.8628241350000643 18.1325837370000720 10.8156001569999933   F   F   F
  9.8628241350000643 12.5533272030000536 10.8156001569999933   F   F   F
  9.8628241350000643  6.9740706679999214 10.8156001569999933   F   F   F
  9.8628241350000643  1.3948141340000613 10.8156001569999933   F   F   F
  1.9725650740000149 18.1325837370000720 10.8156001569999933   F   F   F
  9.8628241350000643  4.1844424010000720 10.8156001569999933   F   F   F
  1.9725650740000149 20.9222120050000342 10.8156001569999933   F   F   F
  1.9725650740000149 15.3429554700000619 10.8156001569999933   F   F   F
  1.9725650740000149  9.7636982699999884 10.8156001569999933   F   F   F
 19.7256482699999580 11.1585130689999925 12.2103998060000407   F   F   F
 19.7256482699999580 16.7377696039999648 12.2103998060000407   F   F   F
  1.9824562351393269  1.3801194641827894 13.6259390334132959   F   F   F
  1.9743788395484325  6.9632828055579745 13.6181791236007825   F   F   F
  1.9869468372822259 12.5536332228221283 13.6148081048878709   F   F   F
  1.9756153100798126 18.1244910074007599 13.6252404157655587   F   F   F
  9.8740964801035265  1.3755249142047870 13.6565525075624734   F   F   F
  9.8378212170529640  6.9515489611805350 13.7138968903640794   F   F   F
  9.8487055244496275 12.4859168891296424 13.7360682213514469   F   F   F
  9.8623029452619857 18.0734348107242653 13.6558762660127861   F   F   F
 17.7434360525761541  1.4289018398733528 13.6015519474441540   F   F   F
 17.6916827978092037  7.0099348924373270 13.6380884388423631   F   F   F
 17.7088651269929755 12.5926665234433894 13.6121318042717405   F   F   F
 17.7351881370142017 18.1489922690653849 13.5908370309439022   F   F   F
  5.9180200487385708  1.3791839970506663 13.6309481423172372   F   F   F
 21.6649897428019003  6.9772581444867647 16.3987433504745326   F   F   F
  5.9722634053766237  7.0095775847115087 13.6249346117165402   F   F   F
  5.9631556587485504 12.5995516340302327 13.6149686501758449   F   F   F
  5.9213294981653899 18.0867153505878022 13.6646208119585939   F   F   F
 19.7256482699999580  5.5792565349999723 12.2103998060000407   F   F   F
 13.8311837131297981  7.0378293310657201 13.6076707880804033   F   F   F
 19.7256482699999580  0.0000000000000000 12.2103998060000407   F   F   F
 11.8353900909999528 11.1585130689999925 12.2103998060000407   F   F   F
  1.9725650740000149  4.1844424010000720 10.8156001569999933   F   F   F
  0.0000000000000000  0.0000000000000000 12.2103998060000407   F   F   F
  0.0000000000000000  5.5792565349999723 12.2103998060000407   F   F   F
  0.0000000000000000 11.1585130689999925 12.2103998060000407   F   F   F
  0.0000000000000000 16.7377696039999648 12.2103998060000407   F   F   F
  7.8902602960000570  0.0000000000000000 12.2103998060000407   F   F   F
  7.8902602960000570  5.5792565349999723 12.2103998060000407   F   F   F
  7.8902602960000570 11.1585130689999925 12.2103998060000407   F   F   F
  7.8902602960000570 16.7377696039999648 12.2103998060000407   F   F   F
 15.7805205919999434  0.0000000000000000 12.2103998060000407   F   F   F
 15.7805205919999434  5.5792565349999723 12.2103998060000407   F   F   F
 15.7805205919999434 11.1585130689999925 12.2103998060000407   F   F   F
 15.7805205919999434 16.7377696039999648 12.2103998060000407   F   F   F
  3.9451301480000271  0.0000000000000000 12.2103998060000407   F   F   F
  3.9451301480000271  5.5792565349999723 12.2103998060000407   F   F   F
  3.9451301480000271 11.1585130689999925 12.2103998060000407   F   F   F
  3.9451301480000271 16.7377696039999648 12.2103998060000407   F   F   F
 11.8353900909999528  0.0000000000000000 12.2103998060000407   F   F   F
 11.8353900909999528  5.5792565349999723 12.2103998060000407   F   F   F
 11.8353900909999528 16.7377696039999648 12.2103998060000407   F   F   F
  3.9531874580080171  2.7814537194312701 14.9868967754049809   F   F   F
 21.7217014310324998  1.4118523507576572 16.4242815123185011   F   F   F
  3.9701458359309290 19.4885430841358094 14.9979744185834640   F   F   F
  5.9660380853890729  4.2011842767398235 16.4187327076552414   F   F   F
 17.7382462920419570 20.8463470986738457 16.4284537968387134   F   F   F
 17.7958337016083306 15.1856751284426625 16.5910592923657774   F   F   F
 17.8033161874777122  9.7104912953390343 16.4716816631508998   F   F   F
 10.0131942651240049  9.9070232687413231 16.3590197486363031   F   F   F
 10.0205907354436619 15.3592797819294375 16.3938073094456058   F   F   F
 17.7171510538614818  4.0983309448564693 16.5251417772873133   F   F   F
  9.8401802033356223 20.9075770606623159 16.3846300407585268   F   F   F
  1.9786812419165412 20.9549400717103751 16.3715446187755020   F   F   F
  9.8373859164473085  4.2419161076779259 16.4129599163297861   F   F   F
  2.0491289547954601 15.3922326853642666 16.3536547237688090   F   F   F
  1.9501411560221951  9.7877124377748910 16.3492677335984382   F   F   F
  1.9739240397899622  4.2181706171757165 16.3649141465298342   F   F   F
 11.8248886502847164  2.8042290684785245 14.9809358464412590   F   F   F
 23.6604203395463912 11.1715183565892051 17.8305630265258479   F   F   F
 23.6592853087709543 16.8086592939942570 17.7671222965180782   F   F   F
  7.9281834435108767  5.6652964975223048 17.7893125507889600   F   F   F
  7.9052028691285550  0.0023495089329659 17.7613750267608026   F   F   F
 23.6650579295258154 22.3035762425469954 17.7951550463167365   F   F   F
  0.0146020665300720  5.5786839775554915 17.7545376873213243   F   F   F
  7.8861057392629883 11.0839918757916287 17.7045420018655584   F   F   F
  7.9568492270453284 16.5464486680341558 17.7159086411987587   F   F   F
 15.7087288935513616  5.5264875447432154 17.7190356832403957   F   F   F
 15.7598643748388554  0.0114244236996024 17.7536121889209255   F   F   F
 15.7613802044277840 16.5595684317910212 17.7006460540497201   F   F   F
 15.7857057413162938 11.0169428915036054 17.7504675842289075   F   F   F
  3.9631664700377569 22.2816632525326028 17.7699003016743440   F   F   F
  3.9826794319035739  5.5572950166342965 17.7867665759630000   F   F   F
  4.0421643171147972 16.7332649999683802 17.8524797862374953   F   F   F
  5.8750887420832187  9.7233901287104985 16.4662184606002846   F   F   F
  3.9156529820653199 11.2128578925741476 17.6149847578348400   F   F   F
  5.9098131578389257 15.2472712192452491 16.5654587029081561   F   F   F
 13.7519075256224479  4.1295500780007828 16.5013300250125816   F   F   F
 21.6727308022982896 18.1436398372128167 16.4060591363054264   F   F   F
 21.7005221580525891 12.5770747753040855 16.3929399435721308   F   F   F
 13.7620145361339379 12.4987475893200504 16.4818886217674780   F   F   F
 13.8737895826031288 18.1817979469151325 16.5150528187771570   F   F   F
 13.8067094998231550  6.9490539048512785 16.3510717624677717   F   F   F
 13.7879762360352913  1.3784688152900759 16.3635498009838471   F   F   F
  5.9895565311763255 18.1419082753871805 16.5392432191205927   F   F   F
  5.9680371603450233 12.4747423371603361 16.3148784339351245   F   F   F
  5.9095602424519296  7.0004678488719563 16.3797921274762750   F   F   F
  5.9384444312332638  1.3931642704905245 16.4207815375720436   F   F   F
 17.7138463909909021 18.0377897525422419 16.3691363442406050   F   F   F
 17.6683959383198506 12.4501722623737034 16.3368096333569959   F   F   F
  9.8305337093639533 18.1205858896753362 16.4480710916396689   F   F   F
 17.7126312731681779  1.3309807021202518 16.3344998125965510   F   F   F
 17.7080751609145040  6.9517975277277992 16.4393524523654797   F   F   F
  9.8492548701827598  7.1147028100140499 16.5557182228797366   F   F   F
  9.9559987841580639 12.6140311797933649 16.6616684528739611   F   F   F
  9.8708174396330843  1.4355355338890186 16.4127562642425993   F   F   F
  2.0091450102897528 18.1430152942642842 16.4200645783855741   F   F   F
  1.9518606901628535 12.5936209631591201 16.3846149669344250   F   F   F
  2.0291531142744854  6.9961388729378067 16.4097759568202655   F   F   F
  1.9484587415683583  1.4126135307495045 16.4284058205950139   F   F   F
 21.6761109472529228 20.9467535154153950 16.3917724499019535   F   F   F
 21.6182136111200762 15.3845507372289987 16.3505644219350259   F   F   F
 13.8182882366685149 20.9265766576697061 16.3833941137256005   F   F   F
 21.7026915090864279  4.2151086131648707 16.3641571237841994   F   F   F
 21.6827404849186784  9.7647189328846444 16.3734680640938599   F   F   F
 13.6503393191576095  9.7298081721955878 16.5659578680108091   F   F   F
 13.7194419132426013 15.3164302423595142 16.4182759429368694   F   F   F
  5.9558896086857178 20.9191914994037731 16.3561414084035022   F   F   F
 11.7813718423724794 11.2562256180226790 18.2688333828774709   F   F   F
 11.8220210013160134  5.6416579239683378 17.6913828073322961   F   F   F
 11.8261689304381115  0.0004212862765621 17.7300429693185748   F   F   F
 17.8306391021993633 15.4888152250972162 19.6774595679345374   F   F   F
 17.7141223980961939 20.9064785613565398 19.1966401401881583   F   F   F
  5.9877722887368838  4.1712002461472402 19.2432845596774946   F   F   F
 17.6545217292665093  4.3429977442673859 19.4041073320237416   F   F   F
 17.8817253970178207  9.7191604514861467 19.1570214492291377   F   F   F
  9.8784996592716716 20.8694616465488494 19.1871377174671771   F   F   F
  9.9742085291518219 15.0749658935284128 18.9964990576723807   F   F   F
 13.9931039831545725 18.0796187507823483 19.3846664694412780   F   F   F
 21.6753584485887600  1.3987913193369330 19.2513439908019457   F   F   F
 21.6008078149302563 12.5338964427841866 19.2566942403424264   F   F   F
 21.6591074131310037  6.9614094632756709 19.1881797626741033   F   F   F
 21.6378453958255577 18.1491763719306718 19.2446908418766860   F   F   F
 13.7854333684062045  1.4816069647831669 19.1684592576603769   F   F   F
 13.7980324997941750  7.1501069613786656 19.0148906769086388   F   F   F
 14.0084045566340691 12.6096863197020106 19.1857435432421362   F   F   F
  5.8565194927779221 12.7973926656330033 18.8540179632097846   F   F   F
  6.2006438504377597 17.8103820723571395 19.4086380899956730   F   F   F
  5.8939261866754951  7.0671393751153948 19.2220270680542633   F   F   F
  5.9413764781266813  1.3279751863766356 19.2716284131996929   F   F   F
 21.6982156369999721 12.5533272030000536 10.8156001569999933   F   F   F
 11.8272161217593919  8.3527723291613860 14.9921784768950115   F   F   F
 11.8368160964180973 19.4922554511467432 15.0245062824791518   F   F   F
 11.8478185597174726 13.8584318341720376 15.0040771150543311   F   F   F
 19.7005561236910829 13.9035613442798134 14.9978006512149840   F   F   F
 19.7131112416765433 19.5144373954569481 14.9570870461771683   F   F   F
 19.7060415462465954  8.3290096320108553 14.9894871897317490   F   F   F
 19.7153799469639566  2.7782734318881714 14.9930175623319251   F   F   F
  3.9427842662117945  8.3891354483705278 14.9327268200486074   F   F   F
  3.9717918170998074 13.9342116966799274 15.0002284984420839   F   F   F
 13.7513169776541169  9.7994518914450079 19.4071008783735373   F   F   F
 13.7329814222054800 15.2943247705015146 19.1764524089985464   F   F   F
 21.7064338905558927  4.1667347656138523 19.2219046411154366   F   F   F
 13.7704283690253089 20.8834546265930641 19.1754976615191950   F   F   F
 19.6605402741912698 16.7610467081833505 17.7820211291302179   F   F   F
 19.6837968618045025  5.5374468706083633 17.7416343966758916   F   F   F
 19.7245278528542940 11.2263017796436806 17.6615773864780294   F   F   F
 19.6974511285583489  0.0447077844655739 17.7679985681952601   F   F   F
 11.8724435702916082 16.8707260957220768 17.7901071892860614   F   F   F
  9.8907499248621367  1.4643653953323512 19.1979425822090199   F   F   F
 10.1295117099305276  6.8565228914999858 19.5579487182128737   F   F   F
  9.7967307143377536 18.1358921627605127 19.1923601536920145   F   F   F
  9.4029153578461848 12.2881419088373960 19.5578464662528901   F   F   F
 17.8265336185201342 12.7262928937842030 19.0346856042541113   F   F   F
 17.5408233347655340 18.0823719160394170 19.1975553809251949   F   F   F
 17.6785343670482646  6.9761799969049978 19.2167312920714295   F   F   F
 17.6962153696347535  1.4961716813892272 19.1725068873848556   F   F   F
  1.9813298571264721  6.9586149862362143 19.2123287084932315   F   F   F
 15.7790413096547706 19.5196903195064522 14.9687324019889161   F   F   F
  2.0697348822870074 12.5407622637686593 19.2393665789106230   F   F   F
  1.9933060194255174  1.3492936516243854 19.2665037383262394   F   F   F
  2.0507796296336904  9.7414239652537429 19.1779954744387133   F   F   F
  1.9767199696988678  4.1449848744645923 19.2274538879028185   F   F   F
  9.9618823118953497  4.2485598741257204 19.2304232390240983   F   F   F
  9.8072967758113574  9.3783258905309790 18.8863797712832557   F   F   F
  1.9916779959322053 20.8737700857146002 19.2119854708520812   F   F   F
  1.9674069893898316 15.3340635642704211 19.1877658515168328   F   F   F
 21.5996921131502368  9.7314203116876126 19.1901210951068997   F   F   F
 21.6861580252178143 15.3432959293417923 19.1821903677842514   F   F   F
 21.6457973375297748 20.9153148093365324 19.2278825547366878   F   F   F
  5.6972023081040595  9.8634228171073381 19.2366804999059866   F   F   F
  6.0578531542082654 15.0866063018358201 19.9045945024854767   F   F   F
 13.7189053957991298  4.2870861657726289 19.3681588191518124   F   F   F
  5.9664518547789918 20.7580484018375842 19.1190460245926985   F   F   F
  1.9898073705936974 18.1221318272184817 19.2554241686514445   F   F   F
 21.6982156369999721 18.1325837370000720 10.8156001569999933   F   F   F
  0.0141175771704244  2.7360085287754736 18.5974909583574259   F   F   F
 19.7256482699999580 13.9481413360000008 12.2103998060000407   F   F   F
 23.6600638109029191 11.1737102416853666 15.2094185105754587   F   F   F
  7.8373026456963046 11.1407248495363547 15.0213787847979248   F   F   F
  7.8152928445030971  5.5297428144970109 15.0831595169086796   F   F   F
  7.8842777416972236  0.0245705890236079 15.1771463411444589   F   F   F
  7.9014943004670357 16.7612839026528917 15.0476579016418839   F   F   F
 15.7627198257393601  0.0042814741576123 15.1633020642093879   F   F   F
 15.8259680587710445 11.1504071456651559 15.0204469596732633   F   F   F
 15.7883373720624469  5.5293920339538740 15.0905392414196236   F   F   F
 15.7528810550768394 16.7814488829528301 15.0662774049347288   F   F   F
  3.9290667307042724  0.0257265489322422 15.1961782591982644   F   F   F
  3.9338248610182656  5.5390550373865395 15.1832415624097354   F   F   F
  3.8651616685565644 11.1548298727811801 15.0554564998081748   F   F   F
 11.8423454823760093 22.3016697900727010 15.1616392380516380   F   F   F
  3.8906589896739336 16.7728804764081758 15.1001790576674058   F   F   F
 11.8634900172553657 16.8008752930908329 15.1138379339015856   F   F   F
 19.7456539447343928  0.0079038552948312 15.1933156183334575   F   F   F
 11.8674479507633812 11.1525482291312912 15.0082081152083351   F   F   F
 11.8588861973069584  5.5288811722185534 15.0669527871305124   F   F   F
 19.7735993318139336  5.5442928550704789 15.0962667044101995   F   F   F
 23.6651121352189122 16.7565402874618385 15.1972630395025536   F   F   F
  0.0131362513261816  5.5744243693340501 15.1751235895260042   F   F   F
 -0.0005385733748033  0.0006465916651548 15.1986247687153107   F   F   F
 19.7256482699999580 19.5273965409999306 12.2103998060000407   F   F   F
  0.0000000000000000 13.9481413360000008 12.2103998060000407   F   F   F
  0.0000000000000000 19.5273965409999306 12.2103998060000407   F   F   F
  7.8902602960000570  2.7896282670000101 12.2103998060000407   F   F   F
  7.8902602960000570  8.3688848019999824 12.2103998060000407   F   F   F
  7.8902602960000570 13.9481413360000008 12.2103998060000407   F   F   F
  7.8902602960000570 19.5273965409999306 12.2103998060000407   F   F   F
 15.7805205919999434  2.7896282670000101 12.2103998060000407   F   F   F
 15.7805205919999434  8.3688848019999824 12.2103998060000407   F   F   F
 15.7805205919999434 13.9481413360000008 12.2103998060000407   F   F   F
 19.7908790397666721 11.1567298519411029 15.0810038582433119   F   F   F
 15.7805205919999434 19.5273965409999306 12.2103998060000407   F   F   F
  3.9451301480000271  8.3688848019999824 12.2103998060000407   F   F   F
  3.9451301480000271 13.9481413360000008 12.2103998060000407   F   F   F
  3.9451301480000271 19.5273965409999306 12.2103998060000407   F   F   F
 11.8353900909999528  2.7896282670000101 12.2103998060000407   F   F   F
 11.8353900909999528  8.3688848019999824 12.2103998060000407   F   F   F
 11.8353900909999528 13.9481413360000008 12.2103998060000407   F   F   F
 11.8353900909999528 19.5273965409999306 12.2103998060000407   F   F   F
 19.7256482699999580  2.7896282670000101 12.2103998060000407   F   F   F
 19.7256482699999580  8.3688848019999824 12.2103998060000407   F   F   F
  3.9451301480000271  2.7896282670000101 12.2103998060000407   F   F   F
  0.0000000000000000  8.3688848019999824 12.2103998060000407   F   F   F
 19.7860314913140911 16.7790859664559093 15.0770091593577931   F   F   F
 19.8118959229808382  8.3115562433871872 18.1205471294308964   F   F   F
 19.6963306178164927 19.5536437783459469 18.5431173039911883   F   F   F
 19.8891457896656121 13.9892595524118466 18.0844025381433049   F   F   F
 23.6474528533252659 19.5287289303945890 18.6510415526982172   F   F   F
  7.8562550775617499  2.6946051820117409 18.4649985605568219   F   F   F
  7.9098103319410811 13.9328325342688242 17.8616574660911382   F   F   F
  7.7127829742036411  8.3400828842400294 17.7746723292903397   F   F   F
 15.8802274903300535  8.2965079638635668 17.7932277905745693   F   F   F
 15.7529518348372282  2.7910892978650499 18.3552754395783424   F   F   F
  7.9206556836315896 19.6044052482367803 18.0900542497581434   F   F   F
  3.7634213515202966 13.9949456413500712 18.0384336795733056   F   F   F
  3.9299238790993480 19.4912131815438627 18.5241520338612204   F   F   F
 11.8635501545386717  8.2841827009208107 17.8384725808920770   F   F   F
 11.8462106519320258  2.7362584870365243 18.1986910453594035   F   F   F
  3.9665824922318436  2.7373981023603831 18.6497738800824848   F   F   F
  3.8588911031771289  8.2926601949811545 18.2204779847353571   F   F   F
 15.7429010887654766 19.6625973410476540 18.2088105168833181   F   F   F
 15.7740219895768234 13.9816357881705411 17.8036587950531491   F   F   F
 -0.0030460657058468  8.3624939429579879 18.6834360229482215   F   F   F
 23.6611715565036818 13.8803366232194936 19.1019090875603190   F   F   F
 19.7287868155497179  2.7908738256619885 18.5796050012757945   F   F   F
 11.8485158544817040 19.5683854067115099 18.2693228791800806   F   F   F
  0.0000000000000000  2.7896282670000101 12.2103998060000407   F   F   F
 11.9339838134311442 13.9465687251556183 17.8185904898701999   F   F   F
 21.6872335982028446  0.0091884876779438 18.1140953557284234   F   F   F
 13.8357490027658550 16.7355357801608129 17.9856332319980723   F   F   F
 13.9749753376679759 11.1860107240811466 17.8124289671090494   F   F   F
  5.7342434710771739 11.1107347352097445 17.8035600878927589   F   F   F
  5.8988420886642752 16.7981394566872595 17.7686062676213297   F   F   F
 13.8264989193856191  5.5273550124195205 17.9296265514432953   F   F   F
 13.7885641343057674  0.0233632004051163 18.1251540108876554   F   F   F
  5.9129962001655390 22.2684855039952581 18.1275602391551018   F   F   F
  5.8827435816605167  5.4839055528309313 18.1011749367145214   F   F   F
  9.8727080980270685  0.0106632039514303 18.1364838878610328   F   F   F
  9.8070322027782169  5.5407284518378992 17.7412054773964485   F   F   F
  9.8567664983247525 16.7292698671001716 17.8244007502744175   F   F   F
 17.9062860410859912 11.2154911015132814 17.8422353028461735   F   F   F
 17.7974118772342997 16.7927265131886436 17.7193072407840830   F   F   F
 17.8413083157226637  5.5426337550449656 17.8240716869997300   F   F   F
 17.7412030500428095  0.0393048116565774 18.1240588234626223   F   F   F
  1.9702847007152642  5.5380622116884481 18.1061524487589161   F   F   F
  1.9253309596986576 11.1632066019746130 18.0934570273973705   F   F   F
  1.9030140311692962 16.7591278238324435 18.0975371264883087   F   F   F
  1.9769644439146827 22.2913748932272320 18.1097474271855425   F   F   F