 C  H                                   
   1.00000000000000     
    23.6707801818999997    0.0000000000000000    0.0000000000000000
     0.0000000000000000   22.3170261383000010    0.0000000000000000
     0.0000000000000000    0.0000000000000000   30.0000000000000000
   C    H 
     2     6
Direct
  0.5000000000000000  0.4999995774054761  0.5254785877188024
  0.5000000000000000  0.5000004225945238  0.4745214122811977
  0.5000000000000000  0.5456522190154870  0.5385872547280158
  0.4627256588822687  0.4771739549636813  0.5385870568300718
  0.5372743411177313  0.4771739549636813  0.5385870568300718
  0.5000000000000000  0.4543477809845130  0.4614127452719842
  0.4627256588822687  0.5228260450363187  0.4614129431699282
  0.5372743411177313  0.5228260450363187  0.4614129431699282
 
  0.00000000E+00  0.00000000E+00  0.00000000E+00
  0.00000000E+00  0.00000000E+00  0.00000000E+00
  0.00000000E+00  0.00000000E+00  0.00000000E+00
  0.00000000E+00  0.00000000E+00  0.00000000E+00
  0.00000000E+00  0.00000000E+00  0.00000000E+00
  0.00000000E+00  0.00000000E+00  0.00000000E+00
  0.00000000E+00  0.00000000E+00  0.00000000E+00
  0.00000000E+00  0.00000000E+00  0.00000000E+00
