Au  C  H  O Sr Ti 
 1.0000000000000000
    23.6707801818999997    0.0000000000000000    0.0000000000000000
     0.0000000000000000   22.3170261383000010    0.0000000000000000
     0.0000000000000000    0.0000000000000000   30.0000000000000000
 Au  C   H   O   Sr  Ti 
  50   3   7 265  72  72
Selective dynamics
Cartesian
 16.9397610713841935 11.6845225674027731 22.5621727526803930   F   F   F
 15.5068894608185115  9.8162524528320567 24.3613681999355229   F   F   F
  8.7400259884823228 13.8092272588651301 24.6210930987801540   F   F   F
 13.5005796068177304 11.3579708131208239 25.6824074092585271   F   F   F
 15.6954303921804517  4.1737220799934471 22.4217583782108036   T   T   T
 11.1606730298035135 10.0345420015985241 26.3273484286238322   F   F   F
 12.2443426051356763  8.4166250896359074 21.9526918070131423   F   F   F
  6.6576835137977595  7.6018065685239220 21.0691904940527728   F   F   F
 10.7023954894457383 12.9324792254614707 21.0835744831989622   F   F   F
  9.4085689011987199  8.5161623204955728 20.7143427107612581   F   F   F
 14.6909402971132828 12.7429540100244623 21.1207134780242782   F   F   F
  7.6853299454282693  9.2642536386600884 23.0854006854771683   F   F   F
 10.9686989337625178 12.7777146399180754 25.9337445503387194   F   F   F
  8.8947684850855797 16.5364491864368262 23.3929265947276512   F   F   F
 15.3400245490557356  9.9316962354742486 20.8364792120867222   F   F   F
 15.8476380952560394 15.2010283494836553 22.4607266595048785   F   F   F
 16.5453103081690003  7.6544220891622787 22.7113100214610526   F   F   F
 18.3006011626574079  9.5317888140847540 23.8145173995519563   F   F   F
 10.4970224815320528 10.5593942447074198 22.6894527306282541   F   F   F
 13.3784818047909688 14.2579343298464565 25.8219907423871682   F   F   F
 12.7731952946635747 14.9076959608362447 21.0545728149064750   F   F   F
  8.8826798895145185 11.0056812715933390 24.9872670433051560   F   F   F
  6.0907427052082914 13.2324909258556360 20.8255588379850458   F   F   F
 14.5782108288488015  7.1456471151500915 20.8738651081929873   F   F   F
 13.0629330475530772  4.7541392940359186 21.2937959915916970   F   F   F
  9.8160745042103006 15.5098792465787039 21.0003320497266692   F   F   F
  9.2989126199951730 18.2378477263861782 21.2004316465603004   F   F   F
 17.0271045501008835  5.7157158269028638 20.7353234697573932   F   F   F
  6.9879123528360410 16.6596140193178002 20.8693831104710874   F   F   F
 12.1141809323020038 13.4679764244652667 23.3051353386057087   F   F   F
 13.7027158735597698 16.1954372603497596 23.8211921909621260   F   F   F
  5.6886671413021279 10.4786625852461821 21.2751589424907870   F   F   F
  6.8368536865592073 14.7818352423968093 22.8925382239032018   F   F   F
 14.1994107464653894  6.3755776052747821 23.5210307124091216   F   F   F
 12.1727616032566033 10.8146317802452803 20.3332412729584036   F   F   F
 16.7273278577980022 16.8899961054701251 20.6497092526901049   F   F   F
  6.8557056013741011 12.0175632731848410 23.3189877802884382   F   F   F
 18.0611910931654016  9.5687534989990954 21.1170141785616217   F   F   F
 11.4491168501387914  6.0415797957503754 23.2453292725903609   F   F   F
 10.9955479807584418 15.5144536051305675 24.9286267445734850   F   F   F
 12.9570361191617867  8.5299729954651404 24.8045954387533598   F   F   F
 11.5220776037519599 17.3213528525690919 22.6426141898836306   F   F   F
 13.3152182753660036 10.8414738880886876 22.8644687878265742   F   F   F
 15.0378565535145849 13.0225605758097185 23.9862407168905669   F   F   F
 14.1270360036558191 17.5083113969209805 21.3882461688606362   F   F   F
 17.3398164895740905 13.7126645802792702 20.8190610758869994   F   F   F
 10.1001956555479868  8.2782223199011149 24.4786065508525965   F   F   F
  8.2692045190774515 11.1476117819012064 20.9310286264317220   F   F   F
  8.7245305903836101  6.6638208880716387 22.6665923311053419   F   F   F
 10.3153047747407847  5.0753630848996210 20.9363146664818416   F   F   F
 15.3086660190448125  1.1356925990700821 23.8065835015880118   T   T   T
 17.1017350170272842  2.5068785783423904 22.5343303371479990   T   T   T
 16.2749198957707009  1.2375814261476841 22.6178084717086278   T   T   T
 17.6444952920562201  2.6312156405053990 21.5977801714113156   T   T   T
 17.5601352200239660  2.4532673538079925 24.4146045902086826   T   T   T
 17.0171608470906648  0.4249443060240695 22.6645989754352613   T   T   T
 15.7405517681067906  1.1006657284638781 21.6741338627895530   T   T   T
 14.9256649253005786  0.1165095134404378 23.8885622694391593   T   T   T
 15.7823081610651528  1.3746256325813595 24.7669126035050837   T   T   T
 14.4508286368455767  1.8022346654969597 23.6790116440864971   T   T   T
 21.6447521799392710 15.3743594307834588 16.3652962029537612   F   F   F
 21.6736674377390166 20.9450029656476211 16.3934012104374567   F   F   F
  1.9496538128266137  1.4105071302685512 16.4283989552679621   F   F   F
  2.0524700515000278  6.9964261874428724 16.4157739863521428   F   F   F
  2.0096477960417762 18.1422984212298566 16.4192074475261869   F   F   F
  9.8591732412175173  1.4560178235986021 16.4187881718467779   F   F   F
 21.6735786552633236  9.7649807583531913 16.3688704277947110   F   F   F
  9.7609874652710502 18.1407161466329185 19.1837605492106853   F   F   F
  9.8432303053865464  7.1293616066018144 16.5726002733386366   F   F   F
  5.9734182331793972 12.4756463957719372 16.3108536988934461   F   F   F
 13.7568161707422032 12.5030943129750227 16.4654047151318572   F   F   F
 13.8207556446938682 20.9303220221111879 16.3834621176521651   F   F   F
 17.7256362733588908  4.1134087018799086 16.5191166793778592   F   F   F
 13.6494641200025004  9.7345005315226008 16.5524796818786584   F   F   F
  5.9538047209108020 20.9173961067099938 16.3577549332974890   F   F   F
 21.7297038647857761 12.5832648253140853 16.4133836609652128   F   F   F
  9.9393726509857938 12.6066758928764173 16.6601676418033442   F   F   F
 21.6707034812592774 18.1388955577190458 16.4048250688968693   F   F   F
  1.9785034478191379 20.9545833748619188 16.3721168432089961   F   F   F
  5.8920441052610952 15.2491408283577314 16.5536579623126592   F   F   F
 17.7378102912881772 20.8438376173225777 16.4313291836387663   F   F   F
 17.7963791823026831 15.1840868626383010 16.5961035462578259   F   F   F
 17.8003291650790203  9.7224525552193608 16.4616753715592594   F   F   F
 10.0157820095025105  9.9003258568301256 16.3750448656541998   F   F   F
 10.0105919599020545 15.3484055319431203 16.4057577006250206   F   F   F
 21.6998900163362265  4.2158377547363912 16.3658077255547383   F   F   F
 17.7013752573639671  6.9663678701502443 16.4578061969481126   F   F   F
 13.7176501040070047 15.3142844732778940 16.4219925677260612   F   F   F
 11.7753283376893059 11.2558586314313551 18.2659444588915676   F   F   F
 15.7511409606267261 13.9727294475326591 15.0891706890553703   F   F   F
 23.6673827966545289 16.8097882126930358 17.7723080410216205   F   F   F
  9.8489319766584078 20.9148807522507845 16.3838826387395677   F   F   F
 23.6681365984002774 11.1340763400554721 17.8168903554749889   F   F   F
 13.7469853561271709  4.1456092318877307 16.4842154668744492   F   F   F
 17.5440083474508484 18.0735161329957812 19.1991798781343554   F   F   F
  7.9073474196418569 22.3138485769395061 17.7601639747264421   F   F   F
 23.6660342247497368 22.2982966686328936 17.7974817209884293   F   F   F
  0.0272170150121873  5.5657252411187388 17.7684055247347104   F   F   F
  7.8868489345647941 11.0745656171462539 17.7268068065477102   F   F   F
  7.9386337944698679 16.5394035511395643 17.7076846528782745   F   F   F
 15.7027441231096105  5.5299968336914587 17.7141119628551067   F   F   F
 15.7666327078744395  0.0100860710169731 17.7650355449834976   F   F   F
 15.7583774759129032 16.5430905887214834 17.7180875505011066   F   F   F
  9.4029154476223873 12.2847903445924853 19.5565960442874740   F   F   F
  1.9627336981191779  9.7921395553366271 16.3449941695297518   F   F   F
 15.7805041086489393 11.0421989376762237 17.7362099222052194   F   F   F
 13.8713266263351880 18.1762772077298926 16.5138871047601725   F   F   F
  4.0433716770923578 16.7493638763036827 17.8470024868495862   F   F   F
  3.9204579572536846 11.2162641157202252 17.6123639602106472   F   F   F
  7.9193219213962553  5.6807289864272317 17.7796210541789357   F   F   F
 11.8340604790157879  0.0034985740735047 17.7350212838586998   F   F   F
 19.7102024928072765 19.5101360860024080 14.9593381975100197   F   F   F
 17.7181989861293836 20.9173858121683516 19.2202129276346732   F   F   F
 19.6973378203972516  0.0469760284235853 17.7683333971329489   F   F   F
 11.8501627689233189 16.8838703727724351 17.7748503275065737   F   F   F
  9.8899569258068265  1.4546920463361588 19.2019306946982411   F   F   F
 10.0968486961316515  6.7934439056975915 19.6623002226104937   F   F   F
  9.8381380717076130  4.2684151267274775 16.3939298158663398   F   F   F
 11.7941768457743876  5.6476269623915547 17.7145226421483848   F   F   F
  3.9645918701360565 22.2800872027995531 17.7689842925062607   F   F   F
  3.9887962055024540  5.5380272902417147 17.7941884433833941   F   F   F
 21.6848561986459885  1.3904777032883058 13.6232934375937695   F   F   F
  5.8813176863430607  9.7227270002386419 16.4715960398149299   F   F   F
  1.9725650740000149  6.9740706679999214 10.8156001569999933   F   F   F
 13.9929903727577631 18.0800697363432974 19.3805233016203360   F   F   F
 13.8044316951193053  7.1599982398958346 18.9955204401137046   F   F   F
 17.7044492538115854  1.5138261332802736 19.1914405755233126   F   F   F
  1.9965848092328748  6.9451794391600217 19.2277847028172744   F   F   F
  2.0542978593692642 12.5633963094662864 19.1956516955041536   F   F   F
  1.9930289731232567  1.3467420015650646 19.2663054675703869   F   F   F
  2.0688619547265970  9.7444204822149487 19.1904492507093991   F   F   F
  1.9889364421401459  4.1350144284543413 19.2430046501909615   F   F   F
  9.8884182753268455  4.1786613954730631 19.1861125742748939   F   F   F
  1.9950122065744353 20.8792413570399340 19.2212920784759582   F   F   F
 21.6000223602197714  9.7320432732537903 19.1934899574515683   F   F   F
 21.6942680670341090 15.3393820612538860 19.1654251093501173   F   F   F
 21.6411375861936150 20.9117287282101074 19.2352527139176530   F   F   F
  9.8254326758911716  9.3440073273494679 18.9038286480522508   F   F   F
 17.8707734718975040  9.6692745780807723 19.1190288195902340   F   F   F
  9.8856644665899278 20.8651872430867833 19.1930448802722182   F   F   F
  1.9736499648990042 15.3346869253205611 19.1653634399308501   F   F   F
  5.9654931450543165 20.7616237412702453 19.1238277883893346   F   F   F
 17.6517749570218498  4.3175498022847423 19.3805134831926793   F   F   F
  6.0029418611361871  4.1620457361232113 19.2456305009473283   F   F   F
 19.6574034798839250 16.7536568918369859 17.7828482022672993   F   F   F
 19.6812196295275967  5.5652069020372386 17.7379844968587932   F   F   F
 13.7838117730504273 20.8867415175114672 19.1888164848152876   F   F   F
 21.6982156369999721 18.1325837370000720 10.8156001569999933   F   F   F
  1.9948620458215085 18.1351680769400971 19.2701881739157770   F   F   F
 17.6630463837712277  6.9529748977478425 19.2562326675335775   F   F   F
 13.6933365336735928  4.2741966115689882 19.3282471068638557   F   F   F
  6.0473993496515570 15.1175565572855231 19.8693758105038043   F   F   F
 19.7272902509357451 11.2283129978238101 17.6649415523855033   F   F   F
  5.6898675195719344  9.8636269612117857 19.2475440369549986   F   F   F
  9.9512196925739982 15.0906610377957335 19.0166295910782388   F   F   F
 15.7774621769217003 19.5136429691174840 14.9682072529722934   F   F   F
  2.0317011258761801 15.3835389192414755 16.3619863902420342   F   F   F
 13.7598184180943424  9.7988534694554463 19.3773921049689477   F   F   F
  5.9632706558567872  4.1947610834042264 16.4212833482285312   F   F   F
  5.8568001299672572 12.7968093059253043 18.8555813957579836   F   F   F
 17.8475986988476514 15.4378348355101274 19.7152348275752978   F   F   F
  6.2118559820641863 17.8596560434414187 19.3799274328298843   F   F   F
  5.9421537015881567  1.3245666679542574 19.2691001013972922   F   F   F
 21.6982156369999721 12.5533272030000536 10.8156001569999933   F   F   F
 11.8212458133525207  8.3523620241827636 14.9917807674274091   F   F   F
 11.8363709702211199 19.4921681717105848 15.0269786251050590   F   F   F
 11.8415504857018092 13.8618445798383334 15.0009965607092539   F   F   F
 19.7064904032294201 13.9053975725755592 15.0064814256180430   F   F   F
 19.7040762480752178  8.3260753970682781 14.9934913110535497   F   F   F
 19.7150461763704321  2.7782839673140041 15.0097988582389021   F   F   F
  3.9468913685334170  8.3956237569778569 14.9311744121759720   F   F   F
  3.9680971126504518 13.9331453067507436 15.0010553508848545   F   F   F
 13.8017937196556773  1.4776562311384862 19.1943108563051688   F   F   F
 21.6764762429365057  1.3987999923893708 19.2435631300333228   F   F   F
 13.6585932924479430 15.3161339101200920 19.1864531872152355   F   F   F
  3.9698391198630012 19.4899000189583873 14.9957320404055832   F   F   F
 13.7946455600585587 15.3128260600435926 13.6376146756436540   F   F   F
 13.7944793593506390 20.9136415232923696 13.6292600672227238   F   F   F
 21.6766965359473858  4.1686581946534229 13.5962103838840687   F   F   F
 21.6805082785411187  9.7495225463594970 13.6080977182188292   F   F   F
  3.9549573515819767  2.7742194294334368 14.9794706759203944   F   F   F
 17.7031600807537792  1.3487886720758535 16.3481754373495676   F   F   F
 17.8332388163870021 12.6789962637409666 19.0736257099469171   F   F   F
 21.6679231414586830  6.9600551031772913 19.1954645731751228   F   F   F
 21.6392400037921284 12.5556522267616977 19.2252928066391675   F   F   F
 11.8260909617690348  2.7982928651605157 14.9909545168154033   F   F   F
 13.7909271892908016  9.8078427707785441 13.6852030608607187   F   F   F
 21.6317320364231698 18.1486035475433702 19.2490982499301992   F   F   F
 21.6835370000724375  4.1561044060748209 19.1970085718369070   F   F   F
  5.8945533521446940  7.0600242480372408 19.2340229792397501   F   F   F
  1.9811335567506025  4.2137138836849948 16.3705041747606614   F   F   F
  5.9182004473182710 20.8908066068297735 13.6203703874137272   F   F   F
  5.9950516868600667 18.1349469746674146 16.5151248360852563   F   F   F
 21.6982156369999721  4.1844424010000720 10.8156001569999933   F   F   F
 13.8079546360000549 20.9222120050000342 10.8156001569999933   F   F   F
 13.8079546360000549 15.3429554700000619 10.8156001569999933   F   F   F
 13.8079546360000549  9.7636982699999884 10.8156001569999933   F   F   F
 13.8079546360000549  4.1844424010000720 10.8156001569999933   F   F   F
  5.9176950450000287 20.9222120050000342 10.8156001569999933   F   F   F
 21.6982156369999721 20.9222120050000342 10.8156001569999933   F   F   F
  5.9176950450000287 15.3429554700000619 10.8156001569999933   F   F   F
  5.9176950450000287  4.1844424010000720 10.8156001569999933   F   F   F
 17.7530837259999217 20.9222120050000342 10.8156001569999933   F   F   F
 17.7530837259999217 15.3429554700000619 10.8156001569999933   F   F   F
 17.7443995819868263  9.7829235390908327 13.6715751748891279   F   F   F
 17.7530837259999217  9.7636982699999884 10.8156001569999933   F   F   F
  5.9302582584926924 18.0951502511637301 13.6597355026672709   F   F   F
  9.8628241350000643 20.9222120050000342 10.8156001569999933   F   F   F
  9.8628241350000643  9.7636982699999884 10.8156001569999933   F   F   F
  5.9176950450000287  9.7636982699999884 10.8156001569999933   F   F   F
  1.9725650740000149  1.3948141340000613 10.8156001569999933   F   F   F
 21.6661129684689442 15.3287988023286825 13.5996002029461458   F   F   F
 15.7499555467816190  8.4481580874700022 15.0922280085199141   F   F   F
  7.9124453032671562  8.4450711812508086 15.0876724625127814   F   F   F
  7.9432247364570898 13.9655329821435057 15.1128919853728423   F   F   F
 21.7198790228819050  1.4138074480477991 16.4238130540226130   F   F   F
  5.9175405722123235  4.2121481051614822 13.6296914607803998   F   F   F
 17.7407659512142502 20.9428775501941864 13.6608218384185562   F   F   F
 17.7339303491050160 15.3688407659790673 13.7217201689001946   F   F   F
 17.7713309890650883  4.2358442212050686 13.6692512989556541   F   F   F
 17.7530837259999217  4.1844424010000720 10.8156001569999933   F   F   F
  5.9622529472693069 12.6043775986480533 13.6078221752076161   F   F   F
 21.6982156369999721  9.7636982699999884 10.8156001569999933   F   F   F
  9.8763630326802172 20.8899059103897429 13.6208419490142241   F   F   F
  9.8751821919979825 15.2907300655141771 13.6501189699033070   F   F   F
  0.0000000000000000  0.0000000000000000 12.2103998060000407   F   F   F
 13.9814630479002684 12.6319965855437228 19.1613378092871898   F   F   F
  5.9701831769083169  7.0167378098754449 13.6169120237845007   F   F   F
  5.9688787748166900 15.3452627992522750 13.6795250838465829   F   F   F
  9.8780662347583608  4.1753269727696152 13.6065207469450264   F   F   F
 21.6857722231182386  6.9658283954540527 13.6171045913998174   F   F   F
 13.7884955039757440  6.9489103204738143 16.3476195513532154   F   F   F
 21.6852529732342383 12.5462487206678226 13.6224762522764724   F   F   F
 21.6957322709097511 18.1241584910035414 13.6219839070194961   F   F   F
  1.9848989867234854  4.1637535140330488 13.5893100787511134   F   F   F
  1.9580288476925169  9.7468143312167665 13.5839053475828226   F   F   F
  1.9855400080435099 20.9044143596022884 13.6044240252831141   F   F   F
  1.9978395128422624 15.3309030139513300 13.5943581100538431   F   F   F
  9.8571366595678143  9.7182647476417365 13.6152267099914646   F   F   F
 21.6925950918018557 20.9152686388988300 13.6101922177538412   F   F   F
  9.8628241350000643 15.3429554700000619 10.8156001569999933   F   F   F
  0.0030690402516074  2.7921792636283209 14.9534556399926881   F   F   F
  0.0004179297303667  8.3339837039939830 14.9523380874987453   F   F   F
 23.6673556013379240 13.9954843119729180 14.9299137359795520   F   F   F
  7.8974946623960669  2.8038659007165960 14.9549105343865918   F   F   F
  0.0007326948280101 19.5301946032352127 14.9865636465133036   F   F   F
  7.8957064899092915 19.5104171925573269 14.9749283412180443   F   F   F
 15.7692795177220439  2.8275740380996885 14.9750177763024332   F   F   F
  5.9465220349679671  9.8092626405715926 13.6496918212409337   F   F   F
  1.9725650740000149 12.5533272030000536 10.8156001569999933   F   F   F
 21.6982156369999721  1.3948141340000613 10.8156001569999933   F   F   F
 17.7394147002845948 18.1475101909729659 13.5917635617421624   F   F   F
  5.9296284452844139  1.3850866141353912 13.6272289447614607   F   F   F
 21.6717302246000756  6.9773010111640268 16.4041720310609769   F   F   F
 13.7920808375343320  4.2354808264303481 13.6594534827462351   F   F   F
 13.8128981642700204  1.3999104595950234 16.3867747282089802   F   F   F
 13.8064058857106815 18.0874745775231212 13.6612313749715799   F   F   F
  1.9337949225112445 12.5965265189659252 16.3897272218954910   F   F   F
 17.9497472025736791  2.7732739718939734 23.5857361043461395   T   T   T
 19.7256482699999580  0.0000000000000000 12.2103998060000407   F   F   F
  1.9725650740000149  4.1844424010000720 10.8156001569999933   F   F   F
  0.0000000000000000  5.5792565349999723 12.2103998060000407   F   F   F
  0.0000000000000000 11.1585130689999925 12.2103998060000407   F   F   F
 17.7116112665729339 12.5935846763598267 13.6140240483710606   F   F   F
  7.8902602960000570  0.0000000000000000 12.2103998060000407   F   F   F
  7.8902602960000570 11.1585130689999925 12.2103998060000407   F   F   F
  7.8902602960000570 16.7377696039999648 12.2103998060000407   F   F   F
 15.7805205919999434  0.0000000000000000 12.2103998060000407   F   F   F
 15.7805205919999434  5.5792565349999723 12.2103998060000407   F   F   F
 15.7805205919999434 11.1585130689999925 12.2103998060000407   F   F   F
 13.8353169029343963 12.5604954933469113 13.6457766538201888   F   F   F
 13.8280663675702815  7.0350259214279633 13.6091238430324513   F   F   F
  3.9451301480000271  5.5792565349999723 12.2103998060000407   F   F   F
  3.9451301480000271 16.7377696039999648 12.2103998060000407   F   F   F
 11.8353900909999528 11.1585130689999925 12.2103998060000407   F   F   F
 11.8353900909999528  5.5792565349999723 12.2103998060000407   F   F   F
 21.6982156369999721  6.9740706679999214 10.8156001569999933   F   F   F
  7.8902602960000570  5.5792565349999723 12.2103998060000407   F   F   F
 17.6888630270086544  7.0099251493845154 13.6453120307944591   F   F   F
  0.0000000000000000 16.7377696039999648 12.2103998060000407   F   F   F
  9.8676798159012780 18.0857229521982106 13.6487216981102115   F   F   F
 13.8079546360000549 12.5533272030000536 10.8156001569999933   F   F   F
 17.7459646643285467  1.4284839281659580 13.6068000456383906   F   F   F
 13.8079546360000549 18.1325837370000720 10.8156001569999933   F   F   F
  3.9451301480000271  0.0000000000000000 12.2103998060000407   F   F   F
 19.7256482699999580  5.5792565349999723 12.2103998060000407   F   F   F
  3.9451301480000271 11.1585130689999925 12.2103998060000407   F   F   F
 15.7805205919999434 16.7377696039999648 12.2103998060000407   F   F   F
 13.8082323847971811  1.4158195155824576 13.6249137175433965   F   F   F
  5.9176950450000287  6.9740706679999214 10.8156001569999933   F   F   F
 11.8353900909999528 16.7377696039999648 12.2103998060000407   F   F   F
 13.8079546360000549  6.9740706679999214 10.8156001569999933   F   F   F
 11.8353900909999528  0.0000000000000000 12.2103998060000407   F   F   F
 21.6982156369999721 15.3429554700000619 10.8156001569999933   F   F   F
  5.9176950450000287  1.3948141340000613 10.8156001569999933   F   F   F
  5.9176950450000287 18.1325837370000720 10.8156001569999933   F   F   F
 13.8079546360000549  1.3948141340000613 10.8156001569999933   F   F   F
 17.7530837259999217  6.9740706679999214 10.8156001569999933   F   F   F
 17.7530837259999217  1.3948141340000613 10.8156001569999933   F   F   F
  9.8628241350000643 18.1325837370000720 10.8156001569999933   F   F   F
  9.8628241350000643 12.5533272030000536 10.8156001569999933   F   F   F
  9.8628241350000643  6.9740706679999214 10.8156001569999933   F   F   F
 17.7530837259999217 18.1325837370000720 10.8156001569999933   F   F   F
  9.8685377682522422  1.3749294918440569 13.6603246223023582   F   F   F
  1.9755091223002665 18.1252754336868129 13.6252527855386791   F   F   F
  1.9872440695555724 12.5531975743223008 13.6166494030480969   F   F   F
  9.8474933068995956 12.4882167390290721 13.7358396236050737   F   F   F
  1.9813999446847348  1.3804330129528124 13.6270185664982790   F   F   F
  1.9763878669270651  6.9620447174342202 13.6213111208805504   F   F   F
  9.8628241350000643  1.3948141340000613 10.8156001569999933   F   F   F
 17.7076032787975706 18.0323908405117628 16.3700536939696555   F   F   F
  5.8993824399740324  6.9976806507588361 16.3745682271020350   F   F   F
  9.8351012880406454  6.9469382000910276 13.7205466026238145   F   F   F
  5.9461553358124375  1.3912950795380596 16.4146766934529538   F   F   F
 17.6711355254111453 12.4572614906864274 16.3401866826172721   F   F   F
 17.7530837259999217 12.5533272030000536 10.8156001569999933   F   F   F
  5.9176950450000287 12.5533272030000536 10.8156001569999933   F   F   F
  9.8059508646967188 18.1152703419355241 16.4329164573625732   F   F   F
 19.7256482699999580 11.1585130689999925 12.2103998060000407   F   F   F
  9.8628241350000643  4.1844424010000720 10.8156001569999933   F   F   F
  1.9725650740000149 20.9222120050000342 10.8156001569999933   F   F   F
  1.9725650740000149 15.3429554700000619 10.8156001569999933   F   F   F
  1.9725650740000149  9.7636982699999884 10.8156001569999933   F   F   F
 19.7256482699999580 16.7377696039999648 12.2103998060000407   F   F   F
  1.9725650740000149 18.1325837370000720 10.8156001569999933   F   F   F
 19.7256482699999580  8.3688848019999824 12.2103998060000407   F   F   F
 19.8342048961326576  8.3099800091937706 18.1032818365072217   F   F   F
 19.7256482699999580  2.7896282670000101 12.2103998060000407   F   F   F
  3.9451301480000271  2.7896282670000101 12.2103998060000407   F   F   F
  7.9201638241719383 19.6124812053900399 18.0897690535311568   F   F   F
 19.6919302502460773 19.5600660642929540 18.5336303427069815   F   F   F
  3.9451301480000271 19.5273965409999306 12.2103998060000407   F   F   F
 19.8721515638670922 13.9905579021753788 18.1216325385142270   F   F   F
 19.7909444269844457 16.7750193259893585 15.0785119457202175   F   F   F
 15.7526691536910892  2.7770442535076030 18.2485410016039786   F   F   F
  7.8481918289595134  2.6704521441316755 18.3877748488991664   F   F   F
  3.9383445838515549  5.5370116629254005 15.1877793540928536   F   F   F
  0.0110533413287348  8.3706873731295417 18.7476370733225544   F   F   F
  7.9061995568755341 13.9388626281530144 17.8503031796382174   F   F   F
 11.8353900909999528  2.7896282670000101 12.2103998060000407   F   F   F
 23.6705617933296892 13.9121415483147342 18.7271947663110723   F   F   F
  3.9451301480000271 13.9481413360000008 12.2103998060000407   F   F   F
  0.0000000000000000  2.7896282670000101 12.2103998060000407   F   F   F
 11.8458587569981795  2.7243969410346454 18.1929096007290561   F   F   F
 11.8353900909999528 19.5273965409999306 12.2103998060000407   F   F   F
 19.7477813619058047  2.7713855451438736 18.4375411046251934   F   F   F
 15.7795964494697643 13.9713243408425800 17.8006906485781116   F   F   F
 15.7532238281381627 19.6650757185834308 18.2126801851493063   F   F   F
  3.8650922226147739  8.2853485670490201 18.2239486204054195   F   F   F
  3.9743279385225359  2.7366569139579457 18.6591397062227280   F   F   F
  3.7829796943494425 14.0040047149960145 18.0403891627186077   F   F   F
 15.8837941316082745  8.3128461327442214 17.8057517638607550   F   F   F
  3.9365298263850326 19.4965012042901691 18.5420542581053098   F   F   F
 11.8444128153206876 22.3029336954282087 15.1698674392104262   F   F   F
 15.7805205919999434 19.5273965409999306 12.2103998060000407   F   F   F
 11.8353900909999528  8.3688848019999824 12.2103998060000407   F   F   F
 11.9202957570956301 13.9493421525060839 17.8216818207319569   F   F   F
 11.8714946913354460  8.2911870155725467 17.8389709431596337   F   F   F
 23.6480293667793404 19.5274674316848333 18.6800511833953173   F   F   F
 11.8353900909999528 13.9481413360000008 12.2103998060000407   F   F   F
 11.8636866492973780 11.1551655063688475 15.0065105709218773   F   F   F
  3.9451301480000271  8.3688848019999824 12.2103998060000407   F   F   F
 15.7513046610610754 16.7800938040707095 15.0666977170372647   F   F   F
 19.7927476169869436 11.1586930561248820 15.0836777442741266   F   F   F
  7.9044013012202079 16.7644784027715552 15.0442999164608455   F   F   F
  7.8853589413971470  0.0233229526281710 15.1727779538416012   F   F   F
  7.8127146260889955  5.5351420141162500 15.0847611578504832   F   F   F
  0.0160415597000762  2.7399208168241453 18.6091000590164732   F   F   F
  3.8912660025986634 16.7720568088221036 15.1013508509691903   F   F   F
 15.7660937361671483 -0.0014722989836438 15.1698006707486890   F   F   F
 15.7805205919999434  8.3688848019999824 12.2103998060000407   F   F   F
  7.7184727355124059  8.3313797527389752 17.7801107541884527   F   F   F
 23.6652658538637546 11.1580682532466007 15.2013316422891087   F   F   F
 19.7256482699999580 13.9481413360000008 12.2103998060000407   F   F   F
 11.8611968375850410 16.8014681753341648 15.1155564316236486   F   F   F
  0.0000000000000000  8.3688848019999824 12.2103998060000407   F   F   F
 15.7881401074106176  5.5369730840741447 15.0797464868683999   F   F   F
  0.0001351452568212  0.0005329942171990 15.2014676224608412   F   F   F
 15.8286964261747087 11.1555044757474189 15.0198379240642446   F   F   F
  7.8902602960000570  8.3688848019999824 12.2103998060000407   F   F   F
 11.8579938342502427 19.5717949402125804 18.2829161939469458   F   F   F
 19.7804413254588312  5.5468504197539019 15.0887846439593503   F   F   F
  3.8725828357259848 11.1541165590636453 15.0585551759045924   F   F   F
  7.8389643113879197 11.1404552514395991 15.0271359792322752   F   F   F
  3.9293913986404716  0.0253783249887415 15.1965086300343550   F   F   F
  0.0000000000000000 19.5273965409999306 12.2103998060000407   F   F   F
  7.8902602960000570 19.5273965409999306 12.2103998060000407   F   F   F
 19.7440958719790594  0.0056643346363621 15.1955234275954396   F   F   F
  0.0000000000000000 13.9481413360000008 12.2103998060000407   F   F   F
  7.8902602960000570  2.7896282670000101 12.2103998060000407   F   F   F
  7.8902602960000570 13.9481413360000008 12.2103998060000407   F   F   F
 19.7256482699999580 19.5273965409999306 12.2103998060000407   F   F   F
 15.7805205919999434 13.9481413360000008 12.2103998060000407   F   F   F
  0.0231449005056634  5.5746866252244027 15.1845155907560425   F   F   F
 -0.0015172265448315 16.7623009746597624 15.1963851150054943   F   F   F
 11.8606893086163829  5.5320177182800601 15.0572199930753428   F   F   F
 15.7805205919999434  2.7896282670000101 12.2103998060000407   F   F   F
 17.7530837259999217 11.1585130689999925 12.2103998060000407   F   F   F
  1.9725650740000149  0.0000000000000000 12.2103998060000407   F   F   F
  1.9211264499550158 16.7795991117125673 18.1052867365130901   F   F   F
  1.9725650740000149  5.5792565349999723 12.2103998060000407   F   F   F
  9.8643874912454415 16.7491871614282282 17.8285059825431169   F   F   F
 17.8122397274656876 13.9415517476459101 15.0727478907150338   F   F   F
  9.8628241350000643 11.1585130689999925 12.2103998060000407   F   F   F
  1.9725650740000149 11.1585130689999925 12.2103998060000407   F   F   F
 13.8163540757089827  8.3391313154186619 15.0590075038062956   F   F   F