Au  C  H  O Sr Ti 
 1.0000000000000000
    23.6707801818999997    0.0000000000000000    0.0000000000000000
     0.0000000000000000   22.3170261383000010    0.0000000000000000
     0.0000000000000000    0.0000000000000000   30.0000000000000000
 Au  C   H   O   Sr  Ti 
  50   2   2 265  72  72
Selective dynamics
Cartesian
 16.8723362648435611 11.6845850336092205 22.5958998015695585   F   F   F
  6.9437909323840419 16.6714484903511391 20.9020481790479060   F   F   F
 12.0902734820247453 13.5016453606431543 23.3255157987934716   F   F   F
 13.6854991733241196 16.2150910810684437 23.8133717699497396   F   F   F
  5.6759528549648772 10.4907651829201463 21.2677395635476785   F   F   F
  6.7405334526487861 14.8058122104768142 22.9330081387837232   F   F   F
 14.1093782808374026  6.7599757267353038 23.6074506146397560   F   F   F
 12.1574600066547784 10.8083168223632651 20.3416689882158153   F   F   F
 13.2836155281253543 10.8752350941676674 22.8834866718227303   F   F   F
 11.4084918778012501  6.0701390268924849 23.2529673515860544   F   F   F
 12.8061805089126786  8.7225366595252076 24.9742443256380540   F   F   F
 12.9714125904075672  4.8138119626860263 21.2989309773231135   F   F   F
  9.2594261473618271 18.2529173020497844 21.1884690840538390   F   F   F
 10.2165348179496043  5.0825154918036084 20.9634483051234533   F   F   F
  8.7142752455137824  6.7258924331737191 22.7125515903342432   F   F   F
 10.0519003905180337  8.3557438198982688 24.5676539460663577   F   F   F
 14.1090101865648716 17.5202229342712776 21.3827940681129043   F   F   F
 14.9808542888036698 13.0529463412515110 23.9938795736747714   F   F   F
 17.3106001567633321 13.7136912529962771 20.8220430572791670   F   F   F
 11.4941822430877885 17.3483864425758618 22.6438956857114952   F   F   F
 18.0301630315959578  9.5655375346017362 21.1742433622216026   F   F   F
 17.7618065072529845  5.6917064706190796 20.8575616632229668   T   T   T
 14.6783884295216236 12.7245396522531475 21.1192168042393362   F   F   F
 10.9712900598553116 15.5765115175676900 24.9128168073130460   F   F   F
 14.6553980950248270  7.0514565373475158 20.8931743991467229   F   F   F
  8.2521304242362490 11.1764610404943898 20.9351777250084439   F   F   F
 16.6348066386355455  7.5947847225529781 22.7129106586461305   F   F   F
  6.8239011109197634 12.0404404256007993 23.3193606488362590   F   F   F
 13.4437073566072254 11.4231603688982943 25.7202314656754858   F   F   F
 15.5502494831707576  4.6564132239487437 22.5658757520324436   T   T   T
 11.0290411618057629 10.1832482362337409 26.5080653094978125   F   F   F
  6.6577898876671293  7.6051591327701180 21.0768773576201589   F   F   F
 15.8332915278036364 15.2057511403152414 22.4661221809244189   F   F   F
  9.3954604530159802  8.5411108046479818 20.7262759920262027   F   F   F
 10.7020153076321947 12.9410259585799530 21.0927331431970373   F   F   F
  8.8508455313064474 11.0635262091999014 24.9914260665351726   F   F   F
  7.6492187760731838  9.2987598520958592 23.1034562550630191   F   F   F
  8.7139439264835499 13.8552246020299670 24.5960864187281381   F   F   F
 12.2740692888767917  8.4353313503366802 21.9823330517195288   F   F   F
 18.2346167254621854  9.5548442321451414 23.8793740732240813   F   F   F
  6.0596670358856777 13.2543536276803664 20.8355843181684506   F   F   F
 15.2987964298287764  9.8869299623000764 20.8663614759835205   F   F   F
 13.3698724174256895 14.3235275244692968 25.8562214522808915   F   F   F
 12.7906343649171355 14.8995164017432558 21.0601460598703234   F   F   F
 10.4678771136686297 10.5519292115438876 22.6900235193795581   F   F   F
 16.7189853705599809 16.8956321922783133 20.6543610558738955   F   F   F
  8.8457013479198103 16.5384078525555580 23.3580559541343327   F   F   F
 10.9330738748912779 12.8824826761855959 25.9458981880376207   F   F   F
 15.4169794422340605  9.7363950911846118 24.3637551813841995   F   F   F
  9.8828968123465817 15.5503306465352225 20.9857993802189711   F   F   F
 18.1605058733397051  4.3717804019107431 22.4164441344977519   T   T   T
 17.2137963999731021  3.2766065887849281 22.5250974411155340   T   T   T
 17.0652850138956431  2.7081679162705630 21.6098124751963283   T   T   T
 17.3414059561300604  2.6796504734465194 23.4272167392002650   T   T   T
  1.9968577238415688 15.3308595069197100 13.5948595929661877   F   F   F
  5.9671933032185578 15.3440945019973878 13.6822728634219946   F   F   F
  1.9904507278901169 20.9071346298403782 13.6092484144489934   F   F   F
  1.9585873522913964  9.7470795231459348 13.5846572036404645   F   F   F
  1.9846103508327313  4.1634241088634445 13.5892022847302147   F   F   F
 21.6963352335927944 18.1243689878204428 13.6216453143117846   F   F   F
 17.6680566233829346 12.4453243455725548 16.3387515564465495   F   F   F
 21.6846304714834375 12.5464421098777148 13.6224345992992912   F   F   F
 21.6896499486022556  1.3881645315614652 13.6211324505432305   F   F   F
 21.6892134414242790  6.9678061291889080 13.6106569877638535   F   F   F
  9.8766616299805303  9.7198258132609219 13.6261057259577782   F   F   F
 13.7822665889005975  9.8100556995348658 13.6916582114896137   F   F   F
 13.8037885552671167  4.2468519537247040 13.6696076108300737   F   F   F
 21.6925329922815067 20.9139928330650449 13.6093437467454663   F   F   F
 13.8070231239167978 18.0870209762389358 13.6601940763493879   F   F   F
  0.0006597705480782  8.3342278104291427 14.9518360096029372   F   F   F
 23.6628802176283415 13.9960546425488737 14.9289052476555018   F   F   F
  7.9002590443475116  2.8059954400415492 14.9636149836979993   F   F   F
  0.0016940967489177 19.5315829134193955 14.9864589925887177   F   F   F
  7.8938332432420175 19.5087316346007462 14.9727634206034228   F   F   F
 15.7644592807083228  2.8142482834649778 14.9947915991351302   F   F   F
  5.9464093137035556  9.8027461165621812 13.6486022031768002   F   F   F
  1.9725650740000149 12.5533272030000536 10.8156001569999933   F   F   F
 21.6982156369999721  1.3948141340000613 10.8156001569999933   F   F   F
 17.7361591999840975 18.1479369240450943 13.5907328314051945   F   F   F
 17.7451973999217110  9.7901208201073224 13.6667273886151364   F   F   F
 21.6778997680647478  6.9788984589398471 16.3954186105118040   F   F   F
  9.8753238025075873 15.2808850036333475 13.6424021635728305   F   F   F
  0.0025337010073292  2.7918256475252883 14.9526833636298004   F   F   F
  9.8460624302943351 20.9116646304283407 16.3798482266895249   F   F   F
 13.8079546360000549 15.3429554700000619 10.8156001569999933   F   F   F
  5.9301833680288576  1.3845074342728145 13.6278411699967581   F   F   F
 13.8074605530786716  1.4216860505267968 13.6148107728529038   F   F   F
 21.6982156369999721 15.3429554700000619 10.8156001569999933   F   F   F
 21.6982156369999721  9.7636982699999884 10.8156001569999933   F   F   F
 21.6982156369999721  4.1844424010000720 10.8156001569999933   F   F   F
 13.8079546360000549 20.9222120050000342 10.8156001569999933   F   F   F
  1.9151882711918702 12.5972601868918481 16.3930178901564929   F   F   F
 13.8079546360000549  9.7636982699999884 10.8156001569999933   F   F   F
 13.8079546360000549  4.1844424010000720 10.8156001569999933   F   F   F
  5.9176950450000287 20.9222120050000342 10.8156001569999933   F   F   F
 21.6982156369999721 20.9222120050000342 10.8156001569999933   F   F   F
  5.9176950450000287 15.3429554700000619 10.8156001569999933   F   F   F
  5.9176950450000287  4.1844424010000720 10.8156001569999933   F   F   F
 17.7530837259999217 20.9222120050000342 10.8156001569999933   F   F   F
 17.7530837259999217 15.3429554700000619 10.8156001569999933   F   F   F
  9.8820571925573653 20.8834147556271965 13.6173345062298292   F   F   F
 17.7530837259999217  9.7636982699999884 10.8156001569999933   F   F   F
  9.8628241350000643 20.9222120050000342 10.8156001569999933   F   F   F
  9.8628241350000643 15.3429554700000619 10.8156001569999933   F   F   F
  9.8628241350000643  9.7636982699999884 10.8156001569999933   F   F   F
  5.9176950450000287  9.7636982699999884 10.8156001569999933   F   F   F
  1.9725650740000149  1.3948141340000613 10.8156001569999933   F   F   F
 21.6659906032662093 15.3287609869790966 13.5995785146198980   F   F   F
 15.7541353754333944  8.4709219551423640 15.0838187142427582   F   F   F
  7.9178581057948483  8.4422576872233357 15.0938381512174171   F   F   F
  7.9437280255048659 13.9652633150346208 15.1130434624104542   F   F   F
 21.7205681263300008  1.4131481382893443 16.4231174217557765   F   F   F
 17.7420948949216637 20.9406898392185141 13.6593660719374377   F   F   F
  5.9176465959308064 20.8904721476490280 13.6194713081075225   F   F   F
  5.9200447274626056  4.2061387645834607 13.6233694499013058   F   F   F
 17.7320088251808805 15.3685602125029863 13.7213429719731135   F   F   F
 17.7530837259999217  4.1844424010000720 10.8156001569999933   F   F   F
 13.8079546360000549  1.3948141340000613 10.8156001569999933   F   F   F
  9.8612729240709793 18.0760952510032560 13.6515481786098487   F   F   F
 17.7018231413307205 18.0267269689616256 16.3651544865633625   F   F   F
  5.9176950450000287 18.1325837370000720 10.8156001569999933   F   F   F
  5.9176950450000287  6.9740706679999214 10.8156001569999933   F   F   F
  5.9176950450000287  1.3948141340000613 10.8156001569999933   F   F   F
 17.7530837259999217 12.5533272030000536 10.8156001569999933   F   F   F
 17.7530837259999217  6.9740706679999214 10.8156001569999933   F   F   F
 17.7530837259999217  1.3948141340000613 10.8156001569999933   F   F   F
  9.8628241350000643 18.1325837370000720 10.8156001569999933   F   F   F
  9.8628241350000643  6.9740706679999214 10.8156001569999933   F   F   F
 17.7530837259999217 18.1325837370000720 10.8156001569999933   F   F   F
  1.9764908647856447  6.9613575100693579 13.6212970315052857   F   F   F
  9.8628241350000643  1.3948141340000613 10.8156001569999933   F   F   F
  9.8678430685743592  1.3740499218169431 13.6612292423226833   F   F   F
  1.9763334792339384 18.1252042404488733 13.6239927061335138   F   F   F
  9.8628241350000643 12.5533272030000536 10.8156001569999933   F   F   F
  9.8018077261920968 18.1136195622826612 16.4300413009969759   F   F   F
 13.8079546360000549  6.9740706679999214 10.8156001569999933   F   F   F
  1.9874999423707544 12.5535801446881123 13.6196458966746050   F   F   F
  5.9441276507297625  1.3973867647656801 16.4177372351087492   F   F   F
 19.7256482699999580 11.1585130689999925 12.2103998060000407   F   F   F
  9.8628241350000643  4.1844424010000720 10.8156001569999933   F   F   F
  1.9725650740000149 20.9222120050000342 10.8156001569999933   F   F   F
  1.9725650740000149 18.1325837370000720 10.8156001569999933   F   F   F
  1.9725650740000149  9.7636982699999884 10.8156001569999933   F   F   F
 19.7256482699999580 16.7377696039999648 12.2103998060000407   F   F   F
  9.8372790999542445  6.9499912133355783 13.7210908013965636   F   F   F
  1.9826695832709988  1.3812602320829643 13.6252814284695383   F   F   F
  9.8479046386693287 12.4866604541830384 13.7357437055573612   F   F   F
  1.9725650740000149 15.3429554700000619 10.8156001569999933   F   F   F
  5.9716246334137040  7.0101209624857708 13.6250527988678396   F   F   F
 13.8079546360000549 12.5533272030000536 10.8156001569999933   F   F   F
  5.9176950450000287 12.5533272030000536 10.8156001569999933   F   F   F
 13.8079546360000549 18.1325837370000720 10.8156001569999933   F   F   F
 15.7805205919999434 16.7377696039999648 12.2103998060000407   F   F   F
 11.8353900909999528 11.1585130689999925 12.2103998060000407   F   F   F
  1.9725650740000149  4.1844424010000720 10.8156001569999933   F   F   F
  0.0000000000000000  0.0000000000000000 12.2103998060000407   F   F   F
  0.0000000000000000  5.5792565349999723 12.2103998060000407   F   F   F
  0.0000000000000000 11.1585130689999925 12.2103998060000407   F   F   F
 17.7103669599302052 12.5947043741367626 13.6133360554373564   F   F   F
  7.8902602960000570  0.0000000000000000 12.2103998060000407   F   F   F
  7.8902602960000570 11.1585130689999925 12.2103998060000407   F   F   F
  7.8902602960000570 16.7377696039999648 12.2103998060000407   F   F   F
 15.7805205919999434  0.0000000000000000 12.2103998060000407   F   F   F
 15.7805205919999434  5.5792565349999723 12.2103998060000407   F   F   F
 15.7805205919999434 11.1585130689999925 12.2103998060000407   F   F   F
 19.7256482699999580  5.5792565349999723 12.2103998060000407   F   F   F
  3.9451301480000271  0.0000000000000000 12.2103998060000407   F   F   F
 13.8325823339924963  7.0406711087737888 13.6074723146825214   F   F   F
  3.9451301480000271 11.1585130689999925 12.2103998060000407   F   F   F
 11.8353900909999528  0.0000000000000000 12.2103998060000407   F   F   F
 11.8353900909999528  5.5792565349999723 12.2103998060000407   F   F   F
 11.8353900909999528 16.7377696039999648 12.2103998060000407   F   F   F
 21.6982156369999721  6.9740706679999214 10.8156001569999933   F   F   F
  7.8902602960000570  5.5792565349999723 12.2103998060000407   F   F   F
 17.6997245270587307  7.0185738280437864 13.6142689402412547   F   F   F
  0.0000000000000000 16.7377696039999648 12.2103998060000407   F   F   F
 13.8363511065185225 12.5607618866165271 13.6441311765304825   F   F   F
 17.7393216703375387  1.4265971877909693 13.5977500104917262   F   F   F
 19.7256482699999580  0.0000000000000000 12.2103998060000407   F   F   F
 13.7943761806308114 15.3114220786966122 13.6382325871323307   F   F   F
  5.9597493266119317 12.5989193936934605 13.6145848905566886   F   F   F
  3.9451301480000271  5.5792565349999723 12.2103998060000407   F   F   F
  5.9296214691746334 18.0947642772434172 13.6595859493444625   F   F   F
  3.9451301480000271 16.7377696039999648 12.2103998060000407   F   F   F
 15.7496418560889460 13.9716729342617096 15.0891241877513860   F   F   F
  9.8686853530720064  4.1790568361311120 13.6117004320715047   F   F   F
 13.9323478944237795  7.1617224409214568 18.9889009167126304   F   F   F
  2.0258417599590244 15.3824675793720100 16.3618838067027745   F   F   F
  1.9619372928010672  9.7956235634920894 16.3453473188139178   F   F   F
  1.9778417820816949  4.2171101844132748 16.3650734801819162   F   F   F
 11.8235601174637353  2.8062464252396451 14.9748043641924760   F   F   F
 23.6593085635844602 11.1293210136603040 17.8251767105615038   F   F   F
 13.7313293063193456  4.1204800214587163 16.5153184708098131   F   F   F
 23.6636861518565489 16.8178055882602386 17.7803651407045571   F   F   F
  7.9068462243266646 22.3147097395119367 17.7577956783369686   F   F   F
 23.6674247295648321 22.2887171835031914 17.7917117068404380   F   F   F
  0.0093800450541752  5.5773156553957044 17.7599330389294252   F   F   F
  7.8871593674618667 11.0667211429260508 17.7353420412661080   F   F   F
  7.9358032781013828 16.5381620585652414 17.7129456599508970   F   F   F
 15.7415553185298975  5.4546327411002160 17.7148886008593358   F   F   F
 15.7603214065724693  0.0134475113945041 17.7517718266612157   F   F   F
 15.7535169721636219 16.5431998770618307 17.7247212635691973   F   F   F
 15.7836549278210967 11.0198106681501677 17.7414322477171176   F   F   F
  3.9639388943303921 22.2804991928295308 17.7690050676286013   F   F   F
  3.9865623134059822  5.5438761526954812 17.7946951403122604   F   F   F
  4.0407145069452977 16.7430212112706158 17.8462833181358889   F   F   F
  5.8774349664040857  9.7277534983560425 16.4737307584207251   F   F   F
  3.9167335572527628 11.2327391428736121 17.6181547237534737   F   F   F
  7.9266072422046081  5.6808934651776140 17.7792405135950560   F   F   F
 11.8260775511922613  0.0006318817874930 17.7300415928926256   F   F   F
 19.7100046933762272 19.5092583037358693 14.9583260242913276   F   F   F
 17.7125177723775558 20.9027507742334215 19.1999558743357746   F   F   F
 19.6999174199579912  0.0374971617515165 17.7659305951987498   F   F   F
 17.7562973022342909  4.1002042873353730 16.4942280996108330   F   F   F
 10.0108028162225793 15.3497782999280776 16.4025063583609132   F   F   F
 10.0171097816893031  9.8977815996357172 16.3799576088558503   F   F   F
 17.8230935984463734  9.6894422511265823 16.4893506951776132   F   F   F
 13.8311859998468343  6.9253491377063883 16.3485039264068241   F   F   F
  5.9938748137293292 18.1344132107125837 16.5189357719551886   F   F   F
 13.7917447277762797 20.9143858478667077 13.6300827207979367   F   F   F
 21.6807342686234712  4.1687839619687397 13.5933919751302223   F   F   F
 17.7546620152162475  4.2321214706527961 13.6613723202573620   F   F   F
 13.7867232997027145  1.3741868010576661 16.3588832794857879   F   F   F
 13.8715166692096989 18.1715310526376115 16.5108412470788508   F   F   F
 17.6847977987341274  6.9273463065442300 16.3665235448718889   F   F   F
 13.7604168447154045 12.4928341315327138 16.4657543949895135   F   F   F
  5.9800255117837420 12.4770002047883501 16.3181925194677824   F   F   F
  9.8517649347596148  7.1272358606404760 16.5840036866445217   F   F   F
 13.6465596457184102  9.7205947851652077 16.5658082274851353   F   F   F
  9.8622929255847822  1.4589510858886598 16.4197589729785882   F   F   F
  2.0137338580359558 18.1356297753468247 16.4193339567714638   F   F   F
  2.0508162939280581  6.9961823773626284 16.4128159998434100   F   F   F
 11.8474311575955991 16.8833777261412763 17.7749931011714892   F   F   F
  1.9503335106932358  1.4092217988809146 16.4262587869655086   F   F   F
  1.9725650740000149  6.9740706679999214 10.8156001569999933   F   F   F
 21.6418320201671790 15.3710457363875914 16.3697564907850754   F   F   F
 21.6937453702994887  4.2118437609536699 16.3611362787017107   F   F   F
 21.6685824502769968  9.7668636774375006 16.3683500804128741   F   F   F
 13.7151366653762796 15.3111279445511279 16.4213191360863249   F   F   F
  5.9540257650110728 20.9173684202501988 16.3567623060765825   F   F   F
 11.7736731068061395 11.2579534092297369 18.2712708648835935   F   F   F
 21.7276091566183460 12.5821252736828146 16.4126737788536516   F   F   F
  9.9382033976438713 12.6028104937012877 16.6625985603439553   F   F   F
 21.6694444375354642 18.1354784635427393 16.4039279118626027   F   F   F
  1.9908682912043076 20.9424301274880911 16.3823608338860396   F   F   F
  5.8930910425012799 15.2500844468510905 16.5545829537375404   F   F   F
 17.7367054226679777 20.8394011473202276 16.4288864132605568   F   F   F
 17.7926871982595856 15.1779440615678549 16.6006566917673055   F   F   F
 21.6734342909155089 20.9434707997252225 16.3908356403358049   F   F   F
  9.8878246035362416  1.4563683188215610 19.2002356570004871   F   F   F
 13.8177089706870913 20.9235446333001605 16.3868233308242459   F   F   F
  9.7616307288921131 18.1414460164951095 19.1799179687608472   F   F   F
 19.0241937217436003  4.8026412609964462 23.1489862990259887   T   T   T
 21.6313786431527646 12.5581298593969937 19.2243735897681240   F   F   F
 21.6201354370520953 18.1493608528115189 19.2581089351203580   F   F   F
 13.7884835358766225  1.4933652589079440 19.1562757346110253   F   F   F
  5.9019557947099814  7.0027215593731915 16.3805887066172282   F   F   F
 13.9851913137324111 12.6242761740453862 19.1565549419785839   F   F   F
  5.8610454185677314 12.8103182052242541 18.8622746789271396   F   F   F
 17.8404030022381370 15.4441899294357246 19.7300344021299985   F   F   F
  6.2030828795207302 17.8546479476007143 19.3850983458085722   F   F   F
  5.9407243334767577  1.3274521758930646 19.2698883093693745   F   F   F
 21.6982156369999721 12.5533272030000536 10.8156001569999933   F   F   F
 11.8305837492428179  8.3256568497314838 15.0202749237220559   F   F   F
 11.8421445860328376 13.8586223166784226 15.0036504828249910   F   F   F
 19.7025656802295650 13.9047879309746243 15.0047283744444417   F   F   F
  5.9654338636942299  4.2028380103204555 16.4149233545500124   F   F   F
 19.7129115353960103  8.3286998697307162 14.9770706138381051   F   F   F
 21.6453324878233033  6.9572461943184942 19.1986306861154254   F   F   F
  3.9468628596430806  8.3959365611567360 14.9325000528826113   F   F   F
 13.7308416677209042  9.7792127215034093 19.3852901441564534   F   F   F
 13.6653278161894889 15.3152063377431933 19.1866881054544010   F   F   F
 21.6785103579507528  4.1561812702762575 19.1937924263210320   F   F   F
  5.8971733279855263  7.0630533631544949 19.2371067916478893   F   F   F
  3.9712794378474006 19.4885642555532215 14.9965591898175727   F   F   F
 21.6884382344419286  9.7523009524706374 13.6037615465093751   F   F   F
  3.9550539110716638  2.7772083144536808 14.9815305410075332   F   F   F
 17.7153972545072236  1.3330742606258674 16.3404233855629073   F   F   F
 10.0751242382924708  6.8020347182727798 19.6994546751286563   F   F   F
 13.9743125111139470 18.0927589057538469 19.3767207253766358   F   F   F
  9.9513075587087574 15.0896453110025082 19.0086524641141317   F   F   F
 17.8858720177890156  9.7485593166636413 19.1887463954690105   F   F   F
 11.8228444958863452  5.6677531942131143 17.7500433401061457   F   F   F
 21.6830657879034874  1.3936379608474609 19.2400599931581091   F   F   F
  3.9661546234564740 13.9319467254611435 15.0072577704212016   F   F   F
 11.8355038237012113 19.4849276456605125 15.0266509901019525   F   F   F
 19.7201556534391855  2.7648806164057094 14.9846947397879404   F   F   F
  9.8610106503610133  4.2706365799049237 16.4088220495913539   F   F   F
 17.5421861411233238 18.0725646301191460 19.1991303093340022   F   F   F
 17.8021013700607824 12.7246419271932076 19.0486751634761191   F   F   F
  9.8794372914935753 20.8666319542515453 19.1936070934283300   F   F   F
 17.6732383246608116  6.9970248367646715 19.1395513550653433   F   F   F
 17.6990563712732758  1.4785171857989978 19.1889619381209506   F   F   F
  1.9860687956306973  6.9520781546384898 19.2168303686179591   F   F   F
 15.7763911456234425 19.5160825812812533 14.9655486146314711   F   F   F
  2.0486116891088781 12.5598134626172442 19.2008386942631972   F   F   F
  2.0629116844354671  9.7422298161169731 19.1917437211450590   F   F   F
  9.8824620504904885  4.1836821928616308 19.1967479415212274   F   F   F
  9.8389404928763522  9.3350382724423273 18.9071954683587791   F   F   F
  2.0006722331538658 20.8820556717185219 19.2297462730224638   F   F   F
  1.9680501850245915 15.3330801328281225 19.1666202586492744   F   F   F
  1.9897611972266704  1.3487681755054817 19.2627785975582988   F   F   F
 19.7192266171195811 11.2405510667244997 17.6739155082370800   F   F   F
  1.9752815814256539  4.1446784338661207 19.2299244569366294   F   F   F
  5.6804689279660856  9.8684509231763737 19.2474665350346221   F   F   F
 21.5941455840906933  9.7328322538235401 19.1969205657676802   F   F   F
  5.9667472136268085 20.7618595887944082 19.1195602881248199   F   F   F
 21.6898830379245062 15.3459228447071236 19.1708491394013798   F   F   F
 21.6423951944928774 20.9100806685623652 19.2381567131408779   F   F   F
  9.4053081325016272 12.2887552061549741 19.5612900142502681   F   F   F
  6.0194865097601120 15.1344712245966679 19.8815040248269810   F   F   F
  6.0022229392326061  4.1624798435777226 19.2357038960810343   F   F   F
 13.7205072649778455  4.3013995967022378 19.3818789538025982   F   F   F
 13.7748406418608376 20.8939850578724062 19.1803864097906462   F   F   F
 21.6982156369999721 18.1325837370000720 10.8156001569999933   F   F   F
 17.7878589160035752  4.2559742700501593 19.3275324617248287   F   F   F
 19.6928344272111886  5.5835503742548545 17.7091445851400948   F   F   F
 19.6536531705293491 16.7541918361227857 17.7822510994289402   F   F   F
  2.0027907822887063 18.1353688923268273 19.2724958143131140   F   F   F
  3.9451301480000271  8.3688848019999824 12.2103998060000407   F   F   F
  7.7202389908714126  8.3344544199587851 17.7843499899030881   F   F   F
 15.8019953387820351  5.5250641237193134 15.0890815076265756   F   F   F
 19.7615016185565295  5.5473947104000016 15.1023603560549713   F   F   F
 15.7805205919999434  8.3688848019999824 12.2103998060000407   F   F   F
  0.0096943220981217  2.7426074401646936 18.6057554562343483   F   F   F
 15.7485236636836916 16.7781525142617483 15.0657519682861114   F   F   F
  7.8172742035216984  5.5375329332556884 15.0853366347711564   F   F   F
 15.7667919685624263  0.0055467356845380 15.1636404138604437   F   F   F
  3.8908922287114005 16.7683968714990641 15.1021427495051626   F   F   F
 19.7256482699999580 13.9481413360000008 12.2103998060000407   F   F   F
 15.8255831188096732 11.1520720088934446 15.0179430076028435   F   F   F
  7.8410908342780132 11.1386483034394868 15.0313632027039930   F   F   F
 11.8602198960241054 16.7999299955578785 15.1157221386914458   F   F   F
  0.0000000000000000 19.5273965409999306 12.2103998060000407   F   F   F
 23.6675767449703329 16.7613724896999194 15.2004965193023747   F   F   F
  7.9026670981100127 16.7617011711060684 15.0451275761058838   F   F   F
 11.8630639502548050 11.1494909441346639 15.0118846579521961   F   F   F
  7.8902602960000570  2.7896282670000101 12.2103998060000407   F   F   F
 11.8690966288594559  5.5360210105820151 15.0724171646350804   F   F   F
  0.0152540006161661  5.5761431591315453 15.1786392720464995   F   F   F
  0.0030534514873441 22.3140805289301021 15.2006742700299178   F   F   F
 15.7805205919999434 13.9481413360000008 12.2103998060000407   F   F   F
 19.7256482699999580 19.5273965409999306 12.2103998060000407   F   F   F
  7.8902602960000570 13.9481413360000008 12.2103998060000407   F   F   F
  7.8902602960000570 19.5273965409999306 12.2103998060000407   F   F   F
  7.8902602960000570  8.3688848019999824 12.2103998060000407   F   F   F
 19.7458274681896953  0.0050388822742908 15.1883913054901960   F   F   F
 15.7805205919999434  2.7896282670000101 12.2103998060000407   F   F   F
  0.0000000000000000 13.9481413360000008 12.2103998060000407   F   F   F
  3.9374523226749427  5.5390927410669271 15.1874128881319468   F   F   F
 11.8389190851683583 22.2995460261015239 15.1632769861586141   F   F   F
  3.9293226700973132  0.0256468565868798 15.1959120628684623   F   F   F
 23.6583892770676627 11.1578616384512621 15.2023309010774792   F   F   F
  7.8848028643700783  0.0245633596273028 15.1719666483561468   F   F   F
 11.8524333032307574 19.5713456922946918 18.2883533856929574   F   F   F
  0.0000000000000000  2.7896282670000101 12.2103998060000407   F   F   F
 23.6502682385987626 19.5243887524076101 18.7158254233004548   F   F   F
 19.7256482699999580  8.3688848019999824 12.2103998060000407   F   F   F
 19.7256482699999580  2.7896282670000101 12.2103998060000407   F   F   F
 15.7711537727897770  2.7922850877548870 18.3361672412597514   F   F   F
 11.8353900909999528 13.9481413360000008 12.2103998060000407   F   F   F
 19.8693450086781240 13.9961031245876057 18.1230214428187679   F   F   F
 11.8353900909999528 19.5273965409999306 12.2103998060000407   F   F   F
  3.8705518326380930 11.1544933844163339 15.0594750088284908   F   F   F
 19.6913326597325380 19.5591769065548284 18.5445764700473497   F   F   F
 19.7987045315972949  8.3200144911374494 18.1188694212383936   F   F   F
 19.7905334619541229 16.7730192130519100 15.0784905299983389   F   F   F
 11.8353900909999528  2.7896282670000101 12.2103998060000407   F   F   F
  3.9451301480000271 19.5273965409999306 12.2103998060000407   F   F   F
 19.7859007359259955 11.1551330014624082 15.0886644554989129   F   F   F
 23.6637212947229294 13.9116948447678528 18.7360644040328914   F   F   F
  3.9451301480000271 13.9481413360000008 12.2103998060000407   F   F   F
  7.8466035384061641  2.6734982796257225 18.3813850000612042   F   F   F
 11.8410194241882660  2.7374624563327550 18.2038969347508406   F   F   F
  3.9451301480000271  2.7896282670000101 12.2103998060000407   F   F   F
  0.0000000000000000  8.3688848019999824 12.2103998060000407   F   F   F
 11.9191843626369014 13.9445675091858128 17.8227580596660111   F   F   F
 11.8353900909999528  8.3688848019999824 12.2103998060000407   F   F   F
 15.7805205919999434 19.5273965409999306 12.2103998060000407   F   F   F
  7.9098296428990995 13.9370735241166503 17.8525733621542457   F   F   F
  7.9188437289686178 19.6117526453464706 18.0802610668956625   F   F   F
  3.9369272283517849 19.4981236529075730 18.5327474544058752   F   F   F
 15.9161839426154454  8.3211928208538417 17.8111889436857993   F   F   F
  3.7757342303713126 14.0016178215277680 18.0402210480206904   F   F   F
  3.9675777070403777  2.7430419912714634 18.6631055779769923   F   F   F
  3.8636121994840646  8.2839822190009844 18.2253210560202810   F   F   F
 15.7427183466330032 19.6646097611959654 18.2176867236876454   F   F   F
 15.7689948574567111 13.9747593240646175 17.7992292816459425   F   F   F
 23.6645369387511053  8.3692702161713299 18.7511409824311954   F   F   F
 19.7380556312971329  2.7608698944773167 18.4297006111613406   F   F   F
 11.9008176806808041  8.2761325171272162 17.8689900236185686   F   F   F
  1.9646704380938704  2.7841100482299104 15.2019763844794191   F   F   F
  1.9161256622248235 13.9667805723724072 15.1629974705384480   F   F   F
 13.8397911715002486 16.7366246987747189 17.9923599305452377   F   F   F
  1.9685269011638595  5.5362204773928125 18.1062671810347489   F   F   F
 17.7413489566729794  0.0360998962388552 18.1270476927834387   F   F   F
 13.7902246015154990  0.0287399548762432 18.1204532733635588   F   F   F
  5.8939130287914896  5.4876594007002613 18.1108651774216689   F   F   F
 13.9758119306387663 11.1850302992710695 17.8089723717149617   F   F   F
  9.8181001525986868  5.5488727980425567 17.7400531425668362   F   F   F
  5.9101596495049415 16.8008761348251419 17.7581725626306728   F   F   F
 13.8460404380135778  5.5217624709186426 17.9223272331763148   F   F   F
  5.9094309035142283 22.2679852937612353 18.1259756972069006   F   F   F
 17.8326807280607653  5.5705344266818750 17.8736906589193048   F   F   F
 21.6945552279473191 22.3113007535911088 18.1139684100837925   F   F   F
  5.8383882592599443  8.3215697766849352 15.0831182285607888   F   F   F