Au  C  O Sr Ti                          
   1.00000000000000     
    23.6707801818999997    0.0000000000000000    0.0000000000000000
     0.0000000000000000   22.3170261383000010    0.0000000000000000
     0.0000000000000000    0.0000000000000000   30.0000000000000000
   Au   C    O    Sr   Ti
    50     2   266    72    72
Selective dynamics
Direct
  0.7123213713209680  0.5239898763153619  0.7523858507257870   F   F   F
  0.5481284965762967  0.2162927067311315  0.7091252154354564   F   F   F
  0.6192491518602594  0.5713589882776091  0.7040934201933666   F   F   F
  0.7823413985602485  0.2795881937171103  0.6973287783554767   T   T   T
  0.2929031254126997  0.7468122816898912  0.6966824607580122   F   F   F
  0.5086903604425146  0.6072148710668372  0.7775094350752383   F   F   F
  0.5778445691208063  0.7265578417827214  0.7943501287662400   F   F   F
  0.2391313311568410  0.4698840211032760  0.7094727268171255   F   F   F
  0.2847034294282125  0.6633272359151903  0.7643125968671995   F   F   F
  0.5959433567587595  0.2983711792423165  0.7856422950316428   F   F   F
  0.5127664956565283  0.4843923750532824  0.6777828049882473   F   F   F
  0.2885983321214880  0.5395131297474052  0.7770951180394121   F   F   F
  0.5586071148666605  0.4896438349797805  0.7627657885255701   F   F   F
  0.7615774918527620  0.4288905584874243  0.7053031589076326   F   F   F
  0.4626432044369935  0.6986053711274778  0.8317598333256910   F   F   F
  0.4324116802383386  0.2277750848306468  0.6988151165736696   F   F   F
  0.3671718864045417  0.3005309758710979  0.7565737259861933   F   F   F
  0.3475487524575769  0.4997677841460444  0.6967305485920221   F   F   F
  0.4236346756632301  0.3735974951775134  0.8184943637014825   F   F   F
  0.5958743382873521  0.7845311807261979  0.7130045655271431   F   F   F
  0.6318500718933109  0.5849085985310793  0.7995380829352285   F   F   F
  0.7305734942255242  0.6149112845534148  0.6937904990062904   F   F   F
  0.4852832765282855  0.7757444111235969  0.7545599911292769   F   F   F
  0.5410042810402089  0.3885458781686921  0.8308194316087167   F   F   F
  0.4818384583611532  0.2732428882788938  0.7746977120847802   F   F   F
  0.3911179497865689  0.8172081628103172  0.7064242418568227   F   F   F
  0.4612897006814904  0.5766224434496507  0.8653403587618200   F   F   F
  0.4509087477824636  0.5793420734318744  0.7035778999683231   F   F   F
  0.7061451263084564  0.7568676800260903  0.6885284570001744   F   F   F
  0.6496236178030230  0.4401426362026228  0.8120760004209799   F   F   F
  0.3678994776365982  0.6206919113853147  0.8201230614879620   F   F   F
  0.5669320842365480  0.5114099707920587  0.8572594559308584   F   F   F
  0.4663831174159228  0.4546766155603592  0.8823777356888414   F   F   F
  0.5188795741184791  0.3790586569375307  0.7328909241874086   F   F   F
  0.2808841643310984  0.3412788274999201  0.7022405028707510   F   F   F
  0.6684041433871428  0.6816952419666933  0.7490606258180392   F   F   F
  0.3969069115284327  0.3818042674077375  0.6905822113436884   F   F   F
  0.6198227222328541  0.3164542055141837  0.6952507407172988   F   F   F
  0.6702868973721934  0.2208321625364107  0.7397314858973303   T   T   T
  0.3229666333754011  0.4165586391252631  0.7701140607425572   F   F   F
  0.3734488914699270  0.7410460404750623  0.7791801538665197   F   F   F
  0.3735222670063791  0.4954992077419362  0.8332738625041145   F   F   F
  0.4403874786429753  0.4718560421930533  0.7558013672240449   F   F   F
  0.5388237435720242  0.6681460687550995  0.7015269839492717   F   F   F
  0.6454651583070827  0.4441806430502240  0.6957689257867017   F   F   F
  0.5636982054191222  0.6413653545022981  0.8620289521016886   F   F   F
  0.2569275256703634  0.5939154007570053  0.6941581626444417   F   F   F
  0.7696699881906426  0.4290904711766714  0.7958023247294008   F   F   F
  0.6993353381571126  0.3440642582370330  0.7593694527906933   F   F   F
  0.4143169665067248  0.6951861342042562  0.6999269255416749   F   F   F
  0.6972025132374853  0.1365438497373432  0.7416026661703441   T   T   T
  0.8199597415747775  0.2485071228843054  0.7481011090473260   T   T   T
  0.0838212007540591  0.9366667707444094  0.4534470902806191   F   F   F
  0.0838228843880984  0.1865470684182782  0.4529634939347247   F   F   F
  0.0833333358191695  0.3124999999901945  0.3605200052333331   F   F   F
  0.0827908036650129  0.4367832232500106  0.4528544122193736   F   F   F
  0.0843087085830732  0.6869582391977218  0.4531382155169581   F   F   F
  0.7494162129502087  0.4387688601819946  0.4549361309076403   F   F   F
  0.4172051923119824  0.6846590257834819  0.4547564603750729   F   F   F
  0.4170669460295002  0.9359138553350945  0.4540173958883713   F   F   F
  0.7499629067444928  0.1877910951784827  0.4537359387834030   F   F   F
  0.9161133580794640  0.5621928926449513  0.4541036744367375   F   F   F
  0.7491700949695286  0.6888501140262306  0.4572253370676336   F   F   F
  0.4176260144536812  0.4353127802437626  0.4542243979102309   F   F   F
  0.9162434368491006  0.0622621695168490  0.4538710286317169   F   F   F
  0.6661619353934043  0.1254699206807857  0.4995453473118303   F   F   F
  0.4169375601064118  0.1872565127171271  0.4539380856989226   F   F   F
  0.2520648773316836  0.6875737584507036  0.4560997568269514   F   F   F
  0.9163883744656687  0.9370820072617505  0.4535673519647929   F   F   F
  0.5831656553319604  0.1902693782558131  0.4556679131854651   F   F   F
  0.9997592934592419  0.1249684597012433  0.4985381456502793   F   F   F
  0.5832380659712939  0.8104839631410030  0.4553318683057483   F   F   F
  0.9998143692560006  0.3736945775121612  0.4981258559743651   F   F   F
  0.9996199189913639  0.6270890073590110  0.4976510135807075   F   F   F
  0.3338887650903857  0.1255998546894190  0.4991843291700349   F   F   F
  0.0000770132763250  0.8746626814739713  0.4993874662673008   F   F   F
  0.3333793093390511  0.8736054295938303  0.4990569051789393   F   F   F
  0.2510421963652334  0.4391268314346206  0.4550344665120392   F   F   F
  0.0833333358191695  0.5625000000092442  0.3605200052333331   F   F   F
  0.7497920339387392  0.9373395292661755  0.4546882396648186   F   F   F
  0.9163827347906519  0.3122464827161977  0.4536980802445356   F   F   F
  0.2502343002690353  0.1884371484953604  0.4541417597628978   F   F   F
  0.5833868355521901  0.0635852157885211  0.4541113189615089   F   F   F
  0.3355143701585632  0.6255988786067803  0.5037296997371286   F   F   F
  0.5827075010967135  0.9371745850643336  0.4543107772652206   F   F   F
  0.5826871566884364  0.6861204928992564  0.4546119637814385   F   F   F
  0.5822704146053468  0.4395588687885379  0.4563380168905908   F   F   F
  0.2500144744772328  0.9360463186335437  0.4540175492829874   F   F   F
  0.6653410660135961  0.6265540871752648  0.5028507263329018   F   F   F
  0.5845590099673998  0.5628798074997832  0.4547903797482817   F   F   F
  0.7107508915910756  0.0874987728778436  0.7439990384249313   T   T   T
  0.9166666865332829  0.6874999999963620  0.3605200052333331   F   F   F
  0.9166666865332829  0.4374999701794380  0.3605200052333331   F   F   F
  0.9166666865332829  0.1875000000030838  0.3605200052333331   F   F   F
  0.5833333134730552  0.9375000000154046  0.3605200052333331   F   F   F
  0.5833333134730552  0.6874999999963620  0.3605200052333331   F   F   F
  0.5833333134730552  0.4374999701794380  0.3605200052333331   F   F   F
  0.5833333134730552  0.1875000000030838  0.3605200052333331   F   F   F
  0.9160313583947683  0.0622739344967229  0.5467827323751848   F   F   F
  0.2499999999799343  0.9375000000154046  0.3605200052333331   F   F   F
  0.2499999999799343  0.6874999999963620  0.3605200052333331   F   F   F
  0.2499999999799343  0.1875000000030838  0.3605200052333331   F   F   F
  0.7499999404149307  0.9375000000154046  0.3605200052333331   F   F   F
  0.7499999404149307  0.6874999999963620  0.3605200052333331   F   F   F
  0.7499999404149307  0.4374999701794380  0.3605200052333331   F   F   F
  0.7499999404149307  0.1875000000030838  0.3605200052333331   F   F   F
  0.4166666269218169  0.9375000000154046  0.3605200052333331   F   F   F
  0.4166666269218169  0.6874999999963620  0.3605200052333331   F   F   F
  0.4166666269218169  0.4374999701794380  0.3605200052333331   F   F   F
  0.2499999999799343  0.4374999701794380  0.3605200052333331   F   F   F
  0.0833333358191695  0.0625000000159659  0.3605200052333331   F   F   F
  0.9153007275938947  0.6868665891126895  0.4533176343920928   F   F   F
  0.6656244199142947  0.3795253135270755  0.5028421902867777   F   F   F
  0.3346190726020239  0.3782820871463812  0.5031253370946160   F   F   F
  0.9166666865332829  0.9375000000154046  0.3605200052333331   F   F   F
  0.9166666865332829  0.0625000000159659  0.3605200052333331   F   F   F
  0.1666666716383389  0.4999999999932783  0.4070133268666680   F   F   F
  0.2504895115580013  0.0620992769293451  0.4543044883445333   F   F   F
  0.5833333134730552  0.8124999999834799  0.3605200052333331   F   F   F
  0.5833333134730552  0.3124999999901945  0.3605200052333331   F   F   F
  0.5833333134730552  0.0625000000159659  0.3605200052333331   F   F   F
  0.2499999999799343  0.8124999999834799  0.3605200052333331   F   F   F
  0.2499999999799343  0.5625000000092442  0.3605200052333331   F   F   F
  0.2499999999799343  0.3124999999901945  0.3605200052333331   F   F   F
  0.2499999999799343  0.0625000000159659  0.3605200052333331   F   F   F
  0.7499999404149307  0.5625000000092442  0.3605200052333331   F   F   F
  0.7499999404149307  0.3124999999901945  0.3605200052333331   F   F   F
  0.7499999404149307  0.0625000000159659  0.3605200052333331   F   F   F
  0.4166666269218169  0.8124999999834799  0.3605200052333331   F   F   F
  0.4166666269218169  0.5625000000092442  0.3605200052333331   F   F   F
  0.4166666269218169  0.3124999999901945  0.3605200052333331   F   F   F
  0.7499999404149307  0.8124999999834799  0.3605200052333331   F   F   F
  0.0834672880388609  0.3119863815234964  0.4540232342944179   F   F   F
  0.4166666269218169  0.0625000000159659  0.3605200052333331   F   F   F
  0.4170077494655828  0.0616839836326335  0.4553928524609034   F   F   F
  0.0835536557891601  0.8120436065232113  0.4542039591714797   F   F   F
  0.0839567808264192  0.5624858932514059  0.4539337107485366   F   F   F
  0.4159039033557193  0.5594065240217034  0.4578435708616553   F   F   F
  0.0836771137442014  0.0618931899827473  0.4542396996117333   F   F   F
  0.4155457831571070  0.3113254707870681  0.4573756847201409   F   F   F
  0.8333332538436267  0.7500000000123208  0.4070133268666680   F   F   F
  0.0833333358191695  0.4374999701794380  0.3605200052333331   F   F   F
  0.0833333358191695  0.6874999999963620  0.3605200052333331   F   F   F
  0.0833333358191695  0.9375000000154046  0.3605200052333331   F   F   F
  0.4166666269218169  0.1875000000030838  0.3605200052333331   F   F   F
  0.0833333358191695  0.8124999999834799  0.3605200052333331   F   F   F
  0.8333332538436267  0.4999999999932783  0.4070133268666680   F   F   F
  0.7492011809735644  0.0625640050773058  0.4539626660201677   F   F   F
  0.5833333134730552  0.5625000000092442  0.3605200052333331   F   F   F
  0.4170388802590850  0.8099723302601660  0.4550494698505929   F   F   F
  0.0000000000000000  0.7500000000123208  0.4070133268666680   F   F   F
  0.9155694573739979  0.3126929809609820  0.5468413987958201   F   F   F
  0.2522800101357632  0.3141028830316230  0.4541648943525018   F   F   F
  0.2517763966705218  0.5645294501285747  0.4538236398298849   F   F   F
  0.2502385059473582  0.8106808975679201  0.4553280648008027   F   F   F
  0.8333332538436267  0.2500000000190425  0.4070133268666680   F   F   F
  0.5844075058622025  0.3154945075519606  0.4535630899762779   F   F   F
  0.8333332538436267  0.0000000000000000  0.4070133268666680   F   F   F
  0.5000000000021103  0.4999999999932783  0.4070133268666680   F   F   F
  0.0833333358191695  0.1875000000030838  0.3605200052333331   F   F   F
  0.0000000000000000  0.0000000000000000  0.4070133268666680   F   F   F
  0.0000000000000000  0.2500000000190425  0.4070133268666680   F   F   F
  0.0000000000000000  0.4999999999932783  0.4070133268666680   F   F   F
  0.7481904213008761  0.5645529463147838  0.4537583527233906   F   F   F
  0.3333333432766779  0.0000000000000000  0.4070133268666680   F   F   F
  0.7493242730826850  0.8130542172078066  0.4531927116271461   F   F   F
  0.3333333432766779  0.4999999999932783  0.4070133268666680   F   F   F
  0.6666666865533486  0.0000000000000000  0.4070133268666680   F   F   F
  0.6666666865533486  0.2500000000190425  0.4070133268666680   F   F   F
  0.6666666865533486  0.4999999999932783  0.4070133268666680   F   F   F
  0.6666666865533486  0.7500000000123208  0.4070133268666680   F   F   F
  0.1666666716383389  0.0000000000000000  0.4070133268666680   F   F   F
  0.1666666716383389  0.2500000000190425  0.4070133268666680   F   F   F
  0.9159499580130372  0.1868736407876668  0.4531513945257402   F   F   F
  0.1666666716383389  0.7500000000123208  0.4070133268666680   F   F   F
  0.5000000000021103  0.0000000000000000  0.4070133268666680   F   F   F
  0.5000000000021103  0.2500000000190425  0.4070133268666680   F   F   F
  0.5000000000021103  0.7500000000123208  0.4070133268666680   F   F   F
  0.9166666865332829  0.3124999999901945  0.3605200052333331   F   F   F
  0.3333333432766779  0.2500000000190425  0.4070133268666680   F   F   F
  0.7474585095660871  0.3136994504448865  0.4542937591918204   F   F   F
  0.3333333432766779  0.7500000000123208  0.4070133268666680   F   F   F
  0.9162113889134247  0.4370623083886898  0.4534490200439123   F   F   F
  0.9164801463505512  0.8120950707014600  0.4540346821008825   F   F   F
  0.7494971721524450  0.0617532901944102  0.5461551967721121   F   F   F
  0.7518928430822456  0.6807638494739479  0.5531068879922216   F   F   F
  0.7531674311878476  0.4365832173657509  0.5482326980705565   F   F   F
  0.4233207115890423  0.4432761402509442  0.5460610353974715   F   F   F
  0.4228978114635140  0.6875476393930811  0.5468540985470440   F   F   F
  0.7497513986160698  0.1869257169830973  0.5466221942985996   F   F   F
  0.4158153169515089  0.9368135009944467  0.5461217543732459   F   F   F
  0.5008885858582914  0.2537824782652933  0.5917905125852556   F   F   F
  0.4175607534132837  0.1907672755016776  0.5474852803403678   F   F   F
  0.0857369278896556  0.6891126435277002  0.5452463720260496   F   F   F
  0.0827487351032943  0.4384724106610278  0.5448420931263698   F   F   F
  0.0830313778752583  0.1889508999950777  0.5455164673243189   F   F   F
  0.4998612341672271  0.1256587540779179  0.4995963757754467   F   F   F
  0.9991237751115492  0.4976624885821295  0.5942892458588744   F   F   F
  0.5817982807380702  0.1851948183280143  0.5505753813541645   F   F   F
  0.7484147956556697  0.9348702946301515  0.5467515410502131   F   F   F
  0.9999985670580784  0.7532918282911467  0.5923540915945651   F   F   F
  0.9996747948070777  0.9977841776334699  0.5923920792415771   F   F   F
  0.9989786890064494  0.2483969329985953  0.5927725482454065   F   F   F
  0.3331006901485694  0.4955761134048799  0.5911516880692389   F   F   F
  0.3352919757955206  0.7411418339917901  0.5903431515458735   F   F   F
  0.6661568575925472  0.2465440897881308  0.5913185284502447   F   F   F
  0.6657958854246857  0.9998300466098797  0.5918100061926026   F   F   F
  0.6655361079155355  0.7415820402584288  0.5905815369281058   F   F   F
  0.6668183743190994  0.4931120774766384  0.5910765382012286   F   F   F
  0.1673146184567287  0.9985165434634382  0.5923232037993529   F   F   F
  0.1679068384535611  0.2493385421634713  0.5931599644595167   F   F   F
  0.1704973575433755  0.7499680415719183  0.5947428447799439   F   F   F
  0.2482866914128152  0.4355546585699344  0.5491698118571549   F   F   F
  0.1653023737556722  0.5024203327564791  0.5870486494171629   F   F   F
  0.3351923275174542  0.2539510424975191  0.5928149113303363   F   F   F
  0.3339767986076509  0.9999422660967880  0.5919232371536793   F   F   F
  0.4996460789698887  0.9999225396412825  0.5911901665666903   F   F   F
  0.2490736021771838  0.6831036350180284  0.5518884829510853   F   F   F
  0.9155400909764282  0.8124290470291342  0.5468654002536226   F   F   F
  0.1669530815562865  0.1247347632904052  0.4995772896991681   F   F   F
  0.4142899345228201  0.8115470820275945  0.5477472116199991   F   F   F
  0.2510281228903608  0.0625964550149618  0.5472404087959717   F   F   F
  0.7460826524300117  0.5586601201336592  0.5447091910387485   F   F   F
  0.7481025451508572  0.8083336144281645  0.5458513441466692   F   F   F
  0.2497291283627092  0.3134643275164208  0.5459839695674304   F   F   F
  0.5846418453974209  0.3102644106315324  0.5449255268674946   F   F   F
  0.2528905687963814  0.8124737329593472  0.5507285043831160   F   F   F
  0.5828527429993642  0.0621450891069557  0.5459067609127644   F   F   F
  0.5856985870025682  0.8142538898118019  0.5503315585643378   F   F   F
  0.7481706037822349  0.3137899285941543  0.5469950461063604   F   F   F
  0.5816931775588543  0.5597433366919020  0.5487829332022756   F   F   F
  0.2524235901484886  0.5589540191340845  0.5439872124491103   F   F   F
  0.4164704229606642  0.3188518634849729  0.5528539392397178   F   F   F
  0.0836273665254907  0.9389585866630057  0.5456106744756681   F   F   F
  0.5764029417455632  0.4354894904374120  0.5520687707765504   F   F   F
  0.0852002159457470  0.8128861220318555  0.5474978482525401   F   F   F
  0.0807474886109532  0.5642587446752785  0.5464093099449414   F   F   F
  0.0846034082919900  0.3131936451468746  0.5470890793748282   F   F   F
  0.0823623660658441  0.0632212403819352  0.5474774839793284   F   F   F
  0.9159641161947221  0.9381126186555733  0.5461093068307932   F   F   F
  0.9142797366166349  0.6887002057317986  0.5456176261877133   F   F   F
  0.5837807906522769  0.9376958818849417  0.5461587713852794   F   F   F
  0.9163045112568042  0.1878248378195053  0.5457838497585357   F   F   F
  0.9152378404974684  0.4374549910365602  0.5455529909716432   F   F   F
  0.5791479659193612  0.6859155360314375  0.5475147314167330   F   F   F
  0.2515182483134097  0.9372726642564686  0.5451958887627839   F   F   F
  0.4971577395537778  0.5045613788536798  0.6090089383428818   F   F   F
  0.9179076510714168  0.5637854981699491  0.5473037532136402   F   F   F
  0.4197301056662042  0.5645641667608601  0.5554011105420003   F   F   F
  0.4168585550856747  0.0649100816057455  0.5473994533261930   F   F   F
  0.8326339565428142  0.8742391796372644  0.4987564798990149   F   F   F
  0.8414201737545497  0.2277867384926040  0.7783399219404168   T   T   T
  0.8322094288388016  0.9978932931263742  0.5922758428814987   F   F   F
  0.7552969346062994  0.4362888748528420  0.6386823189120605   F   F   F
  0.4172668079803330  0.9349944566179360  0.6398296903396954   F   F   F
  0.4202009081107434  0.6759138827191435  0.6338054777165354   F   F   F
  0.5907009004279260  0.8097083625449955  0.6460375317836693   F   F   F
  0.9161269615997085  0.0610332571943033  0.6405161096260343   F   F   F
  0.9139012944753020  0.5616441775855918  0.6413643417770274   F   F   F
  0.9127403055005487  0.3109943095681942  0.6406264348149833   F   F   F
  0.9147093115818805  0.8121637409884741  0.6426316064449438   F   F   F
  0.5829088682923711  0.0654760152678548  0.6392103723188143   F   F   F
  0.5887044652382443  0.3214324807374282  0.6327440795248478   F   F   F
  0.5912717308096731  0.5651758425110458  0.6383786538041889   F   F   F
  0.2474687674028786  0.5735170722458349  0.6285947103586196   F   F   F
  0.7538024726220911  0.6921496844129678  0.6575120464901616   F   F   F
  0.2618248455025025  0.7998912470218684  0.6461425863952783   F   F   F
  0.7492408272116933  0.1859637962152050  0.6412029717227767   F   F   F
  0.9166666865332829  0.5625000000092442  0.3605200052333331   F   F   F
  0.4999801124844652  0.8734493756207797  0.5008864155885320   F   F   F
  0.5002238642001302  0.6208408663366072  0.5000958258622248   F   F   F
  0.8323823151329393  0.6230609862495200  0.5000970829121485   F   F   F
  0.2518353719853863  0.1884252374797128  0.5471922308079371   F   F   F
  0.8331268357480113  0.3734180075386675  0.4988408825700006   F   F   F
  0.8329763568401276  0.1242224476401148  0.4989177425898461   F   F   F
  0.1665166526250204  0.3755253830064404  0.4980778558826557   F   F   F
  0.1675344620203063  0.6241217587829979  0.5001409092822016   F   F   F
  0.5795805319599765  0.4381586844842289  0.6462199658725609   F   F   F
  0.5773415816021270  0.6855269515926778  0.6394362180475284   F   F   F
  0.9132377275100794  0.1849912449527267  0.6403890726213888   F   F   F
  0.2496877086648936  0.3168036779453800  0.6407724604496678   F   F   F
  0.1676745264694972  0.8733395092708705  0.4998465829538148   F   F   F
  0.7473473921613945  0.9336091376404170  0.6399959204840826   F   F   F
  0.4998909325260357  0.3725769060143520  0.5007950464944599   F   F   F
  0.2530149939035198  0.1865041544468582  0.6409849116944102   F   F   F
  0.2509475047410774  0.0595127477157291  0.6422673992737415   F   F   F
  0.8305536886954528  0.7511451578489599  0.5931045600309233   F   F   F
  0.4176284442320934  0.0651832731261592  0.6400928450015897   F   F   F
  0.5817285238255110  0.9349277413215162  0.6394641535110495   F   F   F
  0.5005769597609415  0.7562624665361071  0.5926548257688466   F   F   F
  0.4255405388104236  0.3042009894129265  0.6557097171892110   F   F   F
  0.4123069983139729  0.8127519105847227  0.6393941016038340   F   F   F
  0.3971168059779018  0.5503502267676055  0.6519362927998600   F   F   F
  0.7518265397877428  0.5701059000622735  0.6350376643908220   F   F   F
  0.7411373139255275  0.8094644938355984  0.6402294376217981   F   F   F
  0.7490151239300431  0.3124859220152842  0.6420522865237359   F   F   F
  0.0826934995876059  0.3112590208804349  0.6403899874838359   F   F   F
  0.6664058625815983  0.8742977240964223  0.4987887320619890   F   F   F
  0.0862979785560825  0.5617046801847323  0.6398684116862512   F   F   F
  0.0828878634505585  0.0605836391002796  0.6413890808697289   F   F   F
  0.0867384713782187  0.4355739983298292  0.6396211091053132   F   F   F
  0.0833209104870107  0.1853685699542638  0.6409136841759988   F   F   F
  0.7484476632989825  0.0623422365241950  0.6401994829231867   F   F   F
  0.5803359936048693  0.1916991236973971  0.6458257630007438   F   F   F
  0.4180851114314592  0.1873630551461360  0.6400112914014429   F   F   F
  0.9166666865332829  0.8124999999834799  0.3605200052333331   F   F   F
  0.0851512142968147  0.8118301192753918  0.6427235567974421   F   F   F
  0.2520254218179190  0.9303091089534021  0.6373197304610088   F   F   F
  0.2544825460205971  0.6780656480721419  0.6620019524269125   F   F   F
  0.8329634608308396  0.5039683727761854  0.5890280667266410   F   F   F
  0.2392906966204222  0.4422516534104659  0.6419540604243181   F   F   F
  0.8312642069351881  0.2492761828933254  0.5909094259886416   F   F   F
  0.9166263002416244  0.6869810794576381  0.6387569927483554   F   F   F
  0.9108978796653631  0.4348190043522564  0.6396534541864511   F   F   F
  0.0830318879523446  0.6864618509799456  0.6387766382556848   F   F   F
  0.0845619751226039  0.9355735374802734  0.6408182920908700   F   F   F
  0.4156198181962978  0.4181891649821026  0.6302330894286285   F   F   F
  0.9154581698619353  0.9358185461935449  0.6416097741304441   F   F   F
  0.9993321663486157  0.1233475821466783  0.6193309865434884   F   F   F
  0.1666666716383389  0.3750000000061604  0.4070133268666680   F   F   F
  0.1659152902842109  0.0011665873254003  0.5065200160936669   F   F   F
  0.8333332538436267  0.6249999999803961  0.4070133268666680   F   F   F
  0.5009055772730591  0.7527690021957412  0.5039509967882907   F   F   F
  0.1642858914726304  0.7513178373842067  0.5033180616044248   F   F   F
  0.9992534211464559  0.4997648840395499  0.5067752969210986   F   F   F
  0.6679165322591061  0.2475053962082399  0.5035761982466411   F   F   F
  0.3302606295053465  0.2479221274396863  0.5027622875595839   F   F   F
  0.3330387703329265  0.0010436657218804  0.5057306757770448   F   F   F
  0.3337564581319299  0.7510579132533053  0.5015116695656943   F   F   F
  0.6689306676147808  0.4994483552248994  0.5005722862957356   F   F   F
  0.6662573905994265  0.0003290412317654  0.5055383382146772   F   F   F
  0.3310624579289509  0.4989978121810381  0.5009976106196206   F   F   F
  0.5012767998431187  0.4995528303983221  0.5003303640779748   F   F   F
  0.8337493911320308  0.2482515503064917  0.5045926826572327   F   F   F
  0.6666666865533486  0.6249999999803961  0.4070133268666680   F   F   F
  0.1659239062143172  0.2482118468396095  0.5062744725275010   F   F   F
  0.0000000000000000  0.8749999404036828  0.4070133268666680   F   F   F
  0.5013972361632781  0.2478336450116103  0.5024146530616704   F   F   F
  0.9999393977081965  0.7507925122987160  0.5066054803334410   F   F   F
  0.9997475016679331  0.2495252911115813  0.5062596085593185   F   F   F
  0.9999006437126141  0.9998196778397599  0.5062873141303328   F   F   F
  0.8333332538436267  0.8749999404036828  0.4070133268666680   F   F   F
  0.0000000000000000  0.6249999999803961  0.4070133268666680   F   F   F
  0.3333333432766779  0.6249999999803961  0.4070133268666680   F   F   F
  0.3333333432766779  0.1249999999871179  0.4070133268666680   F   F   F
  0.3333333432766779  0.3750000000061604  0.4070133268666680   F   F   F
  0.8339738783291537  0.9999066746740866  0.5062168825829332   F   F   F
  0.3333333432766779  0.8749999404036828  0.4070133268666680   F   F   F
  0.6666666865533486  0.1249999999871179  0.4070133268666680   F   F   F
  0.6666666865533486  0.3750000000061604  0.4070133268666680   F   F   F
  0.8355476539413331  0.4996167464309877  0.5027881686607714   F   F   F
  0.1634200939742243  0.4995664654938068  0.5019357362796768   F   F   F
  0.6653617713414661  0.7517609878063354  0.5021869625808080   F   F   F
  0.6666666865533486  0.8749999404036828  0.4070133268666680   F   F   F
  0.3263769177386706  0.3731719605248074  0.5925266689442594   F   F   F
  0.0000000000000000  0.3750000000061604  0.4070133268666680   F   F   F
  0.3339689783598274  0.6243035010892726  0.5948864019870541   F   F   F
  0.5000000000021103  0.8749999404036828  0.4070133268666680   F   F   F
  0.8333332538436267  0.1249999999871179  0.4070133268666680   F   F   F
  0.8333332538436267  0.3750000000061604  0.4070133268666680   F   F   F
  0.1666666716383389  0.1249999999871179  0.4070133268666680   F   F   F
  0.5000000000021103  0.6249999999803961  0.4070133268666680   F   F   F
  0.8395244549708210  0.6266548693217331  0.6043185547879943   F   F   F
  0.3313775463454078  0.1198836966930017  0.6128532800239341   F   F   F
  0.9999413870757010  0.8739470058846592  0.6238536906697689   F   F   F
  0.5000000000021103  0.1249999999871179  0.4070133268666680   F   F   F
  0.8326434431731897  0.8749917571636132  0.6197290876659309   F   F   F
  0.8356794269216081  0.3719022973035564  0.6015403597245736   F   F   F
  0.5001316541282037  0.9991228965630796  0.5056147126057908   F   F   F
  0.5001919957975502  0.8764492376991129  0.6096483768707728   F   F   F
  0.6663139646920797  0.1213289212232809  0.6094270725739506   F   F   F
  0.8360485241946236  0.7513615957088220  0.5027420913544418   F   F   F
  0.5033618300163383  0.6245300200031849  0.5940433278260144   F   F   F
  0.5000000000021103  0.3750000000061604  0.4070133268666680   F   F   F
  0.1666666716383389  0.6249999999803961  0.4070133268666680   F   F   F
  0.6735206946119732  0.3718826758398421  0.5941826321416741   F   F   F
  0.3344367487901039  0.8787191209252185  0.6027943232640851   F   F   F
  0.1592570409144471  0.6265699443025241  0.6012187115075918   F   F   F
  0.1666666716383389  0.8749999404036828  0.4070133268666680   F   F   F
  0.5027100658003363  0.3707669944343053  0.5954387286284017   F   F   F
  0.5004784721631736  0.1217727534947315  0.6069641724360935   F   F   F
  0.1663725639789817  0.8735083827825960  0.6179293197373639   F   F   F
  0.1628479722086524  0.3706241963235328  0.6075645326341998   F   F   F
  0.6643022208361558  0.8794580665090521  0.6067830104010596   F   F   F
  0.6661443088232915  0.6263315462078651  0.5931301041396608   F   F   F
  0.9985160970638560  0.3740033909166058  0.6235456692492249   F   F   F
  0.9997258464356307  0.6223677737735755  0.6241554700223162   F   F   F
  0.8330511370675495  0.1206347942557642  0.6129711418509629   F   F   F
  0.0000000000000000  0.1249999999871179  0.4070133268666680   F   F   F
  0.1671818444971933  0.1223858568469112  0.6216708122616268   F   F   F
  0.7495341236292248  0.9981755796427123  0.6041884444969980   F   F   F
  0.5823823544438227  0.0000473013528861  0.6043629109689803   F   F   F
  0.9167437061121504  0.9977044448821744  0.6033799658387551   F   F   F
  0.5841875672868468  0.7494433984261590  0.5996339841104259   F   F   F
  0.5906652699144033  0.5009608338308240  0.5935223598064567   F   F   F
  0.2422026365270256  0.4973511154552313  0.5941034898091999   F   F   F
  0.4162650358490367  0.7502343010317460  0.5945243123138582   F   F   F
  0.5836926326544827  0.2466322576956586  0.5970941904674021   F   F   F
  0.2495400048879972  0.9978068219485721  0.6041823455594795   F   F   F
  0.7502521737493950  0.2423573814757347  0.5995887607172392   F   F   F
  0.2483085492960058  0.2458258661380199  0.6035215578825586   F   F   F
  0.4169697778779309  0.0000891741726932  0.6047117114101184   F   F   F
  0.4142702496340860  0.2485989793586754  0.5915108889437377   F   F   F
  0.2493238420332986  0.7525727215507203  0.5919504045386574   F   F   F
  0.0820564838098434  0.2477507065831759  0.6034630738907225   F   F   F
  0.4168459484092324  0.6260794015383624  0.5009997186143949   F   F   F