Au  C  H  O Sr Ti                       
   1.00000000000000     
    23.6707801818999997    0.0000000000000000    0.0000000000000000
     0.0000000000000000   22.3170261383000010    0.0000000000000000
     0.0000000000000000    0.0000000000000000   30.0000000000000000
   Au   C    H    O    Sr   Ti
    50     2     3   265    72    72
Selective dynamics
Direct
  0.7135123747379097  0.5270258194566040  0.7533121915019052   F   F   F
  0.5681612382346870  0.5115977293625207  0.8571011408566278   F   F   F
  0.6614758737391355  0.1919884841089186  0.7495630475717903   T   T   T
  0.4687536555003220  0.4525171159039090  0.8794981240413762   F   F   F
  0.2809619219338373  0.3415076403644548  0.7025710058751571   F   F   F
  0.6685016540314521  0.6825570424392637  0.7487391594603636   F   F   F
  0.3970620278997217  0.3822843710846442  0.6908303773314799   F   F   F
  0.4508960725687317  0.5802945538666009  0.7034773571535382   F   F   F
  0.3739647228621052  0.4954053396578075  0.8331391070942260   F   F   F
  0.3234106644492343  0.4164872923383811  0.7699380802558196   F   F   F
  0.3686048311332897  0.6207094798399950  0.8201461332522726   F   F   F
  0.2886492075577252  0.5397235381465677  0.7770870421058831   F   F   F
  0.5172266082503114  0.3789012067280026  0.7329094855500813   F   F   F
  0.2561229590881808  0.5942388534793821  0.6945010883020899   F   F   F
  0.6485133500947029  0.4476859751848536  0.6942668005585588   F   F   F
  0.5633953081356537  0.6416098224714446  0.8622286037489744   F   F   F
  0.5384903935767298  0.6689165699717279  0.7023103645799154   F   F   F
  0.4413723561616081  0.4735947386059678  0.7560648793121345   F   F   F
  0.7063207168056991  0.7575179583500358  0.6880982703939367   F   F   F
  0.3743393963250767  0.7419665023237059  0.7794348089797083   F   F   F
  0.4617382626824806  0.5753712560805084  0.8653535986655569   F   F   F
  0.6531266974601238  0.4422500772515221  0.8125797767851708   F   F   F
  0.4141596163406476  0.6961158369233758  0.6999414600080200   F   F   F
  0.7714186168546249  0.4318241859419985  0.7951598857404036   F   F   F
  0.3477261090176924  0.5003675936322693  0.6969263466986106   F   F   F
  0.6988270163962653  0.3468353266352366  0.7567256296088232   F   F   F
  0.5523938463301690  0.2160718146209106  0.7101030566602873   F   F   F
  0.5776301941205446  0.7264833295157018  0.7942093720739578   F   F   F
  0.2392779014239252  0.4702595496478139  0.7091701191402251   F   F   F
  0.2861246587267630  0.6637121548261291  0.7639701913642938   F   F   F
  0.5981554367885664  0.2922062156399079  0.7843369296637874   F   F   F
  0.5133953318930935  0.4855578668978282  0.6781021144814190   F   F   F
  0.5607454217649135  0.4885495793391428  0.7624630534494656   F   F   F
  0.4829412126027890  0.2717202538531467  0.7749123301755176   F   F   F
  0.5455620342745746  0.3871291519227640  0.8285054762989859   F   F   F
  0.6163135277660103  0.3230700201316310  0.6955637945007069   F   F   F
  0.3914915479014951  0.8184043425159615  0.7065716673602367   F   F   F
  0.4353244845307529  0.2279188179930216  0.6980810264881399   F   F   F
  0.3682265006556591  0.3001343799401681  0.7561832346014299   F   F   F
  0.4257320828590423  0.3730970435252772  0.8166856842671493   F   F   F
  0.5962446509474688  0.7850977299847557  0.7127290128674630   F   F   F
  0.6321291311288206  0.5864220546476417  0.8000089139343416   F   F   F
  0.7310261837796759  0.6159350248543589  0.6934667187073629   F   F   F
  0.4857095683048698  0.7772607560679319  0.7544834539141831   F   F   F
  0.7633509217349044  0.4330426374776977  0.7048622193071878   F   F   F
  0.7197567066048975  0.2583316764353398  0.6914609077120488   F   F   F
  0.6194968953130484  0.5726174008723817  0.7039333980134685   F   F   F
  0.4630638442445800  0.6982528600343656  0.8317065868969991   F   F   F
  0.5093009407091458  0.6058515693437556  0.7778455875047783   F   F   F
  0.2942084867376806  0.7475342932331444  0.6959582593805962   F   F   F
  0.7215865977030518  0.0723417211167998  0.7471259021404819   T   T   T
  0.7294715290484461  0.1342036139311631  0.7657451118494762   T   T   T
  0.7508461580082084  0.0419371141821614  0.7638410482616607   T   T   T
  0.7307443056877929  0.0736055935834727  0.7111236845738773   T   T   T
  0.6779419431967852  0.0574783054362697  0.7510574403607393   T   T   T
  0.0843697698385952  0.6869787922721997  0.4531638031022140   F   F   F
  0.5856721241884486  0.8141602892903848  0.5503859622123670   F   F   F
  0.7481345214575157  0.3118453215443111  0.5485160691037834   F   F   F
  0.5811425422214072  0.5599414683834425  0.5487853060162848   F   F   F
  0.2525525638175310  0.5591062111249840  0.5438522506566130   F   F   F
  0.4159191597354734  0.3195909742179737  0.5524658423124365   F   F   F
  0.5765645139634188  0.4357882497506580  0.5522661460518634   F   F   F
  0.4166888001090996  0.0654727354596787  0.5473474517514347   F   F   F
  0.0850742165443776  0.8126157726778871  0.5473287082085747   F   F   F
  0.4998403264282985  0.7571359285736889  0.5925489216947142   F   F   F
  0.0824144705425596  0.0631307971785944  0.5475911419728945   F   F   F
  0.0833333358191695  0.3124999999901945  0.3605200052333331   F   F   F
  0.9144930773401754  0.6885956001561269  0.5459210007872102   F   F   F
  0.9168485092866590  0.1888844724516687  0.5454559840254376   F   F   F
  0.9153809111971682  0.4374215865526523  0.5457042312910474   F   F   F
  0.5790849105692644  0.6860011634437271  0.5476299644918114   F   F   F
  0.2515406378261886  0.9372948817441440  0.5452133446711684   F   F   F
  0.4973867104470955  0.5044010169600952  0.6089244504183924   F   F   F
  0.9180535065733579  0.5637208413529322  0.5470457494768084   F   F   F
  0.4199198890260121  0.5649017552585534  0.5553518761517466   F   F   F
  0.9155375270242345  0.8126494169607952  0.5468169662108622   F   F   F
  0.0840999294884384  0.9383649551122488  0.5461063842790139   F   F   F
  0.2488231420400453  0.6833261655207963  0.5516774691233053   F   F   F
  0.7492751730117462  0.9337787734718646  0.5477048125912489   F   F   F
  0.7516874557134869  0.6801860837457099  0.5534106602229443   F   F   F
  0.9155336026863949  0.9384804258183195  0.5463144976797025   F   F   F
  0.4178159422139132  0.0652431777496929  0.6401021987432216   F   F   F
  0.5839186136565147  0.9375090136292741  0.5463572108103989   F   F   F
  0.4118265546166811  0.8128602117901664  0.6394217185047708   F   F   F
  0.5825299505747950  0.0618151229586630  0.5454377428411377   F   F   F
  0.7500823114136708  0.1898334589106128  0.4559051848816082   F   F   F
  0.9157682627387587  0.1868352140388865  0.4532159673585170   F   F   F
  0.5825303242731295  0.9372089054179611  0.4544805288088654   F   F   F
  0.0836587581693777  0.1888271492859772  0.5456691106711276   F   F   F
  0.4993981715717837  0.1257263850686456  0.4989966809360666   F   F   F
  0.9995870001107647  0.4984815322263358  0.5941040088304277   F   F   F
  0.5795852700938298  0.1848780169719575  0.5504534005553765   F   F   F
  0.9997214558856058  0.7537110503196587  0.5928706898928553   F   F   F
  0.3340683360275492  0.9998829991477649  0.5919624857601562   F   F   F
  0.9999021388391043  0.9988806500699496  0.5930672195555289   F   F   F
  0.0012453491389195  0.2497843947099625  0.5921709807603861   F   F   F
  0.3331725712442051  0.4963567297619491  0.5909918666303966   F   F   F
  0.3349104157985465  0.7407907049354989  0.5902490872880790   F   F   F
  0.6632252905587634  0.2478121264283146  0.5903154032489439   F   F   F
  0.6661603485095213  0.0011240117370903  0.5918900508141860   F   F   F
  0.6652571349646124  0.7413410573163617  0.5909257574193845   F   F   F
  0.6666014486460412  0.4946042412858134  0.5914831439953545   F   F   F
  0.7669364685325135  0.1534590881911768  0.7877526793904601   T   T   T
  0.1674827015744569  0.9983149900791375  0.5923243056280967   F   F   F
  0.1708406954657775  0.7502918056249612  0.5948778573895126   F   F   F
  0.2482989000703810  0.4359082316461311  0.5491267464260048   F   F   F
  0.1654524563475732  0.5033863457639640  0.5872569958237293   F   F   F
  0.3345745470224415  0.2546133014091936  0.5926318273332996   F   F   F
  0.4997837245043542  0.0001539425856194  0.5911248142806471   F   F   F
  0.8326182625575811  0.8740608180551206  0.4987094729405754   F   F   F
  0.7483716772278299  0.9375568673477446  0.6404835889792722   F   F   F
  0.8321596238047277  0.0021104983763109  0.5922553570000773   F   F   F
  0.7484787695076349  0.1837673611056871  0.5510603498324755   F   F   F
  0.4228484369545384  0.6877316088761205  0.5468585449027046   F   F   F
  0.4230641359443794  0.4436061578148554  0.5459220206713624   F   F   F
  0.7521023514815752  0.4354617212743364  0.5490092291165780   F   F   F
  0.5824598423260170  0.3110707258644183  0.5448531720249434   F   F   F
  0.2532881324346121  0.8126325306288109  0.5505014529821111   F   F   F
  0.1685236796366070  0.2484709913017440  0.5931596198500841   F   F   F
  0.9141855540242076  0.5626992260751038  0.6408787361629678   F   F   F
  0.9132089638163166  0.8134072488802104  0.6419662255248895   F   F   F
  0.5828433928747074  0.0669553088937249  0.6389865957951031   F   F   F
  0.4176235085419364  0.9349310480367734  0.6397757342740391   F   F   F
  0.7460801996359478  0.3121682072717320  0.6412500228541731   F   F   F
  0.7480147346857393  0.0678479316737963  0.6397226229298312   F   F   F
  0.0843389928944163  0.3112220594835975  0.6409227388264611   F   F   F
  0.6664072258282161  0.8743257562684192  0.4988435272741540   F   F   F
  0.0864073112019739  0.5629888947149908  0.6398840838333655   F   F   F
  0.0874253318247682  0.4366911360919516  0.6397090754167323   F   F   F
  0.4176153093723300  0.1874059729290991  0.6397346898548477   F   F   F
  0.4148337969599254  0.4188688398385736  0.6303637419546178   F   F   F
  0.0843995920915575  0.9356162335194327  0.6410677011562314   F   F   F
  0.0833458655654056  0.6871815352646706  0.6388716884522694   F   F   F
  0.0841804956576908  0.0602380411307450  0.6421666813151674   F   F   F
  0.8332364947588431  0.5037773935352590  0.5890377502717286   F   F   F
  0.0839381264725318  0.1852514177680007  0.6412423401766958   F   F   F
  0.2400942131979775  0.4423638634163609  0.6416297698243625   F   F   F
  0.9123858468091726  0.4361123283896333  0.6399599434473799   F   F   F
  0.2521272948922544  0.9303634198501953  0.6373976702030788   F   F   F
  0.9162929979796957  0.6876481563670680  0.6390455776213528   F   F   F
  0.9142073494835117  0.9371940836738091  0.6410789074275556   F   F   F
  0.3971914023824610  0.5506352991840799  0.6519936134968347   F   F   F
  0.2544210328641867  0.6785866240547307  0.6626214998224071   F   F   F
  0.2535808713736145  0.1865161097913415  0.6412092947299399   F   F   F
  0.5793770694179514  0.1927807952036105  0.6454484725752252   F   F   F
  0.5823864146674040  0.9365666157007553  0.6396485165010191   F   F   F
  0.9166666865332829  0.8124999999834799  0.3605200052333331   F   F   F
  0.7456224348512919  0.1944333622646823  0.6468460614493736   F   F   F
  0.8314302352656853  0.2486317098531998  0.5913435224412140   F   F   F
  0.8303969685719323  0.7509885974447030  0.5926798859617719   F   F   F
  0.0847052916677882  0.8126896524477800  0.6425019387700033   F   F   F
  0.7525437711549898  0.5688607267509269  0.6356875426755977   F   F   F
  0.0829374628387995  0.4389316376889738  0.5448228819109104   F   F   F
  0.7411615479554925  0.8102032157345889  0.6397438674783302   F   F   F
  0.8327956950045134  0.1245398498283379  0.5001639706500640   F   F   F
  0.2492582498515290  0.3137751046584043  0.5459300439451980   F   F   F
  0.5903847293967601  0.5667861627699011  0.6384243915815304   F   F   F
  0.7539163001251055  0.6929295790364236  0.6566293976973938   F   F   F
  0.2624738277574608  0.8010611313388765  0.6458209871204232   F   F   F
  0.2510376580800084  0.0594223768605531  0.6423225414175491   F   F   F
  0.9166666865332829  0.5625000000092442  0.3605200052333331   F   F   F
  0.4995093038725074  0.3743494683150317  0.4997435486501729   F   F   F
  0.5001984230454752  0.6211202817474444  0.4999916954507668   F   F   F
  0.8324666192055687  0.6230925675311312  0.5001878786981990   F   F   F
  0.2519946534517814  0.1882318143868602  0.5471845614938431   F   F   F
  0.8324413775028106  0.3730766374997714  0.4997395360800994   F   F   F
  0.9151634231296981  0.3118182251694819  0.6397699531211885   F   F   F
  0.1667514364504257  0.3762013968731566  0.4977119415917244   F   F   F
  0.5808838288477602  0.4398765606231194  0.6469076114940364   F   F   F
  0.5759147066458752  0.6871013241347583  0.6399788753683993   F   F   F
  0.9167259089089370  0.1860875270878637  0.6398517956243026   F   F   F
  0.2491703161110976  0.3164448571788441  0.6413263577800663   F   F   F
  0.1677303244783843  0.8732807473982618  0.4998382943256345   F   F   F
  0.9158917832061562  0.4369074968074287  0.4536513208555348   F   F   F
  0.1670555240674148  0.1243486209822535  0.4993217351806152   F   F   F
  0.7484033974053119  0.0598247439998474  0.5446489061565742   F   F   F
  0.4259478256682740  0.3047721531694023  0.6561243400489971   F   F   F
  0.5901828397140108  0.8112616833915141  0.6458064074449226   F   F   F
  0.4203098338526416  0.6763114166832693  0.6339242365241589   F   F   F
  0.7553970358551254  0.4341993717253061  0.6380252511469990   F   F   F
  0.4982238111308916  0.2535953702199052  0.5911607530296479   F   F   F
  0.9159140707417706  0.0626040933084440  0.6414462641348706   F   F   F
  0.1675121598272753  0.6242074104167017  0.5001661828962511   F   F   F
  0.4999665998574301  0.8733457245175771  0.5009885698061112   F   F   F
  0.4159589683737508  0.1914567145566437  0.5465062073113245   F   F   F
  0.0855745402815771  0.6892984422975914  0.5454352886111238   F   F   F
  0.2475848967599532  0.5740323595790571  0.6287521483363960   F   F   F
  0.4169364097022594  0.1872220255295645  0.4535496620257220   F   F   F
  0.9166666865332829  0.4374999701794380  0.3605200052333331   F   F   F
  0.9166666865332829  0.1875000000030838  0.3605200052333331   F   F   F
  0.5833333134730552  0.9375000000154046  0.3605200052333331   F   F   F
  0.0808519473203972  0.5644464431936171  0.5463935241141584   F   F   F
  0.5833333134730552  0.4374999701794380  0.3605200052333331   F   F   F
  0.5833333134730552  0.1875000000030838  0.3605200052333331   F   F   F
  0.2499999999799343  0.9375000000154046  0.3605200052333331   F   F   F
  0.9166666865332829  0.9375000000154046  0.3605200052333331   F   F   F
  0.2499999999799343  0.6874999999963620  0.3605200052333331   F   F   F
  0.2499999999799343  0.1875000000030838  0.3605200052333331   F   F   F
  0.7499999404149307  0.9375000000154046  0.3605200052333331   F   F   F
  0.7499999404149307  0.6874999999963620  0.3605200052333331   F   F   F
  0.4172206647160550  0.9359410748138615  0.4539169135525825   F   F   F
  0.7499999404149307  0.4374999701794380  0.3605200052333331   F   F   F
  0.9166666865332829  0.6874999999963620  0.3605200052333331   F   F   F
  0.4166666269218169  0.9375000000154046  0.3605200052333331   F   F   F
  0.4166666269218169  0.4374999701794380  0.3605200052333331   F   F   F
  0.2499999999799343  0.4374999701794380  0.3605200052333331   F   F   F
  0.0833333358191695  0.0625000000159659  0.3605200052333331   F   F   F
  0.9152836572009946  0.6868637485726907  0.4533262414732491   F   F   F
  0.6654390761712037  0.3785561650253371  0.5032853710112732   F   F   F
  0.3342897927549373  0.3785197871396591  0.5029998372525029   F   F   F
  0.3354820314324698  0.6256731704989633  0.5036830430154779   F   F   F
  0.9175951634940347  0.0633634401409822  0.5474551327662596   F   F   F
  0.7495018036554200  0.9384514933862178  0.4553774751534760   F   F   F
  0.2499847466722471  0.9360860018387456  0.4539813780363247   F   F   F
  0.2498987866919720  0.1884997424308210  0.4540907567500057   F   F   F
  0.7490959557983530  0.6886737258723059  0.4574417822923209   F   F   F
  0.7499999404149307  0.1875000000030838  0.3605200052333331   F   F   F
  0.5833333134730552  0.0625000000159659  0.3605200052333331   F   F   F
  0.4166666269218169  0.6874999999963620  0.3605200052333331   F   F   F
  0.4168878002119953  0.8103691007264331  0.4549251985850304   F   F   F
  0.5832704800067106  0.0637315678607990  0.4538709569773971   F   F   F
  0.5833333134730552  0.6874999999963620  0.3605200052333331   F   F   F
  0.5834031867009344  0.3218067096654096  0.6328947344771407   F   F   F
  0.2520239508163087  0.6875614425211722  0.4559909260787407   F   F   F
  0.0840552852869507  0.9368910266533277  0.4536710819797491   F   F   F
  0.0827235053223276  0.4367833690987624  0.4528112663859218   F   F   F
  0.0838956891672638  0.1865354233066654  0.4529972079216122   F   F   F
  0.9165838458943014  0.8121148664072635  0.4540515912862944   F   F   F
  0.7463518379949008  0.5579840630249251  0.5446448994790174   F   F   F
  0.9160803080602093  0.5622266824556803  0.4540533479632884   F   F   F
  0.9161291644761036  0.0622689812585691  0.4541008986530670   F   F   F
  0.9161268615689409  0.3121775281671688  0.4538498638267185   F   F   F
  0.4164573125829847  0.4354719846117021  0.4539051345404772   F   F   F
  0.5828063558247223  0.4396558056192248  0.4564199245977534   F   F   F
  0.5832228646024262  0.1903003711319542  0.4556660551700631   F   F   F
  0.9164319423128902  0.9370881688809689  0.4536592146313794   F   F   F
  0.2504831791322459  0.0620174675994178  0.4542249244499672   F   F   F
  0.5832506550524101  0.8105091271774612  0.4553268742811696   F   F   F
  0.9997041417361245  0.6272164160155995  0.4975980111962599   F   F   F
  0.3336202352405735  0.1256078304201083  0.4985661215496577   F   F   F
  0.0001055261779541  0.8751572496515294  0.4995440518601768   F   F   F
  0.3334774195603885  0.8742394254445429  0.4989098122401359   F   F   F
  0.6658176175961614  0.1263058945097555  0.5002422021968087   F   F   F
  0.2511263259595324  0.4392953142988745  0.4549116447549935   F   F   F
  0.0833333358191695  0.5625000000092442  0.3605200052333331   F   F   F
  0.9166666865332829  0.0625000000159659  0.3605200052333331   F   F   F
  0.7493051177781638  0.8132116190768315  0.4529673128722820   F   F   F
  0.7496075454498765  0.4382962047609027  0.4557813412209910   F   F   F
  0.9154575045586810  0.3123552203287190  0.5466857565791656   F   F   F
  0.4170757514368049  0.6850613123430875  0.4549429312132958   F   F   F
  0.0001226501616571  0.1250817621529805  0.4984320059561043   F   F   F
  0.4158905062600198  0.9373022070505499  0.5459624092041295   F   F   F
  0.0000093475210576  0.3734578641778086  0.4984298087243673   F   F   F
  0.7477704720324354  0.8076006048301565  0.5454150136780029   F   F   F
  0.0866788726367460  0.3135207104511082  0.5471213189658286   F   F   F
  0.2499999999799343  0.3124999999901945  0.3605200052333331   F   F   F
  0.0000000000000000  0.0000000000000000  0.4070133268666680   F   F   F
  0.0000000000000000  0.2500000000190425  0.4070133268666680   F   F   F
  0.0000000000000000  0.4999999999932783  0.4070133268666680   F   F   F
  0.7482412260851632  0.5642911534672450  0.4538054073282680   F   F   F
  0.3333333432766779  0.0000000000000000  0.4070133268666680   F   F   F
  0.3333333432766779  0.4999999999932783  0.4070133268666680   F   F   F
  0.3333333432766779  0.7500000000123208  0.4070133268666680   F   F   F
  0.6666666865533486  0.0000000000000000  0.4070133268666680   F   F   F
  0.6666666865533486  0.2500000000190425  0.4070133268666680   F   F   F
  0.6666666865533486  0.4999999999932783  0.4070133268666680   F   F   F
  0.8333332538436267  0.2500000000190425  0.4070133268666680   F   F   F
  0.1666666716383389  0.0000000000000000  0.4070133268666680   F   F   F
  0.5843736234244759  0.3154737549096041  0.4536118361110937   F   F   F
  0.1666666716383389  0.4999999999932783  0.4070133268666680   F   F   F
  0.0833333358191695  0.1875000000030838  0.3605200052333331   F   F   F
  0.5000000000021103  0.2500000000190425  0.4070133268666680   F   F   F
  0.9166666865332829  0.3124999999901945  0.3605200052333331   F   F   F
  0.3333333432766779  0.2500000000190425  0.4070133268666680   F   F   F
  0.7472978659785738  0.3141053467649471  0.4548451671508431   F   F   F
  0.0000000000000000  0.7500000000123208  0.4070133268666680   F   F   F
  0.5844576193858373  0.5628819080649095  0.4548079437279284   F   F   F
  0.7492355510387227  0.0643223549401952  0.4534133735999504   F   F   F
  0.8333332538436267  0.0000000000000000  0.4070133268666680   F   F   F
  0.5827582473319737  0.6861544924379075  0.4546346475200878   F   F   F
  0.2517979667000176  0.5646643247282270  0.4536553294966907   F   F   F
  0.1666666716383389  0.2500000000190425  0.4070133268666680   F   F   F
  0.2504525395348125  0.8108234281700035  0.4552939982125395   F   F   F
  0.1666666716383389  0.7500000000123208  0.4070133268666680   F   F   F
  0.6653078421972936  0.6260806218621795  0.5030136837632142   F   F   F
  0.2499999999799343  0.8124999999834799  0.3605200052333331   F   F   F
  0.5000000000021103  0.7500000000123208  0.4070133268666680   F   F   F
  0.5000000000021103  0.4999999999932783  0.4070133268666680   F   F   F
  0.5000000000021103  0.0000000000000000  0.4070133268666680   F   F   F
  0.5833333134730552  0.8124999999834799  0.3605200052333331   F   F   F
  0.7499999404149307  0.5625000000092442  0.3605200052333331   F   F   F
  0.6666666865533486  0.7500000000123208  0.4070133268666680   F   F   F
  0.2499999999799343  0.0625000000159659  0.3605200052333331   F   F   F
  0.7499999404149307  0.3124999999901945  0.3605200052333331   F   F   F
  0.7499999404149307  0.0625000000159659  0.3605200052333331   F   F   F
  0.4166666269218169  0.8124999999834799  0.3605200052333331   F   F   F
  0.4166666269218169  0.3124999999901945  0.3605200052333331   F   F   F
  0.7499999404149307  0.8124999999834799  0.3605200052333331   F   F   F
  0.0834826944124032  0.3119692687398654  0.4540478874360190   F   F   F
  0.4168254934527056  0.0615422796194309  0.4553294420218066   F   F   F
  0.0834839990312091  0.8121057271812049  0.4541502562922801   F   F   F
  0.4166666269218169  0.5625000000092442  0.3605200052333331   F   F   F
  0.4137892316168248  0.8118166395026947  0.5476595059466760   F   F   F
  0.5833333134730552  0.3124999999901945  0.3605200052333331   F   F   F
  0.0839397558649821  0.5624883268075322  0.4539520669232857   F   F   F
  0.4166666269218169  0.0625000000159659  0.3605200052333331   F   F   F
  0.0837305788151426  0.0618749522158666  0.4541801050100602   F   F   F
  0.8333332538436267  0.4999999999932783  0.4070133268666680   F   F   F
  0.4166666269218169  0.1875000000030838  0.3605200052333331   F   F   F
  0.0833333358191695  0.9375000000154046  0.3605200052333331   F   F   F
  0.0833333358191695  0.8124999999834799  0.3605200052333331   F   F   F
  0.0833333358191695  0.4374999701794380  0.3605200052333331   F   F   F
  0.8333332538436267  0.7500000000123208  0.4070133268666680   F   F   F
  0.4154870136544773  0.3113800284095163  0.4573503972611093   F   F   F
  0.2499999999799343  0.5625000000092442  0.3605200052333331   F   F   F
  0.4160297383768636  0.5595319912337686  0.4578783990928699   F   F   F
  0.0833333358191695  0.6874999999963620  0.3605200052333331   F   F   F
  0.2522619794493508  0.3141237222098212  0.4541635390097909   F   F   F
  0.2510950860015626  0.0625356856880970  0.5472651569057732   F   F   F
  0.5833333134730552  0.5625000000092442  0.3605200052333331   F   F   F
  0.5000000000021103  0.1249999999871179  0.4070133268666680   F   F   F
  0.1666666716383389  0.8749999404036828  0.4070133268666680   F   F   F
  0.8333332538436267  0.1249999999871179  0.4070133268666680   F   F   F
  0.9997699089265240  0.6237275934641531  0.6240529944138231   F   F   F
  0.1666666716383389  0.6249999999803961  0.4070133268666680   F   F   F
  0.8360660936477728  0.5000231631821634  0.5028942304862127   F   F   F
  0.8360983886892228  0.7515778368222215  0.5026127094223298   F   F   F
  0.5000000000021103  0.6249999999803961  0.4070133268666680   F   F   F
  0.8317574228432250  0.8768114797383433  0.6175959295981812   F   F   F
  0.1634776055580858  0.4998577086964460  0.5019734921679273   F   F   F
  0.5000000000021103  0.8749999404036828  0.4070133268666680   F   F   F
  0.8394626049304748  0.6269638679316358  0.6042626790446803   F   F   F
  0.3316213928705380  0.1197589182788832  0.6129151394270878   F   F   F
  0.8333332538436267  0.3750000000061604  0.4070133268666680   F   F   F
  0.8375720887108571  0.3723273164759888  0.6039221417918910   F   F   F
  0.5004495034779239  0.1226285671036038  0.6068002830911610   F   F   F
  0.6663632327253168  0.6259888282698398  0.5929822195159176   F   F   F
  0.0000000000000000  0.3750000000061604  0.4070133268666680   F   F   F
  0.5012841297842670  0.3717807455133055  0.5948109294786192   F   F   F
  0.9990303927915747  0.8748677465508052  0.6238456279295264   F   F   F
  0.8343211621967654  0.1244590735790467  0.6156008919022113   F   F   F
  0.0003473830097889  0.3750931011186296  0.6251695756578926   F   F   F
  0.6654134615077467  0.8815765653546848  0.6071165677027039   F   F   F
  0.1632993683796613  0.3712806815991385  0.6075041080454824   F   F   F
  0.1678689973350060  0.1226079575048757  0.6218788006691511   F   F   F
  0.1596254046319316  0.6275878408402065  0.6013681336949404   F   F   F
  0.6710623416572616  0.3727669632492052  0.5933085829942542   F   F   F
  0.1664649061915000  0.8737102188170809  0.6178300104174781   F   F   F
  0.3346996778419395  0.8789251494025052  0.6026179586522176   F   F   F
  0.3341022092303447  0.6247101843128533  0.5950358556456834   F   F   F
  0.6666666865533486  0.8749999404036828  0.4070133268666680   F   F   F
  0.5000000000021103  0.3750000000061604  0.4070133268666680   F   F   F
  0.5035550411649297  0.6249258808229428  0.5942440533805993   F   F   F
  0.1666666716383389  0.1249999999871179  0.4070133268666680   F   F   F
  0.0000000000000000  0.1249999999871179  0.4070133268666680   F   F   F
  0.6655629264477696  0.1249662210995410  0.6090723854493021   F   F   F
  0.3331895066097346  0.0011437950341318  0.5057297533294687   F   F   F
  0.0000000000000000  0.8749999404036828  0.4070133268666680   F   F   F
  0.5010495455882165  0.7528748883977912  0.5038743010468991   F   F   F
  0.3311082000434382  0.4992647841566509  0.5009343791649457   F   F   F
  0.6685417243245908  0.4998432557015207  0.5006724994605989   F   F   F
  0.8333332538436267  0.6249999999803961  0.4070133268666680   F   F   F
  0.1644380674441521  0.7513853086311713  0.5034594379589095   F   F   F
  0.6660143350331040  0.9999784130608234  0.5055848578634539   F   F   F
  0.3301278904927258  0.2480149600098969  0.5028242842458397   F   F   F
  0.0008571891843232  0.1226097455603181  0.6198703558677749   F   F   F
  0.6666666865533486  0.3750000000061604  0.4070133268666680   F   F   F
  0.8356706209635334  0.2485302358596968  0.5029926890900214   F   F   F
  0.6669801539139115  0.2481825376889759  0.5026752325619981   F   F   F
  0.3259735340136913  0.3735147812889750  0.5927594949879449   F   F   F
  0.1666666716383389  0.3750000000061604  0.4070133268666680   F   F   F
  0.5011173210827806  0.8771810206616806  0.6097550324180645   F   F   F
  0.9999026613364990  0.7510749633393985  0.5067687052995353   F   F   F
  0.3339677930507179  0.7511558471646609  0.5015371372957347   F   F   F
  0.6653502350793943  0.7518419036982920  0.5022026753174202   F   F   F
  0.3333333432766779  0.1249999999871179  0.4070133268666680   F   F   F
  0.5011507179356940  0.4998005372654646  0.5002480798911364   F   F   F
  0.9995236037881838  0.4998892493112734  0.5067326240546279   F   F   F
  0.1660259761516940  0.0011159564674514  0.5065435565752168   F   F   F
  0.5003196238097871  0.9992392751414911  0.5055478757115637   F   F   F
  0.1663987523057173  0.2482082286598910  0.5062426650147884   F   F   F
  0.6666666865533486  0.1249999999871179  0.4070133268666680   F   F   F
  0.8341962177957853  0.0001649750965740  0.5064998814905834   F   F   F
  0.0000000000000000  0.6249999999803961  0.4070133268666680   F   F   F
  0.3333333432766779  0.8749999404036828  0.4070133268666680   F   F   F
  0.3333333432766779  0.6249999999803961  0.4070133268666680   F   F   F
  0.8333332538436267  0.8749999404036828  0.4070133268666680   F   F   F
  0.6666666865533486  0.6249999999803961  0.4070133268666680   F   F   F
  0.0001283446336160  0.9998456828748274  0.5066975599176047   F   F   F
  0.0009998808208920  0.2498519713642793  0.5060924402512512   F   F   F
  0.5010397008552090  0.2480094041584451  0.5021478114276192   F   F   F
  0.3333333432766779  0.3750000000061604  0.4070133268666680   F   F   F
  0.0833333358191695  0.7500000000123208  0.4070133268666680   F   F   F
  0.9185363587805426  0.3742028653136842  0.5059530788187701   F   F   F
  0.0833333358191695  0.2500000000190425  0.4070133268666680   F   F   F
  0.7520635917719645  0.7524143936712520  0.5905641995696556   F   F   F
  0.2499999999799343  0.2500000000190425  0.4070133268666680   F   F   F
  0.0833333358191695  0.4999999999932783  0.4070133268666680   F   F   F
  0.4166666269218169  0.4999999999932783  0.4070133268666680   F   F   F
  0.9166666865332829  0.7500000000123208  0.4070133268666680   F   F   F
  0.9182933204086723  0.4999240158518390  0.6038381323088302   F   F   F
  0.5832833886890185  0.1235311958364633  0.5045972077196055   F   F   F
  0.7523771058521405  0.6245130675825692  0.5024351252482973   F   F   F
  0.5838654929032785  0.8758848176730609  0.5057648700082353   F   F   F
  0.9178678930355275  0.1249514162250236  0.5063571350935803   F   F   F