Au  C  H  O Sr Ti 
 1.0000000000000000
    23.6707801818999997    0.0000000000000000    0.0000000000000000
     0.0000000000000000   22.3170261383000010    0.0000000000000000
     0.0000000000000000    0.0000000000000000   30.0000000000000000
 Au  C   H   O   Sr  Ti 
  50   2   3 265  72  72
Selective dynamics
Cartesian
 16.8893945794864599 11.7616489883720003 22.5993657450571099   F   F   F
 13.4488197781294652 11.4173398984782768 25.7130342256989373   F   F   F
 15.6576500029092571  4.2846120181113481 22.4868914271537363   T   T   T
 11.0957647388102281 10.0988363036556219 26.3849437212412354   F   F   F
  6.6505878935800817  7.6214349364427472 21.0771301762547374   F   F   F
 15.8239557038150647 15.2326433569977571 22.4621747838108305   F   F   F
  9.3987679809938030  8.5314503017596444 20.7249113199443080   F   F   F
 10.6730618186564516 12.9504487265540771 21.1043207146062066   F   F   F
  8.8520367506540474 11.0559739141967324 24.9941732128267766   F   F   F
  7.6553827466600675  9.2947577893855069 23.0981424076745263   F   F   F
  8.7251639317425003 13.8523896858797020 24.6043839975682168   F   F   F
  6.8325519417785667 12.0450243082727866 23.3126112631764855   F   F   F
 12.2431573481228178  8.4559481343821936 21.9872845665024848   F   F   F
  6.0626302641141292 13.2616440254927230 20.8350326490627502   F   F   F
 15.3508169551192299  9.9910196099507012 20.8280040167566973   F   F   F
 13.3360064943928549 14.3188231786852853 25.8668581124692132   F   F   F
 12.7464877364195814 14.9282285764011142 21.0693109373974536   F   F   F
 10.4476280210686383 10.5692261604307998 22.6819463793640743   F   F   F
 16.7191624254297153 16.9055480767294384 20.6429481118180682   F   F   F
  8.8609055638360577 16.5584858261011689 23.3830442693911742   F   F   F
 10.9297049175294756 12.8405753611752615 25.9606079599667332   F   F   F
 15.4600184865088472  9.8697065336874559 24.3773933035550883   F   F   F
  9.8034812386195007 15.5352353279035000 20.9982438002405729   F   F   F
 18.2600805077911019  9.6370316448177533 23.8547965722120381   F   F   F
  8.2309482900652515 11.1667166658497052 20.9077904009583477   F   F   F
 16.5417806902889737  7.7403330502043541 22.7017688882647803   F   F   F
 13.0755933103157087  4.8220803346447543 21.3030916998085758   F   F   F
 13.6729573514555849 16.2129474538411742 23.8262811622188373   F   F   F
  5.6638946069921037 10.4947946612754865 21.2751035742066748   F   F   F
  6.7727939013423155 14.8120815075621586 22.9191057409288952   F   F   F
 14.1588058588304957  6.5211737522096263 23.5301078899135803   F   F   F
 12.1524680476550913 10.8362076072160054 20.3430634344426728   F   F   F
 13.2732816166040966 10.9029737319670605 22.8738916034840365   F   F   F
 11.4315952843009025  6.0639880075461390 23.2473699052654759   F   F   F
 12.9138789889035781  8.6395714023582624 24.8551642889696467   F   F   F
 14.5886220388805583  7.2099620837787812 20.8669138350211938   F   F   F
  9.2669103734480824 18.2643511036269288 21.1971500208070864   F   F   F
 10.3044701811264083  5.0864702185606925 20.9424307946441921   F   F   F
  8.7162085541704037  6.6981068021272216 22.6854970380429357   F   F   F
 10.0774105497388842  8.3264164724760406 24.5005705280143999   F   F   F
 14.1135760672111470 17.5210465611898485 21.3818703860238664   F   F   F
 14.9629897095257505 13.0871963216469727 24.0002674180301732   F   F   F
 17.3039601034618649 13.7458380491691834 20.8040015612209643   F   F   F
 11.4971244235900478 17.3461486094429169 22.6345036174254908   F   F   F
 18.0691118700376094  9.6642238595881533 21.1458665792156424   F   F   F
 17.0372027864928732  5.7651947753583812 20.7438272313615215   F   F   F
 14.6639748323247510 12.7791175025143389 21.1180019404039854   F   F   F
 10.9610824672989864 15.5829273285296122 24.9511976069099362   F   F   F
 12.0555506139611186 13.5208053089747509 23.3353676251432809   F   F   F
  6.9641444172171356 16.6827423613597290 20.8787477814178359   F   F   F
 17.0805177364341212  1.6144520810532124 22.4137770642143792   T   T   T
 17.2671602130602473  2.9950255599560425 22.9723533554841950   T   T   T
 17.7731143566364409  0.9359116733682458 22.9152314478499228   T   T   T
 17.2972878291109069  1.6426579559274963 21.3337105372162448   T   T   T
 16.0474147135012224  1.2827448448063505 22.5317232108220757   T   T   T
  1.9970982758468978 15.3313236635964305 13.5949140930664356   F   F   F
 13.8633161103312581 18.1696364568594788 16.5115788663710639   F   F   F
 17.7089278039117310  6.9594601920109485 16.4554820731134122   F   F   F
 13.7560973712734533 12.4962283858312997 16.4635591804885912   F   F   F
  5.9781162224999855 12.4775879277621407 16.3155675196983907   F   F   F
  9.8451310035389863  7.1323201251872232 16.5739752693730900   F   F   F
 13.6477318707121356  9.7254977604493931 16.5679843815559629   F   F   F
  9.8633489916422210  1.4611567485995793 16.4204235525430668   F   F   F
  2.0137730789692938 18.1351674392472866 16.4198612462573195   F   F   F
 11.8316104929334589 16.8970223082250612 17.7764676508413935   F   F   F
  1.9508148160205752  1.4088916507664631 16.4277342591869200   F   F   F
  1.9725650740000149  6.9740706679999214 10.8156001569999933   F   F   F
 21.6467646115886154 15.3674060074027317 16.3776300236163586   F   F   F
 21.7025195234272061  4.2153397088228477 16.3636795207631174   F   F   F
 21.6677803316555497  9.7619489805521944 16.3711269387313756   F   F   F
 13.7073916247402927 15.3095058954779262 16.4288989347543932   F   F   F
  5.9541631447986374 20.9176343751788316 16.3564003401351350   F   F   F
 11.7735314883915532 11.2567306796836082 18.2677335125516898   F   F   F
 21.7310427493204763 12.5805727511777778 16.4113724843041702   F   F   F
  9.9398313871426573 12.6069272376766754 16.6605562845524737   F   F   F
 21.6714875504709070 18.1359182795882816 16.4045089863259648   F   F   F
  1.9907109442341788 20.9415152305047272 16.3831915283704213   F   F   F
  5.8898378993995859 15.2498078969118982 16.5503240736990627   F   F   F
 17.7359279161161858 20.8391652949613579 16.4311443777374890   F   F   F
 17.7930285296856532 15.1797306098608669 16.6023198066882749   F   F   F
 21.6713946583326091 20.9440921932704001 16.3894349303910687   F   F   F
  9.8900293246389506  1.4560337031856962 19.2030659622966517   F   F   F
 13.8218091479832150 20.9224131620563583 16.3907163243118887   F   F   F
  9.7482558474007259 18.1406225933051708 19.1826515551431243   F   F   F
 13.7889384094290328  1.3795297148106795 16.3631322852341583   F   F   F
 17.7550335118045055  4.2365182644320853 13.6771555464482120   F   F   F
 21.6769492448496592  4.1696063552606493 13.5964790207555222   F   F   F
 13.7889472551601386 20.9157156392602133 13.6344158642660123   F   F   F
  1.9802680749180941  4.2140604262358314 16.3700733201338942   F   F   F
 11.8211443425185490  2.8058390218509062 14.9699004280819192   F   F   F
 23.6610041523067487 11.1246253841549461 17.8231202649127631   F   F   F
 13.7192355250581297  4.1259275371602619 16.5136020166612241   F   F   F
 23.6641868253972909 16.8205892107093220 17.7861206967856162   F   F   F
  7.9076581478412598 22.3144150272225410 17.7588745728046966   F   F   F
 23.6684637318720839 22.2920455766531589 17.7920165866659410   F   F   F
  0.0294783857171600  5.5744448656816328 17.7651294228116754   F   F   F
  7.8864546965599951 11.0772061120185814 17.7297559989119193   F   F   F
  7.9275908329962075 16.5322455250552416 17.7074726186422744   F   F   F
 15.6990600638932261  5.5304297028884237 17.7094620974683039   F   F   F
 15.7685351754667131  0.0250845993163578 17.7567015244256581   F   F   F
 15.7471554061879147 16.5445277535242852 17.7277727225814381   F   F   F
 15.7789763598364718 11.0380957808894866 17.7444943198607135   F   F   F
 18.1539845601158412  3.4247504823221218 23.6475803817137091   T   T   T
  3.9644462132396856 22.2794217278528208 17.7697291688429289   F   F   F
  4.0439325484932702 16.7442818374846354 17.8463357216852998   F   F   F
  5.8774286829735383  9.7281753995468367 16.4738023927802288   F   F   F
  3.9163887247587628 11.2340862360776850 17.6177098747118954   F   F   F
  7.9196405570270461  5.6822117027077717 17.7789548199989405   F   F   F
 11.8302706812337721  0.0034355407070366 17.7337444284194810   F   F   F
 19.7087238684359960 19.5064381230000272 14.9612841882171672   F   F   F
 17.7145414660196998 20.9234811147422661 19.2145076693781007   F   F   F
 19.6978675313343174  0.0471000474289053 17.7676607100022821   F   F   F
 17.7170764238341469  4.1011410011619693 16.5318104949742697   F   F   F
 10.0091524014109616 15.3481242914235025 16.4057563470811942   F   F   F
 10.0142581647849394  9.8999702190649366 16.3776606201409756   F   F   F
 17.8028494362105043  9.7182106159084114 16.4702768734973191   F   F   F
 13.7872788924833269  6.9421735199760999 16.3455951607483776   F   F   F
  5.9955277055436413 18.1355414268760526 16.5150435894632359   F   F   F
  3.9890869761229832  5.5451336074903219 17.7947885955024674   F   F   F
 21.6394852947755609 12.5577733363193431 19.2263620848889687   F   F   F
 21.6163686426366937 18.1528308343423319 19.2589867657465952   F   F   F
 13.7963578332100489  1.4942433786791647 19.1695978738531778   F   F   F
  9.8854742694900377 20.8648806365448216 19.1932720282212550   F   F   F
 17.6603004036506128  6.9666660412294235 19.2375006856251503   F   F   F
 17.7060923575683340  1.5141640645937136 19.1916786878950241   F   F   F
  1.9963697615664950  6.9455508363109857 19.2276821647937908   F   F   F
 15.7743789542095083 19.5123507560311857 14.9653058182245697   F   F   F
  2.0453284695709590 12.5642378789271447 19.1965225150010248   F   F   F
  2.0694258119537166  9.7456474985280384 19.1912722625019327   F   F   F
  9.8852801887485864  4.1823439963323050 19.1920406956454563   F   F   F
  9.8194396198612655  9.3479068471967750 18.9109122586385610   F   F   F
  1.9978041918412122 20.8801719388709941 19.2320310346869441   F   F   F
  1.9728616628689828 15.3358482842587787 19.1661506535680921   F   F   F
  1.9926180083166527  1.3443339384348088 19.2650004394550507   F   F   F
 19.7233579069734617 11.2428132594110419 17.6711325081519526   F   F   F
  1.9868809406118191  4.1342607324856093 19.2372702053008346   F   F   F
  5.6832173435555475  9.8722459025022911 19.2488930947308141   F   F   F
 21.5968848208966762  9.7327302319062756 19.1987983034213485   F   F   F
  5.9680497752516466 20.7629447589150615 19.1219301060923925   F   F   F
 21.6893701373915277 15.3462618795976482 19.1713673286405317   F   F   F
 21.6400012103015946 20.9153848620084766 19.2323672228266105   F   F   F
  9.4018303759359103 12.2885423645617529 19.5598084049051302   F   F   F
  6.0223443425801966 15.1440354261302055 19.8786449946722179   F   F   F
  6.0024570646195059  4.1624848974273760 19.2362788418981303   F   F   F
 13.7143072526256731  4.3022940455212462 19.3634541772566848   F   F   F
 13.7855408025170068 20.9013816428529502 19.1894554950305718   F   F   F
 21.6982156369999721 18.1325837370000720 10.8156001569999933   F   F   F
 17.6494647540579237  4.3391744278184188 19.4053818434812868   F   F   F
 19.6806023355594419  5.5487203676041110 17.7403056732363815   F   F   F
 19.6561441067822713 16.7598321587386536 17.7803965788532317   F   F   F
  2.0050403393119520 18.1368162160031048 19.2750581631000450   F   F   F
 17.8132981842677864 12.6952797079527659 19.0706262802678310   F   F   F
  1.9631944517017772  9.7956488312317305 16.3446864573273913   F   F   F
 17.5438720809312549 18.0813263428834716 19.1923160243498714   F   F   F
 19.7129238328844565  2.7793590838789539 15.0049191195020004   F   F   F
  5.9001372407605990  7.0025272122093583 16.3779013183558959   F   F   F
 13.9748671523012558 12.6489816093626626 19.1527317474460119   F   F   F
 17.8457870158127285 15.4641275273571317 19.6988819309218925   F   F   F
  6.2129602803488080 17.8773022064658775 19.3746296136126475   F   F   F
  5.9422572217908236  1.3261307375969236 19.2696762425264545   F   F   F
 21.6982156369999721 12.5533272030000536 10.8156001569999933   F   F   F
 11.8237749307799760  8.3543668692452524 14.9923064595052544   F   F   F
 11.8400869192425038 13.8615575627859204 14.9997508635231025   F   F   F
 19.7051343519843982 13.9055731161727945 15.0056363609459069   F   F   F
  5.9649100488711531  4.2007743217312719 16.4155368448152821   F   F   F
 19.7045368611871012  8.3259610706715357 14.9921860824030873   F   F   F
 21.6626322194181782  6.9588554815056742 19.1930985936357246   F   F   F
  3.9471365972340937  8.3956964072832143 14.9313582477517492   F   F   F
 13.7499734238757600  9.8167367010516902 19.4072283448210925   F   F   F
 13.6323504245380125 15.3340582103758809 19.1993662610520772   F   F   F
 21.6996174768358756  4.1529202060314994 19.1955538687291138   F   F   F
  5.8980557805203180  7.0621081489908519 19.2397907334020175   F   F   F
  3.9703076405666780 19.4890292657611006 14.9951488297691427   F   F   F
 21.6798730706813068  9.7504760262705510 13.6095396256659829   F   F   F
  3.9543345883718946  2.7750914247224778 14.9796520554184891   F   F   F
 17.7152923073683048  1.3351103755617475 16.3394671846971988   F   F   F
 10.0825173503519956  6.8016081085075406 19.6837302014699311   F   F   F
 13.9700882659998094 18.1049481932496228 19.3741922233476984   F   F   F
  9.9490616854167548 15.0932595637512499 19.0177270957248226   F   F   F
 17.8808371857854311  9.6900387280271687 19.1407575344099818   F   F   F
 11.7933463146678292  5.6594945057494925 17.7348225908895216   F   F   F
 21.6804006340376318  1.3971371867290656 19.2433879240461572   F   F   F
  3.9651435130667734 13.9304530939901099 15.0049854868874615   F   F   F
 11.8345994835171329 19.4904793618313796 15.0296570941832961   F   F   F
  9.8460733050650298  4.2727445031136169 16.3951862193396849   F   F   F
  2.0256161321723871 15.3830913538447920 16.3630586583336353   F   F   F
  5.8605276675632529 12.8106951729559189 18.8625644500917922   F   F   F
  9.8692101038927813  4.1782388374088164 13.6064898607716724   F   F   F
 21.6982156369999721  9.7636982699999884 10.8156001569999933   F   F   F
 21.6982156369999721  4.1844424010000720 10.8156001569999933   F   F   F
 13.8079546360000549 20.9222120050000342 10.8156001569999933   F   F   F
  1.9138286722997209 12.5967660264224719 16.3918057234248167   F   F   F
 13.8079546360000549  9.7636982699999884 10.8156001569999933   F   F   F
 13.8079546360000549  4.1844424010000720 10.8156001569999933   F   F   F
  5.9176950450000287 20.9222120050000342 10.8156001569999933   F   F   F
 21.6982156369999721 20.9222120050000342 10.8156001569999933   F   F   F
  5.9176950450000287 15.3429554700000619 10.8156001569999933   F   F   F
  5.9176950450000287  4.1844424010000720 10.8156001569999933   F   F   F
 17.7530837259999217 20.9222120050000342 10.8156001569999933   F   F   F
 17.7530837259999217 15.3429554700000619 10.8156001569999933   F   F   F
  9.8759386418400030 20.8874214305295354 13.6175074065774417   F   F   F
 17.7530837259999217  9.7636982699999884 10.8156001569999933   F   F   F
 21.6982156369999721 15.3429554700000619 10.8156001569999933   F   F   F
  9.8628241350000643 20.9222120050000342 10.8156001569999933   F   F   F
  9.8628241350000643  9.7636982699999884 10.8156001569999933   F   F   F
  5.9176950450000287  9.7636982699999884 10.8156001569999933   F   F   F
  1.9725650740000149  1.3948141340000613 10.8156001569999933   F   F   F
 21.6654782536902992 15.3287562303474267 13.5997872441975058   F   F   F
 15.7514620964951479  8.4482478296850942 15.0985611303382647   F   F   F
  7.9129002013550851  8.4474359834595170 15.0899951175751390   F   F   F
  7.9411214210152732 13.9631645000583671 15.1104912904642621   F   F   F
 21.7201934110418833  1.4140835498388915 16.4236539829878900   F   F   F
 17.7412924402650951 20.9434465074268346 13.6613242546042262   F   F   F
  5.9173339873067112 20.8906557707319926 13.6194413410896971   F   F   F
  5.9152992475091031  4.2067536788915261 13.6227227025001376   F   F   F
 17.7316857048531773 15.3691495410526393 13.7232534687696361   F   F   F
 17.7530837259999217  4.1844424010000720 10.8156001569999933   F   F   F
 13.8079546360000549  1.3948141340000613 10.8156001569999933   F   F   F
  9.8628241350000643 15.3429554700000619 10.8156001569999933   F   F   F
  9.8680594793339580 18.0850284025824521 13.6477559575508618   F   F   F
 13.8064673188301104  1.4222990657843182 13.6161287093218224   F   F   F
 13.8079546360000549 15.3429554700000619 10.8156001569999933   F   F   F
 13.8096085898178433  7.1817687510832648 18.9868420343141970   F   F   F
  5.9656035403467937 15.3443266844323194 13.6797277823622139   F   F   F
  1.9896541811542585 20.9086215305610956 13.6101324593924193   F   F   F
  1.9581299103610112  9.7477058649518238 13.5843379915777120   F   F   F
  1.9858764164873672  4.1629159176536827 13.5899162376484259   F   F   F
 21.6962547344444907 18.1239887009128395 13.6215477385887613   F   F   F
 17.6667302955342791 12.4525449192820208 16.3393469843705077   F   F   F
 21.6843356010604253 12.5472275680131098 13.6216004388985734   F   F   F
 21.6854920705415246  1.3896584823528464 13.6230269595919715   F   F   F
 21.6854375589322608  6.9668740558966356 13.6154959148016150   F   F   F
  9.8578695012966264  9.7184396630767793 13.6171540362143801   F   F   F
 13.7954811373412038  9.8118101058596370 13.6925977379326937   F   F   F
 13.8053402250621122  4.2469383566799888 13.6699816551019531   F   F   F
 21.6926590581600998 20.9130211588082275 13.6097764389413012   F   F   F
  5.9291322725029287  1.3840454454474584 13.6267477334990392   F   F   F
 13.8059980466948620 18.0881533765500464 13.6598062284351958   F   F   F
 23.6637769859707916 13.9976051505909371 14.9279403358878753   F   F   F
  7.8970512526134424  2.8031932346607533 14.9569836464897783   F   F   F
  0.0024978869618467 19.5309072155958710 14.9863215558052829   F   F   F
  7.8936706940412336 19.5104241087782029 14.9672943672041576   F   F   F
 15.7604224673551325  2.8187719491955363 15.0072660659042612   F   F   F
  5.9443560596762195  9.8037650116406603 13.6473493426498464   F   F   F
  1.9725650740000149 12.5533272030000536 10.8156001569999933   F   F   F
 21.6982156369999721  1.3948141340000613 10.8156001569999933   F   F   F
 17.7366367320996901 18.1484649589069527 13.5890193861684878   F   F   F
 17.7437954310376576  9.7814678579666907 13.6734402366297498   F   F   F
 21.6695933562792149  6.9708396165104860 16.4005726973748658   F   F   F
  9.8725084314614406 15.2885312138988105 13.6482879363988570   F   F   F
  0.0029032250158715  2.7914529553927343 14.9529601786831527   F   F   F
  9.8444527534200219 20.9177978542334451 16.3788722761239747   F   F   F
  0.0002212631162049  8.3344689164098451 14.9528942617309681   F   F   F
 17.7003104699954079 18.0232438073015295 16.3624504103401414   F   F   F
  2.0517565405993001  6.9968498900357208 16.4136395689747587   F   F   F
  5.9176950450000287  6.9740706679999214 10.8156001569999933   F   F   F
  0.0000000000000000  0.0000000000000000 12.2103998060000407   F   F   F
  0.0000000000000000  5.5792565349999723 12.2103998060000407   F   F   F
  0.0000000000000000 11.1585130689999925 12.2103998060000407   F   F   F
 17.7114535856973063 12.5933004215399116 13.6141622198480192   F   F   F
  7.8902602960000570  0.0000000000000000 12.2103998060000407   F   F   F
  7.8902602960000570 11.1585130689999925 12.2103998060000407   F   F   F
  7.8902602960000570 16.7377696039999648 12.2103998060000407   F   F   F
 15.7805205919999434  0.0000000000000000 12.2103998060000407   F   F   F
 15.7805205919999434  5.5792565349999723 12.2103998060000407   F   F   F
 15.7805205919999434 11.1585130689999925 12.2103998060000407   F   F   F
 19.7256482699999580  5.5792565349999723 12.2103998060000407   F   F   F
  3.9451301480000271  0.0000000000000000 12.2103998060000407   F   F   F
 13.8325795841811416  7.0404360342653032 13.6083550833328406   F   F   F
  3.9451301480000271 11.1585130689999925 12.2103998060000407   F   F   F
  1.9725650740000149  4.1844424010000720 10.8156001569999933   F   F   F
 11.8353900909999528  5.5792565349999723 12.2103998060000407   F   F   F
 21.6982156369999721  6.9740706679999214 10.8156001569999933   F   F   F
  7.8902602960000570  5.5792565349999723 12.2103998060000407   F   F   F
 17.6891235159818585  7.0098972339330494 13.6453550145252862   F   F   F
  0.0000000000000000 16.7377696039999648 12.2103998060000407   F   F   F
 13.8345678341187988 12.5618502550608113 13.6442383118378316   F   F   F
 17.7349900331023385  1.4354836764773511 13.6024012079984757   F   F   F
 19.7256482699999580  0.0000000000000000 12.2103998060000407   F   F   F
 13.7943423717844631 15.3129277426487391 13.6390394256025971   F   F   F
  5.9602543200055518 12.6016284943254213 13.6096598849006369   F   F   F
  3.9451301480000271  5.5792565349999723 12.2103998060000407   F   F   F
  5.9284070093271826 18.0951676400159123 13.6588199463761999   F   F   F
  3.9451301480000271 16.7377696039999648 12.2103998060000407   F   F   F
 15.7483556859463167 13.9722576027813723 15.0904105128963835   F   F   F
  5.9176950450000287 18.1325837370000720 10.8156001569999933   F   F   F
 11.8353900909999528 16.7377696039999648 12.2103998060000407   F   F   F
 11.8353900909999528 11.1585130689999925 12.2103998060000407   F   F   F
 11.8353900909999528  0.0000000000000000 12.2103998060000407   F   F   F
 13.8079546360000549 18.1325837370000720 10.8156001569999933   F   F   F
 17.7530837259999217 12.5533272030000536 10.8156001569999933   F   F   F
 15.7805205919999434 16.7377696039999648 12.2103998060000407   F   F   F
  5.9176950450000287  1.3948141340000613 10.8156001569999933   F   F   F
 17.7530837259999217  6.9740706679999214 10.8156001569999933   F   F   F
 17.7530837259999217  1.3948141340000613 10.8156001569999933   F   F   F
  9.8628241350000643 18.1325837370000720 10.8156001569999933   F   F   F
  9.8628241350000643  6.9740706679999214 10.8156001569999933   F   F   F
 17.7530837259999217 18.1325837370000720 10.8156001569999933   F   F   F
  1.9761005084286944  6.9622263248138534 13.6214366230806032   F   F   F
  9.8665846297310118  1.3734406628773577 13.6598832606542100   F   F   F
  1.9761313897737103 18.1237847405661370 13.6245076887683254   F   F   F
  9.8628241350000643 12.5533272030000536 10.8156001569999933   F   F   F
  9.7947139432390919 18.1173331632885777 16.4297851784002660   F   F   F
 13.8079546360000549  6.9740706679999214 10.8156001569999933   F   F   F
  1.9869195096023708 12.5530666918524041 13.6185620076985749   F   F   F
  9.8628241350000643  1.3948141340000613 10.8156001569999933   F   F   F
  1.9819681256365644  1.3808649259075361 13.6254031503017696   F   F   F
 19.7256482699999580 11.1585130689999925 12.2103998060000407   F   F   F
  9.8628241350000643  4.1844424010000720 10.8156001569999933   F   F   F
  1.9725650740000149 20.9222120050000342 10.8156001569999933   F   F   F
  1.9725650740000149 18.1325837370000720 10.8156001569999933   F   F   F
  1.9725650740000149  9.7636982699999884 10.8156001569999933   F   F   F
 19.7256482699999580 16.7377696039999648 12.2103998060000407   F   F   F
  9.8349017686492175  6.9490762329596940 13.7205119178333703   F   F   F
  5.9176950450000287 12.5533272030000536 10.8156001569999933   F   F   F
  9.8477484862520388 12.4870900735791217 13.7363519727861387   F   F   F
  1.9725650740000149 15.3429554700000619 10.8156001569999933   F   F   F
  5.9712378637966239  7.0103073192166043 13.6249061702937198   F   F   F
  5.9436165854982850  1.3956105320777408 16.4179547071732230   F   F   F
 13.8079546360000549 12.5533272030000536 10.8156001569999933   F   F   F
 11.8353900909999528  2.7896282670000101 12.2103998060000407   F   F   F
  3.9451301480000271 19.5273965409999306 12.2103998060000407   F   F   F
 19.7256482699999580  2.7896282670000101 12.2103998060000407   F   F   F
 23.6653337466779661 13.9197450065184469 18.7215898324147361   F   F   F
  3.9451301480000271 13.9481413360000008 12.2103998060000407   F   F   F
 19.7903367202761764 11.1590300024917912 15.0868269145862914   F   F   F
 19.7911011691033139 16.7729822293285125 15.0783812826699180   F   F   F
 11.8353900909999528 13.9481413360000008 12.2103998060000407   F   F   F
 19.6883471207855472 19.5678247116821744 18.5278778879454720   F   F   F
  3.8696424658288424 11.1553375504092642 15.0592047650377499   F   F   F
 11.8353900909999528 19.5273965409999306 12.2103998060000407   F   F   F
 19.8707347922344297 13.9919690283999785 18.1278803713403924   F   F   F
  7.8497370942539746  2.6726629095243521 18.3874541828126645   F   F   F
 19.7256482699999580  8.3688848019999824 12.2103998060000407   F   F   F
 19.8259847983696247  8.3092384537977040 18.1176642537566757   F   F   F
 11.8460301889668820  2.7367049373533328 18.2040084927347614   F   F   F
 15.7733376031413286 13.9702090427818550 17.7894665854775162   F   F   F
  0.0000000000000000  8.3688848019999824 12.2103998060000407   F   F   F
 11.8657864447983528  8.2970406153370870 17.8443278843585666   F   F   F
 23.6478288228064990 19.5244463673298903 18.7153688378856913   F   F   F
 19.7490328314669767  2.7775563982122260 18.4680267570662480   F   F   F
  0.0082228268635594  8.3709625419604006 18.7550872697368725   F   F   F
 15.7508557774270574 19.6741672519331736 18.2134970310810473   F   F   F
  3.8654234527580340  8.2858806758937451 18.2251232413644537   F   F   F
  3.9735901352729481  2.7362449923998735 18.6563640200745482   F   F   F
  3.7784578644893756 14.0058942481101187 18.0410440108482213   F   F   F
 15.8845691777200688  8.3190500623272889 17.7992574898276104   F   F   F
  3.9403542024596456 19.4986137906406256 18.5349003125242966   F   F   F
  7.9226025011492442 19.6149955328249952 18.0785387595666300   F   F   F
  7.9084599529786903 13.9416735121721480 17.8510756693704238   F   F   F
 15.7805205919999434 19.5273965409999306 12.2103998060000407   F   F   F
 11.8353900909999528  8.3688848019999824 12.2103998060000407   F   F   F
 11.9195406889026323 13.9464872168256928 17.8273216014179674   F   F   F
  3.9451301480000271  2.7896282670000101 12.2103998060000407   F   F   F
  0.0000000000000000  2.7896282670000101 12.2103998060000407   F   F   F
 15.7543937291673135  2.7888744226829667 18.2721715634791018   F   F   F
  7.8868555698747285  0.0255261036736039 15.1718925998841527   F   F   F
  0.0000000000000000 19.5273965409999306 12.2103998060000407   F   F   F
 11.8602336538595132 16.8019285632431981 15.1162290314069505   F   F   F
  7.8375894196527831 11.1421052379566952 15.0280313749484264   F   F   F
 15.8249041989158368 11.1550150025438217 15.0201749838180660   F   F   F
 19.7256482699999580 13.9481413360000008 12.2103998060000407   F   F   F
  3.8923773480070163 16.7686855726565014 15.1037831387673869   F   F   F
 15.7650789225628998 -0.0004817562858769 15.1675457359036194   F   F   F
  7.8143847277676457  5.5349563452302535 15.0847285273751179   F   F   F
  0.0202903367563788  2.7362848964799986 18.5961106760332058   F   F   F
 15.7805205919999434  8.3688848019999824 12.2103998060000407   F   F   F
 19.7809755732996067  5.5464557698386621 15.0897806727005683   F   F   F
 15.7879406089860961  5.5386961806744512 15.0802569768598733   F   F   F
  7.7160478687551644  8.3357391370675309 17.7827848496382650   F   F   F
  3.9451301480000271  8.3688848019999824 12.2103998060000407   F   F   F
 11.8618379526931363 19.5760717661273489 18.2926509725418747   F   F   F
 23.6684760997930930 16.7617595886680419 15.2030611589859674   F   F   F
  7.9052782171377478 16.7635646751106826 15.0461141188719907   F   F   F
 15.7493591585397592 16.7788754167039933 15.0660802595226997   F   F   F
  7.8902602960000570  2.7896282670000101 12.2103998060000407   F   F   F
 11.8626284822571737 11.1540616540897464 15.0074423967340653   F   F   F
 23.6595035118906551 11.1560414431348978 15.2019787216387581   F   F   F
  3.9299643859721960  0.0249048296533268 15.1963066972566025   F   F   F
 11.8429558358923348 22.3000490217485385 15.1664362713468304   F   F   F
  3.9387882883710716  5.5392695267439622 15.1872799504435836   F   F   F
 15.7805205919999434  2.7896282670000101 12.2103998060000407   F   F   F
 19.7460753000163756  0.0036817535424373 15.1949964447175798   F   F   F
  0.0000000000000000 13.9481413360000008 12.2103998060000407   F   F   F
  7.8902602960000570 19.5273965409999306 12.2103998060000407   F   F   F
  7.8902602960000570 13.9481413360000008 12.2103998060000407   F   F   F
 19.7256482699999580 19.5273965409999306 12.2103998060000407   F   F   F
 15.7805205919999434 13.9481413360000008 12.2103998060000407   F   F   F
  0.0030380176099218 22.3135822389839582 15.2009267975280729   F   F   F
  0.0236679591194181  5.5759529756424175 15.1827732075376058   F   F   F
 11.8600006213486644  5.5348323551482821 15.0644343428286529   F   F   F
  7.8902602960000570  8.3688848019999824 12.2103998060000407   F   F   F
  1.9725650740000149 16.7377696039999648 12.2103998060000407   F   F   F
 21.7424722377770507  8.3510951262322539 15.1785923645631406   F   F   F
  1.9725650740000149  5.5792565349999723 12.2103998060000407   F   F   F
 17.8019319636443392 16.7916516903945237 17.7169259870897449   F   F   F
  5.9176950450000287  5.5792565349999723 12.2103998060000407   F   F   F
  1.9725650740000149 11.1585130689999925 12.2103998060000407   F   F   F
  9.8628241350000643 11.1585130689999925 12.2103998060000407   F   F   F
 21.6982156369999721 16.7377696039999648 12.2103998060000407   F   F   F
 21.7367193299007262 11.1568173289293835 18.1151439692649490   F   F   F
 13.8067728774114933  2.7568489263778413 15.1379162315881537   F   F   F
 17.8093530865202077 13.9372744529501045 15.0730537574490278   F   F   F
 13.8205517383101810 19.5471443701498444 15.1729461002469996   F   F   F
 21.7266491320676707  2.7885440219114570 15.1907140528074009   F   F   F
  1.9725650740000149  0.0000000000000000 12.2103998060000407   F   F   F