Au  O Sr Ti  H                          
   1.00000000000000     
    23.6707801818999997    0.0000000000000000    0.0000000000000000
     0.0000000000000000   22.3170261383000010    0.0000000000000000
     0.0000000000000000    0.0000000000000000   30.0000000000000000
   Au   O    Sr   Ti   H 
    50   264    72    72     1
Selective dynamics
Direct
  0.7193225686811454  0.5277830116192421  0.7530034835337246   T   T   T
  0.6229729960614458  0.5682036345607232  0.7044852004092312   T   T   T
  0.7204876283031381  0.2587965671553031  0.6922795339712234   T   T   T
  0.2934464490683373  0.7454775164091584  0.6981815364598130   T   T   T
  0.5146026977712507  0.6002647534341425  0.7760907182331526   T   T   T
  0.5773626791778725  0.7234180670327603  0.7927489070502136   T   T   T
  0.5546274698719894  0.3841604672231705  0.8265257510228499   T   T   T
  0.2407873958689164  0.4681552065554085  0.7085430682860651   T   T   T
  0.2831534627864118  0.6598787080076742  0.7653157438858565   T   T   T
  0.6048171995658185  0.2852567125714426  0.7857167211541767   T   T   T
  0.5126288671923140  0.4831109841563180  0.6778326626044474   T   T   T
  0.5632740892832987  0.4810472718863911  0.7603244629328693   T   T   T
  0.4626953338640428  0.6926158491227474  0.8283351573111110   T   T   T
  0.7653817687445539  0.4326156491462182  0.7050835979636936   T   T   T
  0.7337094024411905  0.6161900241869204  0.6930080804015926   T   T   T
  0.6359248091112765  0.5831601313265912  0.7998100139309812   T   T   T
  0.5946669614539423  0.7841497212158844  0.7127474744804667   T   T   T
  0.4842584718378478  0.7771207885551650  0.7571591865236852   T   T   T
  0.3498289354856864  0.5000567413813165  0.6981891226970102   T   T   T
  0.4242566226844120  0.3685160560501025  0.8199910248438355   T   T   T
  0.3731325557921764  0.2971922960910889  0.7535569982497441   T   T   T
  0.4541783741938119  0.2359299920810798  0.6940841340124699   T   T   T
  0.3911877767464992  0.8171143650293664  0.7060806062376652   T   T   T
  0.2888763999166225  0.5355632833413684  0.7780061024739463   T   T   T
  0.5630708202125051  0.2094977532880841  0.7147773329582311   T   T   T
  0.4520135835364149  0.5788633260026221  0.7033368387036349   T   T   T
  0.6175128287912526  0.3223447817221631  0.6962260000068156   T   T   T
  0.7056401301755327  0.7576759224120845  0.6881594739976181   T   T   T
  0.6587135197675354  0.4452921701421940  0.8111928055379276   T   T   T
  0.3669677508043737  0.6173638611047358  0.8203232410132770   T   T   T
  0.5697579550910283  0.5095528093479494  0.8545737323268344   T   T   T
  0.6726435660496728  0.1908065485546545  0.7539094460367737   T   T   T
  0.4737028912374234  0.4487480826532111  0.8783841424475231   T   T   T
  0.5161327474267768  0.3714380931686095  0.7314169526454183   T   T   T
  0.2843545549896507  0.3355766756985785  0.7016374165450486   T   T   T
  0.6702660520261524  0.6808639766509859  0.7487668396470812   T   T   T
  0.3980259722667793  0.3818723986029008  0.6897560755494315   T   T   T
  0.3760995330286170  0.4902502896261249  0.8322381425718792   T   T   T
  0.4622023746819864  0.5715960233454702  0.8621073349605826   T   T   T
  0.3258902873923690  0.4128999205544436  0.7683472781679306   T   T   T
  0.4875499540829114  0.2663128173445923  0.7795412122246147   T   T   T
  0.4230729859393678  0.6977395675657163  0.6988616760815081   T   T   T
  0.7013492317125710  0.3470618462314091  0.7567865914406600   T   T   T
  0.7760713010909716  0.4308329469319551  0.7950814118445729   T   T   T
  0.2569684157342474  0.5914743354479823  0.6943082939178955   T   T   T
  0.6508906565835905  0.4448305391407471  0.6925591624087485   T   T   T
  0.5643554091281032  0.6385164573474256  0.8610230948714909   T   T   T
  0.5432996540022453  0.6647066238824431  0.7012606515524216   T   T   T
  0.4442165628099074  0.4694106456209413  0.7565304297479647   T   T   T
  0.3724872872803007  0.7376972249114332  0.7775302815832386   T   T   T
  0.2500533070638958  0.1884540729256314  0.4541438727244586   T   T   T
  0.7495282110048254  0.9383910437240028  0.4552795260248371   T   T   T
  0.7490309665455919  0.6887051487491371  0.4573295207649491   T   T   T
  0.7496134798197657  0.4383466929617092  0.4557208247181664   T   T   T
  0.7505547347412833  0.1897243352608396  0.4556698884275899   T   T   T
  0.4170924190251949  0.9358513236973294  0.4540831326165817   T   T   T
  0.4170580695088095  0.6845508808638955  0.4546579097610217   T   T   T
  0.4165339518382328  0.4353593162207094  0.4536559213449394   T   T   T
  0.0845790197268839  0.6869277717357811  0.4530082403165500   T   T   T
  0.0839114487172532  0.9366635340201691  0.4534591998777521   T   T   T
  0.0828125755522200  0.4368176213685354  0.4528574242815385   T   T   T
  0.0838388510234418  0.1865600991751411  0.4529757161980050   T   T   T
  0.9165460974284475  0.8120799623509558  0.4540596732719515   T   T   T
  0.9161892967045043  0.5624066057456520  0.4538146911482025   T   T   T
  0.2511078502534487  0.4392080381344743  0.4549266727752487   T   T   T
  0.9160672549982239  0.0622135644135016  0.4540681346208902   T   T   T
  0.9161161450042361  0.3122133112206111  0.4538141766629808   T   T   T
  0.4168724589310256  0.1872418395859665  0.4538009981721585   T   T   T
  0.2524049412588074  0.6873224346948471  0.4561456773404029   T   T   T
  0.9164719907493056  0.9370980706411933  0.4536050767590690   T   T   T
  0.5827963643935915  0.1903069156298820  0.4555940731872490   T   T   T
 -0.0000420322898138  0.1250293034055738  0.4983684633770317   T   T   T
  0.5835155251436737  0.8102180872717523  0.4554296252152153   T   T   T
 -0.0001766312536382  0.3736195003016844  0.4981176619799665   T   T   T
  0.9998160439549862  0.6271882214376230  0.4976965283248756   T   T   T
  0.3335689022467080  0.1247866435131418  0.4984086756164232   T   T   T
  0.0000109952528486  0.8751430808065119  0.4995185872432891   T   T   T
  0.3333602584468647  0.8732677944064917  0.4993045288283334   T   T   T
  0.6660566927913399  0.1261225059674258  0.4991081838343934   T   T   T
  0.3359047147669290  0.6252633284444571  0.5043506755004150   T   T   T
  0.3343519748146107  0.3784375028836574  0.5029645242075762   T   T   T
  0.6655535030002241  0.3786080370820153  0.5029777034424718   T   T   T
  0.9153303074676448  0.6866967580040710  0.4529696783808539   T   T   T
  0.9157163182196204  0.4370896108838885  0.4536453795774615   T   T   T
  0.9158188570224890  0.1869264711095104  0.4532025041245260   T   T   T
  0.5828215279739205  0.9369920647964805  0.4542132481217522   T   T   T
  0.5828133629764045  0.6860697675722095  0.4546061970900471   T   T   T
  0.5827940110815594  0.4395964392615576  0.4562458471797212   T   T   T
  0.2501728742852308  0.9359070134830201  0.4540923813721623   T   T   T
  0.6654292407439619  0.6258484826148446  0.5029581300158530   T   T   T
  0.5845719134683859  0.5626915328128992  0.4549773049448176   T   T   T
  0.5833001016399197  0.0635711075667947  0.4538281531463532   T   T   T
  0.9166666865332829  0.6874999999963620  0.3605200052333331   F   F   F
  0.9166666865332829  0.4374999701794380  0.3605200052333331   F   F   F
  0.9166666865332829  0.1875000000030838  0.3605200052333331   F   F   F
  0.5833333134730552  0.9375000000154046  0.3605200052333331   F   F   F
  0.5833333134730552  0.6874999999963620  0.3605200052333331   F   F   F
  0.5833333134730552  0.4374999701794380  0.3605200052333331   F   F   F
  0.5833333134730552  0.1875000000030838  0.3605200052333331   F   F   F
  0.2499999999799343  0.9375000000154046  0.3605200052333331   F   F   F
  0.9166666865332829  0.9375000000154046  0.3605200052333331   F   F   F
  0.2499999999799343  0.6874999999963620  0.3605200052333331   F   F   F
  0.2499999999799343  0.1875000000030838  0.3605200052333331   F   F   F
  0.7499999404149307  0.9375000000154046  0.3605200052333331   F   F   F
  0.7499999404149307  0.6874999999963620  0.3605200052333331   F   F   F
  0.7499999404149307  0.4374999701794380  0.3605200052333331   F   F   F
  0.7499999404149307  0.1875000000030838  0.3605200052333331   F   F   F
  0.4166666269218169  0.9375000000154046  0.3605200052333331   F   F   F
  0.4166666269218169  0.6874999999963620  0.3605200052333331   F   F   F
  0.4166666269218169  0.4374999701794380  0.3605200052333331   F   F   F
  0.2499999999799343  0.4374999701794380  0.3605200052333331   F   F   F
  0.0833333358191695  0.0625000000159659  0.3605200052333331   F   F   F
  0.0833333358191695  0.3124999999901945  0.3605200052333331   F   F   F
  0.0833333358191695  0.5625000000092442  0.3605200052333331   F   F   F
  0.9166666865332829  0.3124999999901945  0.3605200052333331   F   F   F
  0.9166666865332829  0.0625000000159659  0.3605200052333331   F   F   F
  0.5833333134730552  0.8124999999834799  0.3605200052333331   F   F   F
  0.5833333134730552  0.5625000000092442  0.3605200052333331   F   F   F
  0.5833333134730552  0.3124999999901945  0.3605200052333331   F   F   F
  0.5833333134730552  0.0625000000159659  0.3605200052333331   F   F   F
  0.2499999999799343  0.8124999999834799  0.3605200052333331   F   F   F
  0.2499999999799343  0.5625000000092442  0.3605200052333331   F   F   F
  0.2499999999799343  0.3124999999901945  0.3605200052333331   F   F   F
  0.2499999999799343  0.0625000000159659  0.3605200052333331   F   F   F
  0.7499999404149307  0.8124999999834799  0.3605200052333331   F   F   F
  0.7499999404149307  0.5625000000092442  0.3605200052333331   F   F   F
  0.7499999404149307  0.3124999999901945  0.3605200052333331   F   F   F
  0.7499999404149307  0.0625000000159659  0.3605200052333331   F   F   F
  0.4166666269218169  0.8124999999834799  0.3605200052333331   F   F   F
  0.4166666269218169  0.5625000000092442  0.3605200052333331   F   F   F
  0.4166666269218169  0.3124999999901945  0.3605200052333331   F   F   F
  0.4166666269218169  0.0625000000159659  0.3605200052333331   F   F   F
  0.0833333358191695  0.8124999999834799  0.3605200052333331   F   F   F
  0.4166666269218169  0.1875000000030838  0.3605200052333331   F   F   F
  0.0833333358191695  0.9375000000154046  0.3605200052333331   F   F   F
  0.0833333358191695  0.6874999999963620  0.3605200052333331   F   F   F
  0.0833333358191695  0.4374999701794380  0.3605200052333331   F   F   F
  0.8333332538436267  0.4999999999932783  0.4070133268666680   F   F   F
  0.8333332538436267  0.7500000000123208  0.4070133268666680   F   F   F
  0.0837511995762279  0.0618415489425026  0.4541979677804432   T   T   T
  0.0834099604819174  0.3120166084139561  0.4539393041200261   T   T   T
  0.0839409103550189  0.5625137124017546  0.4538269368295957   T   T   T
  0.0834621966364454  0.8121373741771041  0.4541746805255186   T   T   T
  0.4171428404228861  0.0616356724986821  0.4552184169187491   T   T   T
  0.4156103491922717  0.3114908284867954  0.4571298963454693   T   T   T
  0.4160701695831934  0.5594794222022970  0.4578689407117149   T   T   T
  0.4166446086472153  0.8098496053516299  0.4551958755337595   T   T   T
  0.7495923630833163  0.0640274304926812  0.4533850649148051   T   T   T
  0.7474059858549679  0.3141070341987469  0.4546029479614121   T   T   T
  0.7481318735972278  0.5642627492303791  0.4537377268090580   T   T   T
  0.7492439201719053  0.8132352472320886  0.4530279010314634   T   T   T
  0.2500137301458200  0.0617996317476969  0.4543649380772412   T   T   T
  0.9152630194829050  0.3126428271064550  0.5466247783491511   T   T   T
  0.2523053046617935  0.3140910236548866  0.4541644870572180   T   T   T
  0.2519205371738576  0.5645712630325397  0.4538322883391948   T   T   T
  0.2501535417363712  0.8104446909056476  0.4554873603986198   T   T   T
  0.8333332538436267  0.2500000000190425  0.4070133268666680   F   F   F
  0.5843146532071594  0.3153569515692572  0.4535890262693468   T   T   T
  0.8333332538436267  0.0000000000000000  0.4070133268666680   F   F   F
  0.5000000000021103  0.4999999999932783  0.4070133268666680   F   F   F
  0.0833333358191695  0.1875000000030838  0.3605200052333331   F   F   F
  0.0000000000000000  0.0000000000000000  0.4070133268666680   F   F   F
  0.0000000000000000  0.2500000000190425  0.4070133268666680   F   F   F
  0.0000000000000000  0.4999999999932783  0.4070133268666680   F   F   F
  0.0000000000000000  0.7500000000123208  0.4070133268666680   F   F   F
  0.3333333432766779  0.0000000000000000  0.4070133268666680   F   F   F
  0.3333333432766779  0.2500000000190425  0.4070133268666680   F   F   F
  0.3333333432766779  0.4999999999932783  0.4070133268666680   F   F   F
  0.3333333432766779  0.7500000000123208  0.4070133268666680   F   F   F
  0.6666666865533486  0.0000000000000000  0.4070133268666680   F   F   F
  0.6666666865533486  0.2500000000190425  0.4070133268666680   F   F   F
  0.6666666865533486  0.4999999999932783  0.4070133268666680   F   F   F
  0.6666666865533486  0.7500000000123208  0.4070133268666680   F   F   F
  0.1666666716383389  0.0000000000000000  0.4070133268666680   F   F   F
  0.1666666716383389  0.2500000000190425  0.4070133268666680   F   F   F
  0.1666666716383389  0.4999999999932783  0.4070133268666680   F   F   F
  0.1666666716383389  0.7500000000123208  0.4070133268666680   F   F   F
  0.5000000000021103  0.0000000000000000  0.4070133268666680   F   F   F
  0.5000000000021103  0.2500000000190425  0.4070133268666680   F   F   F
  0.5000000000021103  0.7500000000123208  0.4070133268666680   F   F   F
  0.1670070621935328  0.1246337080126370  0.4995632258468327   T   T   T
  0.9176588715754340  0.0632634627036918  0.5474760504106168   T   T   T
  0.1677234888508966  0.8732589621647657  0.4999324806194488   T   T   T
  0.2520423086836419  0.1882501839942662  0.5472910902551748   T   T   T
  0.7493731155344685  0.9341005817481117  0.5476151265612904   T   T   T
  0.7518059635066874  0.6804524507134637  0.5530353097455259   T   T   T
  0.7521220699388321  0.4351158274925393  0.5490560554383633   T   T   T
  0.4230191902496164  0.4439221967724052  0.5453006582878768   T   T   T
  0.4233316628535111  0.6882314734385766  0.5464602436481869   T   T   T
  0.7484819223410728  0.1836414457490374  0.5508380592429104   T   T   T
  0.4157100073473697  0.9368442251712553  0.5461543346919508   T   T   T
  0.0835917205394671  0.9389665066416693  0.5457181539591834   T   T   T
  0.4155919594052723  0.1900753299920208  0.5470986638776595   T   T   T
  0.0865678671783847  0.6897080547371160  0.5451218241256269   T   T   T
  0.0823860109821552  0.4385760171234208  0.5449755911199480   T   T   T
  0.0833907469302315  0.1890113221643175  0.5454971382176611   T   T   T
  0.4995563542652762  0.1256542449294338  0.4993645282147086   T   T   T
  0.9995623362527979  0.5005827518128361  0.5943521008841949   T   T   T
  0.9995143855402859  0.7531764846189608  0.5922374098839359   T   T   T
  0.3349354513280136  0.2538553507270238  0.5929770850262986   T   T   T
  0.3339646098852844  0.0001052787642227  0.5920458342253601   T   T   T
  0.9997582567059383  0.9993973258054342  0.5931718348772246   T   T   T
  0.0006168815061380  0.2499743443854947  0.5918179229107108   T   T   T
  0.3331578291320176  0.4966607919488663  0.5901514000621852   T   T   T
  0.3361464711302410  0.7414271312626862  0.5905302880399587   T   T   T
  0.6636337616604261  0.2476354829041839  0.5906345227746799   T   T   T
  0.6657940403202142  0.0005119151462567  0.5917870729640309   T   T   T
  0.6658580783272964  0.7420150126262497  0.5900215351349907   T   T   T
  0.6668857392958651  0.4936564049004972  0.5916822528076302   T   T   T
  0.1674286373149718  0.9984154301944957  0.5923300100558114   T   T   T
  0.1682529853810629  0.2490159299090924  0.5928922191987667   T   T   T
  0.1707659944476888  0.7497981539418064  0.5950826595412498   T   T   T
  0.2482000465103233  0.4356938092223419  0.5488739486866762   T   T   T
  0.1654213740305631  0.5024351283673447  0.5871661585944946   T   T   T
  0.2496670203696074  0.6832124999431806  0.5521819567636052   T   T   T
  0.5809655372549961  0.1850403388161892  0.5500443341670861   T   T   T
  0.9155900496625993  0.8129954109824289  0.5468686378768476   T   T   T
  0.9167641282329181  0.5635641011200673  0.5464313314524043   T   T   T
  0.5813925198231169  0.5600543509634542  0.5493962873922492   T   T   T
  0.5861145883654398  0.8147052315232952  0.5505017606259053   T   T   T
  0.5832807112281215  0.3113790279129288  0.5450357254155924   T   T   T
  0.5824893024260497  0.0617675852843304  0.5454516600327949   T   T   T
  0.2530358731376448  0.8129178217097853  0.5513081073040198   T   T   T
  0.2521267619606606  0.5589787035178245  0.5438292811311708   T   T   T
  0.2496563356610742  0.3136828269810512  0.5459930709158758   T   T   T
  0.2508765822503024  0.0624260715499009  0.5473593845857347   T   T   T
  0.7483423129642299  0.8082523917282228  0.5456378781413534   T   T   T
  0.7464222050369972  0.5578777470268310  0.5445603211118999   T   T   T
  0.4153024798430991  0.8119623903911272  0.5482690363879890   T   T   T
  0.7482909788800389  0.0596396981332585  0.5444833270865517   T   T   T
  0.7480985005494278  0.3115019664648451  0.5479784150788494   T   T   T
  0.4160933773409822  0.3188015628033858  0.5518572740959912   T   T   T
  0.4206028997629312  0.5652200746471966  0.5553889484291320   T   T   T
  0.4170043134945279  0.0643246786105333  0.5470918754747534   T   T   T
  0.0848786983297685  0.8129674259388724  0.5473354859461858   T   T   T
  0.0824586547280497  0.5643055165646026  0.5461538322311476   T   T   T
  0.0857239642580978  0.3134888506014331  0.5469925318940089   T   T   T
  0.0823149354011685  0.0632975702943327  0.5476135273531672   T   T   T
  0.9157328478690232  0.9385996765701246  0.5463924149967317   T   T   T
  0.9132869066838182  0.6893638355706526  0.5450188140645008   T   T   T
  0.5837698686093478  0.9376955750280709  0.5461131371241866   T   T   T
  0.9168557750234831  0.1888741173238576  0.5454719041261400   T   T   T
  0.9160129204992792  0.4375457048968834  0.5457822688031286   T   T   T
  0.5766746686953488  0.4359813942905906  0.5521985956003603   T   T   T
  0.5795939892058671  0.6863114353786496  0.5472758647645624   T   T   T
  0.2516135743273863  0.9373646546706645  0.5452047136134501   T   T   T
  0.4977179354392879  0.5043783857341542  0.6089611127625824   T   T   T
  0.4994352070556504  0.2527961337234913  0.5897127602444099   T   T   T
  0.4996104412089070  0.0000188773483506  0.5910014323106192   T   T   T
  0.7532763586657640  0.6940358060752388  0.6559153189311513   T   T   T
  0.7483539732096115  0.9367950026942564  0.6398880046729386   T   T   T
  0.2529604957134226  0.1869066344367772  0.6414428186559165   T   T   T
  0.7458360727275961  0.1946046806305445  0.6468035777341248   T   T   T
  0.7554345593852114  0.4355042823024853  0.6385673816409713   T   T   T
  0.4173288579150984  0.9351363177700960  0.6395712572489060   T   T   T
  0.4213721918966853  0.6754916985851032  0.6332166352557460   T   T   T
  0.5911551658045678  0.8101267005174356  0.6461555489813759   T   T   T
  0.9157010576762886  0.0626782130678405  0.6417114663600648   T   T   T
  0.9125515783145770  0.5616293302302399  0.6418898080114142   T   T   T
  0.9150145135348250  0.3119326661238546  0.6396059920891368   T   T   T
  0.9141162745607795  0.8132434966674813  0.6414896947292229   T   T   T
  0.5823818759868049  0.0663890858755802  0.6389486419220126   T   T   T
  0.5829141411378118  0.3203879816723343  0.6338296892302879   T   T   T
  0.5918015565598331  0.5650253865169579  0.6395247847747378   T   T   T
  0.2474155666933253  0.5734362896887231  0.6284672654403262   T   T   T
  0.2619535056634558  0.7980625179172661  0.6469546029998557   T   T   T
  0.2489958565532335  0.3166703005731988  0.6407342356018088   T   T   T
  0.2510004500261377  0.0595050244663913  0.6423876137733231   T   T   T
  0.9166666865332829  0.5625000000092442  0.3605200052333331   F   F   F
  0.4996546810401772  0.3742780188273624  0.4997392825631671   T   T   T
  0.5000602432812581  0.8734253090152793  0.5008168760826384   T   T   T
  0.5005250553075127  0.6209802214815932  0.5001359038351444   T   T   T
  0.8322732065568007  0.6230024223710892  0.4999266883738328   T   T   T
  0.8328036123097576  0.8744192561555811  0.4985695682059056   T   T   T
  0.8325049446961167  0.3732132399897488  0.4996495729910583   T   T   T
  0.8328994564378337  0.1244912030245893  0.4997672520777308   T   T   T
  0.1665675670980489  0.3759074079307222  0.4977575606682869   T   T   T
  0.1677930252648310  0.6243758290342427  0.5000076166147361   T   T   T
  0.5809405888602329  0.4391020483964662  0.6469033626124513   T   T   T
  0.5801659817155703  0.6853209148800397  0.6392150802999516   T   T   T
  0.9170138763382985  0.1867065414447399  0.6407301547038479   T   T   T
  0.5817479721076092  0.9357633269404712  0.6391832553839731   T   T   T
  0.8305826898441150  0.7510430199935287  0.5927340376376740   T   T   T
  0.8315651917910096  0.2481265575571073  0.5913878132225298   T   T   T
  0.8332859205011235  0.5030375333197886  0.5887192462159343   T   T   T
  0.8321420323788111  0.0020033038536818  0.5922666189398420   T   T   T
  0.5015653678947998  0.7559576258580841  0.5930035729762020   T   T   T
  0.4178463848194221  0.0656165111900478  0.6399314194069673   T   T   T
  0.4279331577619954  0.3072328207624836  0.6519316239404291   T   T   T
  0.4138744324882406  0.8126482466960993  0.6397453384564005   T   T   T
  0.3972372387216953  0.5506173552285603  0.6519282155417631   T   T   T
  0.7531029176702548  0.5702503915583812  0.6344895201418037   T   T   T
  0.7410327500813947  0.8102500666523322  0.6399185126975064   T   T   T
  0.7468505149047119  0.3125945165665522  0.6405577097357144   T   T   T
  0.7475974696924551  0.0670417138967064  0.6390835629128285   T   T   T
  0.0837036144098667  0.3118074488560099  0.6404109569497743   T   T   T
  0.6666041925276425  0.8746546335762532  0.4989577467329639   T   T   T
  0.0874383888651732  0.5619369796877404  0.6413122192970208   T   T   T
  0.0842095614976692  0.0604602801136105  0.6422167912775413   T   T   T
  0.0866376018819114  0.4365018844753567  0.6392665158146238   T   T   T
  0.0835088642836698  0.1857319541043624  0.6409151295967607   T   T   T
  0.4208514563247375  0.1903730294438484  0.6410141079674699   T   T   T
  0.4143208082051543  0.4202318818113538  0.6295459923761085   T   T   T
  0.0841407837268986  0.9353293739209941  0.6403995156950694   T   T   T
  0.0831154264570553  0.6871015640365465  0.6395921950505611   T   T   T
  0.9125044441782517  0.4360536323872811  0.6396707031702300   T   T   T
  0.9161572985160946  0.6875152555837158  0.6394063455928084   T   T   T
  0.9144522137078253  0.9371909446950066  0.6409294184912230   T   T   T
  0.2406850245037744  0.4419685112157459  0.6412226833301996   T   T   T
  0.2559211444513535  0.6760132917505756  0.6634864834161825   T   T   T
  0.5795713233942906  0.1920993477896781  0.6456052939717271   T   T   T
  0.2520597888590624  0.9301440197810705  0.6373015341530900   T   T   T
  0.0840617569553206  0.8120316620554415  0.6418474722883815   T   T   T
  0.9166666865332829  0.8124999999834799  0.3605200052333331   F   F   F
  0.0005964136822672  0.1225973618447305  0.6199163652785808   T   T   T
  0.8333332538436267  0.6249999999803961  0.4070133268666680   F   F   F
  0.9995472742801577  0.5006809676361531  0.5069806170191820   T   T   T
  0.3310960849397412  0.4992029305560960  0.5007126261599308   T   T   T
  0.3301662549542455  0.2477813477579338  0.5027719838969560   T   T   T
  0.3330806032209273  0.0011009795333546  0.5059048780381487   T   T   T
  0.3338079370323822  0.7510536484019945  0.5015885967213961   T   T   T
  0.6659146722080760  0.0001918478802274  0.5054434021403129   T   T   T
  0.6685866683377197  0.4996367829909500  0.5006815653224421   T   T   T
  0.6669969156375797  0.2477656296895423  0.5030179747139875   T   T   T
  0.6654990217484412  0.7519572177295104  0.5022092468311576   T   T   T
  0.1659880536471990  0.0011527767531755  0.5065392753066088   T   T   T
  0.1661890664688056  0.2481986176411082  0.5061080520803245   T   T   T
  0.1632883089976089  0.4998349602520517  0.5018485499936058   T   T   T
  0.5002938387063105  0.9993118998861168  0.5053879746017212   T   T   T
  0.1643654733716360  0.7515732773921396  0.5033393019222469   T   T   T
  0.5011871144968366  0.7528276925865822  0.5037945977967195   T   T   T
  0.8341784171454147  0.0003541625683391  0.5064438539444486   T   T   T
  0.5013543220615050  0.4997327224522773  0.5002736038402779   T   T   T
  0.5009926206984476  0.2477427385690070  0.5022317595710171   T   T   T
  0.8353590029505632  0.2484333181630989  0.5032088901470066   T   T   T
  0.9997605466893136  0.7508410925192504  0.5065754346500851   T   T   T
  0.0005549564156836  0.2497834762924502  0.5058374529842001   T   T   T
 -0.0000227526668181  0.0000289730209190  0.5066208256238437   T   T   T
  0.8333332538436267  0.8749999404036828  0.4070133268666680   F   F   F
  0.0000000000000000  0.6249999999803961  0.4070133268666680   F   F   F
  0.0000000000000000  0.8749999404036828  0.4070133268666680   F   F   F
  0.3333333432766779  0.1249999999871179  0.4070133268666680   F   F   F
  0.3333333432766779  0.3750000000061604  0.4070133268666680   F   F   F
  0.3333333432766779  0.6249999999803961  0.4070133268666680   F   F   F
  0.3333333432766779  0.8749999404036828  0.4070133268666680   F   F   F
  0.6666666865533486  0.1249999999871179  0.4070133268666680   F   F   F
  0.6666666865533486  0.3750000000061604  0.4070133268666680   F   F   F
  0.6666666865533486  0.6249999999803961  0.4070133268666680   F   F   F
  0.8360890045736592  0.4999200961096767  0.5027001286081104   T   T   T
  0.6666666865533486  0.8749999404036828  0.4070133268666680   F   F   F
  0.1666666716383389  0.3750000000061604  0.4070133268666680   F   F   F
  0.1666666716383389  0.6249999999803961  0.4070133268666680   F   F   F
  0.1666666716383389  0.8749999404036828  0.4070133268666680   F   F   F
  0.5000000000021103  0.1249999999871179  0.4070133268666680   F   F   F
  0.5000000000021103  0.3750000000061604  0.4070133268666680   F   F   F
  0.5000000000021103  0.6249999999803961  0.4070133268666680   F   F   F
  0.5000000000021103  0.8749999404036828  0.4070133268666680   F   F   F
  0.8333332538436267  0.1249999999871179  0.4070133268666680   F   F   F
  0.8333332538436267  0.3750000000061604  0.4070133268666680   F   F   F
  0.1666666716383389  0.1249999999871179  0.4070133268666680   F   F   F
  0.0000000000000000  0.3750000000061604  0.4070133268666680   F   F   F
  0.8358842141774269  0.7518513381879318  0.5025669719785931   T   T   T
  0.8369768875691778  0.3724311739332990  0.6040182376476966   T   T   T
  0.8320946950822267  0.8761760485994324  0.6181039101330396   T   T   T
  0.8402403992105830  0.6268424594620956  0.6028134179381102   T   T   T
  0.9990145095178329  0.8750596432236911  0.6217013850899406   T   T   T
  0.3318967527554956  0.1207421260033978  0.6154999520185607   T   T   T
  0.3341592575807604  0.6243140303697362  0.5953885822030379   T   T   T
  0.3258356046963448  0.3737094195506165  0.5924890776430113   T   T   T
  0.6708789219576701  0.3717568780199293  0.5931075930191523   T   T   T
  0.6655020119228184  0.1250654670818816  0.6118425146526114   T   T   T
  0.3346174322419742  0.8784506110602308  0.6030018083252714   T   T   T
  0.1589901694240741  0.6270972464979214  0.6012811226524435   T   T   T
  0.1660242648911246  0.8733786061259059  0.6174717344620407   T   T   T
  0.5011896550672295  0.3712045973143202  0.5946157526964025   T   T   T
  0.5004571273485231  0.1226085621838573  0.6066230348453134   T   T   T
  0.1675729511976506  0.1226596270218333  0.6216591293360828   T   T   T
  0.1630234015745646  0.3715844639689456  0.6073492661578452   T   T   T
  0.6650774063122507  0.8810581310967381  0.6069603505627773   T   T   T
  0.6663921454366984  0.6265008474482878  0.5934552931684383   T   T   T
 -0.0001286846349144  0.3747136330412077  0.6227812007649407   T   T   T
  0.9995940722983154  0.6219617496167358  0.6367303029186773   T   T   T
  0.8334658453985159  0.1250558120229268  0.6193201667091931   T   T   T
  0.5005545133464482  0.8768366038308602  0.6089774293060026   T   T   T
  0.0000000000000000  0.1249999999871179  0.4070133268666680   F   F   F
  0.5041652079789298  0.6249295331164584  0.5939530163290067   T   T   T
  0.9162027373641919  0.0004117254521728  0.6038031785242808   T   T   T
  0.5845075192471029  0.7498999049626799  0.5995211077332691   T   T   T
  0.5903892998150531  0.5012321379542570  0.5937476322369684   T   T   T
  0.2422498720790748  0.4978591083935570  0.5934520029297586   T   T   T
  0.2492035346251434  0.7527051029374676  0.5922868755873777   T   T   T
  0.5841167385753568  0.2476743531224168  0.5976542183814432   T   T   T
  0.5825141388812048  0.0010468778528256  0.6041718003629218   T   T   T
  0.2498014917432652  0.9978249506003204  0.6042520079718368   T   T   T
  0.2485234342279428  0.2457274333437989  0.6033724978904841   T   T   T
  0.4170841865861393  0.0004778057741811  0.6045494629287012   T   T   T
  0.4143096310056236  0.2482736013975007  0.5913735159132150   T   T   T
  0.4164107149227716  0.7496191366819147  0.5941466916758139   T   T   T
  0.7564721527336111  0.5025531193990715  0.5947411767615391   T   T   T
  0.7518726353955665  0.7524625552312871  0.5906435746928027   T   T   T
  0.7537270921625611  0.2483589758194895  0.5941357228999911   T   T   T
  0.7494980272601545  0.0017612029225132  0.6041352941154208   T   T   T
  0.0832369987627976  0.2481541302756349  0.6035384149586306   T   T   T
  0.0813378750046808  0.5002103117501197  0.6031152342465790   T   T   T
  0.0803950700629820  0.7509570370162711  0.6032512375496103   T   T   T
  0.0835191923849802  0.9988505975252344  0.6036582475728515   T   T   T