Au  C  H  O Sr Ti                       
   1.00000000000000     
    23.6707801818999997    0.0000000000000000    0.0000000000000000
     0.0000000000000000   22.3170261383000010    0.0000000000000000
     0.0000000000000000    0.0000000000000000   30.0000000000000000
   Au   C    H    O    Sr   Ti
    50     2     2   265    72    72
Selective dynamics
Direct
  0.7135391593375573  0.5274509885016343  0.7537856253417345   F   F   F
  0.2934436076399791  0.7470222686973003  0.6965643858983626   F   F   F
  0.5087849456271698  0.6065340227287308  0.7777179442209388   F   F   F
  0.5776039450658601  0.7265187806542599  0.7942892347465218   F   F   F
  0.2395123561469390  0.4698736336386276  0.7092523322230377   F   F   F
  0.2855653699134706  0.6632952980017066  0.7642977594147524   F   F   F
  0.6014310523119946  0.2910367538236400  0.7855163716544240   F   F   F
  0.5135767010720542  0.4841321067481346  0.6776606298517294   F   F   F
  0.5600227698973583  0.4889790974029324  0.7626024981099562   F   F   F
  0.4836803236655030  0.2728378146123092  0.7744400326314818   F   F   F
  0.5458145547001152  0.3851099687658035  0.8276410509392775   F   F   F
  0.5481925213371497  0.2188703089110078  0.7081219755263248   F   F   F
  0.3913595199538307  0.8176751515602376  0.7063445786824829   F   F   F
  0.4312334081884472  0.2281562698626871  0.6986886972766584   F   F   F
  0.3686445833368879  0.3007841593592815  0.7567467985224994   F   F   F
  0.4259444973049824  0.3722159468994448  0.8179611906410145   F   F   F
  0.5958110993739467  0.7848777294078957  0.7128012295021193   F   F   F
  0.6312103724619362  0.5866704088875281  0.7992568470216881   F   F   F
  0.7306718026886259  0.6161498465894226  0.6934713726160382   F   F   F
  0.4854136789536128  0.7771470214092275  0.7548141400843207   F   F   F
  0.7643061193292482  0.4351759586768793  0.7052881286897232   F   F   F
  0.7428623684876641  0.2625036737623532  0.6952406290926163   T   T   T
  0.6203566939764755  0.5704195424283753  0.7035566476245805   F   F   F
  0.4628930469678707  0.6983898476819874  0.8316988231449116   F   F   F
  0.6249883804498495  0.3181355383163549  0.6950038280462465   F   F   F
  0.3478484997577240  0.5009493770051705  0.6972799010349462   F   F   F
  0.7034189777643789  0.3477391648688979  0.7568490844601712   F   F   F
  0.2891221919791960  0.5390302320338449  0.7773730841104296   F   F   F
  0.5693576774664137  0.5107495252969798  0.8567210001402827   F   F   F
  0.6407516521607945  0.1810619088992098  0.7576514047794731   T   T   T
  0.4702501064671694  0.4519731766614541  0.8793909841177907   F   F   F
  0.2814325013260941  0.3398733818054467  0.7027208987227596   F   F   F
  0.6683891697912827  0.6826038180914153  0.7487056644920926   F   F   F
  0.3961126360333722  0.3826582544067847  0.6902799779098245   F   F   F
  0.4512979582842576  0.5791304434460187  0.7036771425690844   F   F   F
  0.3756371003583752  0.4945084087277039  0.8322494459363199   F   F   F
  0.3232941760314958  0.4160409334285475  0.7700372373393449   F   F   F
  0.3688514518178110  0.6199246684927004  0.8198589164239820   F   F   F
  0.5249274136119908  0.3769189130900159  0.7317611432888285   F   F   F
  0.7728106801563044  0.4352125870844219  0.7961324973467967   F   F   F
  0.2563773098991433  0.5939648772457318  0.6945669669363852   F   F   F
  0.6475365653777558  0.4442874208740974  0.6959683221368067   F   F   F
  0.5633820101432931  0.6413704457197156  0.8622238519372303   F   F   F
  0.5399008058909800  0.6675411371549984  0.7021352202522095   F   F   F
  0.4425586446030820  0.4688714275686294  0.7545677790651126   F   F   F
  0.7064152398356640  0.7575321872204626  0.6881562392630158   F   F   F
  0.3739275203453616  0.7413302576525780  0.7791881606334599   F   F   F
  0.4622578049915447  0.5750327483846647  0.8652211215107428   F   F   F
  0.6530682045727474  0.4396991185395365  0.8112941457783975   F   F   F
  0.4162270458725175  0.6958881386792157  0.7000876240278728   F   F   F
  0.7267715727955419  0.1684899501374773  0.7658308654808366   T   T   T
  0.7391383167128325  0.1117483250623650  0.7790282484123949   T   T   T
  0.7096354540033900  0.0849243452529862  0.7977869638446577   T   T   T
  0.7784243192138831  0.0917645604075190  0.7675863853775340   T   T   T
  0.0843553246300814  0.6869648335020813  0.4531489318624153   F   F   F
  0.2520628843916342  0.6875394944779671  0.4560059890814827   F   F   F
  0.0840838421136070  0.9368206097149212  0.4536508472303993   F   F   F
  0.0828023702623639  0.4368295269212723  0.4528233972030264   F   F   F
  0.0838570121314177  0.1865654075266079  0.4529724259813648   F   F   F
  0.9166158098018329  0.8121409477293327  0.4540441061095137   F   F   F
  0.7463392621111495  0.5583963772088367  0.5445679176268712   F   F   F
  0.9161034260885828  0.5622371565847146  0.4540237622912358   F   F   F
  0.9161199479539590  0.0622053722141303  0.4540875507909021   F   F   F
  0.9162016043055985  0.3123013040138858  0.4536945690940541   F   F   F
  0.4173252180035192  0.4355017570631077  0.4541214507957747   F   F   F
  0.5821816059547587  0.4395111052020653  0.4564928664272969   F   F   F
  0.5828830455496501  0.1903801332814510  0.4556133735431942   F   F   F
  0.9164683525379260  0.9371018876065165  0.4536649938165809   F   F   F
  0.5832823907224736  0.8104003878403532  0.4553363649713802   F   F   F
  0.0000315786565821  0.3737975225221959  0.4981448315886752   F   F   F
  0.9996927124382822  0.6272153888382732  0.4976231883795279   F   F   F
  0.3336750680807583  0.1256542184233567  0.4987270266237758   F   F   F
  0.0001296649177149  0.8751548726517555  0.4995847447175450   F   F   F
  0.3334879233289598  0.8742444948095383  0.4989257678283536   F   F   F
  0.6660809910450709  0.1266521637807045  0.4991600226661177   F   F   F
  0.2511592754979404  0.4392600834604607  0.4549290056535469   F   F   F
  0.0833333358191695  0.5625000000092442  0.3605200052333331   F   F   F
  0.9166666865332829  0.0625000000159659  0.3605200052333331   F   F   F
  0.7493526269329323  0.8131921886561742  0.4530253362190493   F   F   F
  0.7497613249703363  0.4384086107043359  0.4556706101146943   F   F   F
  0.9161917113940561  0.3123905544255479  0.5462363381265831   F   F   F
  0.4170832833111433  0.6848023951681341  0.4547718444440676   F   F   F
  0.0001265860097845  0.1250961018072658  0.4984201200462905   F   F   F
  0.4159947739291709  0.9371177083442177  0.5459463860387928   F   F   F
  0.5833333134730552  0.6874999999963620  0.3605200052333331   F   F   F
  0.2505338577531049  0.0620035850527856  0.4542478552788296   F   F   F
  0.5833032686835367  0.0636210792834575  0.4537893424918096   F   F   F
  0.9166666865332829  0.6874999999963620  0.3605200052333331   F   F   F
  0.9166666865332829  0.4374999701794380  0.3605200052333331   F   F   F
  0.9166666865332829  0.1875000000030838  0.3605200052333331   F   F   F
  0.5833333134730552  0.9375000000154046  0.3605200052333331   F   F   F
  0.0808448043470520  0.5644591738549138  0.5464023032249656   F   F   F
  0.5833333134730552  0.4374999701794380  0.3605200052333331   F   F   F
  0.5833333134730552  0.1875000000030838  0.3605200052333331   F   F   F
  0.2499999999799343  0.9375000000154046  0.3605200052333331   F   F   F
  0.9166666865332829  0.9375000000154046  0.3605200052333331   F   F   F
  0.2499999999799343  0.6874999999963620  0.3605200052333331   F   F   F
  0.2499999999799343  0.1875000000030838  0.3605200052333331   F   F   F
  0.7499999404149307  0.9375000000154046  0.3605200052333331   F   F   F
  0.7499999404149307  0.6874999999963620  0.3605200052333331   F   F   F
  0.4174420912699333  0.9357632031170198  0.4538714045229497   F   F   F
  0.7499999404149307  0.4374999701794380  0.3605200052333331   F   F   F
  0.4166666269218169  0.9375000000154046  0.3605200052333331   F   F   F
  0.4166666269218169  0.6874999999963620  0.3605200052333331   F   F   F
  0.4166666269218169  0.4374999701794380  0.3605200052333331   F   F   F
  0.2499999999799343  0.4374999701794380  0.3605200052333331   F   F   F
  0.0833333358191695  0.0625000000159659  0.3605200052333331   F   F   F
  0.9152910066804694  0.6868694107619007  0.4533176340602978   F   F   F
  0.6654199519967676  0.3792158425503374  0.5029600661644409   F   F   F
  0.3343889437403931  0.3784797802726985  0.5029513446602962   F   F   F
  0.3354713818055117  0.6256397541043839  0.5036896416731338   F   F   F
  0.9176479794233501  0.0632944819647960  0.5474437179770746   F   F   F
  0.7494928381629649  0.9384276900938531  0.4553493682086724   F   F   F
  0.2499739415835904  0.9360773577413894  0.4539998583819411   F   F   F
  0.2500969080331998  0.1884689326320910  0.4541054519341330   F   F   F
  0.7491354681497597  0.6887359832591571  0.4572960434831188   F   F   F
  0.7499999404149307  0.1875000000030838  0.3605200052333331   F   F   F
  0.5833333134730552  0.0625000000159659  0.3605200052333331   F   F   F
  0.4166140237024081  0.8099796475541439  0.4550476574885707   F   F   F
  0.7478682258110823  0.8079123406489188  0.5455387183530647   F   F   F
  0.2499999999799343  0.8124999999834799  0.3605200052333331   F   F   F
  0.2499999999799343  0.3124999999901945  0.3605200052333331   F   F   F
  0.2499999999799343  0.0625000000159659  0.3605200052333331   F   F   F
  0.7499999404149307  0.5625000000092442  0.3605200052333331   F   F   F
  0.7499999404149307  0.3124999999901945  0.3605200052333331   F   F   F
  0.7499999404149307  0.0625000000159659  0.3605200052333331   F   F   F
  0.4166666269218169  0.8124999999834799  0.3605200052333331   F   F   F
  0.4166666269218169  0.3124999999901945  0.3605200052333331   F   F   F
  0.7499999404149307  0.8124999999834799  0.3605200052333331   F   F   F
  0.0835185510661915  0.3120347887315944  0.4539678984006983   F   F   F
  0.4166666269218169  0.0625000000159659  0.3605200052333331   F   F   F
  0.4168288144499286  0.0615300557984639  0.4553349300045824   F   F   F
  0.0834685143897573  0.8121252853596133  0.4541678386952555   F   F   F
  0.4166666269218169  0.5625000000092442  0.3605200052333331   F   F   F
  0.4138607535382377  0.8117301491524884  0.5476682717083250   F   F   F
  0.5833333134730552  0.3124999999901945  0.3605200052333331   F   F   F
  0.0839608834092971  0.5625297452438787  0.4539585013352436   F   F   F
  0.2511007860711487  0.0625920303932830  0.5472558300421184   F   F   F
  0.8333332538436267  0.4999999999932783  0.4070133268666680   F   F   F
  0.4166666269218169  0.1875000000030838  0.3605200052333331   F   F   F
  0.0833333358191695  0.9375000000154046  0.3605200052333331   F   F   F
  0.0833333358191695  0.8124999999834799  0.3605200052333331   F   F   F
  0.0833333358191695  0.4374999701794380  0.3605200052333331   F   F   F
  0.8333332538436267  0.7500000000123208  0.4070133268666680   F   F   F
  0.4155648871216826  0.3114006383194763  0.4573605098727569   F   F   F
  0.0837355422818149  0.0618773284927983  0.4541885379810893   F   F   F
  0.4158841016398966  0.5595224595064892  0.4577950421451007   F   F   F
  0.0833333358191695  0.6874999999963620  0.3605200052333331   F   F   F
  0.2522701755761787  0.3141193932308539  0.4541658517297691   F   F   F
  0.5833333134730552  0.5625000000092442  0.3605200052333331   F   F   F
  0.2499999999799343  0.5625000000092442  0.3605200052333331   F   F   F
  0.5833333134730552  0.8124999999834799  0.3605200052333331   F   F   F
  0.6666666865533486  0.7500000000123208  0.4070133268666680   F   F   F
  0.5000000000021103  0.4999999999932783  0.4070133268666680   F   F   F
  0.0833333358191695  0.1875000000030838  0.3605200052333331   F   F   F
  0.0000000000000000  0.0000000000000000  0.4070133268666680   F   F   F
  0.0000000000000000  0.2500000000190425  0.4070133268666680   F   F   F
  0.0000000000000000  0.4999999999932783  0.4070133268666680   F   F   F
  0.7482213952326831  0.5643063987721604  0.4537629817512254   F   F   F
  0.3333333432766779  0.0000000000000000  0.4070133268666680   F   F   F
  0.3333333432766779  0.4999999999932783  0.4070133268666680   F   F   F
  0.3333333432766779  0.7500000000123208  0.4070133268666680   F   F   F
  0.6666666865533486  0.0000000000000000  0.4070133268666680   F   F   F
  0.6666666865533486  0.2500000000190425  0.4070133268666680   F   F   F
  0.6666666865533486  0.4999999999932783  0.4070133268666680   F   F   F
  0.8333332538436267  0.2500000000190425  0.4070133268666680   F   F   F
  0.1666666716383389  0.0000000000000000  0.4070133268666680   F   F   F
  0.5843867362362403  0.3155214080717244  0.4536409974720357   F   F   F
  0.1666666716383389  0.4999999999932783  0.4070133268666680   F   F   F
  0.5000000000021103  0.0000000000000000  0.4070133268666680   F   F   F
  0.5000000000021103  0.2500000000190425  0.4070133268666680   F   F   F
  0.5000000000021103  0.7500000000123208  0.4070133268666680   F   F   F
  0.9166666865332829  0.3124999999901945  0.3605200052333331   F   F   F
  0.3333333432766779  0.2500000000190425  0.4070133268666680   F   F   F
  0.7473650674881043  0.3141629358471292  0.4546275452985782   F   F   F
  0.0000000000000000  0.7500000000123208  0.4070133268666680   F   F   F
  0.5845162918863451  0.5628458423893576  0.4547570861383647   F   F   F
  0.7494543686004249  0.0643232291750380  0.4532326841177508   F   F   F
  0.8333332538436267  0.0000000000000000  0.4070133268666680   F   F   F
  0.5827189815449714  0.6861294299753027  0.4546250421279652   F   F   F
  0.2517775845884032  0.5645485850750731  0.4538084148432731   F   F   F
  0.1666666716383389  0.2500000000190425  0.4070133268666680   F   F   F
  0.2505160122296388  0.8107921110541483  0.4553161960554704   F   F   F
  0.1666666716383389  0.7500000000123208  0.4070133268666680   F   F   F
  0.6653067721191519  0.6261724675159783  0.5029460174094780   F   F   F
  0.4169132387166741  0.1872523929424759  0.4536597889538569   F   F   F
  0.5864853367244294  0.3196875618532076  0.6338695353976576   F   F   F
  0.0856551090200099  0.6893008393157487  0.5454212839805734   F   F   F
  0.0829192652272539  0.4389457498841693  0.5448334562083303   F   F   F
  0.0835737542980439  0.1888855459948644  0.5456104159979844   F   F   F
  0.4994409138338654  0.1256154638942846  0.4990400886762956   F   F   F
  0.9995282210270773  0.4984936577041807  0.5941217428146217   F   F   F
  0.5794075667415370  0.1846659632236225  0.5501910394843676   F   F   F
  0.9997337536084743  0.7536867962423628  0.5928202119065773   F   F   F
  0.3340538020491266  0.9998979546433659  0.5919500487888172   F   F   F
  0.9999156599732473  0.9988228803207093  0.5930325348892680   F   F   F
  0.0007071224941555  0.2502435994532277  0.5920148812392583   F   F   F
  0.3331829429751778  0.4958095037363250  0.5910560142828700   F   F   F
  0.3351297997067846  0.7404434329979921  0.5902860781454962   F   F   F
  0.6641431487454099  0.2441149822851614  0.5907309211498486   F   F   F
  0.6662174557963922  0.0011492863477613  0.5919082524329653   F   F   F
  0.6653138975405923  0.7414985933733220  0.5907785472735014   F   F   F
  0.6666514676633355  0.4947067435173764  0.5910670225575032   F   F   F
  0.1674346958153805  0.9984314195993775  0.5923160712508775   F   F   F
  0.1684165109866527  0.2489180755594518  0.5931679548448585   F   F   F
  0.1709873658741969  0.7502986841074559  0.5950709306949022   F   F   F
  0.2482979098930969  0.4358641056619206  0.5491161214621485   F   F   F
  0.1655164391760309  0.5032300871666493  0.5871951522881034   F   F   F
  0.3345546521576424  0.2542149251165355  0.5924942890969618   F   F   F
  0.4998106762746701  0.0002499574953134  0.5910239794963985   F   F   F
  0.8326692449532160  0.8741921562996922  0.4986184535144815   F   F   F
  0.7482857707857491  0.9369947523892463  0.6400124873203126   F   F   F
  0.8324522101776566  0.0015235697175413  0.5921155874915911   F   F   F
  0.7495625335955509  0.1834582009758776  0.5509894254979883   F   F   F
  0.4228842185502444  0.6877108067364190  0.5468025790324091   F   F   F
  0.4231799252604560  0.4435341978119993  0.5458338092135193   F   F   F
  0.7521486137616549  0.4354786772342223  0.5489901191721387   F   F   F
  0.5842209505142861  0.3102896176341972  0.5451909569700604   F   F   F
  0.2533270575115623  0.8125712064563970  0.5506654877399768   F   F   F
  0.5826667404365224  0.9370544237199496  0.4543198384948894   F   F   F
  0.9158494676349846  0.1869275578083887  0.4532276293493069   F   F   F
  0.7506869341203668  0.1899715255581782  0.4557534338298694   F   F   F
  0.5825722741917758  0.0616009217939890  0.5452754767897829   F   F   F
  0.5856652795760056  0.8141558896531222  0.5503501819513943   F   F   F
  0.7471168546094376  0.3117432932066890  0.5480678996175214   F   F   F
  0.5810633943531656  0.5598578254159392  0.5484266336032917   F   F   F
  0.2526200212355008  0.5590941462701196  0.5439428285547052   F   F   F
  0.4156678004110219  0.3193651042282255  0.5526373219971887   F   F   F
  0.5766399828388202  0.4354839774076567  0.5521329664984762   F   F   F
  0.4165785428802025  0.0652985983648691  0.5472872890735729   F   F   F
  0.0852809669059482  0.8125869791283620  0.5473662980518483   F   F   F
  0.0864070842505882  0.3134863074417993  0.5468569370556509   F   F   F
  0.5001829246956575  0.7567559979717302  0.5924968532313883   F   F   F
  0.0823877453716975  0.0631516381429122  0.5475352010064043   F   F   F
  0.0833333358191695  0.3124999999901945  0.3605200052333331   F   F   F
  0.9143202304987526  0.6887501540959775  0.5456783537808931   F   F   F
  0.9166887304259106  0.1886993315213701  0.5455572658222110   F   F   F
  0.9153647446027193  0.4374501718399131  0.5457116417100849   F   F   F
  0.5790601998042249  0.6859189458988126  0.5476026569482926   F   F   F
  0.2515209202401891  0.9372787725494405  0.5452198058384496   F   F   F
  0.4975452505174829  0.5044666431014448  0.6086383657034062   F   F   F
  0.9180137036879898  0.5637636206420709  0.5470596979365325   F   F   F
  0.4198131193674470  0.5647391972588309  0.5553869996921463   F   F   F
  0.9155114287612065  0.8126388454317848  0.5468021519636963   F   F   F
  0.0841305188417181  0.9384105793801965  0.5461053918320786   F   F   F
  0.2488573314487752  0.6833261810226645  0.5517581927171165   F   F   F
  0.7493307039537882  0.9338508790863074  0.5476220774820604   F   F   F
  0.7517030984325359  0.6805972945722090  0.5531163906565908   F   F   F
  0.9156418409415963  0.9384450150110624  0.5463595037402982   F   F   F
  0.4177236982679275  0.0652533517402674  0.6399986093612213   F   F   F
  0.5839360909982005  0.9375455149697274  0.5461892980576195   F   F   F
  0.4118552456569873  0.8129169974944901  0.6391932516787051   F   F   F
  0.7580405183434777  0.2114431457491008  0.7525892968111472   T   T   T
  0.9141000597000044  0.5627742913209204  0.6408341464799960   F   F   F
  0.9133398350852033  0.8133350995729174  0.6420209667061982   F   F   F
  0.5826948262714708  0.0667987787535580  0.6391284127811403   F   F   F
  0.2493016763768168  0.3137675027316646  0.5459372668738496   F   F   F
  0.5907300631848145  0.5663312394268445  0.6381524018555780   F   F   F
  0.2476045271419167  0.5739693779110056  0.6287971078635550   F   F   F
  0.7540998976665136  0.6931787033603385  0.6567547793361541   F   F   F
  0.2627246775961112  0.8005078666200944  0.6461300920420072   F   F   F
  0.2509542749208649  0.0595145073448435  0.6422733176672679   F   F   F
  0.9166666865332829  0.5625000000092442  0.3605200052333331   F   F   F
  0.4997142512974264  0.3729128725700974  0.5007509727580057   F   F   F
  0.5000918361647066  0.6209533535691634  0.4999723308914668   F   F   F
  0.8324676280267198  0.6230940844584936  0.5001805681333522   F   F   F
  0.2517825808057097  0.1883110512677462  0.5471077370632429   F   F   F
  0.8323874383413354  0.3729789579173612  0.4998614437820592   F   F   F
  0.9141247630521718  0.3121275491613815  0.6397233650356142   F   F   F
  0.1667339541323685  0.3761937959141832  0.4977050801483358   F   F   F
  0.5814067088978803  0.4393183023892320  0.6460094203428497   F   F   F
  0.5768374902897619  0.6865432414385424  0.6398355722163984   F   F   F
  0.9162980484161949  0.1867613028915542  0.6398750588944893   F   F   F
  0.2491827738794541  0.3165860312109956  0.6412477829636529   F   F   F
  0.1677693829877853  0.8732702366214014  0.4998780266889895   F   F   F
  0.9157960360157489  0.4369881022734603  0.4535921913213912   F   F   F
  0.1670621108934114  0.1243501299457321  0.4992993528379372   F   F   F
  0.7487084591625077  0.0595325595502345  0.5442227873649514   F   F   F
  0.4248027226950128  0.3049675419070894  0.6562937796443222   F   F   F
  0.5899939588790346  0.8109033793403171  0.6458762672835121   F   F   F
  0.4203612848972114  0.6762851289096474  0.6339318748956018   F   F   F
  0.7554461882212848  0.4359126782088865  0.6384063502560409   F   F   F
  0.4984141544498470  0.2538047387914091  0.5912706717404319   F   F   F
  0.9160682506116373  0.0624737354230547  0.6413748443851830   F   F   F
  0.1675389703152419  0.6242573862921859  0.5002338935075628   F   F   F
  0.4999665008985588  0.8731917651721943  0.5008679946474643   F   F   F
  0.8329497108114055  0.1244806332838877  0.4997520356278145   F   F   F
  0.4162641737652635  0.1912841945882988  0.5465882142856202   F   F   F
  0.7411719769232192  0.8103158295329465  0.6397709621509122   F   F   F
  0.7520785310369291  0.5701238025169957  0.6351641841922202   F   F   F
  0.4176033667102743  0.9350426487468866  0.6396429530683250   F   F   F
  0.7439649060116267  0.3124311195009426  0.6403104247581055   F   F   F
  0.7490351714245236  0.0675039152439254  0.6389216437459311   F   F   F
  0.0838478781251695  0.3118579746054451  0.6405879271202295   F   F   F
  0.6664392238370027  0.8743186618014462  0.4988137342463688   F   F   F
  0.0865733826387967  0.5626970201172981  0.6398711821429899   F   F   F
  0.0871973936989789  0.4365442584333152  0.6397353214453432   F   F   F
  0.4174605189047398  0.1874770185764945  0.6398548730770273   F   F   F
  0.4158317649769145  0.4185040148789128  0.6300279542115064   F   F   F
  0.0844842213601282  0.9358239716750276  0.6409850041346630   F   F   F
  0.0833799766844052  0.6870445712349351  0.6387960756664128   F   F   F
  0.0839888044220629  0.0609382720961946  0.6419069658089214   F   F   F
  0.8331224310621010  0.5039409303733464  0.5889688373269308   F   F   F
  0.0834283090877150  0.1858856342039488  0.6409742793337472   F   F   F
  0.2400415078612284  0.4423353650172714  0.6417150447117876   F   F   F
  0.9119679129109173  0.4362505610415894  0.6399464477394687   F   F   F
  0.2520458111529607  0.9303386046856659  0.6373059730831585   F   F   F
  0.9163227876235140  0.6876497619850142  0.6390088487533703   F   F   F
  0.9144390322427398  0.9370427886780064  0.6413441381487814   F   F   F
  0.3974520682845721  0.5505283244743708  0.6519097296294376   F   F   F
  0.2543491003070457  0.6783191569699198  0.6626093807282203   F   F   F
  0.2535633327046156  0.1865203821174717  0.6411867238408462   F   F   F
  0.5784760467893761  0.1920788398685147  0.6454057339166255   F   F   F
  0.5823043917882700  0.9365477489832230  0.6391521414984354   F   F   F
  0.9166666865332829  0.8124999999834799  0.3605200052333331   F   F   F
  0.7517943857729250  0.1955873190473980  0.6471815988783618   F   F   F
  0.8318254299887613  0.2502968733462012  0.5903570051643001   F   F   F
  0.8303975315407897  0.7509629135476814  0.5927204167876923   F   F   F
  0.0847230109138266  0.8126288721882275  0.6424719922925917   F   F   F
  0.1666666716383389  0.3750000000061604  0.4070133268666680   F   F   F
  0.3261905141159858  0.3732896223545268  0.5927333849778904   F   F   F
  0.6672731275428134  0.2478229999637733  0.5027423995262197   F   F   F
  0.8355912148671507  0.2485697859090479  0.5028582342481300   F   F   F
  0.6666666865533486  0.3750000000061604  0.4070133268666680   F   F   F
  0.0004579972388044  0.1231485568359929  0.6195008232692700   F   F   F
  0.6654661124862002  0.7517861359703915  0.5021756876726755   F   F   F
  0.3302435472641392  0.2480096888341450  0.5028982104797777   F   F   F
  0.6660768144349802  0.0001460396455357  0.5056133720364002   F   F   F
  0.1644716579426984  0.7513473647767981  0.5034621167784863   F   F   F
  0.8333332538436267  0.6249999999803961  0.4070133268666680   F   F   F
  0.6686656727142761  0.4999268264685099  0.5006312569982825   F   F   F
  0.3312563401661635  0.4991756726787457  0.5010159764319866   F   F   F
  0.5010383310495286  0.7528258285250686  0.5039157800756797   F   F   F
  0.0000000000000000  0.8749999404036828  0.4070133268666680   F   F   F
  0.9998953025182118  0.7510735243115292  0.5067546281279220   F   F   F
  0.3338769343035466  0.7511036921825323  0.5015150593317941   F   F   F
  0.5010601250377960  0.4997143998578508  0.5003595585029998   F   F   F
  0.3333333432766779  0.1249999999871179  0.4070133268666680   F   F   F
  0.5012930184181883  0.2479468611794999  0.5022430164028791   F   F   F
  0.0008703798354048  0.2499041559595057  0.5059467687782373   F   F   F
  0.0001715452846511  0.9998552058450514  0.5066847462936934   F   F   F
  0.6666666865533486  0.6249999999803961  0.4070133268666680   F   F   F
  0.8333332538436267  0.8749999404036828  0.4070133268666680   F   F   F
  0.3333333432766779  0.6249999999803961  0.4070133268666680   F   F   F
  0.3333333432766779  0.8749999404036828  0.4070133268666680   F   F   F
  0.3333333432766779  0.3750000000061604  0.4070133268666680   F   F   F
  0.8343857941899699  0.0001570260244250  0.5063278320542040   F   F   F
  0.6666666865533486  0.1249999999871179  0.4070133268666680   F   F   F
  0.0000000000000000  0.6249999999803961  0.4070133268666680   F   F   F
  0.1663735934830513  0.2482322002589257  0.5062469689929188   F   F   F
  0.5003160180529136  0.9992868997352815  0.5054532317519147   F   F   F
  0.1660101764463846  0.0011660762570997  0.5065119816645023   F   F   F
  0.9994995245083231  0.5000069000640437  0.5067252331905152   F   F   F
  0.3331322810953949  0.0011530179023893  0.5057049044575308   F   F   F
  0.5010120201305597  0.8771659203581095  0.6096456885113710   F   F   F
  0.0000000000000000  0.1249999999871179  0.4070133268666680   F   F   F
  0.9991945148779564  0.8748231192589273  0.6240206421185661   F   F   F
  0.8333332538436267  0.3750000000061604  0.4070133268666680   F   F   F
  0.8333332538436267  0.1249999999871179  0.4070133268666680   F   F   F
  0.6663099360914018  0.1259149274034428  0.6148274318673117   F   F   F
  0.5000000000021103  0.6249999999803961  0.4070133268666680   F   F   F
  0.8394383144837292  0.6271169372375240  0.6041633460926690   F   F   F
  0.5000000000021103  0.8749999404036828  0.4070133268666680   F   F   F
  0.1636052838072075  0.4999181888848980  0.5019752826315482   F   F   F
  0.8318794051229332  0.8765685012590083  0.6180286840476228   F   F   F
  0.8366111213366239  0.3728875983607622  0.6035417665771092   F   F   F
  0.8360213974419182  0.7515574901309776  0.5026182321208452   F   F   F
  0.5000000000021103  0.1249999999871179  0.4070133268666680   F   F   F
  0.1666666716383389  0.8749999404036828  0.4070133268666680   F   F   F
  0.8358414458529566  0.5000065732736303  0.5029421519396635   F   F   F
  0.9998458891670978  0.6235251665952006  0.6242090958189195   F   F   F
  0.1666666716383389  0.6249999999803961  0.4070133268666680   F   F   F
  0.3315637969930947  0.1198330927078288  0.6126453331330879   F   F   F
  0.5004638417683864  0.1226348280287723  0.6068616952963666   F   F   F
  0.1666666716383389  0.1249999999871179  0.4070133268666680   F   F   F
  0.0000000000000000  0.3750000000061604  0.4070133268666680   F   F   F
  0.5034306217801046  0.6248474898604428  0.5942991130680966   F   F   F
  0.5000000000021103  0.3750000000061604  0.4070133268666680   F   F   F
  0.6666666865533486  0.8749999404036828  0.4070133268666680   F   F   F
  0.3342534906953318  0.6244432435103064  0.5951001612055435   F   F   F
  0.3346434516492280  0.8790976415833569  0.6026568054461876   F   F   F
  0.1662621070940631  0.8738821905176763  0.6174283174023358   F   F   F
  0.6710097064191842  0.3734321043153486  0.5934308431715181   F   F   F
  0.1596430235139508  0.6273575501034543  0.6013160023729398   F   F   F
  0.1676730880695345  0.1231118938563043  0.6218334379098707   F   F   F
  0.1633548495398855  0.3712766392483076  0.6075296739567406   F   F   F
  0.6652901790176671  0.8812967156029501  0.6071089519053388   F   F   F
  0.6663164617970878  0.6261964902823394  0.5929939309836598   F   F   F
  0.9996919495768708  0.3751934889896305  0.6250318784742888   F   F   F
  0.8344912849973340  0.1245000346589720  0.6158752010918249   F   F   F
  0.5024688481714463  0.3708457194255104  0.5953631041229173   F   F   F
  0.0830814767712695  0.1247852077434572  0.5067704996245865   F   F   F
  0.0810091585132540  0.6258523767973259  0.5054064922291985   F   F   F
  0.5847077102226450  0.7500394830296386  0.5997772670662300   F   F   F
  0.0833489925525939  0.2483472022960242  0.6036100715190855   F   F   F
  0.7498350971079333  0.0019148136551266  0.6042511640586525   F   F   F
  0.5831383396679755  0.0018112828255568  0.6039932976072038   F   F   F
  0.2493484150118235  0.2460110373307032  0.6037484438319041   F   F   F
  0.5902865541561368  0.5015615164820986  0.5934783904390457   F   F   F
  0.4152376665385020  0.2484010553100902  0.5911644946978569   F   F   F
  0.2499377054651220  0.7528781386941290  0.5920353826333979   F   F   F
  0.5850900062949407  0.2477560784048620  0.5968630953127629   F   F   F
  0.2496453030657833  0.9978458888191284  0.6041865022165425   F   F   F
  0.7538103745248748  0.2477972771121131  0.5936869092473813   F   F   F
  0.9165876251561400  0.9997931360335954  0.6038296666627474   F   F   F