Au  C  H  O Sr Ti 
 1.0000000000000000
    23.6707801818999997    0.0000000000000000    0.0000000000000000
     0.0000000000000000   22.3170261383000010    0.0000000000000000
     0.0000000000000000    0.0000000000000000   30.0000000000000000
 Au  C   H   O   Sr  Ti 
  50   2   2 265  72  72
Selective dynamics
Cartesian
 16.8900285918569928 11.7711374970631937 22.6135687602520470   F   F   F
  6.9460391322295836 16.6713154964098393 20.8969315769508235   F   F   F
 12.0433366078006063 13.5360356390053678 23.3315383266281771   F   F   F
 13.6723360158522809 16.2137386178269729 23.8286770423956256   F   F   F
  5.6694443332031570 10.4861821636112396 21.2775699666911464   F   F   F
  6.7595550987846984 14.8027785029155634 22.9289327824425548   F   F   F
 14.2363422338460168  6.4950748422881004 23.5654911496327486   F   F   F
 12.1567611976220427 10.8043888806883750 20.3298188955519095   F   F   F
 13.2561758830990577 10.9125592978235950 22.8780749432986674   F   F   F
 11.4490906197963351  6.0889286402196330 23.2332009789444953   F   F   F
 12.9198563443880996  8.5945092390663067 24.8292315281783083   F   F   F
 12.9761446699332499  4.8845344048647075 21.2436592657897023   F   F   F
  9.2637851689211121 18.2480777300082266 21.1903373604745866   F   F   F
 10.2076312123203525  5.0917694381426477 20.9606609182997552   F   F   F
  8.7261048974155138  6.7126079464077115 22.7024039556750346   F   F   F
 10.0824385653961386  8.3067530160470255 24.5388357192303488   F   F   F
 14.1033135632168847 17.5161368025655726 21.3840368850635159   F   F   F
 14.9412419750817786 13.0927388497101855 23.9777054106505503   F   F   F
 17.2955716265550237 13.7506322314457545 20.8041411784810499   F   F   F
 11.4901204917982636 17.3436103900917367 22.6444242025296987   F   F   F
 18.0917221423237180  9.7118332445516113 21.1586438606917504   F   F   F
 17.5841318298771654  5.8583013487542255 20.8572188727784891   T   T   T
 14.6843269374872936 12.7300678381712267 21.1066994287374960   F   F   F
 10.9570395625063881 15.5859844854422818 24.9509646943474301   F   F   F
 14.7939625698701427  7.0998391241281666 20.8501148413874979   F   F   F
  8.2338453743688174 11.1797003405894326 20.9183970310484675   F   F   F
 16.6504759984373791  7.7605040316898437 22.7054725338051711   F   F   F
  6.8437478520486392 12.0295517776332570 23.3211925233128952   F   F   F
 13.4771404281846241 11.3984105061770862 25.7016300042085213   F   F   F
 15.1670915094874807  4.0407633535541878 22.7295421433843003   T   T   T
 11.1311869006994986 10.0866971973642077 26.3817295235337994   F   F   F
  6.6617268749322891  7.5849631454645365 21.0816269616828187   F   F   F
 15.8212931140920894 15.2336872504495400 22.4611699347627258   F   F   F
  9.3762951348189887  8.5397942656325068 20.7083993372947290   F   F   F
 10.6825747670869067 12.9244692438701421 21.1103142770725718   F   F   F
  8.8916232307494756 11.0359570831852558 24.9674833780895185   F   F   F
  7.6526253749299755  9.2847963859276934 23.1011171201804117   F   F   F
  8.7310016357541382 13.8348750305284920 24.5957674927193644   F   F   F
 12.4254414190628122  8.4117092354495853 21.9528342986648184   F   F   F
 18.2930317322044793  9.7126506816801577 23.8839749204040004   F   F   F
  6.0686509462494804 13.2555296907251368 20.8370090080915276   F   F   F
 15.3276956987993955  9.9151739845651257 20.8790496641041088   F   F   F
 13.3356917205387671 14.3134810014600191 25.8667155581169332   F   F   F
 12.7798732962760422 14.8975330062786497 21.0640566075662612   F   F   F
 10.4757083939991418 10.4638159045511987 22.6370333719534322   F   F   F
 16.7213998592941167 16.9058656228026223 20.6446871778905710   F   F   F
  8.8511561380580339 16.5442867371453168 23.3756448190038917   F   F   F
 10.9420028893223993 12.8330208760790967 25.9566336453223521   F   F   F
 15.4586339142296882  9.8127767214343855 24.3388243733519083   F   F   F
  9.8524189086099021 15.5301537802370628 21.0026287208362490   F   F   F
 17.2032501420969730  3.7601946212589938 22.9749259644252035   T   T   T
 17.4959806189291207  2.4938902913281074 23.3708474523718053   T   T   T
 16.7976248409971234  1.8952588327889177 23.9336089153397182   T   T   T
 18.4259109483569681  2.0479120931841441 23.0275915613259237   T   T   T
  1.9967563464914080 15.3310121453587911 13.5944679558724886   F   F   F
  5.9665251284500194 15.3438368693782916 13.6801796724443800   F   F   F
  1.9903301435207108 20.9070500339061063 13.6095254169119890   F   F   F
  1.9599967050207305  9.7487359702832865 13.5847019160908022   F   F   F
  1.9849609008737266  4.1635850762739164 13.5891727794409771   F   F   F
 21.6970113450734949 18.1245707584593099 13.6213231832855097   F   F   F
 17.6664326145544521 12.4617465457015602 16.3370375288060892   F   F   F
 21.6848828228282748 12.5474613194245546 13.6207128687370140   F   F   F
 21.6852739082717854  1.3882389176454644 13.6226265237271384   F   F   F
 21.6872067778219453  6.9696363647030752 13.6108370728216599   F   F   F
  9.8784134997247968  9.7191040956529271 13.6236435238733087   F   F   F
 13.7806928205006578  9.8085808228676257 13.6947859928189519   F   F   F
 13.7972964429621587  4.2487184106551688 13.6684012062958740   F   F   F
 21.6935209165933145 20.9133273199648890 13.6099498144975044   F   F   F
 13.8067492547647461 18.0857266379216526 13.6600909491414910   F   F   F
  0.0007474914384443  8.3420490805596561 14.9443449476601948   F   F   F
 23.6635064455739013 13.9975822270477366 14.9286956513857891   F   F   F
  7.8983491887201156  2.8042284769417605 14.9618107987133691   F   F   F
  0.0030692697645525 19.5308541680299150 14.9875423415262681   F   F   F
  7.8939193264381826 19.5105372419294198 14.9677730348506621   F   F   F
 15.7666567223699960  2.8264996495661703 14.9748006799835682   F   F   F
  5.9451360009569338  9.8029787640988744 13.6478701696063318   F   F   F
  1.9725650740000149 12.5533272030000536 10.8156001569999933   F   F   F
 21.6982156369999721  1.3948141340000613 10.8156001569999933   F   F   F
 17.7377613108586765 18.1480313297011833 13.5907600865714588   F   F   F
 17.7474355122628502  9.7839764243445231 13.6701183034408693   F   F   F
 21.6869726048874298  6.9716281684729049 16.3870901437974474   F   F   F
  9.8726867168032229 15.2827529525376704 13.6431553333220368   F   F   F
  0.0029963896117885  2.7917729738322112 14.9526036013887271   F   F   F
  9.8469208504965806 20.9136803917816891 16.3783915811637399   F   F   F
 13.8079546360000549 15.3429554700000619 10.8156001569999933   F   F   F
  5.9303318749971448  1.3837356282912834 13.6274356583649183   F   F   F
 13.8072434523917398  1.4198332893158336 13.6136802747543957   F   F   F
 21.6982156369999721 15.3429554700000619 10.8156001569999933   F   F   F
 21.6982156369999721  9.7636982699999884 10.8156001569999933   F   F   F
 21.6982156369999721  4.1844424010000720 10.8156001569999933   F   F   F
 13.8079546360000549 20.9222120050000342 10.8156001569999933   F   F   F
  1.9136595925477788 12.5970501369232952 16.3920690967489051   F   F   F
 13.8079546360000549  9.7636982699999884 10.8156001569999933   F   F   F
 13.8079546360000549  4.1844424010000720 10.8156001569999933   F   F   F
  5.9176950450000287 20.9222120050000342 10.8156001569999933   F   F   F
 21.6982156369999721 20.9222120050000342 10.8156001569999933   F   F   F
  5.9176950450000287 15.3429554700000619 10.8156001569999933   F   F   F
  5.9176950450000287  4.1844424010000720 10.8156001569999933   F   F   F
 17.7530837259999217 20.9222120050000342 10.8156001569999933   F   F   F
 17.7530837259999217 15.3429554700000619 10.8156001569999933   F   F   F
  9.8811799811231928 20.8834518632218966 13.6161421356883920   F   F   F
 17.7530837259999217  9.7636982699999884 10.8156001569999933   F   F   F
  9.8628241350000643 20.9222120050000342 10.8156001569999933   F   F   F
  9.8628241350000643 15.3429554700000619 10.8156001569999933   F   F   F
  9.8628241350000643  9.7636982699999884 10.8156001569999933   F   F   F
  5.9176950450000287  9.7636982699999884 10.8156001569999933   F   F   F
  1.9725650740000149  1.3948141340000613 10.8156001569999933   F   F   F
 21.6656522216033558 15.3288825935720769 13.5995290218089462   F   F   F
 15.7510094123659012  8.4629698702533407 15.0888019849332728   F   F   F
  7.9152471825365103  8.4465431491639187 15.0885403398088069   F   F   F
  7.9408693360365481 13.9624187455071063 15.1106892501940813   F   F   F
 21.7214436052948514  1.4125446084184390 16.4233115393123121   F   F   F
 17.7410802200639353 20.9429152887290471 13.6604810462602124   F   F   F
  5.9170782224283061 20.8904628601853162 13.6199957514582390   F   F   F
  5.9199889342267324  4.2060660958079286 13.6231635580240980   F   F   F
 17.7326209930376741 15.3705389407823638 13.7188813044934932   F   F   F
 17.7530837259999217  4.1844424010000720 10.8156001569999933   F   F   F
 13.8079546360000549  1.3948141340000613 10.8156001569999933   F   F   F
  9.8615789757565508 18.0763369659568411 13.6514297246571452   F   F   F
 17.7026243782015982 18.0302008237170668 16.3661615505919009   F   F   F
  5.9176950450000287 18.1325837370000720 10.8156001569999933   F   F   F
  5.9176950450000287  6.9740706679999214 10.8156001569999933   F   F   F
  5.9176950450000287  1.3948141340000613 10.8156001569999933   F   F   F
 17.7530837259999217 12.5533272030000536 10.8156001569999933   F   F   F
 17.7530837259999217  6.9740706679999214 10.8156001569999933   F   F   F
 17.7530837259999217  1.3948141340000613 10.8156001569999933   F   F   F
  9.8628241350000643 18.1325837370000720 10.8156001569999933   F   F   F
  9.8628241350000643  6.9740706679999214 10.8156001569999933   F   F   F
 17.7530837259999217 18.1325837370000720 10.8156001569999933   F   F   F
  1.9769492633986609  6.9636885361819107 13.6190369520209931   F   F   F
  9.8628241350000643  1.3948141340000613 10.8156001569999933   F   F   F
  9.8666632403262415  1.3731678635454365 13.6600479001374620   F   F   F
  1.9757648562297259 18.1242212209447864 13.6250351608576992   F   F   F
  9.8628241350000643 12.5533272030000536 10.8156001569999933   F   F   F
  9.7964069229191004 18.1154029558821819 16.4300481512497463   F   F   F
 13.8079546360000549  6.9740706679999214 10.8156001569999933   F   F   F
  1.9874196150596228 12.5539910281789453 13.6187550400573478   F   F   F
  5.9437515105923850  1.3968679783361715 16.4176749012635526   F   F   F
 19.7256482699999580 11.1585130689999925 12.2103998060000407   F   F   F
  9.8628241350000643  4.1844424010000720 10.8156001569999933   F   F   F
  1.9725650740000149 20.9222120050000342 10.8156001569999933   F   F   F
  1.9725650740000149 18.1325837370000720 10.8156001569999933   F   F   F
  1.9725650740000149  9.7636982699999884 10.8156001569999933   F   F   F
 19.7256482699999580 16.7377696039999648 12.2103998060000407   F   F   F
  9.8367450943734394  6.9495361848590171 13.7208152961827761   F   F   F
  1.9820856147649910  1.3809179573419215 13.6256561394327598   F   F   F
  9.8443011510649452 12.4868773537722877 13.7338512643530777   F   F   F
  1.9725650740000149 15.3429554700000619 10.8156001569999933   F   F   F
  5.9714318725130386  7.0102107092798249 13.6249755518930247   F   F   F
 13.8079546360000549 12.5533272030000536 10.8156001569999933   F   F   F
  5.9176950450000287 12.5533272030000536 10.8156001569999933   F   F   F
 13.8079546360000549 18.1325837370000720 10.8156001569999933   F   F   F
 15.7805205919999434 16.7377696039999648 12.2103998060000407   F   F   F
 11.8353900909999528 11.1585130689999925 12.2103998060000407   F   F   F
  1.9725650740000149  4.1844424010000720 10.8156001569999933   F   F   F
  0.0000000000000000  0.0000000000000000 12.2103998060000407   F   F   F
  0.0000000000000000  5.5792565349999723 12.2103998060000407   F   F   F
  0.0000000000000000 11.1585130689999925 12.2103998060000407   F   F   F
 17.7109841739472991 12.5936406514082524 13.6128894525368089   F   F   F
  7.8902602960000570  0.0000000000000000 12.2103998060000407   F   F   F
  7.8902602960000570 11.1585130689999925 12.2103998060000407   F   F   F
  7.8902602960000570 16.7377696039999648 12.2103998060000407   F   F   F
 15.7805205919999434  0.0000000000000000 12.2103998060000407   F   F   F
 15.7805205919999434  5.5792565349999723 12.2103998060000407   F   F   F
 15.7805205919999434 11.1585130689999925 12.2103998060000407   F   F   F
 19.7256482699999580  5.5792565349999723 12.2103998060000407   F   F   F
  3.9451301480000271  0.0000000000000000 12.2103998060000407   F   F   F
 13.8328899746660010  7.0414995111298762 13.6092299241611130   F   F   F
  3.9451301480000271 11.1585130689999925 12.2103998060000407   F   F   F
 11.8353900909999528  0.0000000000000000 12.2103998060000407   F   F   F
 11.8353900909999528  5.5792565349999723 12.2103998060000407   F   F   F
 11.8353900909999528 16.7377696039999648 12.2103998060000407   F   F   F
 21.6982156369999721  6.9740706679999214 10.8156001569999933   F   F   F
  7.8902602960000570  5.5792565349999723 12.2103998060000407   F   F   F
 17.6907142281416938  7.0111824509854372 13.6388263589573402   F   F   F
  0.0000000000000000 16.7377696039999648 12.2103998060000407   F   F   F
 13.8359566579809190 12.5610453764368195 13.6427125841509511   F   F   F
 17.7401696155052555  1.4355031867992556 13.5969805235324568   F   F   F
 19.7256482699999580  0.0000000000000000 12.2103998060000407   F   F   F
 13.7934129199717184 15.3123684230157373 13.6387512638389659   F   F   F
  5.9597718595218057 12.5990455294606853 13.6142524452981935   F   F   F
  3.9451301480000271  5.5792565349999723 12.2103998060000407   F   F   F
  5.9299094575339923 18.0944687351228275 13.6594858816641533   F   F   F
  3.9451301480000271 16.7377696039999648 12.2103998060000407   F   F   F
 15.7483303563619081 13.9743073246379605 15.0883805222844192   F   F   F
  9.8686616285864215  4.1789165477564056 13.6097936686157617   F   F   F
 13.8825654855115701  7.1344756739673674 19.0160860619297409   F   F   F
  2.0275232570693249 15.3831448481616579 16.3626385194171569   F   F   F
  1.9627637000389155  9.7959637734606719 16.3450036862499886   F   F   F
  1.9782559669651436  4.2153636671144001 16.3683124799395934   F   F   F
 11.8221560852087020  2.8033635911033823 14.9712026602889186   F   F   F
 23.6596128055375310 11.1248959887609260 17.8236522844386229   F   F   F
 13.7150291480685524  4.1211951281160060 16.5057311845309798   F   F   F
 23.6644779220919155 16.8200479318323950 17.7846063571974007   F   F   F
  7.9073141172327315 22.3147487894086538 17.7585014636645333   F   F   F
 23.6687837876662250 22.2907563276493299 17.7909760466780575   F   F   F
  0.0167381411208033  5.5846929499399227 17.7604464371778121   F   F   F
  7.8867002035239606 11.0649936545011620 17.7316804284860403   F   F   F
  7.9327838212634072 16.5244954481488477 17.7085823443648103   F   F   F
 15.7207864832675259  5.4479204404086445 17.7219276344955361   F   F   F
 15.7698869495010694  0.0256486534634584 17.7572475729889554   F   F   F
 15.7484990206464683 16.5480434898251012 17.7233564182049896   F   F   F
 15.7801603489998072 11.0403833258706037 17.7320106767251531   F   F   F
  3.9633098794690946 22.2820200884993262 17.7694821375262606   F   F   F
  3.9865502105675192  5.5551111985555535 17.7950386453457234   F   F   F
  4.0474043514902549 16.7444353447582088 17.8521279208471455   F   F   F
  5.8774052447046294  9.7271906388038492 16.4734836438645615   F   F   F
  3.9179032482265992 11.2305990088771193 17.6158545686431189   F   F   F
  7.9191696300555723  5.6733211285717360 17.7748286729087539   F   F   F
 11.8309086506644565  0.0055783079563955 17.7307193848918594   F   F   F
 19.7099306615163030 19.5093692020370355 14.9585536054345027   F   F   F
 17.7125079935130110 20.9109363805207238 19.2003746196093950   F   F   F
 19.7047932790521791  0.0340015452099273 17.7634676247477721   F   F   F
 17.7427299653283512  4.0942414664642284 16.5296827649395759   F   F   F
 10.0099993796974580 15.3476600495280362 16.4040773709721854   F   F   F
 10.0169989882330484  9.8983642858003602 16.3750142764056257   F   F   F
 17.8039445004728769  9.7185890225084037 16.4697035751641572   F   F   F
 13.8289656972843478  6.9247415071855540 16.3557287091017614   F   F   F
  5.9964490924836715 18.1341728537173132 16.5199646321993825   F   F   F
 13.7921763321771689 20.9122680671678260 13.6295951548466139   F   F   F
 21.6788714280978851  4.1716671935783598 13.5968288804791388   F   F   F
 17.7693454029876143  4.2395995014145873 13.6726030148960245   F   F   F
 13.7899402424631550  1.3747493818198646 16.3582643036934847   F   F   F
 13.8631540930146713 18.1695382700396877 16.5105054585417683   F   F   F
 17.6848388356526023  6.9571832229334216 16.4420369885256150   F   F   F
 13.7542238794824030 12.4943617235393134 16.4527990080987330   F   F   F
  5.9797129922124261 12.4773186760807473 16.3182848566411280   F   F   F
  9.8391811322231462  7.1272793787221369 16.5791196599155839   F   F   F
 13.6495182778722466  9.7187073066174943 16.5639889949542720   F   F   F
  9.8607391170135159  1.4572705265031709 16.4186186722071135   F   F   F
  2.0186670213305433 18.1345248528498182 16.4209889415553896   F   F   F
  2.0453230974546481  6.9960821171777958 16.4057081116694334   F   F   F
 11.8397200612107412 16.8885433870503903 17.7749055969417178   F   F   F
  1.9501822103757935  1.4093567591117704 16.4260560301921004   F   F   F
  1.9725650740000149  6.9740706679999214 10.8156001569999933   F   F   F
 21.6426731920000961 15.3708551917180518 16.3703506134268153   F   F   F
 21.6987374331367562  4.2112079138422072 16.3667179746662619   F   F   F
 21.6673976557520476  9.7625869191552166 16.3713492513025578   F   F   F
 13.7068067016529263 15.3076710443789246 16.4280797084487986   F   F   F
  5.9536964141546882 20.9172748658595502 16.3565941751534503   F   F   F
 11.7772842555477428 11.2581952599954143 18.2591509711020876   F   F   F
 21.7301005839702519 12.5815274576917808 16.4117909380959794   F   F   F
  9.9373040660245664 12.6032994265479577 16.6616099907644326   F   F   F
 21.6708697842236440 18.1356823544990746 16.4040645589108784   F   F   F
  1.9914350180914839 20.9425334284851346 16.3831617549623552   F   F   F
  5.8906471893782468 15.2498082428674877 16.5527457815133907   F   F   F
 17.7372423768385588 20.8407744778435386 16.4286623244617154   F   F   F
 17.7933988050497121 15.1889076126242184 16.5934917196976350   F   F   F
 21.6739567422787296 20.9433019293591798 16.3907851122089347   F   F   F
  9.8878458384703602  1.4562607563992225 19.1999582808366753   F   F   F
 13.8222228502963649 20.9232277634253201 16.3856789417286883   F   F   F
  9.7489349867089494 18.1418898813529559 19.1757975503611320   F   F   F
 17.9434104786819510  4.7187822104471282 22.5926789043343419   T   T   T
 21.6374615774205523 12.5594485693722255 19.2250243943998811   F   F   F
 21.6194664676746946 18.1512206763656856 19.2606290011858761   F   F   F
 13.7928411458023561  1.4907500914497396 19.1738523834341485   F   F   F
  5.9011651804947975  7.0023575598116716 16.3781180062155727   F   F   F
 13.9830414724877201 12.6388290732247466 19.1445720556672718   F   F   F
  5.8609923340196373 12.8092896094236828 18.8639132359066117   F   F   F
 17.8501329128573083 15.4696872414055626 19.7026433800845595   F   F   F
  6.2188980917381382 17.8649549832754033 19.3839027612602131   F   F   F
  5.9402834773598476  1.3281868160229153 19.2681995300180446   F   F   F
 21.6982156369999721 12.5533272030000536 10.8156001569999933   F   F   F
 11.8286261962240360  8.3223063244554414 15.0225291827402447   F   F   F
 11.8375639246175357 13.8578322222680743 14.9991699267438996   F   F   F
 19.7051582315681344 13.9056069694802744 15.0054170440005397   F   F   F
  5.9598901238834516  4.2025426532731016 16.4132321118973614   F   F   F
 19.7032600791525780  8.3237811528776788 14.9958433134617994   F   F   F
 21.6380463250393476  6.9657586731180041 19.1917009510684906   F   F   F
  3.9467227771262587  8.3955267764830648 14.9311524044500601   F   F   F
 13.7623504026036301  9.8042780374541145 19.3802826102854162   F   F   F
 13.6541934333279151 15.3216034642571390 19.1950671664919668   F   F   F
 21.6894896851637711  4.1679568782538254 19.1962517668347168   F   F   F
  5.8983506656165705  7.0652587335565045 19.2374334889095486   F   F   F
  3.9712321859568425 19.4887946964792000 14.9963408006696461   F   F   F
 21.6776066599842316  9.7522749005628722 13.6077657396418346   F   F   F
  3.9544905036821070  2.7751251002999471 14.9789805851380340   F   F   F
 17.7225133571647966  1.3285896875625582 16.3266836209485966   F   F   F
 10.0554118695861998  6.8059686040735432 19.6888133893297201   F   F   F
 13.9656173092745437 18.0969519123735942 19.3762880185053703   F   F   F
  9.9502795717828523 15.0926728988201262 19.0179562468681453   F   F   F
 17.8820006606403474  9.7282746336040695 19.1521905076811834   F   F   F
 11.7978518895299160  5.6641669896322098 17.7381201522128862   F   F   F
 21.6840501918457420  1.3942279863936107 19.2412453315554863   F   F   F
  3.9657781382339512 13.9315684069095571 15.0070168052268720   F   F   F
 11.8345971410834778 19.4870434470961733 15.0260398394239498   F   F   F
 19.7165695071940235  2.7780375467086209 14.9925610688344886   F   F   F
  9.8532977547977847  4.2688943704707327 16.3976464285685637   F   F   F
 17.5441189427338422 18.0838395479649456 19.1931288645272744   F   F   F
 17.8022855877014443 12.7234678028388402 19.0549255257665138   F   F   F
  9.8849974966202332 20.8673712325094982 19.1892885920496745   F   F   F
 17.6102297532491718  6.9725334603208831 19.2093127427430801   F   F   F
 17.7302468913016895  1.5064866409363333 19.1676493123779714   F   F   F
  1.9847446918196310  6.9597425707070402 19.2176378136068067   F   F   F
 15.7751363720416737 19.5121924286263209 14.9644120273911412   F   F   F
  2.0492595100465407 12.5577241059012366 19.1961354642897817   F   F   F
  2.0640303386831880  9.7423696259811514 19.1920596433603343   F   F   F
  9.8816161776160527  4.1839295239022336 19.1956461923108179   F   F   F
  9.8430623014200229  9.3397650390361395 18.9008386263451200   F   F   F
  1.9998074326544995 20.8848080367193631 19.2295501240399922   F   F   F
  1.9736690996685737 15.3327916544270906 19.1638822699924063   F   F   F
  1.9880805272152342  1.3599610111935925 19.2572089742676447   F   F   F
 19.7206579302811100 11.2464629153011142 17.6690651198078506   F   F   F
  1.9748131653629921  4.1484145572639353 19.2292283800123869   F   F   F
  5.6819697671149081  9.8716099029849111 19.2514513413536292   F   F   F
 21.5869919994603663  9.7358151736131955 19.1983934321840159   F   F   F
  5.9661209915703317 20.7623909582396280 19.1191791924947267   F   F   F
 21.6900752815019899 15.3462977122152928 19.1702654626010265   F   F   F
 21.6454853219673247 20.9120084076326158 19.2403241444634219   F   F   F
  9.4080005412056842 12.2861550071690662 19.5572918888830536   F   F   F
  6.0206416428321283 15.1380663562073057 19.8782814218466619   F   F   F
  6.0020419106408580  4.1625802430413250 19.2356017152253713   F   F   F
 13.6929793440457477  4.2866284899599538 19.3621720174988425   F   F   F
 13.7835992569751848 20.9009605938245926 19.1745642449530393   F   F   F
 21.6982156369999721 18.1325837370000720 10.8156001569999933   F   F   F
 17.7955596476173774  4.3649273115007450 19.4154479663508504   F   F   F
 19.6899569029784729  5.5858818648019213 17.7107101549289929   F   F   F
 19.6561574326944495 16.7592589705375907 17.7816125036308712   F   F   F
  2.0054597676898611 18.1354597813618916 19.2741597687778174   F   F   F
  3.9451301480000271  8.3688848019999824 12.2103998060000407   F   F   F
  7.7211839570604086  8.3307142592421730 17.7820015493367336   F   F   F
 15.7948755233549161  5.5306723678633825 15.0822719857865266   F   F   F
 19.7790959690470913  5.5473384093238174 15.0857470274439809   F   F   F
 15.7805205919999434  8.3688848019999824 12.2103998060000407   F   F   F
  0.0108411519636940  2.7483095618027522 18.5850246980781222   F   F   F
 15.7521020671644347 16.7776308468628628 15.0652706301802617   F   F   F
  7.8171224137803774  5.5348387082632682 15.0869463143933036   F   F   F
 15.7665578587505557  0.0032591705866572 15.1684011610919072   F   F   F
  3.8931724613142440 16.7678387786665724 15.1038635033545727   F   F   F
 19.7256482699999580 13.9481413360000008 12.2103998060000407   F   F   F
 15.8278381540019790 11.1568800535350778 15.0189377099485508   F   F   F
  7.8410960119340141 11.1401165347750393 15.0304792929596971   F   F   F
 11.8599681969793576 16.8008336927813176 15.1174734022704556   F   F   F
  0.0000000000000000 19.5273965409999306 12.2103998060000407   F   F   F
 23.6683019108229544 16.7617274738455215 15.2026388438377680   F   F   F
  7.9031275197058362 16.7624007310111374 15.0454517799538650   F   F   F
 11.8604840776850544 11.1521393233124897 15.0107867550899527   F   F   F
  7.8902602960000570  2.7896282670000101 12.2103998060000407   F   F   F
 11.8659968456980724  5.5334365818523432 15.0672904920863342   F   F   F
  0.0206025697585969  5.5771175806181619 15.1784030633470284   F   F   F
  0.0040606107241916 22.3137947633592937 15.2005423888107298   F   F   F
 15.7805205919999434 13.9481413360000008 12.2103998060000407   F   F   F
 19.7256482699999580 19.5273965409999306 12.2103998060000407   F   F   F
  7.8902602960000570 13.9481413360000008 12.2103998060000407   F   F   F
  7.8902602960000570 19.5273965409999306 12.2103998060000407   F   F   F
  7.8902602960000570  8.3688848019999824 12.2103998060000407   F   F   F
 19.7505627211708799  0.0035043538915039 15.1898349616261914   F   F   F
 15.7805205919999434  2.7896282670000101 12.2103998060000407   F   F   F
  0.0000000000000000 13.9481413360000008 12.2103998060000407   F   F   F
  3.9381927594101378  5.5398045015461115 15.1874090697876056   F   F   F
 11.8428704848140427 22.3011118610529806 15.1635969525574179   F   F   F
  3.9295903946207695  0.0260233543089473 15.1953594499349762   F   F   F
 23.6589335365500411 11.1586670580596294 15.2017569957153800   F   F   F
  7.8855009973040513  0.0257319306654918 15.1711471337258814   F   F   F
 11.8593453970000962 19.5757347722579347 18.2893706553411839   F   F   F
  0.0000000000000000  2.7896282670000101 12.2103998060000407   F   F   F
 23.6517137206362911 19.5234504188905760 18.7206192635568804   F   F   F
 19.7256482699999580  8.3688848019999824 12.2103998060000407   F   F   F
 19.7256482699999580  2.7896282670000101 12.2103998060000407   F   F   F
 15.7720760302353629  2.8100467260648019 18.4448229560192658   F   F   F
 11.8353900909999528 13.9481413360000008 12.2103998060000407   F   F   F
 19.8701598184089292 13.9953850801005366 18.1249003827800443   F   F   F
 11.8353900909999528 19.5273965409999306 12.2103998060000407   F   F   F
  3.8726647095978026 11.1566872883558652 15.0592584789464166   F   F   F
 19.6912345365146173 19.5624021546077671 18.5408605214286588   F   F   F
 19.8032379508921323  8.3217422792650702 18.1062529973133550   F   F   F
 19.7892787262124266 16.7725281516881992 15.0785469636253939   F   F   F
 11.8353900909999528  2.7896282670000101 12.2103998060000407   F   F   F
  3.9451301480000271 19.5273965409999306 12.2103998060000407   F   F   F
 19.7850191317068607 11.1586597650693928 15.0882645581898824   F   F   F
 23.6671322582507706 13.9152274407929557 18.7262728745675417   F   F   F
  3.9451301480000271 13.9481413360000008 12.2103998060000407   F   F   F
  7.8483737548996064  2.6743182621939132 18.3793599939925549   F   F   F
 11.8463695874887112  2.7368446625840548 18.2058508588909511   F   F   F
  3.9451301480000271  2.7896282670000101 12.2103998060000407   F   F   F
  0.0000000000000000  8.3688848019999824 12.2103998060000407   F   F   F
 11.9165955849940612 13.9447377636666801 17.8289733920428404   F   F   F
 11.8353900909999528  8.3688848019999824 12.2103998060000407   F   F   F
 15.7805205919999434 19.5273965409999306 12.2103998060000407   F   F   F
  7.9120409032819392 13.9357161873042728 17.8530048361663347   F   F   F
  7.9212715833010856 19.6188450453335861 18.0797041633857383   F   F   F
  3.9355537896031318 19.5024516875779170 18.5228495220700964   F   F   F
 15.8833232605697940  8.3338940328860023 17.8029252951455632   F   F   F
  3.7788749171726557 14.0007548437186546 18.0394800711882404   F   F   F
  3.9689528101143527  2.7474913531267249 18.6550031372960987   F   F   F
  3.8667367351059232  8.2857904626446199 18.2258902187022294   F   F   F
 15.7479375847041307 19.6679218377089349 18.2132685571601343   F   F   F
 15.7722304987801927 13.9748434413426530 17.7898179295098160   F   F   F
 23.6634883880491067  8.3732029007016262 18.7509563542286486   F   F   F
 19.7530597708832367  2.7784705277036035 18.4762560327547938   F   F   F
 11.8938296533187913  8.2761736136957431 17.8608931236875179   F   F   F
  1.9666033738403184  2.7848347428839122 15.2031149887376333   F   F   F
  1.9175499838879022 13.9671638517030559 15.1621947668759134   F   F   F
 13.8404876793423917 16.7386507475294586 17.9933180119868759   F   F   F
  1.9729356810951899  5.5423710050140302 18.1083021455726616   F   F   F
 17.7491817563156040  0.0427329463914162 18.1275349217595227   F   F   F
 13.8033394539188201  0.0404224461617514 18.1197989282160741   F   F   F
  5.9022715204501264  5.4902347504195230 18.1124533149571221   F   F   F
 13.9725432677610755 11.1933614732963083 17.8043517131713891   F   F   F
  9.8289995278780040  5.5435728441365226 17.7349348409357503   F   F   F
  5.9162204852334002 16.8020011001915108 17.7610614790018886   F   F   F
 13.8495369256341085  5.5291788776840791 17.9058928593828810   F   F   F
  5.9092990923140336 22.2689527827716205 18.1255950664963628   F   F   F
 17.8432796742141022  5.5300983103105636 17.8106072774215392   F   F   F
 21.6963441925207974 22.3124095497547366 18.1148899998824717   F   F   F
  5.8378081537915856  8.3228610745773093 15.0826643591249780   F   F   F