Au  C  H  O Sr Ti 
 1.0000000000000000
    23.6707801818999997    0.0000000000000000    0.0000000000000000
     0.0000000000000000   22.3170261383000010    0.0000000000000000
     0.0000000000000000    0.0000000000000000   30.0000000000000000
 Au  C   H   O   Sr  Ti 
  50   2   3 265  72  72
Selective dynamics
Cartesian
 16.9471653551801360 11.7266169499362203 22.6011572361057134   F   F   F
 15.5220256323596590  9.8522171191543677 24.3881886914793284   F   F   F
  8.7163073798978754 13.8152854837179877 24.6071308484515399   F   F   F
 13.4801236791805543 11.3861599186096321 25.7024347237817068   F   F   F
 15.7472236233588738  4.4063685575632716 22.5697523314428103   T   T   T
 11.1264907692932322 10.0689529191225553 26.3784104128888792   F   F   F
 12.2180810105556308  8.4353706745429395 21.9959766339771683   F   F   F
  6.6945305339358203  7.5771560083450185 21.0705214694124656   F   F   F
 15.8475130887676876 15.2030462304991296 22.4661050632962329   F   F   F
  9.4207165238395589  8.5111222946523242 20.7038391693161472   F   F   F
 10.9477635372914222 12.8013956937156852 25.9177291122045546   F   F   F
 16.7239450641005405 16.8922720632825261 20.6510181989325190   F   F   F
 10.7014501362668888 12.9472595604809158 21.0831840453044208   F   F   F
  9.8868015188980163 15.5518375833541853 20.9825754056584941   F   F   F
 18.3414981869164180  9.6001834684416139 23.8406168086791297   F   F   F
  6.0782972194910734 13.2374669262817886 20.8339406979566846   F   F   F
 15.3855401682539732 10.0006063178239089 20.8029614195878558   F   F   F
 13.3624251812823189 14.2772407518174820 25.8372570055519084   F   F   F
 12.7937490407458583 14.9047124079752180 21.0530031135583009   F   F   F
 10.5029918294458167 10.6027741624572869 22.7095763937828607   F   F   F
  8.8545656092690894 16.5096214421306904 23.3611925666592519   F   F   F
  8.8659029911728116 11.0058063066061749 24.9883240940513645   F   F   F
 14.5883302429325123  7.2433680438480783 20.8771964834694863   F   F   F
  7.7132712573637336  9.2496880650405089 23.0715111485775566   F   F   F
 16.5750564972472496  7.7686207424002260 22.6894026270297395   F   F   F
 11.5108591333152237  6.0236786420310171 23.2622212001623367   F   F   F
 11.4970997556221430 17.3316266621723862 22.6519753941429656   F   F   F
 17.0214927504998137  5.8282301641581649 20.7153941916157400   F   F   F
  6.9488486964999989 16.6644053809000994 20.9118791788112297   F   F   F
 13.6892364846895536 16.1956363489326414 23.8168619566951421   F   F   F
  5.6947501135874372 10.4777180289628706 21.2714982430620552   F   F   F
  6.7448253518494132 14.7809611060574166 22.9373542053586306   F   F   F
 14.2172090355027105  6.5163808986211373 23.5547832643610420   F   F   F
 12.1666598083160515 10.8148856423057413 20.3454817464684012   F   F   F
  6.8473009220312138 12.0095594844943516 23.3192332582324688   F   F   F
 12.9808930299761336  8.6106329960343793 24.8728276544039630   F   F   F
 12.1170060599189604 13.4685339781314273 23.3042971134100760   F   F   F
 17.3511065362622823 13.7233855808611445 20.8195015529652174   F   F   F
 13.3359391433027046 10.8490538925748385 22.8621196070407429   F   F   F
 15.0241335863831562 13.0346622385353133 24.0062127728907697   F   F   F
 10.1503768350491139  8.2993544440724900 24.4673453775950414   F   F   F
  8.2764042929771975 11.1451983179631249 20.9319470091901820   F   F   F
 14.1185420260925696 17.5098643083804610 21.3914190343183002   F   F   F
  8.7930845490409215  6.6579422078462089 22.6482156995707520   F   F   F
 10.4718978367885978  5.0747008576013855 20.9226015845699465   F   F   F
 10.9751555751602972 15.5170184325692748 24.9020387241420806   F   F   F
  9.2630695718376952 18.2498122019263391 21.1943487194462676   F   F   F
 18.1088428647916224  9.6559518901898667 21.1331256284620537   F   F   F
 14.7039445102975481 12.7604154092669368 21.1196388283255878   F   F   F
 13.2536276876276311  4.7523785282264113 21.3719440743054321   F   F   F
 17.8325419380495092  3.2354478780576943 24.2700909161692806   T   T   T
 18.0414939607151048  1.9456739576665425 24.6362825213498731   T   T   T
 18.3747023219658026  1.7071117386214967 25.6368949207155872   T   T   T
 17.9493410818034960  1.1478179895321587 23.9108564359229732   T   T   T
 17.9226175019668013  4.0488699893295532 24.9993414169766943   T   T   T
 13.6500292930679255  9.7258425710499417 16.5668785218132406   F   F   F
  2.0093993340194780 18.1420202216195037 16.4192842691599914   F   F   F
  9.8605262779033289  1.4596936188257943 16.4216178139364644   F   F   F
  9.8497712932277075  7.1305498823569788 16.5776090925081867   F   F   F
  5.9906635933545607 18.1339117289621434 16.5205022589328827   F   F   F
 13.7565643240861615 12.4990913936955259 16.4664727894812586   F   F   F
 17.7117995233854337  6.9548767970164160 16.4447160346364001   F   F   F
 13.8686848720315332 18.1735254488225415 16.5120667168752426   F   F   F
 13.7994088187865636  1.3769134490965254 16.3617114036976439   F   F   F
  5.9772346258740887 12.4772185263624440 16.3178710848290223   F   F   F
  1.9477228627494445  1.4122280203823785 16.4271942787444551   F   F   F
  5.8950527687035752 15.2469001422325636 16.5612776556193495   F   F   F
 17.7358715460052032 20.8443631319196037 16.4283902849345012   F   F   F
 21.6367267090892135 15.3782118173071325 16.3619616849309324   F   F   F
 21.7094567827703386  4.2203474619881991 16.3584539584807445   F   F   F
 21.6756917113550998  9.7675011329004064 16.3703912773573315   F   F   F
 13.7188303787518553 15.3125300818074663 16.4229589713393445   F   F   F
  5.9533214737600275 20.9177410279780993 16.3579558331687345   F   F   F
 11.7748155130114043 11.2568497671665035 18.2695563517670010   F   F   F
 21.7263482571300237 12.5859746651608795 16.4151347569841626   F   F   F
  9.9421572514549652 12.6107643105297171 16.6629656384707232   F   F   F
 21.6705197785831700 18.1396549069220185 16.4039580334124011   F   F   F
  1.9786851956828824 20.9561211621878165 16.3726141834108034   F   F   F
  2.0480634295034217  6.9972209854587808 16.4072118159945610   F   F   F
 19.6977781307633428  0.0458846787160945 17.7692655413602481   F   F   F
 21.6782696208179999  4.1721307617036301 13.5955421664678209   F   F   F
 21.6737992969819402 20.9452515138393558 16.3927549872933511   F   F   F
  5.9070906043973066  7.0014347998486262 16.3796704690712787   F   F   F
 13.8182443623857143 20.9243787145817954 16.3850507903856659   F   F   F
 17.7137642440053114 20.9089966449644997 19.1995171483029345   F   F   F
 13.7951947364146630  9.8118576179037174 13.6906029602976034   F   F   F
 11.8251934760431681  2.8045872153695415 14.9891480791707892   F   F   F
 11.8136308705229887  5.6358254913630210 17.7126418205559268   F   F   F
  1.9793020046210175  4.2176164491095767 16.3651345672843931   F   F   F
  1.9725650740000149  6.9740706679999214 10.8156001569999933   F   F   F
 23.6643879039311145 11.1434450349008927 17.8254249052745877   F   F   F
 13.7501538603333113  4.1210679921342779 16.5130849007460370   F   F   F
 23.6662438937608073 16.8080369571573840 17.7702392794711876   F   F   F
  7.9064562882901228 22.3147909964212694 17.7601980282335603   F   F   F
 23.6640694555914344 22.3026978980466808 17.7954479990001566   F   F   F
  0.0228627196393584  5.5830450825417861 17.7569199965927389   F   F   F
  7.8882426827954504 11.0784698107961468 17.7275278591604852   F   F   F
  7.9400117151307894 16.5418228887757017 17.7118735423821079   F   F   F
 15.7026358521417837  5.5348739811828835 17.7100843009768312   F   F   F
 15.7615361211169507  0.0072424841256290 17.7559460479838584   F   F   F
  9.8426451593045492  4.2726906278417189 16.3975159726144994   F   F   F
 15.7600340433956063 16.5477248700344184 17.7143955719910089   F   F   F
 10.1806076414598241  6.8048305128611570 19.6633772849365585   F   F   F
  3.9633011962049967 22.2816439118692990 17.7693511464413447   F   F   F
  4.0391731143850329 16.7441015201220473 17.8472021413711097   F   F   F
  5.8794298561802769  9.7273106241497924 16.4730331256499163   F   F   F
  3.9208210312445027 11.2200773352487424 17.6216394863592321   F   F   F
  7.9318322091714579  5.6794961234167483 17.7913880166274048   F   F   F
 11.8274024443770536  0.0007872167480929 17.7304904403132610   F   F   F
 19.7108694514473015 19.5107008151699226 14.9583017825211328   F   F   F
 10.0150925336834469  9.9078413517198811 16.3659327351853818   F   F   F
 17.7997194922222270  9.7159389138997234 16.4676409536456774   F   F   F
 17.7977988445755635 15.1872016339082414 16.5951784699643099   F   F   F
 17.7126374075408393 18.0353008333177094 16.3707958304563093   F   F   F
  9.8912513434435070  1.4548376393072260 19.2027013764741916   F   F   F
  5.8990501749826807  7.0585001079781984 19.2406936460765792   F   F   F
 15.7807046657253238 11.0387987242146579 17.7399273394058739   F   F   F
 13.9906901720370804 18.0780891394090091 19.3817843291205740   F   F   F
  3.9896488236063696  5.5477207517926113 17.7954146890840690   F   F   F
 21.6848572085030540 12.5465224457759170 13.6226389080547019   F   F   F
 17.8301090423564652 12.6870697238126411 19.0685889623728997   F   F   F
 21.6379226810023653 18.1505705833316249 19.2470801972789758   F   F   F
 21.6824177243801195  1.3954844871946794 19.2596839715486894   F   F   F
 17.5423470822751568 18.0745173682085252 19.2000809430435844   F   F   F
 17.6872763653820968  1.4987254613385941 19.1715783968637119   F   F   F
  1.9926011548430320  6.9514647319002671 19.2187308920252953   F   F   F
  2.0532627640553662 12.5605055634734750 19.2034662524737243   F   F   F
  1.9943284513661832  1.3535379331527715 19.2636322932229795   F   F   F
  2.0631031742287234  9.7429080116532809 19.1914842764537568   F   F   F
  1.9758813337264942  4.1437778299110040 19.2297799231039512   F   F   F
  9.8219366715144130  9.3467887812771213 18.8960801464603634   F   F   F
 15.7768372840556292 19.5129273510283312 14.9673262985609981   F   F   F
 19.6854220827454078  5.5317611907938877 17.7419362623799621   F   F   F
 19.6598972336354763 16.7577349682735424 17.7860095153845350   F   F   F
  1.9932679675936289 20.8818762725828151 19.2190666360545954   F   F   F
 19.7258232998104397 11.2271441649217838 17.6621811441966621   F   F   F
  9.9121111369280026  4.1863713923422941 19.1987834792612624   F   F   F
  1.9687027090933138 15.3342742600652571 19.1694094229830121   F   F   F
  5.9657223286112000 20.7614955946227049 19.1198230032579239   F   F   F
 13.7199446469980781  4.2869094166340780 19.3689608724369329   F   F   F
  1.9944426646632241 18.1349770354081237 19.2689334323959756   F   F   F
  5.6985514911502939  9.8649242747042898 19.2480468745017532   F   F   F
 21.6427469969627388 20.9165759163689913 19.2287387842010133   F   F   F
 21.6914040369262118 15.3433025961088934 19.1713235704003822   F   F   F
 21.5978194725083803  9.7311275561370998 19.1947852386077678   F   F   F
  6.0011826391136811  4.1621594900328223 19.2391411764432974   F   F   F
  6.0282878325174778 15.1259101246416972 19.8881919022912932   F   F   F
 13.7774479798046130 20.8806821981426758 19.1800792720214979   F   F   F
 17.6395541258892230  4.3666239991952880 19.4058618558718230   F   F   F
 21.6982156369999721 18.1325837370000720 10.8156001569999933   F   F   F
  9.7663400455161771 18.1422043635635895 19.1881771484590971   F   F   F
 17.6713964754759303  6.9807252149232157 19.1999510468342862   F   F   F
  1.9615399850035431  9.7956605524513343 16.3458913407138517   F   F   F
 11.8256631332825819  8.3534479402259585 14.9919734222388357   F   F   F
 21.6199887468249585 12.5491461105979294 19.2352846353258364   F   F   F
 13.7893251225427953  1.4783335888071496 19.1653423547085673   F   F   F
 13.8016110426349243  7.1636379347906027 18.9971750309895100   F   F   F
  5.8597552095837342 12.8076985126708607 18.8621747022858450   F   F   F
 17.8456270023200929 15.4482503703144296 19.7084953375353855   F   F   F
  6.2000897362210203 17.8453876935778055 19.3899491725994402   F   F   F
  5.9407548187699390  1.3275104039475603 19.2702818984188617   F   F   F
 21.6982156369999721 12.5533272030000536 10.8156001569999933   F   F   F
  9.8793060579081189 20.8667338417388102 19.1936127775584211   F   F   F
 11.8347707334750964 19.4896832421948645 15.0256293595156034   F   F   F
  9.9523206194155502 15.0883602817167191 19.0076676653120877   F   F   F
 19.7044787944961719 13.9048226042294161 15.0019093311259475   F   F   F
 19.7044382562187792  8.3289729648669280 14.9906383666441112   F   F   F
 21.6599025628359456  6.9614466234809154 19.1885278681584417   F   F   F
  3.9472631724198366  8.3966296642230880 14.9323158805308722   F   F   F
 13.7629294310489172  9.8136270150156193 19.3969553655480205   F   F   F
 13.6880234622934438 15.3074208396619866 19.1868852297176531   F   F   F
 21.7110378019989199  4.1719893731891693 19.2220893594188524   F   F   F
  9.8459795623809043 20.9135531009063840 16.3832923295346511   F   F   F
  3.9550460551252096  2.7774421022107667 14.9844396554663728   F   F   F
 17.7083570399315100  1.3347708992187977 16.3325229557452971   F   F   F
  3.9699458910267591 19.4902475923643408 14.9956396555322709   F   F   F
 11.8550304660334547 16.8789274436027341 17.7825141820940154   F   F   F
 11.8422552799470573 13.8618637624753571 15.0011370719690245   F   F   F
 17.8795762957608950  9.6877776357240233 19.1348691829994735   F   F   F
  5.9675530985919414  4.2032840126129143 16.4174911638563614   F   F   F
 17.7103646031655622  4.1018504588529643 16.5186750375734199   F   F   F
  1.9344080319196919 12.5944808707520792 16.3886322946084064   F   F   F
  9.4023866061846970 12.2886288504907100 19.5599999495845438   F   F   F
  3.9700319516832807 13.9323877499624995 15.0029081427927817   F   F   F
 19.7156693750694281  2.7782822473522772 14.9893747341113279   F   F   F
  2.0347786743858451 15.3831899361000737 16.3604612063263026   F   F   F
 13.9823111733970435 12.6337860988857589 19.1638445406876734   F   F   F
  0.0000000000000000  0.0000000000000000 12.2103998060000407   F   F   F
 13.8061318684000689  1.4208361262250702 13.6149124259333423   F   F   F
 21.6982156369999721 15.3429554700000619 10.8156001569999933   F   F   F
 21.6982156369999721  9.7636982699999884 10.8156001569999933   F   F   F
 21.6982156369999721  4.1844424010000720 10.8156001569999933   F   F   F
 13.8079546360000549 20.9222120050000342 10.8156001569999933   F   F   F
 13.8079546360000549 15.3429554700000619 10.8156001569999933   F   F   F
 13.8079546360000549  9.7636982699999884 10.8156001569999933   F   F   F
 13.8079546360000549  4.1844424010000720 10.8156001569999933   F   F   F
  5.9176950450000287 20.9222120050000342 10.8156001569999933   F   F   F
 21.6982156369999721 20.9222120050000342 10.8156001569999933   F   F   F
 21.7235800967243087  1.4111040252445448 16.4250016818459663   F   F   F
  5.9176950450000287 15.3429554700000619 10.8156001569999933   F   F   F
 17.7530837259999217 20.9222120050000342 10.8156001569999933   F   F   F
 17.6137231951598636  3.5738651513985822 23.0051213296876043   T   T   T
 13.8371230844612256 12.5615673887340371 13.6455508261800276   F   F   F
 17.7530837259999217 15.3429554700000619 10.8156001569999933   F   F   F
  9.8628241350000643 20.9222120050000342 10.8156001569999933   F   F   F
  9.8628241350000643 15.3429554700000619 10.8156001569999933   F   F   F
  9.8628241350000643  9.7636982699999884 10.8156001569999933   F   F   F
  5.9176950450000287  9.7636982699999884 10.8156001569999933   F   F   F
  1.9725650740000149  1.3948141340000613 10.8156001569999933   F   F   F
 21.6671936325575061 15.3259796843649241 13.5953806356100202   F   F   F
 15.7523638785321776  8.4485204287136959 15.0926276355698690   F   F   F
  7.9147678976523759  8.4463020358480705 15.0901160964562191   F   F   F
  7.9438255992945823 13.9659323489834026 15.1135795329701708   F   F   F
  5.9155591803220107  4.2058655064545833 13.6234538913167178   F   F   F
  5.9176950450000287  4.1844424010000720 10.8156001569999933   F   F   F
  5.9296712111042282  1.3845679675125040 13.6280163590526087   F   F   F
 17.7411234675041420 20.9428538399144415 13.6604429371587806   F   F   F
 17.7530837259999217  9.7636982699999884 10.8156001569999933   F   F   F
 17.7530837259999217  4.1844424010000720 10.8156001569999933   F   F   F
 13.8079546360000549  1.3948141340000613 10.8156001569999933   F   F   F
 17.7315331092445838 15.3694046897827636 13.7215709994896926   F   F   F
 17.7447389159572566  9.7833255156309828 13.6718169343425515   F   F   F
 21.6773623985048189  9.7520892859557602 13.6087178361366608   F   F   F
 17.7702596804936945  4.2374623140590328 13.6697765726216431   F   F   F
  9.8747043826663354 20.8851532623567842 13.6209593328929923   F   F   F
  9.8737806380059201 15.2818663507152532 13.6412198459252245   F   F   F
  9.8573508243865202  9.7179232878883361 13.6144488975879803   F   F   F
  2.0022227042059644 15.3292450573833410 13.5916978609988561   F   F   F
  1.9859125924851402 20.9030962772494355 13.6040244268307795   F   F   F
  1.9602634271435533  9.7488404736539245 13.5851124222915640   F   F   F
  1.9849896027723353  4.1637301113285439 13.5892918791437811   F   F   F
 21.6963448546441313 18.1241135326671881 13.6211395629242702   F   F   F
 21.6854071271998556  1.3879725254855335 13.6229493324830955   F   F   F
 17.7386504644169278 18.1480907222795551 13.5915286682276104   F   F   F
 21.6889398398700131  6.9684549073777990 13.6158269164541110   F   F   F
  5.9672269516613659 15.3463413481024933 13.6843326082657768   F   F   F
 17.6707308365122486 12.4572651808205084 16.3400719912348862   F   F   F
 21.6927570131225593 20.9139292653109194 13.6102030175732409   F   F   F
  0.0011880807258664  2.7902622656237339 14.9518224884590261   F   F   F
 13.8066714984631052 18.0881356878655524 13.6596555899202361   F   F   F
 -0.0007477724013356  8.3413107688453589 14.9482890115945164   F   F   F
 23.6669739257213863 13.9969113981244337 14.9305376988141418   F   F   F
  7.8993193136441988  2.8057357768123143 14.9555610526320812   F   F   F
  0.0007711962773425 19.5304314017455312 14.9857405932801182   F   F   F
  7.8935381144554357 19.5055524673097658 14.9791628505635703   F   F   F
 15.7668584207141045  2.8232182416779157 14.9696919141318787   F   F   F
  5.9456143696026356  9.8031398404628565 13.6478814446510075   F   F   F
  1.9725650740000149 12.5533272030000536 10.8156001569999933   F   F   F
 21.6982156369999721  1.3948141340000613 10.8156001569999933   F   F   F
  9.8759923132968499  4.1767762332893028 13.6069934662345684   F   F   F
 21.6655098884572617  6.9793557571031384 16.4011695935773183   F   F   F
 10.0137251048743305 15.3553981097827190 16.4008570886759912   F   F   F
 13.7931302185996394  4.2475524919200129 13.6683351605555394   F   F   F
  5.9432533653490278  1.3967050309855575 16.4179763117601496   F   F   F
 13.7950403440790463  6.9392265637143868 16.3422024629885350   F   F   F
  5.9176950450000287 18.1325837370000720 10.8156001569999933   F   F   F
  1.9725650740000149  4.1844424010000720 10.8156001569999933   F   F   F
  0.0000000000000000  5.5792565349999723 12.2103998060000407   F   F   F
  0.0000000000000000 11.1585130689999925 12.2103998060000407   F   F   F
 17.7108737861047203 12.5936375271247503 13.6139716672668225   F   F   F
  7.8902602960000570  0.0000000000000000 12.2103998060000407   F   F   F
  7.8902602960000570 11.1585130689999925 12.2103998060000407   F   F   F
  7.8902602960000570 16.7377696039999648 12.2103998060000407   F   F   F
 13.7943859843621706 15.3131008202977679 13.6386869877329637   F   F   F
 15.7805205919999434  0.0000000000000000 12.2103998060000407   F   F   F
 15.7805205919999434 11.1585130689999925 12.2103998060000407   F   F   F
 19.7256482699999580  5.5792565349999723 12.2103998060000407   F   F   F
  3.9451301480000271  0.0000000000000000 12.2103998060000407   F   F   F
  3.9451301480000271 11.1585130689999925 12.2103998060000407   F   F   F
  3.9451301480000271 16.7377696039999648 12.2103998060000407   F   F   F
 11.8353900909999528 11.1585130689999925 12.2103998060000407   F   F   F
 11.8353900909999528  5.5792565349999723 12.2103998060000407   F   F   F
 21.6982156369999721  6.9740706679999214 10.8156001569999933   F   F   F
  7.8902602960000570  5.5792565349999723 12.2103998060000407   F   F   F
 17.6895621848778930  7.0111471290049252 13.6422455066484982   F   F   F
  0.0000000000000000 16.7377696039999648 12.2103998060000407   F   F   F
  9.8619310652217038 18.0769349532489692 13.6538374975887145   F   F   F
 13.8320785702338789  7.0399841489277932 13.6065824234611981   F   F   F
 13.7938485392485966 20.9147205258999946 13.6300299520489094   F   F   F
 15.7805205919999434  5.5792565349999723 12.2103998060000407   F   F   F
  5.9712318060896434  7.0107412765090178 13.6248353472853445   F   F   F
  3.9451301480000271  5.5792565349999723 12.2103998060000407   F   F   F
  5.9289500536131161 18.0950704711627708 13.6595784865383898   F   F   F
 13.8079546360000549 12.5533272030000536 10.8156001569999933   F   F   F
  5.9185035197294864 20.8900805659513615 13.6207582319546177   F   F   F
 19.7256482699999580  0.0000000000000000 12.2103998060000407   F   F   F
 11.8353900909999528 16.7377696039999648 12.2103998060000407   F   F   F
 15.7805205919999434 16.7377696039999648 12.2103998060000407   F   F   F
 11.8353900909999528  0.0000000000000000 12.2103998060000407   F   F   F
 15.7509881472802284 13.9725136466638808 15.0895903704227585   F   F   F
  5.9176950450000287  1.3948141340000613 10.8156001569999933   F   F   F
  5.9176950450000287 12.5533272030000536 10.8156001569999933   F   F   F
  5.9176950450000287  6.9740706679999214 10.8156001569999933   F   F   F
 17.7530837259999217 12.5533272030000536 10.8156001569999933   F   F   F
 17.7530837259999217  6.9740706679999214 10.8156001569999933   F   F   F
 17.7530837259999217  1.3948141340000613 10.8156001569999933   F   F   F
  9.8628241350000643 18.1325837370000720 10.8156001569999933   F   F   F
  9.8628241350000643  6.9740706679999214 10.8156001569999933   F   F   F
 17.7530837259999217 18.1325837370000720 10.8156001569999933   F   F   F
  9.8628241350000643  1.3948141340000613 10.8156001569999933   F   F   F
  9.8706426112945245  1.3748784655767190 13.6611804157587802   F   F   F
  1.9754321045182339 18.1237756673874451 13.6257558656625903   F   F   F
  9.8628241350000643 12.5533272030000536 10.8156001569999933   F   F   F
 13.8079546360000549  6.9740706679999214 10.8156001569999933   F   F   F
 13.8079546360000549 18.1325837370000720 10.8156001569999933   F   F   F
  1.9746086919364325  6.9639412885696066 13.6198139665522220   F   F   F
 19.7256482699999580 16.7377696039999648 12.2103998060000407   F   F   F
  9.8087248954277531 18.1166389975021680 16.4379750153582904   F   F   F
 19.7256482699999580 11.1585130689999925 12.2103998060000407   F   F   F
 17.7422575506250801  1.4300644248895726 13.6008278472770492   F   F   F
  9.8628241350000643  4.1844424010000720 10.8156001569999933   F   F   F
  1.9725650740000149 20.9222120050000342 10.8156001569999933   F   F   F
  1.9725650740000149 18.1325837370000720 10.8156001569999933   F   F   F
  1.9725650740000149  9.7636982699999884 10.8156001569999933   F   F   F
  5.9625419805258257 12.6009170224562030 13.6137792676699352   F   F   F
  9.8348648578587614  6.9493200904398753 13.7208023227493907   F   F   F
  1.9820226795885971  1.3808388310101349 13.6258284288319551   F   F   F
  9.8478461212869242 12.4866502923338949 13.7367048570582604   F   F   F
  1.9869127698237217 12.5529404322787688 13.6166360980358228   F   F   F
  1.9725650740000149 15.3429554700000619 10.8156001569999933   F   F   F
 19.7899295385540945 16.7757773872715106 15.0784184321967487   F   F   F
  3.9451301480000271 19.5273965409999306 12.2103998060000407   F   F   F
  0.0000000000000000  2.7896282670000101 12.2103998060000407   F   F   F
 19.7843820431665947  5.5434039170615321 15.0877724534169477   F   F   F
 23.6639169901957871 13.9050439609983147 18.7719121191719545   F   F   F
 19.7256482699999580  8.3688848019999824 12.2103998060000407   F   F   F
 19.8275173908332079  8.3147766289141156 18.0976662842991836   F   F   F
 11.8353900909999528 13.9481413360000008 12.2103998060000407   F   F   F
  3.8733626015309937 11.1561830800413855 15.0612696681169425   F   F   F
 23.6483090228705990 19.5312218859336824 18.6723426421044820   F   F   F
  7.8529052354991746  2.6770645300636016 18.4091391476009711   F   F   F
 19.8728445463017316 13.9932360940615101 18.1170151060719462   F   F   F
 11.8353900909999528  8.3688848019999824 12.2103998060000407   F   F   F
 11.8353900909999528  2.7896282670000101 12.2103998060000407   F   F   F
 19.6948600838165717 19.5543475060381873 18.5460745191947609   F   F   F
 19.7256482699999580  2.7896282670000101 12.2103998060000407   F   F   F
 15.7786582071778572 13.9747947302254456 17.8007993852755035   F   F   F
 11.8353900909999528 19.5273965409999306 12.2103998060000407   F   F   F
 11.8695299560785728  8.2906852352731377 17.8446386230348466   F   F   F
 11.9236464228831753 13.9506908088671082 17.8214391927489650   F   F   F
 19.7247022884346208  2.7998896635013328 18.6852147525720547   F   F   F
  0.0047124563251624  8.3689373209224858 18.7362643178807815   F   F   F
 15.7477914569246682 19.6616906996520875 18.2170912343467002   F   F   F
  3.9451301480000271 13.9481413360000008 12.2103998060000407   F   F   F
  3.8671765342916355  8.2874021997781657 18.2318732486407669   F   F   F
  3.7778197418995800 14.0029463878228384 18.0449911525837265   F   F   F
 15.8772749088731686  8.3143839076873629 17.7876543515734404   F   F   F
  3.9350023213604217 19.4960632300634025 18.5432919692633966   F   F   F
  7.9171732389647529 19.6112216358547080 18.0851104757639227   F   F   F
 15.7805205919999434 19.5273965409999306 12.2103998060000407   F   F   F
  3.9700924226676193  2.7444644168925527 18.6606832615318972   F   F   F
  7.9082739915200522 13.9380643120363779 17.8542074587498938   F   F   F
 15.7464582738392007  2.7886698328696391 18.3418776937507069   F   F   F
 11.8481286062007261  2.7311172637422190 18.1945773093002039   F   F   F
  7.7149360451973781  8.3379471864992141 17.7811976602424942   F   F   F
  3.9451301480000271  2.7896282670000101 12.2103998060000407   F   F   F
 19.7923611180026278 11.1605886113520913 15.0817583869510603   F   F   F
  3.8909609690537632 16.7729464474236636 15.1027147024242474   F   F   F
 11.8649257371111307 11.1545430075611449 15.0062756101836250   F   F   F
  7.8176530415501198  5.5350831053065850 15.0871095916217541   F   F   F
 15.7805205919999434  8.3688848019999824 12.2103998060000407   F   F   F
  7.8396109688398283 11.1417174551960088 15.0277759184942123   F   F   F
  0.0137419836332281  2.7369617715507206 18.5916689635201209   F   F   F
  3.9451301480000271  8.3688848019999824 12.2103998060000407   F   F   F
  7.8862423067661336  0.0281548570202237 15.1746304933795830   F   F   F
 15.7630168556638601 -0.0000619920351438 15.1641454943676717   F   F   F
  3.9291865893160680  0.0280712873114617 15.1967153437267086   F   F   F
 15.7519247601142798 16.7804831511606274 15.0673159120442328   F   F   F
 15.7871931650536119  5.5342587256645652 15.0792066026046996   F   F   F
 19.7256482699999580 13.9481413360000008 12.2103998060000407   F   F   F
  0.0000000000000000  8.3688848019999824 12.2103998060000407   F   F   F
  7.9020339969672984 16.7641429258439345 15.0456489714505999   F   F   F
 11.8620874207537721  5.5342363065048339 15.0652552338098467   F   F   F
 -0.0010871174288579  0.0002482295507594 15.1998072568500469   F   F   F
 11.8619654377614481 16.8010346204902525 15.1164060253435739   F   F   F
  7.8902602960000570  8.3688848019999824 12.2103998060000407   F   F   F
 15.8255865233598048 11.1558686101594233 15.0185500088896902   F   F   F
  0.0000000000000000 19.5273965409999306 12.2103998060000407   F   F   F
 11.8431614507083616 22.3021263976155772 15.1642674769318724   F   F   F
 11.8527540203083976 19.5679639332894482 18.2861122153730165   F   F   F
  3.9382336879052606  5.5400279787412146 15.1873236050854317   F   F   F
  7.8902602960000570 19.5273965409999306 12.2103998060000407   F   F   F
 19.7469160085529793  0.0098333854347680 15.1989605949311830   F   F   F
  0.0000000000000000 13.9481413360000008 12.2103998060000407   F   F   F
  7.8902602960000570  2.7896282670000101 12.2103998060000407   F   F   F
  7.8902602960000570 13.9481413360000008 12.2103998060000407   F   F   F
 19.7256482699999580 19.5273965409999306 12.2103998060000407   F   F   F
 15.7805205919999434 13.9481413360000008 12.2103998060000407   F   F   F
  0.0189867318388267  5.5773929055608242 15.1771056951549159   F   F   F
 23.6691473596426434 16.7619297317111879 15.1967158016975930   F   F   F
 23.6640142298194185 11.1634406290621868 15.2046047652709966   F   F   F
 15.7805205919999434  2.7896282670000101 12.2103998060000407   F   F   F
 17.7990133304396494 16.7965210184119123 17.7164065204119261   F   F   F
  1.9725650740000149  5.5792565349999723 12.2103998060000407   F   F   F
 21.7299929118620447 16.7812964548393069 18.0988119944167849   F   F   F
  1.9725650740000149 11.1585130689999925 12.2103998060000407   F   F   F
  9.8628241350000643 11.1585130689999925 12.2103998060000407   F   F   F
  5.9176950450000287  5.5792565349999723 12.2103998060000407   F   F   F
 13.8200869258724399 19.5446804458042926 15.1719559901931920   F   F   F
 21.7449973119048039  8.3569173086103419 15.1766795297394115   F   F   F
  1.9725650740000149  0.0000000000000000 12.2103998060000407   F   F   F
 21.6982156369999721 11.1585130689999925 12.2103998060000407   F   F   F
 21.6982156369999721 16.7377696039999648 12.2103998060000407   F   F   F
 13.8159332117533182  2.7562219822541785 15.1429697194687947   F   F   F
 17.8118698821317878 13.9419490477118835 15.0705886959600583   F   F   F
  1.9725650740000149 16.7377696039999648 12.2103998060000407   F   F   F