Au  C  H  O Sr Ti                       
   1.00000000000000     
    23.6707801818999997    0.0000000000000000    0.0000000000000000
     0.0000000000000000   22.3170261383000010    0.0000000000000000
     0.0000000000000000    0.0000000000000000   30.0000000000000000
   Au   C    H    O    Sr   Ti
    50     2     5   265    72    72
Selective dynamics
Direct
  0.7135033539585294  0.5271187372593005  0.7532736794444688   F   F   F
  0.2809629641942450  0.3414552049844559  0.7025720762285630   F   F   F
  0.6685117390627937  0.6826182901895947  0.7487094748152998   F   F   F
  0.3969783192783609  0.3823358423301926  0.6907906354243778   F   F   F
  0.4508768727536108  0.5803123748319337  0.7034471477457558   F   F   F
  0.3739644142710645  0.4954015149163382  0.8331317331879902   F   F   F
  0.3234065529774597  0.4164765075461219  0.7699203459373720   F   F   F
  0.3685981955313977  0.6207229694533680  0.8201426889664774   F   F   F
  0.3477048970957455  0.5003755580140634  0.6968899842979326   F   F   F
  0.5169309699372988  0.3789358223798871  0.7328982189665254   F   F   F
  0.2560746047798546  0.5942911793629406  0.6944947022176677   F   F   F
  0.4692115433315251  0.4525308869520472  0.8789947457345164   F   F   F
  0.6484803625967075  0.4477209506835607  0.6942452537771189   F   F   F
  0.5383915395466374  0.6690434515148524  0.7022100308568042   F   F   F
  0.4413487330676986  0.4736730920312837  0.7560582101535118   F   F   F
  0.7063300108308894  0.7576364747901181  0.6880999724919192   F   F   F
  0.3743241602579701  0.7419923027106989  0.7794245529787531   F   F   F
  0.4617565041283882  0.5753769428808155  0.8653409381916504   F   F   F
  0.6531397790727809  0.4423101320385356  0.8125792161982162   F   F   F
  0.4141386185330518  0.6961300033871893  0.6999307680743101   F   F   F
  0.7714447957250030  0.4318561487384613  0.7952262248076565   F   F   F
  0.6641606829123887  0.1930652300038531  0.7495234102729214   T   T   T
  0.5683635250569523  0.5116364817374333  0.8570074190553640   F   F   F
  0.5633743023743776  0.6416378815284745  0.8621768101450584   F   F   F
  0.5524861918014565  0.2154714346071671  0.7105211495160830   F   F   F
  0.2886277581398105  0.5397295509328970  0.7770670251103553   F   F   F
  0.5776981045928054  0.7265527219649925  0.7941272651321682   F   F   F
  0.2392681649966022  0.4702638058470967  0.7091474994378331   F   F   F
  0.2861345423414505  0.6637309608206436  0.7639517036686030   F   F   F
  0.5987057666363853  0.2911763156452380  0.7844696266874323   F   F   F
  0.5134002388273231  0.4855851342090247  0.6780861883523102   F   F   F
  0.5607660361114242  0.4884797038954076  0.7624285272802496   F   F   F
  0.4830778680339876  0.2717358498078113  0.7749880300734944   F   F   F
  0.5457553860644637  0.3864311033781718  0.8283087548137331   F   F   F
  0.6156657644687584  0.3230653906312213  0.6957642685178769   F   F   F
  0.3914618573202162  0.8184252133269680  0.7065046777177528   F   F   F
  0.4355334024888435  0.2279302255825257  0.6980875135561888   F   F   F
  0.6986502676357844  0.3471295101668375  0.7567477138007206   F   F   F
  0.3682534317524073  0.3000904414768968  0.7561180204422158   F   F   F
  0.5962425634102644  0.7850722758970718  0.7126148233349383   F   F   F
  0.6321286474497754  0.5864973291822508  0.7998936164144510   F   F   F
  0.7310708284263825  0.6160662822055087  0.6934388306906030   F   F   F
  0.4857009375580859  0.7772750473498604  0.7544639274010336   F   F   F
  0.7633543035046415  0.4330801128167963  0.7049435810880880   F   F   F
  0.7193866165625167  0.2596507289475696  0.6909562651866707   F   F   F
  0.6194275709324657  0.5727081240926211  0.7038744743353575   F   F   F
  0.4630641755706435  0.6982685742125909  0.8316697665766668   F   F   F
  0.5093325685360881  0.6058665993990715  0.7777590261763550   F   F   F
  0.2942068232863946  0.7474938966795364  0.6959377657044499   F   F   F
  0.4256967695096918  0.3730255812475036  0.8166220478950024   F   F   F
  0.7338978960759377  0.1309364925550796  0.7588030637172025   T   T   T
  0.7088124589066780  0.0756766853193724  0.7801117975938965   T   T   T
  0.7421672793048089  0.0415971870435996  0.7822602631913114   T   T   T
  0.6929911141182927  0.0842263699848402  0.8137816158776019   T   T   T
  0.7473052981116837  0.1250216639084627  0.7243188135784138   T   T   T
  0.6747151043361086  0.0572871794211025  0.7598752409499170   T   T   T
  0.7707442812196206  0.1551888924401226  0.8138828296474330   T   T   T
  0.0843436434042388  0.6869758362374725  0.4531505851374433   F   F   F
  0.5855689249886424  0.8141593253414783  0.5503904882219430   F   F   F
  0.7479652469192786  0.3115141543740165  0.5480433654303525   F   F   F
  0.5811237258653392  0.5599546733987353  0.5487769102956221   F   F   F
  0.2525648407068388  0.5591039283845873  0.5438438723566676   F   F   F
  0.4158100836960514  0.3194619172122088  0.5524368657255749   F   F   F
  0.5765248884274996  0.4358838346044891  0.5523172675426196   F   F   F
  0.4166592371803546  0.0654366322483639  0.5473339134720447   F   F   F
  0.4996023655820068  0.7569843650635946  0.5925288644982061   F   F   F
  0.0824448733963763  0.0630968850054003  0.5475787755104875   F   F   F
  0.0833333358191695  0.3124999999901945  0.3605200052333331   F   F   F
  0.9145187003536392  0.6885848600193825  0.5459321530814378   F   F   F
  0.7501170627705278  0.1898172343929119  0.4558438287654738   F   F   F
  0.9169346345930123  0.1888771602195263  0.5454312400317676   F   F   F
  0.5790654405237703  0.6860451734920403  0.5476161946646414   F   F   F
  0.2515241975270754  0.9372800817825038  0.5452224161650037   F   F   F
  0.4973731049826711  0.5044311895480078  0.6089104245439643   F   F   F
  0.9181632828301574  0.5636880020603456  0.5469874605095413   F   F   F
  0.4199008571682867  0.5649136271397737  0.5553543161845411   F   F   F
  0.9155594052955820  0.8126645505675185  0.5468494261227903   F   F   F
  0.0841029445706027  0.9383710749032588  0.5461322974736191   F   F   F
  0.2488133563271546  0.6833085278284230  0.5516167511240297   F   F   F
  0.7493427600483074  0.9338758939573992  0.5476803561594821   F   F   F
  0.7516086266592055  0.6805322508950056  0.5532570871214375   F   F   F
  0.9155617513769911  0.9384934373974971  0.5463616448842075   F   F   F
  0.4177895185191147  0.0651977714872061  0.6400525394130696   F   F   F
  0.5839056043287272  0.9375317478355996  0.5463874376679740   F   F   F
  0.4117917755700162  0.8128852851509478  0.6393630839056286   F   F   F
  0.2475828616666291  0.5740439161433954  0.6287387532998778   F   F   F
  0.5825054018313125  0.0617756804426577  0.5454339954643928   F   F   F
  0.9157859720849331  0.1868168335118625  0.4531974414691362   F   F   F
  0.1685862043103157  0.2482732048585916  0.5931783765520819   F   F   F
  0.4993924919669936  0.1256755294476051  0.4990191276646385   F   F   F
  0.9996165867568294  0.4983620119635859  0.5940984393513631   F   F   F
  0.5795900451194740  0.1849107886110559  0.5504449024900069   F   F   F
  0.9998413457676563  0.7537086726107916  0.5928676714313852   F   F   F
  0.3340701569297622  0.9998964815843649  0.5919771562314082   F   F   F
  0.9999327492480603  0.9988923390580098  0.5930432868181299   F   F   F
  0.0012034219253891  0.2497968265777217  0.5921756640674118   F   F   F
  0.3331488459371030  0.4962994416488229  0.5909947463314111   F   F   F
  0.3346892547515452  0.7408800080217048  0.5901353938829530   F   F   F
  0.6631598999381296  0.2477087127034352  0.5903388960713087   F   F   F
  0.6661906544765017  0.0011766139336942  0.5919243810126105   F   F   F
  0.6651863022416507  0.7413834678857540  0.5909788783160934   F   F   F
  0.6665922027735007  0.4946562239768966  0.5914878731554438   F   F   F
  0.5825015958761028  0.9372044606431515  0.4545063632520154   F   F   F
  0.9153613762020427  0.4373942743363841  0.5457387961351401   F   F   F
  0.7768622084754000  0.1587296148115200  0.7815382452249815   T   T   T
  0.2482646041160876  0.4359176728415264  0.5491463058720143   F   F   F
  0.1654461590037499  0.5033973546284614  0.5872445440362739   F   F   F
  0.3345444074032855  0.2545724404257399  0.5926603358605220   F   F   F
  0.4997792137493349  0.0001269599090676  0.5911171895373215   F   F   F
  0.8326421030018309  0.8740648378401588  0.4987086776532266   F   F   F
  0.7485048586903744  0.9373446141272339  0.6403468554841538   F   F   F
  0.8322070108741357  0.0021235067118610  0.5922676600087300   F   F   F
  0.7484512238873933  0.1836735098987816  0.5509619467016265   F   F   F
  0.4227450229736860  0.6877527349179218  0.5468756103675076   F   F   F
  0.4230977598095720  0.4435828397157238  0.5459523472991066   F   F   F
  0.7521439345369103  0.4353643516686958  0.5490742897155059   F   F   F
  0.5824832528907891  0.3110816318758296  0.5448690204076172   F   F   F
  0.2530724099259629  0.8126715403625084  0.5504733075704351   F   F   F
  0.1675072176243546  0.9983021187423944  0.5923155874634247   F   F   F
  0.1708302121431515  0.7503034501040986  0.5948864901435442   F   F   F
  0.9142426006543261  0.5627135512166745  0.6408556272322770   F   F   F
  0.4164282232391940  0.4355114565124509  0.4539111797745790   F   F   F
  0.5827933564319139  0.0669468117061953  0.6389878063593954   F   F   F
  0.0829401231735929  0.4388841360576379  0.5448579512882148   F   F   F
  0.4176534726509686  0.9349595263854411  0.6397829337962975   F   F   F
  0.7482814756524121  0.0681010641120210  0.6397284301345465   F   F   F
  0.0843590672824348  0.3112186077421555  0.6409185167521017   F   F   F
  0.6664521851738812  0.8743173614265913  0.4988583260591142   F   F   F
  0.0863964816615024  0.5630122553050185  0.6398841085583555   F   F   F
  0.0874283776402223  0.4366502477000154  0.6397401829336715   F   F   F
  0.4176262415057437  0.1874289350660661  0.6397825476097410   F   F   F
  0.0844791892839396  0.9356225761645689  0.6410366629396194   F   F   F
  0.0833900076868304  0.6871302182850343  0.6388553073893988   F   F   F
  0.0841817628686385  0.0602537082200598  0.6421704543318754   F   F   F
  0.8332619108109114  0.5038022894988572  0.5890063057923172   F   F   F
  0.0839053582880140  0.1852431170741653  0.6412449455751030   F   F   F
  0.2400946822560783  0.4423111061360530  0.6416018860935750   F   F   F
  0.4148429368639341  0.4188779255668180  0.6303423390212686   F   F   F
  0.5823898117265713  0.9365692014032021  0.6396418067997374   F   F   F
  0.2521183783784693  0.9303742298851461  0.6374324324579561   F   F   F
  0.9163324725650881  0.6876464357399712  0.6390601061808638   F   F   F
  0.9143593827233900  0.9371428475865571  0.6411015519592596   F   F   F
  0.3971761651753738  0.5506386114742199  0.6519518477367257   F   F   F
  0.2544239806606114  0.6785589007650685  0.6625634587006886   F   F   F
  0.2535897747468994  0.1863825494240459  0.6412865955874238   F   F   F
  0.5793423127863377  0.1928624680697411  0.6455719848496813   F   F   F
  0.0847500788497157  0.8126947498732520  0.6424966067817124   F   F   F
  0.9166666865332829  0.8124999999834799  0.3605200052333331   F   F   F
  0.7455169760611327  0.1949552870892646  0.6468610811026210   F   F   F
  0.8314950554950187  0.2486188752531149  0.5912330140594335   F   F   F
  0.9124143173176407  0.4360919902595910  0.6399724114330709   F   F   F
  0.8304930928202126  0.7510011375520520  0.5927271077676011   F   F   F
  0.7460940570101258  0.3127572090316022  0.6404749944003640   F   F   F
  0.7525026751390129  0.5689185711851295  0.6356613811253737   F   F   F
  0.5759196522377437  0.6871149889809161  0.6398974354492708   F   F   F
  0.7412546850873625  0.8103760275862584  0.6397739883094289   F   F   F
  0.2492632803337855  0.3137827913119722  0.5459394982512435   F   F   F
  0.5903510813324218  0.5668742800003486  0.6383806113066015   F   F   F
  0.7540260251850484  0.6930501724413247  0.6566437459884895   F   F   F
  0.2510201320696268  0.0594075661890159  0.6423323442314981   F   F   F
  0.9166666865332829  0.5625000000092442  0.3605200052333331   F   F   F
  0.4994875380600092  0.3743025755055598  0.4997919649839702   F   F   F
  0.5001526542582866  0.6210954144774021  0.5000260162827175   F   F   F
  0.8325113103167254  0.6231143267689205  0.5002384992212328   F   F   F
  0.2519893946787519  0.1881937837843637  0.5472185587620402   F   F   F
  0.8324336403217032  0.3730785831936885  0.4997198281812132   F   F   F
  0.9151584590591639  0.3118345825752940  0.6397784157541793   F   F   F
  0.1667215655681673  0.3761876510997482  0.4977068432556351   F   F   F
  0.5808714395405019  0.4399695184061656  0.6468824786332945   F   F   F
  0.8328427743461617  0.1245761836352699  0.5001660957007843   F   F   F
  0.0836886873298894  0.1888238313121846  0.5456898498139537   F   F   F
  0.9167548002426784  0.1860745990933310  0.6398126967802327   F   F   F
  0.9159071411867288  0.4368975784250608  0.4536366511177476   F   F   F
  0.1671087193680378  0.1243311519310240  0.4993386641126136   F   F   F
  0.7484248581660609  0.0598399642089902  0.5446376229526706   F   F   F
  0.4259573130931074  0.3047989844965429  0.6561445170291194   F   F   F
  0.5900729830862232  0.8111757468326601  0.6457194915871014   F   F   F
  0.4201803165081657  0.6762999379717414  0.6339030587037726   F   F   F
  0.7554579619148996  0.4346476661567991  0.6382189480936162   F   F   F
  0.4982012988452169  0.2536127555672820  0.5911957442532483   F   F   F
  0.9159548135704370  0.0626576639818666  0.6413604676363889   F   F   F
  0.1674925831419642  0.6242074289886688  0.5001749152524368   F   F   F
  0.4999277031504974  0.8733359984284519  0.5010098799793141   F   F   F
  0.4159990612981801  0.1913861928132548  0.5466172366424260   F   F   F
  0.9133262565197384  0.8133676743174831  0.6420146869074088   F   F   F
  0.2491777525289933  0.3163840627118049  0.6413366306340791   F   F   F
  0.1677351124506501  0.8732757485683038  0.4998534834113997   F   F   F
  0.0855646679511111  0.6892223615069923  0.5454351515645328   F   F   F
  0.2624660548431024  0.8010848098666514  0.6458327927251304   F   F   F
  0.4169217961781939  0.1872756648968235  0.4536388375489651   F   F   F
  0.5833333134730552  0.9375000000154046  0.3605200052333331   F   F   F
  0.0807903991398717  0.5644295567975277  0.5463631768079864   F   F   F
  0.5833333134730552  0.4374999701794380  0.3605200052333331   F   F   F
  0.5833333134730552  0.1875000000030838  0.3605200052333331   F   F   F
  0.2499999999799343  0.9375000000154046  0.3605200052333331   F   F   F
  0.9166666865332829  0.9375000000154046  0.3605200052333331   F   F   F
  0.2499999999799343  0.6874999999963620  0.3605200052333331   F   F   F
  0.2499999999799343  0.1875000000030838  0.3605200052333331   F   F   F
  0.7499999404149307  0.9375000000154046  0.3605200052333331   F   F   F
  0.7499999404149307  0.6874999999963620  0.3605200052333331   F   F   F
  0.4172328345339196  0.9360472492459593  0.4539990025667464   F   F   F
  0.7499999404149307  0.4374999701794380  0.3605200052333331   F   F   F
  0.9166666865332829  0.6874999999963620  0.3605200052333331   F   F   F
  0.9999940054504108  0.3734085967395160  0.4984383534026620   F   F   F
  0.9166666865332829  0.1875000000030838  0.3605200052333331   F   F   F
  0.4166666269218169  0.9375000000154046  0.3605200052333331   F   F   F
  0.0833333358191695  0.0625000000159659  0.3605200052333331   F   F   F
  0.9152932624292163  0.6868611727656244  0.4533423527547882   F   F   F
  0.6653910047027836  0.3786916617687126  0.5032579665928125   F   F   F
  0.3342799438586326  0.3785638446554813  0.5029895877568649   F   F   F
  0.3354850756706114  0.6256856361296315  0.5036396999921706   F   F   F
  0.9176097106203187  0.0633596876902303  0.5474477323333602   F   F   F
  0.7495032514146018  0.9384222880609201  0.4553479573119716   F   F   F
  0.2499603649763600  0.9361143421548093  0.4539854939312278   F   F   F
  0.2498826887730203  0.1885058784461506  0.4541018351297765   F   F   F
  0.7491213679196633  0.6886507450892054  0.4574081130848100   F   F   F
  0.7499999404149307  0.1875000000030838  0.3605200052333331   F   F   F
  0.5833333134730552  0.0625000000159659  0.3605200052333331   F   F   F
  0.4166666269218169  0.6874999999963620  0.3605200052333331   F   F   F
  0.4166666269218169  0.4374999701794380  0.3605200052333331   F   F   F
  0.2499999999799343  0.4374999701794380  0.3605200052333331   F   F   F
  0.7478384915387579  0.8078638436707308  0.5456055430164710   F   F   F
  0.4169089755224675  0.8104336819199673  0.4549045951542041   F   F   F
  0.5833333134730552  0.6874999999963620  0.3605200052333331   F   F   F
  0.7482828146268474  0.5643202798972382  0.4538422239819155   F   F   F
  0.2520328659404427  0.6875654896054328  0.4559613816833874   F   F   F
  0.0840625849921821  0.9368602107337125  0.4536968171691456   F   F   F
  0.0827246503771093  0.4368056094126800  0.4528243473668638   F   F   F
  0.0839029916874381  0.1865615744290210  0.4529941970600291   F   F   F
  0.9166207060506295  0.8121524601559500  0.4540865341024727   F   F   F
  0.7463212946996123  0.5582144089557559  0.5446688539001130   F   F   F
  0.9161037401386380  0.5622232595016854  0.4540594486508240   F   F   F
  0.9161114727387840  0.0622885608094137  0.4541009649514649   F   F   F
  0.9161605872433469  0.3121487235302567  0.4538701739193343   F   F   F
  0.5827641359196605  0.4396712508481926  0.4564054021142283   F   F   F
  0.5831141040967722  0.1903359776827855  0.4556825433888037   F   F   F
  0.9164527133193872  0.9371208496871617  0.4536608012232080   F   F   F
  0.2505287787839663  0.0620257060254801  0.4542541665798723   F   F   F
  0.5832570237906367  0.0637275074700057  0.4538547412327389   F   F   F
  0.5832391987648435  0.8104808638602705  0.4553493011071055   F   F   F
  0.3336352174606461  0.1256229505487951  0.4985674336688888   F   F   F
  0.0000977118947105  0.8751860597986791  0.4995998026388406   F   F   F
  0.3334513943966755  0.8742377599494517  0.4989248468194845   F   F   F
  0.6658331399959323  0.1262027075865575  0.4999570763275685   F   F   F
  0.2511746785363584  0.4392864700987928  0.4548979661094563   F   F   F
  0.0833333358191695  0.5625000000092442  0.3605200052333331   F   F   F
  0.9166666865332829  0.0625000000159659  0.3605200052333331   F   F   F
  0.7492933604158694  0.8131864874174397  0.4530175078088661   F   F   F
  0.7496557256026009  0.4383832799716316  0.4557834556889375   F   F   F
  0.9154558271830169  0.3123826154013685  0.5466944371541658   F   F   F
  0.4171923469397640  0.6851729127140445  0.4550113495051065   F   F   F
  0.0001561984042056  0.1250961078296200  0.4984507602426618   F   F   F
  0.4158687420263618  0.9372822946918191  0.5459859278700847   F   F   F
  0.5834251509488766  0.3218879344368517  0.6328985034942676   F   F   F
  0.9997206541584518  0.6272540773008046  0.4975844548649135   F   F   F
  0.0866970250336223  0.3135008896938345  0.5471442497483281   F   F   F
  0.0851049060019164  0.8126088101601781  0.5473354613553170   F   F   F
  0.6666666865533486  0.7500000000123208  0.4070133268666680   F   F   F
  0.0000000000000000  0.2500000000190425  0.4070133268666680   F   F   F
  0.0000000000000000  0.4999999999932783  0.4070133268666680   F   F   F
  0.3333333432766779  0.0000000000000000  0.4070133268666680   F   F   F
  0.3333333432766779  0.4999999999932783  0.4070133268666680   F   F   F
  0.3333333432766779  0.7500000000123208  0.4070133268666680   F   F   F
  0.6666666865533486  0.0000000000000000  0.4070133268666680   F   F   F
  0.6666666865533486  0.2500000000190425  0.4070133268666680   F   F   F
  0.6666666865533486  0.4999999999932783  0.4070133268666680   F   F   F
  0.8333332538436267  0.2500000000190425  0.4070133268666680   F   F   F
  0.1666666716383389  0.0000000000000000  0.4070133268666680   F   F   F
  0.5843748747267909  0.3155105590811260  0.4536132517543408   F   F   F
  0.1666666716383389  0.4999999999932783  0.4070133268666680   F   F   F
  0.0833333358191695  0.1875000000030838  0.3605200052333331   F   F   F
  0.9166666865332829  0.4374999701794380  0.3605200052333331   F   F   F
  0.0000000000000000  0.0000000000000000  0.4070133268666680   F   F   F
  0.3333333432766779  0.2500000000190425  0.4070133268666680   F   F   F
  0.0000000000000000  0.7500000000123208  0.4070133268666680   F   F   F
  0.5844679564533664  0.5628802889128153  0.4548408185948318   F   F   F
  0.7492681815639912  0.0642980376544173  0.4533660851800363   F   F   F
  0.8333332538436267  0.0000000000000000  0.4070133268666680   F   F   F
  0.5827548006113119  0.6861701891478518  0.4546490816532582   F   F   F
  0.2517721705663121  0.5646433624063860  0.4536539497659717   F   F   F
  0.1666666716383389  0.2500000000190425  0.4070133268666680   F   F   F
  0.2504486146600371  0.8108235612374841  0.4552959136666672   F   F   F
  0.1666666716383389  0.7500000000123208  0.4070133268666680   F   F   F
  0.6652805621510467  0.6261326365859219  0.5029786967301817   F   F   F
  0.2499999999799343  0.8124999999834799  0.3605200052333331   F   F   F
  0.5000000000021103  0.7500000000123208  0.4070133268666680   F   F   F
  0.9166666865332829  0.3124999999901945  0.3605200052333331   F   F   F
  0.2499999999799343  0.3124999999901945  0.3605200052333331   F   F   F
  0.7473116747254096  0.3141799544080328  0.4547069682355271   F   F   F
  0.5000000000021103  0.4999999999932783  0.4070133268666680   F   F   F
  0.5000000000021103  0.2500000000190425  0.4070133268666680   F   F   F
  0.5833333134730552  0.8124999999834799  0.3605200052333331   F   F   F
  0.7499999404149307  0.3124999999901945  0.3605200052333331   F   F   F
  0.5000000000021103  0.0000000000000000  0.4070133268666680   F   F   F
  0.2499999999799343  0.0625000000159659  0.3605200052333331   F   F   F
  0.7499999404149307  0.0625000000159659  0.3605200052333331   F   F   F
  0.4166666269218169  0.8124999999834799  0.3605200052333331   F   F   F
  0.4166666269218169  0.3124999999901945  0.3605200052333331   F   F   F
  0.7499999404149307  0.8124999999834799  0.3605200052333331   F   F   F
  0.0834875802260697  0.3119348661638526  0.4540463581670622   F   F   F
  0.4168251595711325  0.0615877816539268  0.4553232948911088   F   F   F
  0.4166666269218169  0.5625000000092442  0.3605200052333331   F   F   F
  0.4136931493396432  0.8118615897152779  0.5476494205237827   F   F   F
  0.5833333134730552  0.3124999999901945  0.3605200052333331   F   F   F
  0.0839592409465197  0.5625148032326663  0.4539371627121227   F   F   F
  0.4166666269218169  0.0625000000159659  0.3605200052333331   F   F   F
  0.0837211762950432  0.0618876883767143  0.4542019119833256   F   F   F
  0.0834654213984081  0.8121638944169760  0.4541536024803108   F   F   F
  0.4159132529510998  0.5596147943498551  0.4578089616279968   F   F   F
  0.4166666269218169  0.1875000000030838  0.3605200052333331   F   F   F
  0.0833333358191695  0.9375000000154046  0.3605200052333331   F   F   F
  0.0833333358191695  0.8124999999834799  0.3605200052333331   F   F   F
  0.0833333358191695  0.4374999701794380  0.3605200052333331   F   F   F
  0.8333332538436267  0.7500000000123208  0.4070133268666680   F   F   F
  0.4155103680773067  0.3114072015535925  0.4573636810968438   F   F   F
  0.2499999999799343  0.5625000000092442  0.3605200052333331   F   F   F
  0.7499999404149307  0.5625000000092442  0.3605200052333331   F   F   F
  0.0833333358191695  0.6874999999963620  0.3605200052333331   F   F   F
  0.2522643270147142  0.3141797835212472  0.4541603613508087   F   F   F
  0.2510818352884030  0.0625437478081423  0.5472681312379635   F   F   F
  0.8333332538436267  0.4999999999932783  0.4070133268666680   F   F   F
  0.5833333134730552  0.5625000000092442  0.3605200052333331   F   F   F
  0.8333332538436267  0.1249999999871179  0.4070133268666680   F   F   F
  0.1666666716383389  0.8749999404036828  0.4070133268666680   F   F   F
  0.3316438681560072  0.1197109092049971  0.6129249813322346   F   F   F
  0.6656060647982613  0.1250674100126261  0.6100360315054161   F   F   F
  0.5004311493492324  0.1226770856217385  0.6068560515706594   F   F   F
  0.5000000000021103  0.1249999999871179  0.4070133268666680   F   F   F
  0.9998205251903229  0.6237481063598622  0.6236589271676038   F   F   F
  0.5000000000021103  0.8749999404036828  0.4070133268666680   F   F   F
  0.8361037295037690  0.5000072095865917  0.5028943469908569   F   F   F
  0.5000000000021103  0.6249999999803961  0.4070133268666680   F   F   F
  0.8319305181185115  0.8768659812039772  0.6175065071900931   F   F   F
  0.1634746140899281  0.4998483479079425  0.5019895185860932   F   F   F
  0.8333332538436267  0.3750000000061604  0.4070133268666680   F   F   F
  0.6664149076266028  0.6260115352337294  0.5929062905165310   F   F   F
  0.1666666716383389  0.6249999999803961  0.4070133268666680   F   F   F
  0.8361571227375180  0.7516338467042019  0.5026408243654004   F   F   F
  0.0003560464966483  0.3750842682401370  0.6248945782937838   F   F   F
  0.0000000000000000  0.3750000000061604  0.4070133268666680   F   F   F
  0.6709955874542928  0.3727690017824372  0.5932220373971404   F   F   F
  0.8375106515141297  0.3723893260027040  0.6039830877093522   F   F   F
  0.9991444700114585  0.8748447296061173  0.6236019026677866   F   F   F
  0.8345378657008311  0.1243749873853588  0.6151352389673832   F   F   F
  0.6654193904043098  0.8816004676999114  0.6071378143277357   F   F   F
  0.1633227105140449  0.3712372328766520  0.6074953387174773   F   F   F
  0.1678650336421086  0.1226284540088400  0.6217679908655995   F   F   F
  0.1596602110260079  0.6275245516098167  0.6013660511398342   F   F   F
  0.3340611918780425  0.6247595380677140  0.5949840943406528   F   F   F
  0.1664941738809347  0.8738027278319578  0.6176626449985179   F   F   F
  0.3347046274224965  0.8789839278236187  0.6025626625956377   F   F   F
  0.6666666865533486  0.8749999404036828  0.4070133268666680   F   F   F
  0.5000000000021103  0.3750000000061604  0.4070133268666680   F   F   F
  0.5035264713489482  0.6249331182194737  0.5942045231295552   F   F   F
  0.1666666716383389  0.1249999999871179  0.4070133268666680   F   F   F
  0.5012454177770209  0.3717516085874664  0.5947993542113110   F   F   F
  0.0000000000000000  0.1249999999871179  0.4070133268666680   F   F   F
  0.8395195044379946  0.6269658570931753  0.6042665724549323   F   F   F
  0.3331727330672436  0.0011453615884918  0.5057297163399639   F   F   F
  0.6666666865533486  0.3750000000061604  0.4070133268666680   F   F   F
  0.5010402606327844  0.7528742375894950  0.5038181553982426   F   F   F
  0.3339734927390907  0.7511662066268912  0.5015186210663174   F   F   F
  0.1644644460496067  0.7514085130375534  0.5034685988477534   F   F   F
  0.6660170815873201  0.0000765058565904  0.5056367155909740   F   F   F
  0.3301427388490694  0.2480219979322982  0.5028649388851179   F   F   F
  0.0008834644447475  0.1226297185814502  0.6196728991559866   F   F   F
  0.8333332538436267  0.6249999999803961  0.4070133268666680   F   F   F
  0.1666666716383389  0.3750000000061604  0.4070133268666680   F   F   F
  0.9999730292821880  0.7511044550305002  0.5067760936054597   F   F   F
  0.5011437375325087  0.8771630441288210  0.6097274047106467   F   F   F
  0.3310924903343064  0.4992778657483257  0.5009309548192533   F   F   F
  0.3259438806052941  0.3735135534440275  0.5927696595397052   F   F   F
  0.6669757559095117  0.2481218935827840  0.5026558167120498   F   F   F
  0.6685906617120523  0.4998995836631153  0.5006427345983084   F   F   F
  0.6654392412201631  0.7518705105389571  0.5022158330585711   F   F   F
  0.0001613310702879  0.9998647059026524  0.5066936135310129   F   F   F
  0.8357101152096931  0.2485447932280351  0.5029146603636505   F   F   F
  0.3333333432766779  0.3750000000061604  0.4070133268666680   F   F   F
  0.5011264338646058  0.4997741618850498  0.5002384546742462   F   F   F
  0.3333333432766779  0.1249999999871179  0.4070133268666680   F   F   F
  0.9995542068432002  0.4998556027816576  0.5067270124376506   F   F   F
  0.1660460500090295  0.0011110352134409  0.5065508842162956   F   F   F
  0.5003025813123401  0.9992730370293188  0.5055457920370046   F   F   F
  0.6666666865533486  0.1249999999871179  0.4070133268666680   F   F   F
  0.8342037816043302  0.0001636027224876  0.5065061718846025   F   F   F
  0.1664337308151573  0.2482158722351429  0.5062755054955872   F   F   F
  0.3333333432766779  0.8749999404036828  0.4070133268666680   F   F   F
  0.3333333432766779  0.6249999999803961  0.4070133268666680   F   F   F
  0.8333332538436267  0.8749999404036828  0.4070133268666680   F   F   F
  0.6666666865533486  0.6249999999803961  0.4070133268666680   F   F   F
  0.0010198755514992  0.2498476934261689  0.5060735227903379   F   F   F
  0.5010334141566162  0.2480037055148330  0.5021770836250994   F   F   F
  0.0000000000000000  0.8749999404036828  0.4070133268666680   F   F   F
  0.0000000000000000  0.6249999999803961  0.4070133268666680   F   F   F
  0.0833333358191695  0.2500000000190425  0.4070133268666680   F   F   F
  0.0833333358191695  0.4999999999932783  0.4070133268666680   F   F   F
  0.0836132979797100  0.9985167819686680  0.6036734811456768   F   F   F
  0.0833333358191695  0.7500000000123208  0.4070133268666680   F   F   F
  0.9185084494097282  0.3742040123668176  0.5059514287668208   F   F   F
  0.7522430129307480  0.7525578571237475  0.5906276134042230   F   F   F
  0.5838431942947793  0.8758777797712654  0.5057630868231371   F   F   F
  0.4166666269218169  0.4999999999932783  0.4070133268666680   F   F   F
  0.0833333358191695  0.0000000000000000  0.4070133268666680   F   F   F
  0.9166666865332829  0.7500000000123208  0.4070133268666680   F   F   F
  0.9182746186693294  0.4999167471525610  0.6038492899276378   F   F   F