Au  C  O Sr Ti                          
   1.00000000000000     
    23.6707801818999997    0.0000000000000000    0.0000000000000000
     0.0000000000000000   22.3170261383000010    0.0000000000000000
     0.0000000000000000    0.0000000000000000   30.0000000000000000
   Au   C    O    Sr   Ti
    50     2   266    72    72
Selective dynamics
Direct
  0.7138692066210520  0.5246302546773651  0.7525236042094298   T   T   T
  0.5473634841099090  0.2161321874985239  0.7088548720702583   T   T   T
  0.6207720810984089  0.5711500340735817  0.7038658535370426   T   T   T
  0.7788952346966337  0.2776486549935939  0.6977567762127294   T   T   T
  0.2929187551969713  0.7466388654994841  0.6968826716607422   T   T   T
  0.5093159791442082  0.6065207275686874  0.7774165475672292   T   T   T
  0.5781551741034289  0.7256552615832568  0.7940346159992305   T   T   T
  0.2391734263208088  0.4699853146361826  0.7093608059361627   T   T   T
  0.2847960709436976  0.6631410772628082  0.7644145632318686   T   T   T
  0.5959333253271855  0.2970908614892987  0.7854976822427605   T   T   T
  0.5135360459909848  0.4841603921317979  0.6776675614885651   T   T   T
  0.2889164006283038  0.5391946098412719  0.7771803115463285   T   T   T
  0.5594517727553535  0.4890221713976318  0.7623402158284857   T   T   T
  0.7616713394725775  0.4288118255801018  0.7053530306366628   T   T   T
  0.4630492478064313  0.6977185771849242  0.8318656053842204   T   T   T
  0.4318039612767509  0.2276570441053045  0.6986377289654194   T   T   T
  0.3669385157335402  0.3004676317753684  0.7566659660312075   T   T   T
  0.3475887917818724  0.5002030420389176  0.6967611317377885   T   T   T
  0.4237450297280188  0.3734551556831147  0.8183951509517737   T   T   T
  0.5961030872714809  0.7844152433249268  0.7129587345928778   T   T   T
  0.6326819450254627  0.5846188004915546  0.7994303129582826   T   T   T
  0.7325956324473419  0.6152094384083907  0.6939164445921405   T   T   T
  0.4854811825977374  0.7759944524666224  0.7549095061908426   T   T   T
  0.5414426339538827  0.3876582437093448  0.8302282140100008   T   T   T
  0.4814556625788856  0.2730445693028902  0.7745710286714064   T   T   T
  0.3912481753473075  0.8167267868980942  0.7065129189850161   T   T   T
  0.4619334247497036  0.5757721491930711  0.8654571477388551   T   T   T
  0.4518471178334207  0.5791652753209591  0.7031705275208782   T   T   T
  0.7064288483238792  0.7569118712799970  0.6884825643292377   T   T   T
  0.6502416855207230  0.4401674115212777  0.8120644633316840   T   T   T
  0.3682576519444927  0.6204552482776757  0.8202172243368462   T   T   T
  0.5676383474431731  0.5108623027648175  0.8570174953258519   T   T   T
  0.4673852845556878  0.4538087902775281  0.8821791172361529   T   T   T
  0.5191387298848618  0.3782454246155485  0.7323509955294338   T   T   T
  0.2808194672704217  0.3411675334088660  0.7022337923373446   T   T   T
  0.6693047250372341  0.6813345790349602  0.7489957313309317   T   T   T
  0.3966704403369608  0.3818252647868519  0.6905702736872071   T   T   T
  0.6199437020128146  0.3161351046784021  0.6950738723967379   T   T   T
  0.6677152932255358  0.2184355501338093  0.7388523590363799   T   T   T
  0.3230025268358157  0.4165740821962577  0.7699945538938016   T   T   T
  0.3738276557665501  0.7405472775438351  0.7791880871746325   T   T   T
  0.3745215805482603  0.4953381993989948  0.8329569475119987   T   T   T
  0.4411080369774993  0.4715120724655950  0.7552976976875324   T   T   T
  0.5395969152228144  0.6679978014880201  0.7017216996119785   T   T   T
  0.6458911256042587  0.4439666568693488  0.6961274488084218   T   T   T
  0.5643747713624448  0.6405752961919161  0.8618545557380407   T   T   T
  0.2569587552636772  0.5939391300844911  0.6941453911303856   T   T   T
  0.7696946032849142  0.4285026586652910  0.7957900190713421   T   T   T
  0.6990096045326242  0.3433625495791811  0.7594541787169978   T   T   T
  0.4149070311947505  0.6949296049960284  0.6998213186538824   T   T   T
  0.6962842449287677  0.1346911212632966  0.7414830571997050   T   T   T
  0.8112130147921398  0.2449687763856930  0.7502267683216095   T   T   T
  0.0838678333218602  0.9367026032324161  0.4534535163810188   T   T   T
  0.0838402274620892  0.1865539797216423  0.4529722889844883   T   T   T
  0.0833333358191695  0.3124999999901945  0.3605200052333331   F   F   F
  0.0827883001561797  0.4367892835027710  0.4528407166831846   T   T   T
  0.0843150407037399  0.6869683347261278  0.4531387522042667   T   T   T
  0.7496546238683612  0.4388323895590541  0.4549746752061145   T   T   T
  0.4171000965893247  0.6846631177192447  0.4547823092929770   T   T   T
  0.4170682173584556  0.9359264629668883  0.4540067768902827   T   T   T
  0.7500124226996158  0.1878434138031613  0.4537096278976648   T   T   T
  0.9161144329987613  0.5621778391905685  0.4541079388979434   T   T   T
  0.7492606985145469  0.6888957143352602  0.4571949850055885   T   T   T
  0.4176350744405491  0.4353517160399252  0.4542173397748280   T   T   T
  0.9162870820041819  0.0620048490484063  0.4540548097818122   T   T   T
  0.6662252726954127  0.1256008064172371  0.4996513655019693   T   T   T
  0.4170104418826623  0.1872897193568647  0.4538420368935397   T   T   T
  0.2520736238945732  0.6875747062038462  0.4561024928207472   T   T   T
  0.9164354758386987  0.9368957692761325  0.4534536961202331   T   T   T
  0.5832281335645149  0.1902697044726507  0.4556308451004429   T   T   T
 -0.0000974863846268  0.1250618006164397  0.4984623605830826   T   T   T
  0.5832936278850600  0.8105163791750309  0.4553575335076262   T   T   T
  0.9998332754223633  0.3737304538064053  0.4981446922654783   T   T   T
 -0.0002880849790547  0.6271903694103705  0.4976086659729685   T   T   T
  0.3338869112304134  0.1257131908631323  0.4989686443202426   T   T   T
  0.0001262689140781  0.8747941653960213  0.4993335198008440   T   T   T
  0.3334421298386919  0.8736764522691671  0.4990213964247594   T   T   T
  0.2510652859477142  0.4391293192577159  0.4550214894372509   T   T   T
  0.0833333358191695  0.5625000000092442  0.3605200052333331   F   F   F
  0.7496125506711280  0.9377189569137666  0.4549642170122636   T   T   T
  0.9163883604647608  0.3122511087261619  0.4537642628636647   T   T   T
  0.2501167404935100  0.1884702418003532  0.4541132476397319   T   T   T
  0.5833837775252976  0.0635950802426776  0.4540583623502273   T   T   T
  0.3355579145359929  0.6255133810058979  0.5037964765808662   T   T   T
  0.5827803380817921  0.9371842090258048  0.4543319940544137   T   T   T
  0.5826849707792816  0.6861437835399932  0.4545916739165656   T   T   T
  0.5822576019270161  0.4395650578925714  0.4562940141877248   T   T   T
  0.2500034480954844  0.9360332038728101  0.4540299631070809   T   T   T
  0.6653991909555159  0.6265410011966583  0.5027520350684411   T   T   T
  0.5845918809715750  0.5628643640185849  0.4547928527349488   T   T   T
  0.7118489999480511  0.0865342720047625  0.7448799286911586   T   T   T
  0.9166666865332829  0.6874999999963620  0.3605200052333331   F   F   F
  0.9166666865332829  0.4374999701794380  0.3605200052333331   F   F   F
  0.9166666865332829  0.1875000000030838  0.3605200052333331   F   F   F
  0.5833333134730552  0.9375000000154046  0.3605200052333331   F   F   F
  0.5833333134730552  0.6874999999963620  0.3605200052333331   F   F   F
  0.5833333134730552  0.4374999701794380  0.3605200052333331   F   F   F
  0.5833333134730552  0.1875000000030838  0.3605200052333331   F   F   F
  0.9167126594065792  0.0629005185313667  0.5471564505347124   T   T   T
  0.2499999999799343  0.9375000000154046  0.3605200052333331   F   F   F
  0.2499999999799343  0.6874999999963620  0.3605200052333331   F   F   F
  0.2499999999799343  0.1875000000030838  0.3605200052333331   F   F   F
  0.7499999404149307  0.9375000000154046  0.3605200052333331   F   F   F
  0.7499999404149307  0.6874999999963620  0.3605200052333331   F   F   F
  0.7499999404149307  0.4374999701794380  0.3605200052333331   F   F   F
  0.7499999404149307  0.1875000000030838  0.3605200052333331   F   F   F
  0.4166666269218169  0.9375000000154046  0.3605200052333331   F   F   F
  0.4166666269218169  0.6874999999963620  0.3605200052333331   F   F   F
  0.4166666269218169  0.4374999701794380  0.3605200052333331   F   F   F
  0.2499999999799343  0.4374999701794380  0.3605200052333331   F   F   F
  0.0833333358191695  0.0625000000159659  0.3605200052333331   F   F   F
  0.9153533393815096  0.6867684682969345  0.4531476184581202   T   T   T
  0.6657447908408912  0.3797969006788594  0.5027518096395799   T   T   T
  0.3346226497763087  0.3783184139011214  0.5031251471742236   T   T   T
  0.9166666865332829  0.9375000000154046  0.3605200052333331   F   F   F
  0.9166666865332829  0.0625000000159659  0.3605200052333331   F   F   F
  0.1666666716383389  0.4999999999932783  0.4070133268666680   F   F   F
  0.2505013814361559  0.0620808017300328  0.4542945454087450   T   T   T
  0.5833333134730552  0.8124999999834799  0.3605200052333331   F   F   F
  0.5833333134730552  0.3124999999901945  0.3605200052333331   F   F   F
  0.5833333134730552  0.0625000000159659  0.3605200052333331   F   F   F
  0.2499999999799343  0.8124999999834799  0.3605200052333331   F   F   F
  0.2499999999799343  0.5625000000092442  0.3605200052333331   F   F   F
  0.2499999999799343  0.3124999999901945  0.3605200052333331   F   F   F
  0.2499999999799343  0.0625000000159659  0.3605200052333331   F   F   F
  0.7499999404149307  0.5625000000092442  0.3605200052333331   F   F   F
  0.7499999404149307  0.3124999999901945  0.3605200052333331   F   F   F
  0.7499999404149307  0.0625000000159659  0.3605200052333331   F   F   F
  0.4166666269218169  0.8124999999834799  0.3605200052333331   F   F   F
  0.4166666269218169  0.5625000000092442  0.3605200052333331   F   F   F
  0.4166666269218169  0.3124999999901945  0.3605200052333331   F   F   F
  0.7499999404149307  0.8124999999834799  0.3605200052333331   F   F   F
  0.0834876158681235  0.3119781588010998  0.4540304149068152   T   T   T
  0.4166666269218169  0.0625000000159659  0.3605200052333331   F   F   F
  0.4169985045796474  0.0616667035659542  0.4553861483259974   T   T   T
  0.0835322811021581  0.8121072074164549  0.4541572878483404   T   T   T
  0.0839592116346619  0.5624839585373841  0.4539586334217437   T   T   T
  0.4159097766725196  0.5594067548273441  0.4578416282500464   T   T   T
  0.0837008509589152  0.0618894814204247  0.4542469529375541   T   T   T
  0.4155830759636596  0.3113664561038704  0.4573566670308263   T   T   T
  0.8333332538436267  0.7500000000123208  0.4070133268666680   F   F   F
  0.0833333358191695  0.4374999701794380  0.3605200052333331   F   F   F
  0.0833333358191695  0.6874999999963620  0.3605200052333331   F   F   F
  0.0833333358191695  0.9375000000154046  0.3605200052333331   F   F   F
  0.4166666269218169  0.1875000000030838  0.3605200052333331   F   F   F
  0.0833333358191695  0.8124999999834799  0.3605200052333331   F   F   F
  0.8333332538436267  0.4999999999932783  0.4070133268666680   F   F   F
  0.7494855571568946  0.0629759217607383  0.4537704479196771   T   T   T
  0.5833333134730552  0.5625000000092442  0.3605200052333331   F   F   F
  0.4170301037487844  0.8100252159335984  0.4550487843990019   T   T   T
  0.0000000000000000  0.7500000000123208  0.4070133268666680   F   F   F
  0.9156853256818389  0.3129274607156796  0.5469142480833183   T   T   T
  0.2523157696484764  0.3141186756554590  0.4541588550073348   T   T   T
  0.2518131238068429  0.5645391204432260  0.4538142105659739   T   T   T
  0.2502085913733225  0.8106909517927974  0.4553446831724298   T   T   T
  0.8333332538436267  0.2500000000190425  0.4070133268666680   F   F   F
  0.5844863641077025  0.3156490775288518  0.4534482910692477   T   T   T
  0.8333332538436267  0.0000000000000000  0.4070133268666680   F   F   F
  0.5000000000021103  0.4999999999932783  0.4070133268666680   F   F   F
  0.0833333358191695  0.1875000000030838  0.3605200052333331   F   F   F
  0.0000000000000000  0.0000000000000000  0.4070133268666680   F   F   F
  0.0000000000000000  0.2500000000190425  0.4070133268666680   F   F   F
  0.0000000000000000  0.4999999999932783  0.4070133268666680   F   F   F
  0.7481972687065984  0.5646076487268439  0.4536698248292953   T   T   T
  0.3333333432766779  0.0000000000000000  0.4070133268666680   F   F   F
  0.7491511916427501  0.8131521133752604  0.4532143080521427   T   T   T
  0.3333333432766779  0.4999999999932783  0.4070133268666680   F   F   F
  0.6666666865533486  0.0000000000000000  0.4070133268666680   F   F   F
  0.6666666865533486  0.2500000000190425  0.4070133268666680   F   F   F
  0.6666666865533486  0.4999999999932783  0.4070133268666680   F   F   F
  0.6666666865533486  0.7500000000123208  0.4070133268666680   F   F   F
  0.1666666716383389  0.0000000000000000  0.4070133268666680   F   F   F
  0.1666666716383389  0.2500000000190425  0.4070133268666680   F   F   F
  0.9161389786733969  0.1866625141280600  0.4530111823884434   T   T   T
  0.1666666716383389  0.7500000000123208  0.4070133268666680   F   F   F
  0.5000000000021103  0.0000000000000000  0.4070133268666680   F   F   F
  0.5000000000021103  0.2500000000190425  0.4070133268666680   F   F   F
  0.5000000000021103  0.7500000000123208  0.4070133268666680   F   F   F
  0.9166666865332829  0.3124999999901945  0.3605200052333331   F   F   F
  0.3333333432766779  0.2500000000190425  0.4070133268666680   F   F   F
  0.7474615735200435  0.3137836416785055  0.4542769894704044   T   T   T
  0.3333333432766779  0.7500000000123208  0.4070133268666680   F   F   F
  0.9161898609204332  0.4371433744732893  0.4534826031650042   T   T   T
  0.9165101694129212  0.8120358270899904  0.4540901878479398   T   T   T
  0.7492713232931679  0.0616874079737075  0.5459817957329568   T   T   T
  0.7518824268514372  0.6807777504008492  0.5530860572355936   T   T   T
  0.7532731222795056  0.4366061905304072  0.5481481338484439   T   T   T
  0.4232937396335490  0.4432031892039424  0.5460942283463031   T   T   T
  0.4230010272334975  0.6875549112674003  0.5468090661260546   T   T   T
  0.7502507380786588  0.1869161664467751  0.5465995794374723   T   T   T
  0.4159226093921953  0.9369726193661299  0.5460463534821244   T   T   T
  0.5008223963736274  0.2539049863323427  0.5917874976956562   T   T   T
  0.4176657883008596  0.1907119155425108  0.5474494373056378   T   T   T
  0.0859934761743611  0.6891520708135220  0.5453011739898269   T   T   T
  0.0826841084442751  0.4387540399510390  0.5447021340666968   T   T   T
  0.0830707733515586  0.1890889823475163  0.5454507961061601   T   T   T
  0.4999429321293578  0.1256209723876519  0.4995129745018597   T   T   T
  0.9991209844513887  0.4976682292911902  0.5943119274751949   T   T   T
  0.5816649415162082  0.1851483873504777  0.5504877702935660   T   T   T
  0.7486174781699606  0.9346943597728968  0.5471408600401417   T   T   T
  0.0000140008903075  0.7532865464985981  0.5923441526061234   T   T   T
  0.9998609629793490  0.9979227658258318  0.5924261940637158   T   T   T
  0.9990373432705185  0.2483324837723387  0.5927182319017036   T   T   T
  0.3331429890580611  0.4956331283517983  0.5910915405114910   T   T   T
  0.3354879221054328  0.7410564014892682  0.5903821042229878   T   T   T
  0.6663095211649217  0.2459296558342347  0.5911978170041150   T   T   T
  0.6659110701328484 -0.0001771600092317  0.5918628954921510   T   T   T
  0.6656686543345550  0.7415530952983720  0.5904042246220566   T   T   T
  0.6668750197855027  0.4931479648274906  0.5909956502123579   T   T   T
  0.1673317453739093  0.9984875322230056  0.5922766649518902   T   T   T
  0.1679105074622587  0.2493028854932828  0.5931514111372305   T   T   T
  0.1707120881816659  0.7500630536754807  0.5949200237799253   T   T   T
  0.2483534902795914  0.4356372464940201  0.5491337117451546   T   T   T
  0.1653005073491301  0.5024133955289826  0.5870351051761731   T   T   T
  0.3351162912787005  0.2538795650200438  0.5924098194612734   T   T   T
  0.3340140694554973  0.9998775062091263  0.5919615697909822   T   T   T
  0.4997072466015548  0.0000112587799712  0.5911480201963952   T   T   T
  0.2490900947187825  0.6830934653570954  0.5519188729559721   T   T   T
  0.9155556351054814  0.8127857435483725  0.5469973148393367   T   T   T
  0.1669483529027773  0.1247952681577617  0.4995637623783066   T   T   T
  0.4144283598109639  0.8116182296288231  0.5478431243842183   T   T   T
  0.2510312972446511  0.0626288887025137  0.5472142104348670   T   T   T
  0.7461490387504748  0.5586494665521367  0.5445655159752016   T   T   T
  0.7482436128412290  0.8083614225995741  0.5457970776071976   T   T   T
  0.2496079244906317  0.3135117187409510  0.5459199548947995   T   T   T
  0.5848482041615416  0.3102220360841849  0.5448081753925379   T   T   T
  0.2531165765382148  0.8124365362068784  0.5507599637639478   T   T   T
  0.5829965492942220  0.0622170027547814  0.5458962336126197   T   T   T
  0.5857332523575471  0.8142111377190399  0.5503654516350567   T   T   T
  0.7482106860256271  0.3137806339575242  0.5470299548863812   T   T   T
  0.5817607982761730  0.5598003886319952  0.5488743003996459   T   T   T
  0.2524090584970293  0.5589412309535920  0.5439623744478324   T   T   T
  0.4165491902530045  0.3187091225029200  0.5526444329592607   T   T   T
  0.0836476771671917  0.9388766113887905  0.5456047903960959   T   T   T
  0.5764534940681163  0.4354408621316134  0.5520437410948823   T   T   T
  0.0850394087251531  0.8127741490655669  0.5473633745322730   T   T   T
  0.0807473005730638  0.5642891488963874  0.5464253566801995   T   T   T
  0.0846543456669536  0.3133189262471612  0.5471041510047677   T   T   T
  0.0823639972621596  0.0632464681280464  0.5474675302354016   T   T   T
  0.9159876008398344  0.9382694597962358  0.5460413640907367   T   T   T
  0.9142497563775474  0.6889217720931402  0.5453832359477259   T   T   T
  0.5837655432293578  0.9377444178188264  0.5461817593142765   T   T   T
  0.9160797780681734  0.1882940724998611  0.5454196152340665   T   T   T
  0.9152524178816531  0.4376051761921946  0.5455781853517845   T   T   T
  0.5793134619067412  0.6858958214492398  0.5474451466288701   T   T   T
  0.2515266286002021  0.9372457024143502  0.5451896929184051   T   T   T
  0.4974037593750191  0.5044039523085156  0.6089073556942958   T   T   T
  0.9179490150592767  0.5638887319757222  0.5472603550414832   T   T   T
  0.4198399200728993  0.5645248436165774  0.5553739535778797   T   T   T
  0.4167426381131299  0.0650052246407457  0.5473252927153205   T   T   T
  0.8326654908869682  0.8743332914046732  0.4987294177265289   T   T   T
  0.8277954122581721  0.2232010166009099  0.7824141935050700   T   T   T
  0.8323353393427072 -0.0018255027353328  0.5922819886570555   T   T   T
  0.7552410009260889  0.4364692126475635  0.6387415061378703   T   T   T
  0.4173247931706338  0.9349618106484494  0.6397864321244486   T   T   T
  0.4203725335884385  0.6755483552851553  0.6336884947182260   T   T   T
  0.5909686287919000  0.8097446311499101  0.6459937675756421   T   T   T
  0.9161973271646424  0.0609871354210626  0.6406911388271116   T   T   T
  0.9138804331920490  0.5616382126170018  0.6413839549370143   T   T   T
  0.9128718711577136  0.3108409538790921  0.6406141556078113   T   T   T
  0.9147007411136933  0.8122469305215821  0.6425502675154798   T   T   T
  0.5829827603628068  0.0655947639514780  0.6391514133845346   T   T   T
  0.5890491195514806  0.3212530469022765  0.6324729052535618   T   T   T
  0.5913348018419481  0.5648379822285770  0.6386515382634965   T   T   T
  0.2475431099449680  0.5735186621267937  0.6285505518625980   T   T   T
  0.7544031161266039  0.6926403253505100  0.6573498039714426   T   T   T
  0.2620448017460333  0.7997676982469939  0.6462675874473885   T   T   T
  0.7497936030851083  0.1863312987110577  0.6414122911903447   T   T   T
  0.9166666865332829  0.5625000000092442  0.3605200052333331   F   F   F
  0.5000032551427472  0.8734608470329590  0.5008772181874021   T   T   T
  0.5002917000020185  0.6208184505516385  0.5000956304007174   T   T   T
  0.8324503766692298  0.6230769739668661  0.5001931212934310   T   T   T
  0.2517397676437807  0.1883896544788838  0.5471104104444415   T   T   T
  0.8331780082555582  0.3733732385414424  0.4988459008474446   T   T   T
  0.8330529769770250  0.1239475773825925  0.4990018429091431   T   T   T
  0.1665267522680999  0.3755645455907057  0.4980528266732768   T   T   T
  0.1675839561912980  0.6240933416911304  0.5001197258869554   T   T   T
  0.5800791370528866  0.4376693188467433  0.6462007356381981   T   T   T
  0.5779398970046321  0.6853744605279075  0.6395011948740752   T   T   T
  0.9132890107016260  0.1848707106430056  0.6401648418883307   T   T   T
  0.2496551044436904  0.3167963367987752  0.6407452773537738   T   T   T
  0.1677143509017739  0.8732950173107410  0.4998447789919052   T   T   T
  0.7477003916210090  0.9337150614122994  0.6401775483091134   T   T   T
  0.4999632476826915  0.3726786061569582  0.5007895918125024   T   T   T
  0.2531304146982581  0.1864883758632025  0.6409044606137492   T   T   T
  0.2508496555740197  0.0595084393245228  0.6420967817318657   T   T   T
  0.8306498171557145  0.7510792365612597  0.5929145154757137   T   T   T
  0.4176730083174507  0.0652059437116586  0.6400596719807339   T   T   T
  0.5817807696946747  0.9350368667267964  0.6394959830703462   T   T   T
  0.5007312044037113  0.7561617223270223  0.5927376390408279   T   T   T
  0.4246750424255693  0.3039021259999163  0.6555132105398717   T   T   T
  0.4128464253980185  0.8124124462641759  0.6396028194783634   T   T   T
  0.3972958149432235  0.5503466964234196  0.6519320297598032   T   T   T
  0.7517449055149904  0.5708806682551277  0.6342962995053755   T   T   T
  0.7411430897454662  0.8095614033616715  0.6400762526276786   T   T   T
  0.7489411681846548  0.3126011288442247  0.6419724466211074   T   T   T
  0.0827125754700588  0.3112348645597544  0.6403762245665968   T   T   T
  0.6664500378423577  0.8745052864338269  0.4991641883245153   T   T   T
  0.0862950623796681  0.5616828983542990  0.6398782473828527   T   T   T
  0.0830578958906787  0.0606267216589410  0.6415565794827806   T   T   T
  0.0867333941983116  0.4355855302020170  0.6396130093385978   T   T   T
  0.0833539081691903  0.1853501477409515  0.6409359999438898   T   T   T
  0.7484976096713536  0.0625873297687957  0.6400701627528838   T   T   T
  0.5799393578152918  0.1915805087359748  0.6456229957122004   T   T   T
  0.4179435739634280  0.1872377599512251  0.6398136544682150   T   T   T
  0.9166666865332829  0.8124999999834799  0.3605200052333331   F   F   F
  0.0849788460218100  0.8119336795802843  0.6425967435139956   T   T   T
  0.2519891203900448  0.9302856447629678  0.6373554291546566   T   T   T
  0.2544684012186394  0.6780249391491131  0.6620328013684805   T   T   T
  0.8330452842998183  0.5039310640425675  0.5890155262285104   T   T   T
  0.2392876850317628  0.4422433556460139  0.6419151038010692   T   T   T
  0.8313505594750856  0.2494854492201423  0.5908853388691994   T   T   T
  0.9165908221190012  0.6869763674064127  0.6387553578736862   T   T   T
  0.9108896236319420  0.4348058274327009  0.6396992816120723   T   T   T
  0.0830168123777566  0.6865148693359715  0.6387632184203451   T   T   T
  0.0845910819989468  0.9356149578566944  0.6407854912176192   T   T   T
  0.4155824082789154  0.4181500638671891  0.6302208159454068   T   T   T
  0.9154051860535375  0.9358717601758832  0.6414308983150804   T   T   T
  0.9993963736244157  0.1231972523914894  0.6195695804747633   T   T   T
  0.1666666716383389  0.3750000000061604  0.4070133268666680   F   F   F
  0.1659309656765815  0.0011528514222310  0.5064891539257916   T   T   T
  0.8333332538436267  0.6249999999803961  0.4070133268666680   F   F   F
  0.5010233670370476  0.7527559756767993  0.5039523809672907   T   T   T
  0.1644178474662363  0.7513412363493909  0.5033567919554163   T   T   T
  0.9992646365740131  0.4998474397871379  0.5067613163801931   T   T   T
  0.6680041506016453  0.2474859865152990  0.5035186968210488   T   T   T
  0.3302477346243935  0.2479477618050356  0.5026599130872095   T   T   T
  0.3330904979681958  0.0010538918414992  0.5057280142350277   T   T   T
  0.3338712577400958  0.7510618177602770  0.5015410332195053   T   T   T
  0.6690179398300278  0.4995031339632295  0.5004762643491498   T   T   T
  0.6662631792634643  0.0002994562755794  0.5056045319468160   T   T   T
  0.3311103662095553  0.4989885924800032  0.5009910745294276   T   T   T
  0.5012800034359124  0.4995664223736250  0.5003674729754272   T   T   T
  0.8338202960843993  0.2483373229652985  0.5045254143313129   T   T   T
  0.6666666865533486  0.6249999999803961  0.4070133268666680   F   F   F
  0.1659431977393035  0.2482626326456606  0.5062392635520617   T   T   T
  0.0000000000000000  0.8749999404036828  0.4070133268666680   F   F   F
  0.5013970653533542  0.2478834115467707  0.5023971940037952   T   T   T
  0.0000207079191223  0.7508469105464645  0.5065804026074529   T   T   T
  0.9998326995490335  0.2496159938719443  0.5062386164191163   T   T   T
  0.0000023935486195 -0.0000785512407508  0.5063353079293735   T   T   T
  0.8333332538436267  0.8749999404036828  0.4070133268666680   F   F   F
  0.0000000000000000  0.6249999999803961  0.4070133268666680   F   F   F
  0.3333333432766779  0.6249999999803961  0.4070133268666680   F   F   F
  0.3333333432766779  0.1249999999871179  0.4070133268666680   F   F   F
  0.3333333432766779  0.3750000000061604  0.4070133268666680   F   F   F
  0.8341112221223383  0.0000723293639146  0.5061947512957217   T   T   T
  0.3333333432766779  0.8749999404036828  0.4070133268666680   F   F   F
  0.6666666865533486  0.1249999999871179  0.4070133268666680   F   F   F
  0.6666666865533486  0.3750000000061604  0.4070133268666680   F   F   F
  0.8356301847112168  0.4995983123915342  0.5027386458764677   T   T   T
  0.1634746096296668  0.4996150479404146  0.5019274234045625   T   T   T
  0.6654675371268577  0.7517935274573968  0.5022034268226651   T   T   T
  0.6666666865533486  0.8749999404036828  0.4070133268666680   F   F   F
  0.3264485903456000  0.3731648114297527  0.5924308642763161   T   T   T
  0.0000000000000000  0.3750000000061604  0.4070133268666680   F   F   F
  0.3340575604250655  0.6242450575358950  0.5948699238102870   T   T   T
  0.5000000000021103  0.8749999404036828  0.4070133268666680   F   F   F
  0.8333332538436267  0.1249999999871179  0.4070133268666680   F   F   F
  0.8333332538436267  0.3750000000061604  0.4070133268666680   F   F   F
  0.1666666716383389  0.1249999999871179  0.4070133268666680   F   F   F
  0.5000000000021103  0.6249999999803961  0.4070133268666680   F   F   F
  0.8397759128914922  0.6266011344719200  0.6037317879836208   T   T   T
  0.3313454137516648  0.1197535568474288  0.6126684583609217   T   T   T
  0.9999231049159402  0.8740642426379114  0.6232656737689204   T   T   T
  0.5000000000021103  0.1249999999871179  0.4070133268666680   F   F   F
  0.8327392468398724  0.8750834038492065  0.6189330298970909   T   T   T
  0.8356960921230460  0.3717220854675979  0.6018583322482569   T   T   T
  0.5001992892159489  0.9991835910107052  0.5055776011846097   T   T   T
  0.5003728869444285  0.8764011781363694  0.6096493466882504   T   T   T
  0.6664762913848177  0.1213431835044736  0.6091095923905419   T   T   T
  0.8361230434067618  0.7514353463297052  0.5026593388365020   T   T   T
  0.5036239229996766  0.6245221983118788  0.5940641259814570   T   T   T
  0.5000000000021103  0.3750000000061604  0.4070133268666680   F   F   F
  0.1666666716383389  0.6249999999803961  0.4070133268666680   F   F   F
  0.6735182396821220  0.3719995879110937  0.5940393898695473   T   T   T
  0.3345918096597609  0.8785813934296670  0.6030053765485637   T   T   T
  0.1592994641596174  0.6266013289282714  0.6012412593559910   T   T   T
  0.1666666716383389  0.8749999404036828  0.4070133268666680   F   F   F
  0.5027544706880597  0.3707105895593136  0.5953502173977440   T   T   T
  0.5005262839279946  0.1216945906457380  0.6067915357932167   T   T   T
  0.1663719871610929  0.8734668239958658  0.6178561745304377   T   T   T
  0.1628619747845704  0.3705669087065795  0.6075695268120941   T   T   T
  0.6644576596079158  0.8796527789793858  0.6067886130536374   T   T   T
  0.6663095217195902  0.6262160203803835  0.5932263038433823   T   T   T
  0.9985038350512662  0.3740012046644820  0.6234863242720136   T   T   T
  0.9997371944352004  0.6223408381231698  0.6245747238997502   T   T   T
  0.8332041963299893  0.1206265074257820  0.6127432325426104   T   T   T
  0.0000000000000000  0.1249999999871179  0.4070133268666680   F   F   F
  0.1672522306306110  0.1225418202836386  0.6215415965658696   T   T   T
  0.7498043260269996 -0.0018464095018081  0.6042770366714160   T   T   T
  0.5824270944398164  0.0001021042580624  0.6043589091951787   T   T   T
  0.9168424088877752  0.9978651898630204  0.6033835125247462   T   T   T
  0.5845105940202834  0.7493668361388752  0.5996663604439437   T   T   T
  0.5907361011037624  0.5007913240847636  0.5934518539302335   T   T   T
  0.2422400513122111  0.4972955072904567  0.5940691253489152   T   T   T
  0.4165217728636972  0.7500179222556657  0.5945455845957126   T   T   T
  0.5837172222799195  0.2464778008340804  0.5969297154529862   T   T   T
  0.2495720242016173  0.9977277028144929  0.6041479547400774   T   T   T
  0.7504719271856609  0.2424410508599290  0.5992754956100478   T   T   T
  0.2483776273323272  0.2458525749505697  0.6034378552793612   T   T   T
  0.4169930855307203  0.0000758511102927  0.6046931554843289   T   T   T
  0.4142796890655214  0.2485945823576713  0.5914334265799349   T   T   T
  0.2495377164501472  0.7525526655733895  0.5920031585116788   T   T   T
  0.0820849231316328  0.2476876218111803  0.6034635152095844   T   T   T
  0.4168694658802820  0.6260285884381519  0.5010116930274300   T   T   T