Au  C  H  O Sr Ti                       
   1.00000000000000     
    23.6707801818999997    0.0000000000000000    0.0000000000000000
     0.0000000000000000   22.3170261383000010    0.0000000000000000
     0.0000000000000000    0.0000000000000000   30.0000000000000000
   Au   C    H    O    Sr   Ti
    50     2     2   265    72    72
Selective dynamics
Direct
  0.7135391593375554  0.5274509885016364  0.7537856253417349   T   T   T
  0.2934436076399760  0.7470222686973013  0.6965643858983608   T   T   T
  0.5087849456271667  0.6065340227287324  0.7777179442209392   T   T   T
  0.5776039450658628  0.7265187806542603  0.7942892347465209   T   T   T
  0.2395123561469398  0.4698736336386271  0.7092523322230382   T   T   T
  0.2855653699134696  0.6632952980017061  0.7642977594147519   T   T   T
  0.6014310523119943  0.2910367538236375  0.7855163716544249   T   T   T
  0.5135767010720577  0.4841321067481350  0.6776606298517304   T   T   T
  0.5600227698973551  0.4889790974029329  0.7626024981099556   T   T   T
  0.4836803236655017  0.2728378146123127  0.7744400326314832   T   T   T
  0.5458145547001169  0.3851099687658023  0.8276410509392770   T   T   T
  0.5481925213371520  0.2188703089110056  0.7081219755263234   T   T   T
  0.3913595199538340  0.8176751515602371  0.7063445786824862   T   T   T
  0.4312334081884499  0.2281562698626885  0.6986886972766585   T   T   T
  0.3686445833368847  0.3007841593592830  0.7567467985225012   T   T   T
  0.4259444973049825  0.3722159468994462  0.8179611906410116   T   T   T
  0.5958110993739474  0.7848777294078960  0.7128012295021172   T   T   T
  0.6312103724619388  0.5866704088875313  0.7992568470216850   T   T   T
  0.7306718026886239  0.6161498465894260  0.6934713726160350   T   T   T
  0.4854136789536093  0.7771470214092282  0.7548141400843232   T   T   T
  0.7643061193292504  0.4351759586768764  0.7052881286897250   T   T   T
  0.7428623684876672  0.2625036737623538  0.6952406290926163   T   T   T
  0.6203566939764728  0.5704195424283774  0.7035566476245833   T   T   T
  0.4628930469678711  0.6983898476819880  0.8316988231449144   T   T   T
  0.6249883804498524  0.3181355383163519  0.6950038280462499   T   T   T
  0.3478484997577256  0.5009493770051678  0.6972799010349490   T   T   T
  0.7034189777643773  0.3477391648688995  0.7568490844601724   T   T   T
  0.2891221919791960  0.5390302320338460  0.7773730841104298   T   T   T
  0.5693576774664149  0.5107495252969829  0.8567210001402841   T   T   T
  0.6407516521607972  0.1810619088992111  0.7576514047794767   T   T   T
  0.4702501064671719  0.4519731766614565  0.8793909841177933   T   T   T
  0.2814325013260956  0.3398733818054452  0.7027208987227607   T   T   T
  0.6683891697912827  0.6826038180914173  0.7487056644920909   T   T   T
  0.3961126360333753  0.3826582544067865  0.6902799779098243   T   T   T
  0.4512979582842563  0.5791304434460219  0.7036771425690858   T   T   T
  0.3756371003583780  0.4945084087277015  0.8322494459363173   T   T   T
  0.3232941760314939  0.4160409334285506  0.7700372373393470   T   T   T
  0.3688514518178133  0.6199246684926975  0.8198589164239788   T   T   T
  0.5249274136119940  0.3769189130900192  0.7317611432888272   T   T   T
  0.7728106801563032  0.4352125870844196  0.7961324973468000   T   T   T
  0.2563773098991435  0.5939648772457313  0.6945669669363843   T   T   T
  0.6475365653777566  0.4442874208740974  0.6959683221368036   T   T   T
  0.5633820101432897  0.6413704457197158  0.8622238519372311   T   T   T
  0.5399008058909798  0.6675411371550004  0.7021352202522088   T   T   T
  0.4425586446030813  0.4688714275686321  0.7545677790651144   T   T   T
  0.7064152398356618  0.7575321872204620  0.6881562392630191   T   T   T
  0.3739275203453633  0.7413302576525806  0.7791881606334631   T   T   T
  0.4622578049915425  0.5750327483846668  0.8652211215107450   T   T   T
  0.6530682045727509  0.4396991185395400  0.8112941457783970   T   T   T
  0.4162270458725147  0.6958881386792188  0.7000876240278749   T   T   T
  0.7267715727955405  0.1684899501374795  0.7658308654808401   T   T   T
  0.7391383167128359  0.1117483250623678  0.7790282484123935   T   T   T
  0.7096354540033930  0.0849243452529867  0.7977869638446573   T   T   T
  0.7784243192138824  0.0917645604075160  0.7675863853775308   T   T   T
  0.0843553246300787  0.6869648335020784  0.4531489318624163   T   T   T
  0.2520628843916331  0.6875394944779640  0.4560059890814793   T   T   T
  0.0840838421136042  0.9368206097149241  0.4536508472303996   T   T   T
  0.0828023702623648  0.4368295269212736  0.4528233972030267   T   T   T
  0.0838570121314184  0.1865654075266086  0.4529724259813659   T   T   T
  0.9166158098018350  0.8121409477293352  0.4540441061095170   T   T   T
  0.7463392621111489  0.5583963772088333  0.5445679176268696   T   T   T
  0.9161034260885810  0.5622371565847150  0.4540237622912338   T   T   T
  0.9161199479539570  0.0622053722141320  0.4540875507909046   T   T   T
  0.9162016043055985  0.3123013040138863  0.4536945690940553   T   T   T
  0.4173252180035191  0.4355017570631066  0.4541214507957770   T   T   T
  0.5821816059547604  0.4395111052020659  0.4564928664272984   T   T   T
  0.5828830455496495  0.1903801332814505  0.4556133735431958   T   T   T
  0.9164683525379275  0.9371018876065161  0.4536649938165835   T   T   T
  0.5832823907224721  0.8104003878403546  0.4553363649713830   T   T   T
  0.0000315786565842  0.3737975225221971  0.4981448315886732   T   T   T
  0.9996927124382804  0.6272153888382730  0.4976231883795263   T   T   T
  0.3336750680807570  0.1256542184233590  0.4987270266237790   T   T   T
  0.0001296649177157  0.8751548726517591  0.4995847447175423   T   T   T
  0.3334879233289621  0.8742444948095417  0.4989257678283554   T   T   T
  0.6660809910450718  0.1266521637807016  0.4991600226661189   T   T   T
  0.2511592754979372  0.4392600834604577  0.4549290056535444   T   T   T
  0.0833333358191695  0.5625000000092442  0.3605200052333331   F   F   F
  0.9166666865332829  0.0625000000159659  0.3605200052333331   F   F   F
  0.7493526269329288  0.8131921886561723  0.4530253362190486   T   T   T
  0.7497613249703333  0.4384086107043390  0.4556706101146957   T   T   T
  0.9161917113940545  0.3123905544255445  0.5462363381265816   T   T   T
  0.4170832833111445  0.6848023951681330  0.4547718444440679   T   T   T
  0.0001265860097877  0.1250961018072668  0.4984201200462909   T   T   T
  0.4159947739291705  0.9371177083442170  0.5459463860387913   T   T   T
  0.5833333134730552  0.6874999999963620  0.3605200052333331   F   F   F
  0.2505338577531047  0.0620035850527838  0.4542478552788306   T   T   T
  0.5833032686835362  0.0636210792834600  0.4537893424918132   T   T   T
  0.9166666865332829  0.6874999999963620  0.3605200052333331   F   F   F
  0.9166666865332829  0.4374999701794380  0.3605200052333331   F   F   F
  0.9166666865332829  0.1875000000030838  0.3605200052333331   F   F   F
  0.5833333134730552  0.9375000000154046  0.3605200052333331   F   F   F
  0.0808448043470519  0.5644591738549120  0.5464023032249635   T   T   T
  0.5833333134730552  0.4374999701794380  0.3605200052333331   F   F   F
  0.5833333134730552  0.1875000000030838  0.3605200052333331   F   F   F
  0.2499999999799343  0.9375000000154046  0.3605200052333331   F   F   F
  0.9166666865332829  0.9375000000154046  0.3605200052333331   F   F   F
  0.2499999999799343  0.6874999999963620  0.3605200052333331   F   F   F
  0.2499999999799343  0.1875000000030838  0.3605200052333331   F   F   F
  0.7499999404149307  0.9375000000154046  0.3605200052333331   F   F   F
  0.7499999404149307  0.6874999999963620  0.3605200052333331   F   F   F
  0.4174420912699318  0.9357632031170212  0.4538714045229464   T   T   T
  0.7499999404149307  0.4374999701794380  0.3605200052333331   F   F   F
  0.4166666269218169  0.9375000000154046  0.3605200052333331   F   F   F
  0.4166666269218169  0.6874999999963620  0.3605200052333331   F   F   F
  0.4166666269218169  0.4374999701794380  0.3605200052333331   F   F   F
  0.2499999999799343  0.4374999701794380  0.3605200052333331   F   F   F
  0.0833333358191695  0.0625000000159659  0.3605200052333331   F   F   F
  0.9152910066804694  0.6868694107619016  0.4533176340602982   T   T   T
  0.6654199519967662  0.3792158425503376  0.5029600661644424   T   T   T
  0.3343889437403905  0.3784797802727014  0.5029513446602936   T   T   T
  0.3354713818055131  0.6256397541043832  0.5036896416731360   T   T   T
  0.9176479794233517  0.0632944819647928  0.5474437179770770   T   T   T
  0.7494928381629667  0.9384276900938546  0.4553493682086738   T   T   T
  0.2499739415835915  0.9360773577413861  0.4539998583819413   T   T   T
  0.2500969080331998  0.1884689326320933  0.4541054519341366   T   T   T
  0.7491354681497582  0.6887359832591572  0.4572960434831164   T   T   T
  0.7499999404149307  0.1875000000030838  0.3605200052333331   F   F   F
  0.5833333134730552  0.0625000000159659  0.3605200052333331   F   F   F
  0.4166140237024069  0.8099796475541434  0.4550476574885715   T   T   T
  0.7478682258110788  0.8079123406489194  0.5455387183530633   T   T   T
  0.2499999999799343  0.8124999999834799  0.3605200052333331   F   F   F
  0.2499999999799343  0.3124999999901945  0.3605200052333331   F   F   F
  0.2499999999799343  0.0625000000159659  0.3605200052333331   F   F   F
  0.7499999404149307  0.5625000000092442  0.3605200052333331   F   F   F
  0.7499999404149307  0.3124999999901945  0.3605200052333331   F   F   F
  0.7499999404149307  0.0625000000159659  0.3605200052333331   F   F   F
  0.4166666269218169  0.8124999999834799  0.3605200052333331   F   F   F
  0.4166666269218169  0.3124999999901945  0.3605200052333331   F   F   F
  0.7499999404149307  0.8124999999834799  0.3605200052333331   F   F   F
  0.0835185510661937  0.3120347887315944  0.4539678984006998   T   T   T
  0.4166666269218169  0.0625000000159659  0.3605200052333331   F   F   F
  0.4168288144499286  0.0615300557984666  0.4553349300045821   T   T   T
  0.0834685143897583  0.8121252853596110  0.4541678386952566   T   T   T
  0.4166666269218169  0.5625000000092442  0.3605200052333331   F   F   F
  0.4138607535382370  0.8117301491524858  0.5476682717083249   T   T   T
  0.5833333134730552  0.3124999999901945  0.3605200052333331   F   F   F
  0.0839608834092978  0.5625297452438816  0.4539585013352449   T   T   T
  0.2511007860711456  0.0625920303932833  0.5472558300421184   T   T   T
  0.8333332538436267  0.4999999999932783  0.4070133268666680   F   F   F
  0.4166666269218169  0.1875000000030838  0.3605200052333331   F   F   F
  0.0833333358191695  0.9375000000154046  0.3605200052333331   F   F   F
  0.0833333358191695  0.8124999999834799  0.3605200052333331   F   F   F
  0.0833333358191695  0.4374999701794380  0.3605200052333331   F   F   F
  0.8333332538436267  0.7500000000123208  0.4070133268666680   F   F   F
  0.4155648871216828  0.3114006383194745  0.4573605098727592   T   T   T
  0.0837355422818131  0.0618773284927968  0.4541885379810920   T   T   T
  0.4158841016398964  0.5595224595064920  0.4577950421451026   T   T   T
  0.0833333358191695  0.6874999999963620  0.3605200052333331   F   F   F
  0.2522701755761785  0.3141193932308504  0.4541658517297675   T   T   T
  0.5833333134730552  0.5625000000092442  0.3605200052333331   F   F   F
  0.2499999999799343  0.5625000000092442  0.3605200052333331   F   F   F
  0.5833333134730552  0.8124999999834799  0.3605200052333331   F   F   F
  0.6666666865533486  0.7500000000123208  0.4070133268666680   F   F   F
  0.5000000000021103  0.4999999999932783  0.4070133268666680   F   F   F
  0.0833333358191695  0.1875000000030838  0.3605200052333331   F   F   F
  0.0000000000000000  0.0000000000000000  0.4070133268666680   F   F   F
  0.0000000000000000  0.2500000000190425  0.4070133268666680   F   F   F
  0.0000000000000000  0.4999999999932783  0.4070133268666680   F   F   F
  0.7482213952326804  0.5643063987721606  0.4537629817512270   T   T   T
  0.3333333432766779  0.0000000000000000  0.4070133268666680   F   F   F
  0.3333333432766779  0.4999999999932783  0.4070133268666680   F   F   F
  0.3333333432766779  0.7500000000123208  0.4070133268666680   F   F   F
  0.6666666865533486  0.0000000000000000  0.4070133268666680   F   F   F
  0.6666666865533486  0.2500000000190425  0.4070133268666680   F   F   F
  0.6666666865533486  0.4999999999932783  0.4070133268666680   F   F   F
  0.8333332538436267  0.2500000000190425  0.4070133268666680   F   F   F
  0.1666666716383389  0.0000000000000000  0.4070133268666680   F   F   F
  0.5843867362362395  0.3155214080717236  0.4536409974720371   T   T   T
  0.1666666716383389  0.4999999999932783  0.4070133268666680   F   F   F
  0.5000000000021103  0.0000000000000000  0.4070133268666680   F   F   F
  0.5000000000021103  0.2500000000190425  0.4070133268666680   F   F   F
  0.5000000000021103  0.7500000000123208  0.4070133268666680   F   F   F
  0.9166666865332829  0.3124999999901945  0.3605200052333331   F   F   F
  0.3333333432766779  0.2500000000190425  0.4070133268666680   F   F   F
  0.7473650674881008  0.3141629358471287  0.4546275452985780   T   T   T
  0.0000000000000000  0.7500000000123208  0.4070133268666680   F   F   F
  0.5845162918863428  0.5628458423893595  0.4547570861383650   T   T   T
  0.7494543686004224  0.0643232291750412  0.4532326841177486   T   T   T
  0.8333332538436267  0.0000000000000000  0.4070133268666680   F   F   F
  0.5827189815449738  0.6861294299753039  0.4546250421279655   T   T   T
  0.2517775845884024  0.5645485850750730  0.4538084148432731   T   T   T
  0.1666666716383389  0.2500000000190425  0.4070133268666680   F   F   F
  0.2505160122296405  0.8107921110541466  0.4553161960554718   T   T   T
  0.1666666716383389  0.7500000000123208  0.4070133268666680   F   F   F
  0.6653067721191531  0.6261724675159812  0.5029460174094806   T   T   T
  0.4169132387166753  0.1872523929424736  0.4536597889538587   T   T   T
  0.5864853367244294  0.3196875618532047  0.6338695353976580   T   T   T
  0.0856551090200095  0.6893008393157471  0.5454212839805719   T   T   T
  0.0829192652272507  0.4389457498841680  0.5448334562083329   T   T   T
  0.0835737542980450  0.1888855459948619  0.5456104159979864   T   T   T
  0.4994409138338660  0.1256154638942825  0.4990400886762973   T   T   T
  0.9995282210270784  0.4984936577041785  0.5941217428146207   T   T   T
  0.5794075667415403  0.1846659632236259  0.5501910394843660   T   T   T
  0.9997337536084719  0.7536867962423627  0.5928202119065801   T   T   T
  0.3340538020491232  0.9998979546433635  0.5919500487888177   T   T   T
  0.9999156599732483  0.9988228803207079  0.5930325348892685   T   T   T
  0.0007071224941543  0.2502435994532261  0.5920148812392604   T   T   T
  0.3331829429751780  0.4958095037363270  0.5910560142828680   T   T   T
  0.3351297997067818  0.7404434329979953  0.5902860781454937   T   T   T
  0.6641431487454105  0.2441149822851639  0.5907309211498513   T   T   T
  0.6662174557963918  0.0011492863477648  0.5919082524329652   T   T   T
  0.6653138975405910  0.7414985933733216  0.5907785472734997   T   T   T
  0.6666514676633345  0.4947067435173782  0.5910670225575051   T   T   T
  0.1674346958153776  0.9984314195993794  0.5923160712508754   T   T   T
  0.1684165109866492  0.2489180755594488  0.5931679548448574   T   T   T
  0.1709873658741982  0.7502986841074568  0.5950709306949049   T   T   T
  0.2482979098930935  0.4358641056619212  0.5491161214621521   T   T   T
  0.1655164391760288  0.5032300871666502  0.5871951522881039   T   T   T
  0.3345546521576425  0.2542149251165371  0.5924942890969584   T   T   T
  0.4998106762746684  0.0002499574953144  0.5910239794963953   T   T   T
  0.8326692449532195  0.8741921562996906  0.4986184535144834   T   T   T
  0.7482857707857464  0.9369947523892452  0.6400124873203131   T   T   T
  0.8324522101776588  0.0015235697175429  0.5921155874915924   T   T   T
  0.7495625335955522  0.1834582009758809  0.5509894254979859   T   T   T
  0.4228842185502471  0.6877108067364187  0.5468025790324061   T   T   T
  0.4231799252604528  0.4435341978120015  0.5458338092135209   T   T   T
  0.7521486137616523  0.4354786772342203  0.5489901191721386   T   T   T
  0.5842209505142862  0.3102896176342000  0.5451909569700587   T   T   T
  0.2533270575115598  0.8125712064563941  0.5506654877399795   T   T   T
  0.5826667404365251  0.9370544237199526  0.4543198384948871   T   T   T
  0.9158494676349856  0.1869275578083871  0.4532276293493046   T   T   T
  0.7506869341203654  0.1899715255581781  0.4557534338298675   T   T   T
  0.5825722741917781  0.0616009217939907  0.5452754767897828   T   T   T
  0.5856652795760071  0.8141558896531252  0.5503501819513923   T   T   T
  0.7471168546094402  0.3117432932066900  0.5480678996175206   T   T   T
  0.5810633943531633  0.5598578254159392  0.5484266336032911   T   T   T
  0.2526200212354998  0.5590941462701180  0.5439428285547042   T   T   T
  0.4156678004110204  0.3193651042282221  0.5526373219971862   T   T   T
  0.5766399828388179  0.4354839774076555  0.5521329664984758   T   T   T
  0.4165785428802042  0.0652985983648706  0.5472872890735705   T   T   T
  0.0852809669059463  0.8125869791283586  0.5473662980518463   T   T   T
  0.0864070842505908  0.3134863074417998  0.5468569370556478   T   T   T
  0.5001829246956572  0.7567559979717295  0.5924968532313906   T   T   T
  0.0823877453716972  0.0631516381429093  0.5475352010064033   T   T   T
  0.0833333358191695  0.3124999999901945  0.3605200052333331   F   F   F
  0.9143202304987519  0.6887501540959761  0.5456783537808938   T   T   T
  0.9166887304259123  0.1886993315213725  0.5455572658222088   T   T   T
  0.9153647446027212  0.4374501718399153  0.5457116417100852   T   T   T
  0.5790601998042260  0.6859189458988099  0.5476026569482932   T   T   T
  0.2515209202401878  0.9372787725494380  0.5452198058384483   T   T   T
  0.4975452505174845  0.5044666431014454  0.6086383657034029   T   T   T
  0.9180137036879883  0.5637636206420726  0.5470596979365326   T   T   T
  0.4198131193674463  0.5647391972588339  0.5553869996921478   T   T   T
  0.9155114287612033  0.8126388454317848  0.5468021519636960   T   T   T
  0.0841305188417172  0.9384105793801983  0.5461053918320785   T   T   T
  0.2488573314487777  0.6833261810226630  0.5517581927171130   T   T   T
  0.7493307039537904  0.9338508790863066  0.5476220774820572   T   T   T
  0.7517030984325366  0.6805972945722074  0.5531163906565878   T   T   T
  0.9156418409415946  0.9384450150110608  0.5463595037402978   T   T   T
  0.4177236982679244  0.0652533517402670  0.6399986093612225   T   T   T
  0.5839360909982008  0.9375455149697264  0.5461892980576230   T   T   T
  0.4118552456569864  0.8129169974944930  0.6391932516787044   T   T   T
  0.7580405183434759  0.2114431457491039  0.7530892968111448   T   T   T
  0.9141000597000078  0.5627742913209197  0.6408341464799960   T   T   T
  0.9133398350852054  0.8133350995729198  0.6420209667061959   T   T   T
  0.5826948262714692  0.0667987787535610  0.6391284127811383   T   T   T
  0.2493016763768166  0.3137675027316644  0.5459372668738525   T   T   T
  0.5907300631848178  0.5663312394268455  0.6381524018555758   T   T   T
  0.2476045271419182  0.5739693779110047  0.6287971078635537   T   T   T
  0.7540998976665128  0.6931787033603378  0.6567547793361520   T   T   T
  0.2627246775961130  0.8005078666200938  0.6461300920420071   T   T   T
  0.2509542749208630  0.0595145073448433  0.6422733176672681   T   T   T
  0.9166666865332829  0.5625000000092442  0.3605200052333331   F   F   F
  0.4997142512974230  0.3729128725700992  0.5007509727580082   T   T   T
  0.5000918361647073  0.6209533535691639  0.4999723308914633   T   T   T
  0.8324676280267178  0.6230940844584920  0.5001805681333513   T   T   T
  0.2517825808057107  0.1883110512677488  0.5471077370632453   T   T   T
  0.8323874383413349  0.3729789579173627  0.4998614437820600   T   T   T
  0.9141247630521704  0.3121275491613786  0.6397233650356163   T   T   T
  0.1667339541323671  0.3761937959141806  0.4977050801483353   T   T   T
  0.5814067088978796  0.4393183023892338  0.6460094203428473   T   T   T
  0.5768374902897655  0.6865432414385415  0.6398355722163989   T   T   T
  0.9162980484161974  0.1867613028915563  0.6398750588944906   T   T   T
  0.2491827738794507  0.3165860312109981  0.6412477829636516   T   T   T
  0.1677693829877846  0.8732702366213995  0.4998780266889882   T   T   T
  0.9157960360157515  0.4369881022734578  0.4535921913213945   T   T   T
  0.1670621108934099  0.1243501299457340  0.4992993528379345   T   T   T
  0.7487084591625087  0.0595325595502378  0.5442227873649532   T   T   T
  0.4248027226950098  0.3049675419070862  0.6562937796443240   T   T   T
  0.5899939588790333  0.8109033793403142  0.6458762672835123   T   T   T
  0.4203612848972081  0.6762851289096447  0.6339318748956049   T   T   T
  0.7554461882212874  0.4359126782088862  0.6384063502560394   T   T   T
  0.4984141544498483  0.2538047387914059  0.5912706717404296   T   T   T
  0.9160682506116371  0.0624737354230574  0.6413748443851829   T   T   T
  0.1675389703152415  0.6242573862921861  0.5002338935075624   T   T   T
  0.4999665008985581  0.8731917651721942  0.5008679946474650   T   T   T
  0.8329497108114085  0.1244806332838860  0.4997520356278163   T   T   T
  0.4162641737652638  0.1912841945882990  0.5465882142856188   T   T   T
  0.7411719769232218  0.8103158295329433  0.6397709621509091   T   T   T
  0.7520785310369308  0.5701238025169983  0.6351641841922171   T   T   T
  0.4176033667102724  0.9350426487468850  0.6396429530683225   T   T   T
  0.7439649060116293  0.3124311195009433  0.6403104247581026   T   T   T
  0.7490351714245239  0.0675039152439282  0.6389216437459324   T   T   T
  0.0838478781251696  0.3118579746054462  0.6405879271202268   T   T   T
  0.6664392238369998  0.8743186618014448  0.4988137342463714   T   T   T
  0.0865733826387995  0.5626970201172969  0.6398711821429928   T   T   T
  0.0871973936989817  0.4365442584333181  0.6397353214453445   T   T   T
  0.4174605189047418  0.1874770185764968  0.6398548730770273   T   T   T
  0.4158317649769135  0.4185040148789106  0.6300279542115040   T   T   T
  0.0844842213601250  0.9358239716750300  0.6409850041346664   T   T   T
  0.0833799766844082  0.6870445712349318  0.6387960756664135   T   T   T
  0.0839888044220626  0.0609382720961937  0.6419069658089215   T   T   T
  0.8331224310621003  0.5039409303733429  0.5889688373269284   T   T   T
  0.0834283090877184  0.1858856342039460  0.6409742793337462   T   T   T
  0.2400415078612263  0.4423353650172711  0.6417150447117876   T   T   T
  0.9119679129109139  0.4362505610415896  0.6399464477394672   T   T   T
  0.2520458111529573  0.9303386046856690  0.6373059730831576   T   T   T
  0.9163227876235120  0.6876497619850123  0.6390088487533675   T   T   T
  0.9144390322427425  0.9370427886780074  0.6413441381487808   T   T   T
  0.3974520682845750  0.5505283244743721  0.6519097296294352   T   T   T
  0.2543491003070464  0.6783191569699191  0.6626093807282221   T   T   T
  0.2535633327046125  0.1865203821174719  0.6411867238408457   T   T   T
  0.5784760467893730  0.1920788398685134  0.6454057339166281   T   T   T
  0.5823043917882730  0.9365477489832219  0.6391521414984347   T   T   T
  0.9166666865332829  0.8124999999834799  0.3605200052333331   F   F   F
  0.7517943857729225  0.1955873190473954  0.6471815988783617   T   T   T
  0.8318254299887637  0.2502968733462005  0.5903570051642998   T   T   T
  0.8303975315407917  0.7509629135476842  0.5927204167876957   T   T   T
  0.0847230109138248  0.8126288721882260  0.6424719922925939   T   T   T
  0.1666666716383389  0.3750000000061604  0.4070133268666680   F   F   F
  0.3261905141159841  0.3732896223545296  0.5927333849778911   T   T   T
  0.6672731275428159  0.2478229999637703  0.5027423995262176   T   T   T
  0.8355912148671505  0.2485697859090461  0.5028582342481327   T   T   T
  0.6666666865533486  0.3750000000061604  0.4070133268666680   F   F   F
  0.0004579972388060  0.1231485568359918  0.6195008232692707   T   T   T
  0.6654661124862024  0.7517861359703949  0.5021756876726754   T   T   T
  0.3302435472641407  0.2480096888341452  0.5028982104797768   T   T   T
  0.6660768144349778  0.0001460396455361  0.5056133720363969   T   T   T
  0.1644716579426977  0.7513473647767955  0.5034621167784857   T   T   T
  0.8333332538436267  0.6249999999803961  0.4070133268666680   F   F   F
  0.6686656727142787  0.4999268264685087  0.5006312569982850   T   T   T
  0.3312563401661663  0.4991756726787451  0.5010159764319899   T   T   T
  0.5010383310495254  0.7528258285250689  0.5039157800756818   T   T   T
  0.0000000000000000  0.8749999404036828  0.4070133268666680   F   F   F
  0.9998953025182102  0.7510735243115303  0.5067546281279256   T   T   T
  0.3338769343035431  0.7511036921825290  0.5015150593317955   T   T   T
  0.5010601250377984  0.4997143998578479  0.5003595585029984   T   T   T
  0.3333333432766779  0.1249999999871179  0.4070133268666680   F   F   F
  0.5012930184181879  0.2479468611795000  0.5022430164028778   T   T   T
  0.0008703798354036  0.2499041559595090  0.5059467687782343   T   T   T
  0.0001715452846500  0.9998552058450493  0.5066847462936910   T   T   T
  0.6666666865533486  0.6249999999803961  0.4070133268666680   F   F   F
  0.8333332538436267  0.8749999404036828  0.4070133268666680   F   F   F
  0.3333333432766779  0.6249999999803961  0.4070133268666680   F   F   F
  0.3333333432766779  0.8749999404036828  0.4070133268666680   F   F   F
  0.3333333432766779  0.3750000000061604  0.4070133268666680   F   F   F
  0.8343857941899719  0.0001570260244258  0.5063278320542064   T   T   T
  0.6666666865533486  0.1249999999871179  0.4070133268666680   F   F   F
  0.0000000000000000  0.6249999999803961  0.4070133268666680   F   F   F
  0.1663735934830530  0.2482322002589233  0.5062469689929202   T   T   T
  0.5003160180529141  0.9992868997352784  0.5054532317519139   T   T   T
  0.1660101764463832  0.0011660762570998  0.5065119816644992   T   T   T
  0.9994995245083211  0.5000069000640441  0.5067252331905127   T   T   T
  0.3331322810953965  0.0011530179023867  0.5057049044575294   T   T   T
  0.5010120201305580  0.8771659203581107  0.6096456885113728   T   T   T
  0.0000000000000000  0.1249999999871179  0.4070133268666680   F   F   F
  0.9991945148779554  0.8748231192589253  0.6240206421185627   T   T   T
  0.8333332538436267  0.3750000000061604  0.4070133268666680   F   F   F
  0.8333332538436267  0.1249999999871179  0.4070133268666680   F   F   F
  0.6663099360913999  0.1259149274034438  0.6148274318673088   T   T   T
  0.5000000000021103  0.6249999999803961  0.4070133268666680   F   F   F
  0.8394383144837263  0.6271169372375273  0.6041633460926682   T   T   T
  0.5000000000021103  0.8749999404036828  0.4070133268666680   F   F   F
  0.1636052838072088  0.4999181888848980  0.5019752826315472   T   T   T
  0.8318794051229302  0.8765685012590093  0.6180286840476220   T   T   T
  0.8366111213366255  0.3728875983607634  0.6035417665771119   T   T   T
  0.8360213974419151  0.7515574901309788  0.5026182321208464   T   T   T
  0.5000000000021103  0.1249999999871179  0.4070133268666680   F   F   F
  0.1666666716383389  0.8749999404036828  0.4070133268666680   F   F   F
  0.8358414458529588  0.5000065732736290  0.5029421519396627   T   T   T
  0.9998458891670998  0.6235251665952006  0.6242090958189180   T   T   T
  0.1666666716383389  0.6249999999803961  0.4070133268666680   F   F   F
  0.3315637969930924  0.1198330927078275  0.6126453331330851   T   T   T
  0.5004638417683887  0.1226348280287731  0.6068616952963650   T   T   T
  0.1666666716383389  0.1249999999871179  0.4070133268666680   F   F   F
  0.0000000000000000  0.3750000000061604  0.4070133268666680   F   F   F
  0.5034306217801032  0.6248474898604442  0.5942991130680947   T   T   T
  0.5000000000021103  0.3750000000061604  0.4070133268666680   F   F   F
  0.6666666865533486  0.8749999404036828  0.4070133268666680   F   F   F
  0.3342534906953311  0.6244432435103033  0.5951001612055444   T   T   T
  0.3346434516492250  0.8790976415833535  0.6026568054461913   T   T   T
  0.1662621070940651  0.8738821905176796  0.6174283174023365   T   T   T
  0.6710097064191856  0.3734321043153484  0.5934308431715187   T   T   T
  0.1596430235139522  0.6273575501034548  0.6013160023729414   T   T   T
  0.1676730880695363  0.1231118938563028  0.6218334379098700   T   T   T
  0.1633548495398832  0.3712766392483058  0.6075296739567410   T   T   T
  0.6652901790176685  0.8812967156029481  0.6071089519053378   T   T   T
  0.6663164617970860  0.6261964902823377  0.5929939309836605   T   T   T
  0.9996919495768682  0.3751934889896336  0.6250318784742883   T   T   T
  0.8344912849973374  0.1245000346589751  0.6158752010918265   T   T   T
  0.5024688481714463  0.3708457194255086  0.5953631041229173   T   T   T
  0.0830814767712681  0.1247852077434564  0.5067704996245878   T   T   T
  0.0810091585132529  0.6258523767973238  0.5054064922291971   T   T   T
  0.5847077102226483  0.7500394830296383  0.5997772670662292   T   T   T
  0.0833489925525905  0.2483472022960233  0.6036100715190887   T   T   T
  0.7498350971079364  0.0019148136551258  0.6042511640586508   T   T   T
  0.5831383396679770  0.0018112828255544  0.6039932976072024   T   T   T
  0.2493484150118268  0.2460110373306997  0.6037484438319041   T   T   T
  0.5902865541561347  0.5015615164820953  0.5934783904390463   T   T   T
  0.4152376665385033  0.2484010553100873  0.5911644946978584   T   T   T
  0.2499377054651233  0.7528781386941281  0.5920353826333963   T   T   T
  0.5850900062949441  0.2477560784048651  0.5968630953127627   T   T   T
  0.2496453030657863  0.9978458888191255  0.6041865022165455   T   T   T
  0.7538103745248782  0.2477972771121116  0.5936869092473847   T   T   T
  0.9165876251561422  0.9997931360335981  0.6038296666627491   T   T   T