Au  C  H  O Sr Ti                       
   1.00000000000000     
    23.6707801818999997    0.0000000000000000    0.0000000000000000
     0.0000000000000000   22.3170261383000010    0.0000000000000000
     0.0000000000000000    0.0000000000000000   30.0000000000000000
   Au   C    H    O    Sr   Ti
    50     2     2   265    72    72
Selective dynamics
Direct
  0.7127773038825871  0.5261875799406878  0.7540044485595343   T   T   T
  0.2934855474190607  0.7470023602877327  0.6966058300454657   T   T   T
  0.5087890509780747  0.6064643460717470  0.7777391353784738   T   T   T
  0.5775192961161095  0.7264516854023306  0.7942870760222267   T   T   T
  0.2394992492692603  0.4698395137615736  0.7092390426346177   T   T   T
  0.2852069401803530  0.6633016804551859  0.7644488325015926   T   T   T
  0.6015922131781711  0.2908697974655944  0.7857009128946816   T   T   T
  0.5130849490807344  0.4839649085505028  0.6776939117389572   T   T   T
  0.5599212387003349  0.4889590476374071  0.7626587171967210   T   T   T
  0.4837570389239694  0.2731021872755680  0.7745157951807058   T   T   T
  0.5455864734507641  0.3850133781279870  0.8273945160111116   T   T   T
  0.5483280837647080  0.2187063535507873  0.7082876156710888   T   T   T
  0.3912272799277575  0.8178500968867659  0.7063103417527961   T   T   T
  0.4313679429638840  0.2281540988372067  0.6987394856532818   T   T   T
  0.3685998677044988  0.3007230225741216  0.7567339186241291   T   T   T
  0.4256483362148145  0.3723371714824576  0.8179908963976982   T   T   T
  0.5958081683260833  0.7848751409612120  0.7128340220202239   T   T   T
  0.6311853569919565  0.5867158238443830  0.7992593744001276   T   T   T
  0.7304804140564798  0.6153934778196126  0.6938872225903151   T   T   T
  0.4853622848443879  0.7772529097154017  0.7548912480806533   T   T   T
  0.7639501645726835  0.4340158956150418  0.7054191558525180   T   T   T
  0.7440530132066405  0.2633978271131758  0.6950543392137571   T   T   T
  0.6201658780760378  0.5699821262088079  0.7036877412214083   T   T   T
  0.4628898321645901  0.6984574457643320  0.8317468752599425   T   T   T
  0.6250908356130089  0.3177768394052622  0.6951211057765122   T   T   T
  0.3478291082578075  0.5010507307447872  0.6973284934171087   T   T   T
  0.7034275286880600  0.3475756774457109  0.7570255949538971   T   T   T
  0.2888818367584662  0.5390498439083894  0.7773812585338125   T   T   T
  0.5693498877489296  0.5107169385435512  0.8567231651700644   T   T   T
  0.6429275953074718  0.1826327030705358  0.7562418287074526   T   T   T
  0.4701581629423729  0.4521359722476384  0.8792161633184225   T   T   T
  0.2815388689089910  0.3399289603842290  0.7026612743928941   T   T   T
  0.6683728253689917  0.6825757973175106  0.7487706789110696   T   T   T
  0.3966615203759962  0.3827239480995482  0.6904895463116413   T   T   T
  0.4512330109400345  0.5792960410641432  0.7036558413683085   T   T   T
  0.3753911901423732  0.4947737281278942  0.8323199805160882   T   T   T
  0.3232296835428536  0.4160525915370053  0.7700351267282138   T   T   T
  0.3686841827369536  0.6200643530504262  0.8198964185765470   T   T   T
  0.5248878325779722  0.3769829311503455  0.7317516494851357   T   T   T
  0.7725648515255514  0.4345739121319214  0.7965722669238510   T   T   T
  0.2563565409560476  0.5939589106192384  0.6945738304350014   T   T   T
  0.6473097460575180  0.4438186938700621  0.6957178000310714   T   T   T
  0.5634022736755669  0.6413503837768236  0.8622676618067732   T   T   T
  0.5401703924108858  0.6673164122023287  0.7020751146452670   T   T   T
  0.4423636092576131  0.4691870103891273  0.7547524504067565   T   T   T
  0.7063782372921726  0.7574274418014073  0.6882391160868050   T   T   T
  0.3738791657474718  0.7411986657074064  0.7790350625562449   T   T   T
  0.4621684714178121  0.5751318913229438  0.8650347294839688   T   T   T
  0.6528266418126416  0.4391169491729552  0.8114485598793280   T   T   T
  0.4171199212861754  0.6965089341362166  0.6999116182376784   T   T   T
  0.7287500765506633  0.1698959406963459  0.7659163338157942   T   T   T
  0.7406483090971246  0.1133150423140302  0.7793327384971137   T   T   T
  0.7107133880325527  0.0867138477936581  0.7977941348116477   T   T   T
  0.7800473029288217  0.0929157670497649  0.7681652331667118   T   T   T
  0.0843558146333409  0.6869453461163536  0.4531250033270582   T   T   T
  0.2520537704910273  0.6875707894911739  0.4560000431922753   T   T   T
  0.0841226208522839  0.9367918522119537  0.4536226210351701   T   T   T
  0.0828804015130589  0.4368194569323494  0.4527994004169112   T   T   T
  0.0838548699830409  0.1865523098914562  0.4529734702090507   T   T   T
  0.9166230695130406  0.8121525743773095  0.4540264271284780   T   T   T
  0.7460122814807220  0.5584117073176872  0.5446658831187569   T   T   T
  0.9160823963727855  0.5622221798748953  0.4540324516035398   T   T   T
  0.9161144886454959  0.0622174463214755  0.4540723656259548   T   T   T
  0.9161846455063101  0.3123246296668256  0.4536863124441668   T   T   T
  0.4172551474895830  0.4355183962603307  0.4541555712540878   T   T   T
  0.5822238791448235  0.4394799067898479  0.4564988145711020   T   T   T
  0.5828439864091303  0.1903330667897194  0.4555913514104641   T   T   T
  0.9164685231340849  0.9371228730550620  0.4536571139434599   T   T   T
  0.5833104010365446  0.8103675424337782  0.4553387407092675   T   T   T
  0.0000549373441134  0.3738123781441712  0.4981108755187980   T   T   T
  0.9996871941472637  0.6271794382382770  0.4976200923585762   T   T   T
  0.3337434376625530  0.1256505795580705  0.4987756674271676   T   T   T
  0.0001372590724247  0.8751585076896291  0.4995794155124051   T   T   T
  0.3334692743607760  0.8742241878033901  0.4989928519810827   T   T   T
  0.6661123581035170  0.1265718526864044  0.4991261562675230   T   T   T
  0.2511816587065430  0.4392716001881219  0.4549394437235771   T   T   T
  0.0833333358191695  0.5625000000092442  0.3605200052333331   F   F   F
  0.9166666865332829  0.0625000000159659  0.3605200052333331   F   F   F
  0.7493911106659398  0.8131992662298705  0.4530301124736952   T   T   T
  0.7497142656353145  0.4384592198048482  0.4556759447803821   T   T   T
  0.9162164946072577  0.3123727357781639  0.5462080332617565   T   T   T
  0.4171339555331507  0.6847796391608449  0.4547503373556167   T   T   T
  0.0001269891309830  0.1251324759510929  0.4983968745133414   T   T   T
  0.4159786970639041  0.9371149013313973  0.5459414524260398   T   T   T
  0.5833333134730552  0.6874999999963620  0.3605200052333331   F   F   F
  0.2505286760329349  0.0620242859102530  0.4542434670087384   T   T   T
  0.5833158098657838  0.0635782821401325  0.4537882948966709   T   T   T
  0.9166666865332829  0.6874999999963620  0.3605200052333331   F   F   F
  0.9166666865332829  0.4374999701794380  0.3605200052333331   F   F   F
  0.9166666865332829  0.1875000000030838  0.3605200052333331   F   F   F
  0.5833333134730552  0.9375000000154046  0.3605200052333331   F   F   F
  0.0808777595530434  0.5644669657672758  0.5464129547149532   T   T   T
  0.5833333134730552  0.4374999701794380  0.3605200052333331   F   F   F
  0.5833333134730552  0.1875000000030838  0.3605200052333331   F   F   F
  0.2499999999799343  0.9375000000154046  0.3605200052333331   F   F   F
  0.9166666865332829  0.9375000000154046  0.3605200052333331   F   F   F
  0.2499999999799343  0.6874999999963620  0.3605200052333331   F   F   F
  0.2499999999799343  0.1875000000030838  0.3605200052333331   F   F   F
  0.7499999404149307  0.9375000000154046  0.3605200052333331   F   F   F
  0.7499999404149307  0.6874999999963620  0.3605200052333331   F   F   F
  0.4173858328878918  0.9357411578676682  0.4538897504035632   T   T   T
  0.7499999404149307  0.4374999701794380  0.3605200052333331   F   F   F
  0.4166666269218169  0.9375000000154046  0.3605200052333331   F   F   F
  0.4166666269218169  0.6874999999963620  0.3605200052333331   F   F   F
  0.4166666269218169  0.4374999701794380  0.3605200052333331   F   F   F
  0.2499999999799343  0.4374999701794380  0.3605200052333331   F   F   F
  0.0833333358191695  0.0625000000159659  0.3605200052333331   F   F   F
  0.9153005692531951  0.6868741615600940  0.4533321712323105   T   T   T
  0.6654323165802328  0.3792509549525300  0.5029928504239618   T   T   T
  0.3344520802381494  0.3784501468351951  0.5029858892407829   T   T   T
  0.3354888685286376  0.6256814997213093  0.5036919661974236   T   T   T
  0.9176168081305563  0.0632890172584276  0.5473871855586104   T   T   T
  0.7494999718951553  0.9384403856712794  0.4553551533997169   T   T   T
  0.2499976385694767  0.9360693340517550  0.4539870555784823   T   T   T
  0.2501246794268439  0.1884826363082592  0.4540960467245247   T   T   T
  0.7490811249118673  0.6887483646417959  0.4573230346491494   T   T   T
  0.7499999404149307  0.1875000000030838  0.3605200052333331   F   F   F
  0.5833333134730552  0.0625000000159659  0.3605200052333331   F   F   F
  0.4165933508712474  0.8099612863901131  0.4550733678457792   T   T   T
  0.7478666422740254  0.8078935951624249  0.5455256793445219   T   T   T
  0.2499999999799343  0.8124999999834799  0.3605200052333331   F   F   F
  0.2499999999799343  0.3124999999901945  0.3605200052333331   F   F   F
  0.2499999999799343  0.0625000000159659  0.3605200052333331   F   F   F
  0.7499999404149307  0.5625000000092442  0.3605200052333331   F   F   F
  0.7499999404149307  0.3124999999901945  0.3605200052333331   F   F   F
  0.7499999404149307  0.0625000000159659  0.3605200052333331   F   F   F
  0.4166666269218169  0.8124999999834799  0.3605200052333331   F   F   F
  0.4166666269218169  0.3124999999901945  0.3605200052333331   F   F   F
  0.7499999404149307  0.8124999999834799  0.3605200052333331   F   F   F
  0.0835416892207661  0.3120502525328117  0.4539676401321373   T   T   T
  0.4166666269218169  0.0625000000159659  0.3605200052333331   F   F   F
  0.4168521897885187  0.0615378086745295  0.4553426836545470   T   T   T
  0.0834719221495688  0.8121375245808473  0.4541577666787784   T   T   T
  0.4166666269218169  0.5625000000092442  0.3605200052333331   F   F   F
  0.4138502144696139  0.8117598479921361  0.5476515916134408   T   T   T
  0.5833333134730552  0.3124999999901945  0.3605200052333331   F   F   F
  0.0839536354707743  0.5625114464839608  0.4539583560501657   T   T   T
  0.2510916676425159  0.0626056724318653  0.5472562249724857   T   T   T
  0.8333332538436267  0.4999999999932783  0.4070133268666680   F   F   F
  0.4166666269218169  0.1875000000030838  0.3605200052333331   F   F   F
  0.0833333358191695  0.9375000000154046  0.3605200052333331   F   F   F
  0.0833333358191695  0.8124999999834799  0.3605200052333331   F   F   F
  0.0833333358191695  0.4374999701794380  0.3605200052333331   F   F   F
  0.8333332538436267  0.7500000000123208  0.4070133268666680   F   F   F
  0.4155705648473944  0.3113958877638541  0.4573607858191714   T   T   T
  0.0837824607791062  0.0618813634500391  0.4541639840920834   T   T   T
  0.4158966587642438  0.5595150579354439  0.4577833381544703   T   T   T
  0.0833333358191695  0.6874999999963620  0.3605200052333331   F   F   F
  0.2522648156539810  0.3141568413168843  0.4541560240208711   T   T   T
  0.5833333134730552  0.5625000000092442  0.3605200052333331   F   F   F
  0.2499999999799343  0.5625000000092442  0.3605200052333331   F   F   F
  0.5833333134730552  0.8124999999834799  0.3605200052333331   F   F   F
  0.6666666865533486  0.7500000000123208  0.4070133268666680   F   F   F
  0.5000000000021103  0.4999999999932783  0.4070133268666680   F   F   F
  0.0833333358191695  0.1875000000030838  0.3605200052333331   F   F   F
  0.0000000000000000  0.0000000000000000  0.4070133268666680   F   F   F
  0.0000000000000000  0.2500000000190425  0.4070133268666680   F   F   F
  0.0000000000000000  0.4999999999932783  0.4070133268666680   F   F   F
  0.7482064817074724  0.5643604465941382  0.4537794370106273   T   T   T
  0.3333333432766779  0.0000000000000000  0.4070133268666680   F   F   F
  0.3333333432766779  0.4999999999932783  0.4070133268666680   F   F   F
  0.3333333432766779  0.7500000000123208  0.4070133268666680   F   F   F
  0.6666666865533486  0.0000000000000000  0.4070133268666680   F   F   F
  0.6666666865533486  0.2500000000190425  0.4070133268666680   F   F   F
  0.6666666865533486  0.4999999999932783  0.4070133268666680   F   F   F
  0.8333332538436267  0.2500000000190425  0.4070133268666680   F   F   F
  0.1666666716383389  0.0000000000000000  0.4070133268666680   F   F   F
  0.5843709386022804  0.3155114905070335  0.4536345836273578   T   T   T
  0.1666666716383389  0.4999999999932783  0.4070133268666680   F   F   F
  0.5000000000021103  0.0000000000000000  0.4070133268666680   F   F   F
  0.5000000000021103  0.2500000000190425  0.4070133268666680   F   F   F
  0.5000000000021103  0.7500000000123208  0.4070133268666680   F   F   F
  0.9166666865332829  0.3124999999901945  0.3605200052333331   F   F   F
  0.3333333432766779  0.2500000000190425  0.4070133268666680   F   F   F
  0.7473785475273885  0.3142120803234275  0.4545908141767085   T   T   T
  0.0000000000000000  0.7500000000123208  0.4070133268666680   F   F   F
  0.5844618153972467  0.5628127097443562  0.4547874122832392   T   T   T
  0.7495818060831262  0.0643431332555773  0.4532021507944047   T   T   T
  0.8333332538436267  0.0000000000000000  0.4070133268666680   F   F   F
  0.5826913334676542  0.6860920698782070  0.4546157632713743   T   T   T
  0.2518118946261119  0.5645803261971944  0.4537398860276382   T   T   T
  0.1666666716383389  0.2500000000190425  0.4070133268666680   F   F   F
  0.2505143255149170  0.8107903296630221  0.4553192471082526   T   T   T
  0.1666666716383389  0.7500000000123208  0.4070133268666680   F   F   F
  0.6652375476071565  0.6261799900492248  0.5029334060303364   T   T   T
  0.4169266913162042  0.1872478336631807  0.4537077559341275   T   T   T
  0.5867121859915706  0.3197499466471053  0.6338759222713316   T   T   T
  0.0857052056581565  0.6893171847613345  0.5454022250645264   T   T   T
  0.0829057857363417  0.4389602006372398  0.5448168999695532   T   T   T
  0.0835396175989133  0.1889079182304925  0.5456050441477532   T   T   T
  0.4994552904035374  0.1256044707306856  0.4990621825727646   T   T   T
  0.9995324010837979  0.4984294124956928  0.5941113130296344   T   T   T
  0.5795696369702937  0.1846959736586344  0.5502088405357592   T   T   T
  0.9997277957279976  0.7536991127235104  0.5928083898083513   T   T   T
  0.3340465312499575  0.9999314262460831  0.5919163534080253   T   T   T
  0.9998815266734592  0.9988399690175493  0.5930481960392365   T   T   T
  0.0006626589920124  0.2502831009273110  0.5921093347229910   T   T   T
  0.3331799437506304  0.4958645511489973  0.5911037424198705   T   T   T
  0.3351263906467807  0.7404332606171761  0.5902593894994164   T   T   T
  0.6643000876315058  0.2441807316804226  0.5907553915468452   T   T   T
  0.6661804570377413  0.0011816520713006  0.5918984409524445   T   T   T
  0.6653550676524335  0.7414034410372988  0.5908080599955846   T   T   T
  0.6666079845180440  0.4939593010933827  0.5913999570828155   T   T   T
  0.1674074052331616  0.9984779061981840  0.5923283102596134   T   T   T
  0.1684330459345327  0.2489621596946210  0.5931010376801580   T   T   T
  0.1710010888570298  0.7502764177331589  0.5950700749908837   T   T   T
  0.2482993270078847  0.4358781603971774  0.5491282862257878   T   T   T
  0.1655328327892409  0.5032918731514386  0.5872202488501866   T   T   T
  0.3346817989001475  0.2543129198585403  0.5924878449522569   T   T   T
  0.4998287910829615  0.0002340130090412  0.5910449931297678   T   T   T
  0.8326752977424938  0.8742025628125767  0.4986372169963622   T   T   T
  0.7482935554331993  0.9369747680195042  0.6400098308043652   T   T   T
  0.8324348500322848  0.0014801873283315  0.5920660441806954   T   T   T
  0.7495146695776209  0.1835525636674239  0.5509443904548341   T   T   T
  0.4229169032487163  0.6877827700023607  0.5467326963292054   T   T   T
  0.4231878086909339  0.4434298500811905  0.5459081812577652   T   T   T
  0.7522476116978898  0.4355996941345218  0.5489213645620356   T   T   T
  0.5842554012199532  0.3102867281625852  0.5451727687392093   T   T   T
  0.2533358689313219  0.8125825144479315  0.5506665603191445   T   T   T
  0.5826940894123460  0.9370552550220523  0.4543239735873029   T   T   T
  0.9158370593746812  0.1869601540830836  0.4532410251148148   T   T   T
  0.7507029668811279  0.1899291706262580  0.4557095989578457   T   T   T
  0.5825379886633058  0.0615196907173034  0.5452290879046690   T   T   T
  0.5857972215067405  0.8141764136142771  0.5503686791397278   T   T   T
  0.7471720046738841  0.3118313612760389  0.5480087447951451   T   T   T
  0.5812923119368839  0.5598244206869577  0.5486750636687994   T   T   T
  0.2526133596449965  0.5590973677833425  0.5439212867385549   T   T   T
  0.4158932505073162  0.3192214660630895  0.5525656063623491   T   T   T
  0.5765681791491438  0.4354761276662567  0.5522005857202233   T   T   T
  0.4166208984869736  0.0652348892177608  0.5473062748315589   T   T   T
  0.0853375647356323  0.8126021799655662  0.5473612951468975   T   T   T
  0.0864160023436320  0.3134916630646825  0.5468707045718399   T   T   T
  0.5002041775172045  0.7568356301413509  0.5925192511198122   T   T   T
  0.0823725594427724  0.0631469215544102  0.5475295655337764   T   T   T
  0.0833333358191695  0.3124999999901945  0.3605200052333331   F   F   F
  0.9143072479935713  0.6887443247159385  0.5456846672232291   T   T   T
  0.9168762361935169  0.1886791161890512  0.5455064882468785   T   T   T
  0.9153851105692462  0.4374185050470776  0.5457206421367331   T   T   T
  0.5790756305202197  0.6859243553053511  0.5475587326044380   T   T   T
  0.2514946502163652  0.9372911297559552  0.5452177074147059   T   T   T
  0.4975240948524087  0.5044361021492920  0.6086933609072358   T   T   T
  0.9180080650196697  0.5637451392932057  0.5470499067143605   T   T   T
  0.4197968838875463  0.5647287468063145  0.5553825146083189   T   T   T
  0.9154959854190755  0.8126441706998628  0.5468182173609774   T   T   T
  0.0841104196613279  0.9384299207685660  0.5461131164787434   T   T   T
  0.2488488588772686  0.6833149716635961  0.5517510376211727   T   T   T
  0.7492765200262997  0.9338411529645546  0.5476370172773132   T   T   T
  0.7517038563181400  0.6805276957056507  0.5532046558794795   T   T   T
  0.9156810054364949  0.9384271942208647  0.5463529481415265   T   T   T
  0.4177335854600661  0.0652672387941527  0.6399768398101825   T   T   T
  0.5839207054815656  0.9375785459911588  0.5461840224878687   T   T   T
  0.4118538760977524  0.8129096881771471  0.6391654854346889   T   T   T
  0.7601991488985008  0.2126413658144968  0.7530151036090360   T   T   T
  0.9141767134047218  0.5627204238141089  0.6408721692899747   T   T   T
  0.9133303870507447  0.8133219070101598  0.6420728147048465   T   T   T
  0.5827262041894418  0.0668259039697983  0.6390780526480880   T   T   T
  0.2494566634173583  0.3137601322403804  0.5459542719462996   T   T   T
  0.5908774568806099  0.5661610917366421  0.6382574574698806   T   T   T
  0.2475949550354289  0.5739461811079059  0.6288017963501153   T   T   T
  0.7538111513738794  0.6924716854852857  0.6572982645134519   T   T   T
  0.2627570093428154  0.8004678690684943  0.6461187454579351   T   T   T
  0.2509681432213871  0.0595193169513069  0.6423104218452103   T   T   T
  0.9166666865332829  0.5625000000092442  0.3605200052333331   F   F   F
  0.4997714267297772  0.3728917385594301  0.5006966398018774   T   T   T
  0.5000987290087702  0.6208664536734301  0.5000107696644845   T   T   T
  0.8323966209258886  0.6230760400113792  0.5001791237100994   T   T   T
  0.2518806005310363  0.1882668515088360  0.5471530485274946   T   T   T
  0.8324102321389356  0.3730839975438306  0.4998398632989736   T   T   T
  0.9139200629706873  0.3120816937902239  0.6397374106713971   T   T   T
  0.1667602691840217  0.3762031576400703  0.4977556839120083   T   T   T
  0.5808449650162303  0.4389381968347838  0.6462446630714298   T   T   T
  0.5768823497066666  0.6864415471343402  0.6397459768850666   T   T   T
  0.9162985627878645  0.1866873476180755  0.6398715421003700   T   T   T
  0.2492151982975380  0.3165715998369841  0.6412454330134114   T   T   T
  0.1677498452794824  0.8732612268921619  0.4998773525816331   T   T   T
  0.9158227872362092  0.4369779510531728  0.4535739214294591   T   T   T
  0.1670714302217563  0.1244479035481459  0.4993770859981143   T   T   T
  0.7487578540326248  0.0596004273275265  0.5442739390774591   T   T   T
  0.4247511258694955  0.3049362233119988  0.6563059831800372   T   T   T
  0.5899952431616516  0.8108601839816189  0.6458888678145128   T   T   T
  0.4203548800768996  0.6762915012596940  0.6338704910128463   T   T   T
  0.7557008628207441  0.4361085606656993  0.6385095468748662   T   T   T
  0.4985709609715999  0.2539479077147268  0.5913802844802969   T   T   T
  0.9160707267312547  0.0624849810998685  0.6413748502944812   T   T   T
  0.1675413511478114  0.6241539487977403  0.5001589940709766   T   T   T
  0.4999868354199627  0.8731573840658468  0.5008484349619888   T   T   T
  0.8329873603280267  0.1246202507370170  0.4997711212225773   T   T   T
  0.4165172572382652  0.1910504254296790  0.5468158850111942   T   T   T
  0.7411170315484458  0.8100725611240966  0.6397741492723087   T   T   T
  0.7518573364651520  0.5701217229527610  0.6352187875132056   T   T   T
  0.4175937741858536  0.9350315589338701  0.6396174147736462   T   T   T
  0.7443583880178453  0.3131032548693460  0.6400416900796411   T   T   T
  0.7491239912078896  0.0675461282659985  0.6388718218173268   T   T   T
  0.0838622922777523  0.3118148316471480  0.6405525817940364   T   T   T
  0.6664606419986846  0.8742988174608857  0.4987872568805524   T   T   T
  0.0865825633719072  0.5626932629061452  0.6398780384875410   T   T   T
  0.0871999556291061  0.4365510250962194  0.6397303231454612   T   T   T
  0.4175486978503951  0.1874806267115657  0.6399231963410013   T   T   T
  0.4158251445470747  0.4184333925478128  0.6300365410915373   T   T   T
  0.0844872007067638  0.9357975040005312  0.6409850277939343   T   T   T
  0.0833751579175813  0.6870196773391212  0.6387988857161661   T   T   T
  0.0839930327261050  0.0609237371795186  0.6419251853687786   T   T   T
  0.8331263756320688  0.5039690971166146  0.5889757579629126   T   T   T
  0.0834320980416174  0.1858885998282745  0.6409527316065671   T   T   T
  0.2400069239127469  0.4422923827754359  0.6416749104162768   T   T   T
  0.9120850432567384  0.4361783222986930  0.6399297075990072   T   T   T
  0.2520572280016441  0.9303200564749728  0.6373096568522088   T   T   T
  0.9163578872060824  0.6876421699620812  0.6390198531972039   T   T   T
  0.9144295955085149  0.9370396498336290  0.6413365503104601   T   T   T
  0.3974775039024060  0.5504888905474260  0.6518996964410483   T   T   T
  0.2543100979250833  0.6782700230518023  0.6626796230156785   T   T   T
  0.2535801160572595  0.1865717483038774  0.6412046093020737   T   T   T
  0.5782674264465517  0.1922353946202195  0.6454563517580909   T   T   T
  0.5823304834959618  0.9365584010626317  0.6391412794390462   T   T   T
  0.9166666865332829  0.8124999999834799  0.3605200052333331   F   F   F
  0.7518977425967438  0.1958997253153845  0.6472579250173951   T   T   T
  0.8318406738893730  0.2502439349047733  0.5903789060749114   T   T   T
  0.8303817898019742  0.7508674773623087  0.5927758968611038   T   T   T
  0.0847091324513789  0.8126019956741131  0.6424781082955103   T   T   T
  0.1666666716383389  0.3750000000061604  0.4070133268666680   F   F   F
  0.3262346706403324  0.3732855621393105  0.5927940258656155   T   T   T
  0.6673172359653479  0.2478420382486027  0.5027277673448577   T   T   T
  0.8356300919950819  0.2485931928092393  0.5028193010026150   T   T   T
  0.6666666865533486  0.3750000000061604  0.4070133268666680   F   F   F
  0.0004523582140494  0.1231239807314188  0.6195110594003098   T   T   T
  0.6654428232540477  0.7517928604929711  0.5021729541055372   T   T   T
  0.3303263480311513  0.2480059651519866  0.5029244042171106   T   T   T
  0.6660643331857323  0.0001649314830304  0.5056084750998325   T   T   T
  0.1644825469327936  0.7513402423671947  0.5034488001004939   T   T   T
  0.8333332538436267  0.6249999999803961  0.4070133268666680   F   F   F
  0.6686235670479210  0.4999151312950023  0.5006961196049162   T   T   T
  0.3312338010115599  0.4991522981533422  0.5010215506023362   T   T   T
  0.5010371409972380  0.7528590664746740  0.5038834528220059   T   T   T
  0.0000000000000000  0.8749999404036828  0.4070133268666680   F   F   F
  0.9998918132918833  0.7510689143735254  0.5067430183015579   T   T   T
  0.3338776243741438  0.7510909308873323  0.5015005127437357   T   T   T
  0.5010602269535830  0.4996793549785691  0.5003811936156393   T   T   T
  0.3333333432766779  0.1249999999871179  0.4070133268666680   F   F   F
  0.5013552261524089  0.2479173724634204  0.5022917357319383   T   T   T
  0.0008872106495924  0.2499094396664938  0.5059576985573194   T   T   T
  0.0001693373332923  0.9998614101451786  0.5066955662676577   T   T   T
  0.6666666865533486  0.6249999999803961  0.4070133268666680   F   F   F
  0.8333332538436267  0.8749999404036828  0.4070133268666680   F   F   F
  0.3333333432766779  0.6249999999803961  0.4070133268666680   F   F   F
  0.3333333432766779  0.8749999404036828  0.4070133268666680   F   F   F
  0.3333333432766779  0.3750000000061604  0.4070133268666680   F   F   F
  0.8344010633303868  0.0001784803123933  0.5062891408220425   T   T   T
  0.6666666865533486  0.1249999999871179  0.4070133268666680   F   F   F
  0.0000000000000000  0.6249999999803961  0.4070133268666680   F   F   F
  0.1664097034873606  0.2482496713769838  0.5062564582600365   T   T   T
  0.5003256401377827  0.9992615378987113  0.5054175159124572   T   T   T
  0.1660157991377938  0.0011677683308396  0.5065400945235654   T   T   T
  0.9995296678916165  0.5000254014442109  0.5067103530690565   T   T   T
  0.3331451414151615  0.0011361078216208  0.5056720212999212   T   T   T
  0.5009637930250167  0.8772190052499255  0.6095264830303854   T   T   T
  0.0000000000000000  0.1249999999871179  0.4070133268666680   F   F   F
  0.9992107212738012  0.8748627214961867  0.6239675642909819   T   T   T
  0.8333332538436267  0.3750000000061604  0.4070133268666680   F   F   F
  0.8333332538436267  0.1249999999871179  0.4070133268666680   F   F   F
  0.6663611637896538  0.1259252936073125  0.6149068383718668   T   T   T
  0.5000000000021103  0.6249999999803961  0.4070133268666680   F   F   F
  0.8393888687175500  0.6271170375122932  0.6042796679934518   T   T   T
  0.5000000000021103  0.8749999404036828  0.4070133268666680   F   F   F
  0.1636445230700142  0.4999045610845795  0.5019834461733752   T   T   T
  0.8318540675612158  0.8765605550157561  0.6180683075129108   T   T   T
  0.8366721759477749  0.3729754441675048  0.6033595428184592   T   T   T
  0.8360123808496387  0.7515388417123923  0.5026315124469858   T   T   T
  0.5000000000021103  0.1249999999871179  0.4070133268666680   F   F   F
  0.1666666716383389  0.8749999404036828  0.4070133268666680   F   F   F
  0.8358391622481433  0.4999736472277515  0.5029550854750421   T   T   T
  0.9998525246495447  0.6235145341170879  0.6242469232269044   T   T   T
  0.1666666716383389  0.6249999999803961  0.4070133268666680   F   F   F
  0.3315825626278897  0.1198987780019943  0.6126294449900563   T   T   T
  0.5004928326109912  0.1226737765854333  0.6068450186228626   T   T   T
  0.1666666716383389  0.1249999999871179  0.4070133268666680   F   F   F
  0.0000000000000000  0.3750000000061604  0.4070133268666680   F   F   F
  0.5034476291436151  0.6248236315114725  0.5942568319903068   T   T   T
  0.5000000000021103  0.3750000000061604  0.4070133268666680   F   F   F
  0.6666666865533486  0.8749999404036828  0.4070133268666680   F   F   F
  0.3342223096482124  0.6244055160656851  0.5950807637340612   T   T   T
  0.3346314366267054  0.8790718918779246  0.6025874094740208   T   T   T
  0.1662513352537454  0.8738814560158310  0.6174563166283351   T   T   T
  0.6710672800808921  0.3734521570033226  0.5934048171333469   T   T   T
  0.1596193899316209  0.6273325753472183  0.6013310065961281   T   T   T
  0.1676778868496321  0.1231126890592220  0.6218705682078739   T   T   T
  0.1633562035897247  0.3712406745563100  0.6075549536036479   T   T   T
  0.6652675763895811  0.8813278981664064  0.6071242737466089   T   T   T
  0.6662787354326344  0.6261608867736992  0.5930998957342059   T   T   T
  0.9996672164915713  0.3750814972708182  0.6250537344808951   T   T   T
  0.8345417543839306  0.1244889777843814  0.6157135290164015   T   T   T
  0.5025531874969362  0.3707334458151462  0.5954531752920442   T   T   T
  0.0830722091963245  0.1247813243124119  0.5067766794117354   T   T   T
  0.0810058040818804  0.6258428448371467  0.5054113198300426   T   T   T
  0.5847023212917849  0.7500849340551776  0.5997600560596731   T   T   T
  0.0833500638617306  0.2483140903584588  0.6035804520271696   T   T   T
  0.7498438682410657  0.0018878031866828  0.6042438657373369   T   T   T
  0.5831376616726162  0.0018449212954483  0.6040214540337251   T   T   T
  0.2493502452821811  0.2460507664941781  0.6037208797950907   T   T   T
  0.5902517414419015  0.5014021014288166  0.5936427907145108   T   T   T
  0.4152680624344923  0.2483747897320305  0.5912140619094103   T   T   T
  0.2499443276617423  0.7528938841567308  0.5920186563663409   T   T   T
  0.5851629354758549  0.2478218471111422  0.5968903870047910   T   T   T
  0.2496283372203655  0.9978424960967170  0.6041866525491125   T   T   T
  0.7538085917168702  0.2478845095464866  0.5936282805947242   T   T   T
  0.9165879617489189  0.9998056245459391  0.6038195590574698   T   T   T