Au  C H  O Sr Ti                        
   1.00000000000000     
    23.6707801818999997    0.0000000000000000    0.0000000000000000
     0.0000000000000000   22.3170261383000010    0.0000000000000000
     0.0000000000000000    0.0000000000000000   30.0000000000000000
   Au   C    H    O    Sr   Ti
    50     1     1   264    72    72
Selective dynamics
Direct
  0.7167017094745970  0.5256111699370970  0.7534556458639243   T   T   T
  0.7061749603031234  0.7572644117420740  0.6882141081323460   T   T   T
  0.6563147983914045  0.4412275374578715  0.8123287705521571   T   T   T
  0.3684078659523465  0.6183480948559126  0.8202866706735856   T   T   T
  0.5702730788660203  0.5095878212804698  0.8564261512600907   T   T   T
  0.6665220166667776  0.1875206298400019  0.7488332428631718   T   T   T
  0.4718816201016007  0.4495459272977672  0.8777443730232792   T   T   T
  0.5175715993885088  0.3772982772730570  0.7323673809123934   T   T   T
  0.2827810852647610  0.3397684434944687  0.7022162585188269   T   T   T
  0.6696264586021465  0.6811898133448614  0.7486455501430687   T   T   T
  0.3981147990283703  0.3814460709840888  0.6901903743836670   T   T   T
  0.6166942362844221  0.3210550208055766  0.6962224099434769   T   T   T
  0.3756858904630779  0.4925398173864322  0.8326464494770821   T   T   T
  0.3260242997515612  0.4143635142035407  0.7691081124995567   T   T   T
  0.4192637665587723  0.6968385830643467  0.6992987087968699   T   T   T
  0.7009048846133056  0.3443759418312642  0.7570535799939688   T   T   T
  0.7744531725334332  0.4286953688144164  0.7946516084014127   T   T   T
  0.2568918054171859  0.5929607038099509  0.6946272710525795   T   T   T
  0.6487417172769794  0.4451429900531911  0.6947232182644290   T   T   T
  0.5644085382676755  0.6392658114084920  0.8610520354274330   T   T   T
  0.5418038652760585  0.6663491863031219  0.7012312670658991   T   T   T
  0.4440458758233912  0.4739890617459854  0.7562324628583207   T   T   T
  0.3742342926719821  0.7391416849634117  0.7786646658970362   T   T   T
  0.4628636150092428  0.5727106201116188  0.8640330269919575   T   T   T
  0.4524824419507095  0.5797691121439550  0.7026852773903517   T   T   T
  0.4869975736678309  0.2694146969852949  0.7749290174807659   T   T   T
  0.2893510923837602  0.5375215988255750  0.7775464338594408   T   T   T
  0.5563778863402240  0.2120566565345068  0.7101104679661283   T   T   T
  0.6227207953278077  0.5702031305154660  0.7041017074384691   T   T   T
  0.7194375337672119  0.2571808049850892  0.6908047003672358   T   T   T
  0.2937967528440185  0.7463444606604274  0.6975257894968494   T   T   T
  0.5121854248446256  0.6032725232117727  0.7767451129756636   T   T   T
  0.5782748556366762  0.7252875907145843  0.7937452235102128   T   T   T
  0.2407007636377574  0.4694078015419682  0.7089700920962069   T   T   T
  0.2849526109026614  0.6619856550126068  0.7650097692617723   T   T   T
  0.6026473040600118  0.2864639140220365  0.7841986972416961   T   T   T
  0.5145681163238689  0.4842640198371688  0.6779810678115774   T   T   T
  0.5632645411437167  0.4858860790365483  0.7622579844785866   T   T   T
  0.5501115933937241  0.3833806139213135  0.8276761990343871   T   T   T
  0.7640154351790025  0.4315884060355267  0.7047713571176317   T   T   T
  0.3914273605460493  0.8172751615908497  0.7066205506251475   T   T   T
  0.4636151301701326  0.6949539513561190  0.8301642567400251   T   T   T
  0.4391064647986606  0.2280351920767885  0.6975764528725836   T   T   T
  0.3711593530871260  0.2983628203143612  0.7550775190305633   T   T   T
  0.3497041528471425  0.4994745996464157  0.6977351296133103   T   T   T
  0.4299237198730885  0.3707923969002554  0.8148578111377602   T   T   T
  0.5959994017580326  0.7844308851814031  0.7130430099223860   T   T   T
  0.6350633282312785  0.5841842998847898  0.8000622697413700   T   T   T
  0.7335595170301515  0.6152769589439256  0.6936886684725982   T   T   T
  0.4856053701469635  0.7770805147204696  0.7557043995482682   T   T   T
  0.7133774667186658  0.1194914178235814  0.7583186813577916   T   T   T
  0.7539337891866319  0.1162285519631865  0.7397681532464517   T   T   T
  0.4146552688446419  0.8118670887049770  0.5480002176934743   T   T   T
  0.2510754343341992  0.0625708833153085  0.5472658964532880   T   T   T
  0.7465028491725844  0.5579310100074565  0.5445139477288934   T   T   T
  0.7483536319723509  0.8082092008184552  0.5455941456285169   T   T   T
  0.2495225810388395  0.3137404070153803  0.5459666845051033   T   T   T
  0.5827907705708266  0.3111721803658326  0.5450655575593594   T   T   T
  0.2531509631665475  0.8126456701701317  0.5510045738598414   T   T   T
  0.5830645426433766  0.0620252499110921  0.5455088062572442   T   T   T
  0.5862064079861597  0.8146256367714610  0.5503891792763553   T   T   T
  0.7479340083132693  0.3116809893972832  0.5478441672887419   T   T   T
  0.5811037821537208  0.5600910002055846  0.5490888009830607   T   T   T
  0.2524033190770941  0.5590543097776849  0.5439548975125901   T   T   T
  0.4160909949703824  0.3195610563298477  0.5525994427739513   T   T   T
  0.5767500652042401  0.4358243344230673  0.5520797954656379   T   T   T
  0.4165271545629505  0.0654428000239930  0.5473817859333463   T   T   T
  0.0849051299421721  0.8129157657880386  0.5473353278994404   T   T   T
  0.0824388301997853  0.5643171943358367  0.5462813530292457   T   T   T
  0.0863242431729994  0.3134428039346704  0.5468846617628129   T   T   T
  0.0823229239143816  0.0632346421649388  0.5475854911634902   T   T   T
  0.9157063263519045  0.9386071125149031  0.5464252927645344   T   T   T
  0.9138649252747425  0.6892010447815240  0.5452327114085607   T   T   T
  0.5838841767897022  0.9378746566922320  0.5460987876952630   T   T   T
  0.9169550519455506  0.1889931533545514  0.5452734684279203   T   T   T
  0.9159844523432762  0.4376455304135936  0.5457774093413048   T   T   T
  0.5795485758994995  0.6862693238190957  0.5472558186850491   T   T   T
  0.2515303527403492  0.9373139830541704  0.5452680638401621   T   T   T
  0.4976188414421201  0.5044524269098893  0.6089728492940387   T   T   T
  0.9171892476073068  0.5637760353027961  0.5467771836608424   T   T   T
  0.4201377043519069  0.5650750237825913  0.5554287364336737   T   T   T
  0.9155795765123976  0.8128947550999113  0.5468645614718335   T   T   T
  0.0836498715029102  0.9388725253742748  0.5458275708335544   T   T   T
  0.2493260907803801  0.6832593458795441  0.5521000455327761   T   T   T
  0.7493183572223431  0.9340466397546129  0.5476312600895743   T   T   T
  0.7520104138035477  0.6803416329487185  0.5531580272865991   T   T   T
  0.7519989569950551  0.4352252617527027  0.5490039417898643   T   T   T
  0.4231255101741109  0.4439549644742887  0.5455902011472292   T   T   T
  0.4232154310273817  0.6880879440197454  0.5466347674877050   T   T   T
  0.7485720520358927  0.1837255538340441  0.5508452453139825   T   T   T
  0.4158567303555991  0.9372033656143598  0.5459943028520480   T   T   T
  0.4990272380044407  0.2526128324867812  0.5905157703565016   T   T   T
  0.4157979125791041  0.1914926016627436  0.5464761032029919   T   T   T
  0.0865406213386744  0.6896461653693636  0.5451794577785787   T   T   T
  0.0825479725748299  0.4386196890473189  0.5450533288344325   T   T   T
  0.0836016203277897  0.1889090517748052  0.5455749302150817   T   T   T
  0.4995206286999803  0.1256501605896720  0.4995945714534517   T   T   T
  0.9996546201251827  0.5005809370988793  0.5943403065754908   T   T   T
  0.5807987697581227  0.1852141744578113  0.5499194940240614   T   T   T
  0.9996957905834613  0.7533100774807816  0.5923518843531015   T   T   T
  0.3340174702991729  0.9998427796271413  0.5920043564817485   T   T   T
  0.9998133060369734  0.9993018040649174  0.5931640595159560   T   T   T
  0.0008177554923489  0.2499344039480207  0.5919113223505463   T   T   T
  0.3333238256461026  0.4964032904211461  0.5909347047073595   T   T   T
  0.3359394052326573  0.7411981187370050  0.5905334178784082   T   T   T
  0.6636519665099812  0.2480335400544760  0.5901317696183147   T   T   T
  0.6660984538957919  0.0005698991219021  0.5920115893623775   T   T   T
  0.6659704647728284  0.7418193987920065  0.5900149631364552   T   T   T
  0.6668235014732399  0.4943987993781869  0.5912776967888667   T   T   T
  0.1674483536057906  0.9984012927796702  0.5923257656511965   T   T   T
  0.1683999170099922  0.2491624199372484  0.5930756960449893   T   T   T
  0.1707780616189948  0.7501240936519887  0.5950863283213859   T   T   T
  0.2484859525726512  0.4358983433171175  0.5491138256433546   T   T   T
  0.1655730646107961  0.5027253148006144  0.5874357521548085   T   T   T
  0.3349459357386487  0.2544750390370722  0.5928978395541826   T   T   T
  0.4996845488480448  0.0000176121418968  0.5909981654596190   T   T   T
  0.8328251022032506  0.8743930491764874  0.4986050426384122   T   T   T
  0.7485909642265471  0.9370191439188225  0.6402462386838276   T   T   T
  0.8321625240282932  0.0020919904809841  0.5922612783803545   T   T   T
  0.5013285276134545  0.7564318371868294  0.5930353954652103   T   T   T
  0.4178582202914135  0.0652318324979008  0.6400757656111722   T   T   T
  0.4294077763604134  0.3049427098251341  0.6550461282623722   T   T   T
  0.4129834660431117  0.8126888688903694  0.6397400477382537   T   T   T
  0.3972455775039083  0.5505993957324977  0.6519995571994233   T   T   T
  0.7531067479612104  0.5696508127760335  0.6347938613743181   T   T   T
  0.7410600953412940  0.8100121133232489  0.6398843043772663   T   T   T
  0.7465964657980024  0.3122248283756562  0.6406045941162728   T   T   T
  0.7482806305104943  0.0675033667023997  0.6398447316897629   T   T   T
  0.0837522620177675  0.3118098099382129  0.6404207599603589   T   T   T
  0.6665685400951625  0.8745323283661808  0.4987964275388401   T   T   T
  0.0873316185869169  0.5621214685161173  0.6411006922390183   T   T   T
  0.0842548438925672  0.0606313242126302  0.6421198806077806   T   T   T
  0.0867392356401610  0.4364398228955343  0.6394052921596189   T   T   T
  0.0835604596644317  0.1857525360437290  0.6409927452379054   T   T   T
  0.4184809367955712  0.1874851691691256  0.6397651777041025   T   T   T
  0.4150295891332237  0.4187887991289040  0.6298833874843546   T   T   T
  0.0842823489135617  0.9356009887862825  0.6406881230961496   T   T   T
  0.0831575704767044  0.6870308070907920  0.6392214652847437   T   T   T
  0.9125590846350593  0.4360744837283535  0.6397250067329753   T   T   T
  0.9163117106890437  0.6875192315022635  0.6393692012249154   T   T   T
  0.9144137459556270  0.9371683510717113  0.6410449203899025   T   T   T
  0.2406033700688246  0.4420301134011188  0.6415512188150744   T   T   T
  0.2546514684546261  0.6775108697554747  0.6635083754168455   T   T   T
  0.5803341366029645  0.1915614815630169  0.6447891069357883   T   T   T
  0.2519563081271260  0.9301699866154611  0.6373739199284824   T   T   T
  0.0842544137045973  0.8123084734973711  0.6420978077507984   T   T   T
  0.9166666865332829  0.8124999999834799  0.3605200052333331   F   F   F
  0.8332787003702743  0.5030444486302523  0.5887557847519181   T   T   T
  0.8316300673966065  0.2492652992160200  0.5908453955857108   T   T   T
  0.8305866794774468  0.7509271896573666  0.5927940575131622   T   T   T
  0.5820677594069910  0.9358599952709672  0.6393326725380141   T   T   T
  0.2533289892695391  0.1864746149151713  0.6410727181229335   T   T   T
  0.7458719468417540  0.1938213721443760  0.6458005870833361   T   T   T
  0.7553063923132012  0.4348160170770376  0.6382697745667600   T   T   T
  0.4173695985817057  0.9349698462156678  0.6397702699755321   T   T   T
  0.4210724705949193  0.6758392781319955  0.6334758030953884   T   T   T
  0.5911226223168294  0.8101003700709810  0.6461329002205425   T   T   T
  0.9157553642297359  0.0627774774832027  0.6414789380450150   T   T   T
  0.9126357252838259  0.5617531577485393  0.6418436470801299   T   T   T
  0.9150283458724626  0.3118144507389254  0.6397048933950652   T   T   T
  0.9141565733057118  0.8132663796579285  0.6415437561888819   T   T   T
  0.5826160661043753  0.0665195469907537  0.6387443691724800   T   T   T
  0.5835943950537614  0.3206198346452411  0.6336528897786080   T   T   T
  0.5913138311451176  0.5648330157507886  0.6393714742318778   T   T   T
  0.2476281287274594  0.5739677993895853  0.6287922744557940   T   T   T
  0.7540448597756021  0.6930605942664463  0.6568996763981448   T   T   T
  0.2621234727991398  0.7989068164970035  0.6466477706186881   T   T   T
  0.2510008374520295  0.0594444603438672  0.6423217746736890   T   T   T
  0.9166666865332829  0.5625000000092442  0.3605200052333331   F   F   F
  0.4995390201521315  0.3742946511942402  0.4998177074301122   T   T   T
  0.5000098759562355  0.8734146223477394  0.5008920454992712   T   T   T
  0.5003194123618279  0.6211226948102807  0.5000349939259068   T   T   T
  0.8324167864249911  0.6230862258847946  0.4999896533397754   T   T   T
  0.2518705196533342  0.1883726403374125  0.5471104294976413   T   T   T
  0.8325392702563299  0.3732672721864178  0.4996275138448613   T   T   T
  0.8329313728919201  0.1245385828087730  0.5002262811956348   T   T   T
  0.1667332825310407  0.3762378140953655  0.4978612215117075   T   T   T
  0.1678436428591804  0.6243304834856961  0.4999966793310476   T   T   T
  0.5814440403825091  0.4384729163123032  0.6460469595034830   T   T   T
  0.5800662662858848  0.6853219214270202  0.6391734538499334   T   T   T
  0.9161517631341308  0.1863226087723701  0.6398818317745925   T   T   T
  0.2492226318586083  0.3162450041845322  0.6413212956100838   T   T   T
  0.1677407925954609  0.8732776501231444  0.4998930888637773   T   T   T
  0.7482021280397186  0.0598764710175518  0.5447330177181667   T   T   T
  0.1670772219977158  0.1243087746613384  0.4993164686940021   T   T   T
  0.9159358011143673  0.4370013535471906  0.4536245479699326   T   T   T
  0.9158061148744446  0.1868238748470833  0.4531836751099957   T   T   T
  0.5826785937352442  0.9372032803936652  0.4543163840814982   T   T   T
  0.5827733766444919  0.6861214495417152  0.4545603817843298   T   T   T
  0.5827063797077060  0.4395096708538269  0.4563594837973716   T   T   T
  0.2500703754704492  0.9360507266591176  0.4541026011346352   T   T   T
  0.6653711709506566  0.6260237965794548  0.5029696003701067   T   T   T
  0.5844879944349062  0.5627919472313998  0.4548612311001115   T   T   T
  0.5832315757039739  0.0637026585045540  0.4538622354852567   T   T   T
  0.9166666865332829  0.6874999999963620  0.3605200052333331   F   F   F
  0.9166666865332829  0.4374999701794380  0.3605200052333331   F   F   F
  0.9166666865332829  0.1875000000030838  0.3605200052333331   F   F   F
  0.5833333134730552  0.9375000000154046  0.3605200052333331   F   F   F
  0.5833333134730552  0.6874999999963620  0.3605200052333331   F   F   F
  0.5833333134730552  0.4374999701794380  0.3605200052333331   F   F   F
  0.5833333134730552  0.1875000000030838  0.3605200052333331   F   F   F
  0.2499999999799343  0.9375000000154046  0.3605200052333331   F   F   F
  0.9166666865332829  0.9375000000154046  0.3605200052333331   F   F   F
  0.2499999999799343  0.6874999999963620  0.3605200052333331   F   F   F
  0.2499999999799343  0.1875000000030838  0.3605200052333331   F   F   F
  0.7499999404149307  0.9375000000154046  0.3605200052333331   F   F   F
  0.7499999404149307  0.6874999999963620  0.3605200052333331   F   F   F
  0.7499999404149307  0.4374999701794380  0.3605200052333331   F   F   F
  0.7499999404149307  0.1875000000030838  0.3605200052333331   F   F   F
  0.4166666269218169  0.9375000000154046  0.3605200052333331   F   F   F
  0.4166666269218169  0.6874999999963620  0.3605200052333331   F   F   F
  0.4166666269218169  0.4374999701794380  0.3605200052333331   F   F   F
  0.2499999999799343  0.4374999701794380  0.3605200052333331   F   F   F
  0.0833333358191695  0.0625000000159659  0.3605200052333331   F   F   F
  0.9154297793010118  0.6867512174214897  0.4531130194495744   T   T   T
  0.6653904936219166  0.3785664931015177  0.5029867535482840   T   T   T
  0.3343705954045413  0.3784771377064490  0.5030048529978319   T   T   T
  0.3356672989671454  0.6256390448606709  0.5038588414404612   T   T   T
  0.9176240333138191  0.0633898643260906  0.5474715994088515   T   T   T
  0.2498733065510935  0.1884948154367783  0.4540947892460694   T   T   T
  0.7495301783633521  0.9383979347048327  0.4553168270839210   T   T   T
  0.7490624908828987  0.6886795308908531  0.4573612625280238   T   T   T
  0.7496294001409711  0.4383927126248718  0.4557125037501729   T   T   T
  0.7507725471507051  0.1898718441424236  0.4557441221286805   T   T   T
  0.4171758549815529  0.9358433400380172  0.4539933564788264   T   T   T
  0.4171063434483594  0.6847060412848330  0.4546841156192876   T   T   T
  0.4164656310480844  0.4354347850176781  0.4538412160352147   T   T   T
  0.0846018641018070  0.6868640899522784  0.4530195539190047   T   T   T
  0.0839076038538967  0.9366518207124841  0.4534989249811458   T   T   T
  0.0827836626784913  0.4367908387024225  0.4528728667623600   T   T   T
  0.0838534709407958  0.1865684238964356  0.4529871224848021   T   T   T
  0.9165767908319301  0.8120879231516386  0.4540698705669973   T   T   T
  0.0833333358191695  0.3124999999901945  0.3605200052333331   F   F   F
  0.9162155134540984  0.5623399586199733  0.4538833143192272   T   T   T
  0.9161066655533285  0.0622512040573003  0.4540933036532885   T   T   T
  0.9162330428967705  0.3121873267251541  0.4538740009173345   T   T   T
  0.4171562614752494  0.1871442048250870  0.4535357263993883   T   T   T
  0.2521768345396396  0.6876220339086317  0.4561348806902945   T   T   T
  0.9164628995926767  0.9371447528087434  0.4536594029704945   T   T   T
  0.5827076910305647  0.1902881726038526  0.4555694123158948   T   T   T
  0.0001676228852186  0.1250213451847282  0.4982996494693357   T   T   T
  0.5832586255902369  0.8105100877691424  0.4553325871605572   T   T   T
 -0.0000377298763988  0.3734402327115198  0.4983671157769075   T   T   T
  0.0000034791059897  0.6271193742059978  0.4977195625606401   T   T   T
  0.3336310088802881  0.1256524562844618  0.4985249354263826   T   T   T
  0.0000646796417814  0.8751762579648060  0.4995339563857191   T   T   T
  0.3334370773888974  0.8737580145914751  0.4993202927165361   T   T   T
  0.6661220793020018  0.1264123299024784  0.4990530193947739   T   T   T
  0.2511745554086952  0.4392638411941378  0.4549391896723933   T   T   T
  0.0833333358191695  0.5625000000092442  0.3605200052333331   F   F   F
  0.9166666865332829  0.0625000000159659  0.3605200052333331   F   F   F
  0.7493644990699008  0.8131977979083963  0.4530307055533015   T   T   T
  0.2505232695307559  0.0620160802007014  0.4542542471325850   T   T   T
  0.9155728906073555  0.3128741764860229  0.5467886709494112   T   T   T
  0.2522711780199802  0.3141289772889494  0.4541830476088903   T   T   T
  0.2519405869555039  0.5645999134431207  0.4538177212169868   T   T   T
  0.2504787138672310  0.8108021606494945  0.4553557117949717   T   T   T
  0.8333332538436267  0.2500000000190425  0.4070133268666680   F   F   F
  0.5841558532495755  0.3153401038625345  0.4536990894151248   T   T   T
  0.8333332538436267  0.0000000000000000  0.4070133268666680   F   F   F
  0.5000000000021103  0.4999999999932783  0.4070133268666680   F   F   F
  0.0833333358191695  0.1875000000030838  0.3605200052333331   F   F   F
  0.0000000000000000  0.0000000000000000  0.4070133268666680   F   F   F
  0.0000000000000000  0.2500000000190425  0.4070133268666680   F   F   F
  0.0000000000000000  0.4999999999932783  0.4070133268666680   F   F   F
  0.7481611796824106  0.5642883228777708  0.4537439040616231   T   T   T
  0.3333333432766779  0.0000000000000000  0.4070133268666680   F   F   F
  0.3333333432766779  0.4999999999932783  0.4070133268666680   F   F   F
  0.3333333432766779  0.7500000000123208  0.4070133268666680   F   F   F
  0.6666666865533486  0.0000000000000000  0.4070133268666680   F   F   F
  0.6666666865533486  0.2500000000190425  0.4070133268666680   F   F   F
  0.6666666865533486  0.4999999999932783  0.4070133268666680   F   F   F
  0.6666666865533486  0.7500000000123208  0.4070133268666680   F   F   F
  0.1666666716383389  0.0000000000000000  0.4070133268666680   F   F   F
  0.1666666716383389  0.2500000000190425  0.4070133268666680   F   F   F
  0.1666666716383389  0.4999999999932783  0.4070133268666680   F   F   F
  0.1666666716383389  0.7500000000123208  0.4070133268666680   F   F   F
  0.5000000000021103  0.0000000000000000  0.4070133268666680   F   F   F
  0.5000000000021103  0.2500000000190425  0.4070133268666680   F   F   F
  0.5000000000021103  0.7500000000123208  0.4070133268666680   F   F   F
  0.9166666865332829  0.3124999999901945  0.3605200052333331   F   F   F
  0.3333333432766779  0.2500000000190425  0.4070133268666680   F   F   F
  0.7474505898502058  0.3141887871859245  0.4546179346738435   T   T   T
  0.0000000000000000  0.7500000000123208  0.4070133268666680   F   F   F
  0.4167154869345694  0.8099353096578997  0.4551638434754731   T   T   T
  0.5833333134730552  0.5625000000092442  0.3605200052333331   F   F   F
  0.7497363435266384  0.0640676867041773  0.4534158169298251   T   T   T
  0.5833333134730552  0.8124999999834799  0.3605200052333331   F   F   F
  0.5833333134730552  0.3124999999901945  0.3605200052333331   F   F   F
  0.5833333134730552  0.0625000000159659  0.3605200052333331   F   F   F
  0.2499999999799343  0.8124999999834799  0.3605200052333331   F   F   F
  0.2499999999799343  0.5625000000092442  0.3605200052333331   F   F   F
  0.2499999999799343  0.3124999999901945  0.3605200052333331   F   F   F
  0.2499999999799343  0.0625000000159659  0.3605200052333331   F   F   F
  0.7499999404149307  0.5625000000092442  0.3605200052333331   F   F   F
  0.7499999404149307  0.3124999999901945  0.3605200052333331   F   F   F
  0.7499999404149307  0.0625000000159659  0.3605200052333331   F   F   F
  0.4166666269218169  0.8124999999834799  0.3605200052333331   F   F   F
  0.4166666269218169  0.5625000000092442  0.3605200052333331   F   F   F
  0.4166666269218169  0.3124999999901945  0.3605200052333331   F   F   F
  0.7499999404149307  0.8124999999834799  0.3605200052333331   F   F   F
  0.0835506050912255  0.3120482672898438  0.4539657183278631   T   T   T
  0.4166666269218169  0.0625000000159659  0.3605200052333331   F   F   F
  0.4169369608231471  0.0615841521455131  0.4553450567091273   T   T   T
  0.0835117097322368  0.8120951892241947  0.4541826707543272   T   T   T
  0.0839666990833326  0.5624837693264894  0.4538642590168554   T   T   T
  0.4161061227620586  0.5595060922493421  0.4578686231493060   T   T   T
  0.0837914362952415  0.0618669456603767  0.4541765187594995   T   T   T
  0.4155715732305829  0.3113588163199864  0.4573723553208599   T   T   T
  0.8333332538436267  0.7500000000123208  0.4070133268666680   F   F   F
  0.0833333358191695  0.4374999701794380  0.3605200052333331   F   F   F
  0.0833333358191695  0.6874999999963620  0.3605200052333331   F   F   F
  0.0833333358191695  0.9375000000154046  0.3605200052333331   F   F   F
  0.4166666269218169  0.1875000000030838  0.3605200052333331   F   F   F
  0.0833333358191695  0.8124999999834799  0.3605200052333331   F   F   F
  0.8333332538436267  0.4999999999932783  0.4070133268666680   F   F   F
  0.8372848601232792  0.3725528269137448  0.6040401814393280   T   T   T
  0.8320808231101401  0.8762510965623014  0.6181421398585799   T   T   T
  0.5000000000021103  0.1249999999871179  0.4070133268666680   F   F   F
  0.9991271879595548  0.8750815667301980  0.6222229214775699   T   T   T
  0.3316429051737592  0.1198920811440586  0.6134438881436863   T   T   T
  0.8400307091217174  0.6270052913393767  0.6032391594892071   T   T   T
  0.8360870490233107  0.7517795456787920  0.5025927778656276   T   T   T
  0.5000000000021103  0.6249999999803961  0.4070133268666680   F   F   F
  0.1666666716383389  0.1249999999871179  0.4070133268666680   F   F   F
  0.8333332538436267  0.3750000000061604  0.4070133268666680   F   F   F
  0.8333332538436267  0.1249999999871179  0.4070133268666680   F   F   F
  0.5000000000021103  0.8749999404036828  0.4070133268666680   F   F   F
  0.3342671376129998  0.6244567070569896  0.5952178882674412   T   T   T
  0.0000000000000000  0.3750000000061604  0.4070133268666680   F   F   F
  0.3259502101694615  0.3735968627244530  0.5927076114624682   T   T   T
  0.5007638418599782  0.8768132772245911  0.6095506010403603   T   T   T
  0.6657497396748815  0.1246022616629274  0.6104000659355350   T   T   T
  0.1666666716383389  0.8749999404036828  0.4070133268666680   F   F   F
  0.5039874374127986  0.6250789703367367  0.5939186837731476   T   T   T
  0.0000000000000000  0.1249999999871179  0.4070133268666680   F   F   F
  0.8339857769347507  0.1243652081227508  0.6156054865822248   T   T   T
  0.9996434913471411  0.6220626469403255  0.6327629001826514   T   T   T
  0.9999698195096596  0.3747812412680990  0.6232174333754943   T   T   T
  0.6664565654505425  0.6264098036870871  0.5934329034748961   T   T   T
  0.6654108560974995  0.8812177952269320  0.6072539711645366   T   T   T
  0.1632707081187058  0.3713979417876000  0.6076174949402020   T   T   T
  0.1676877310281420  0.1227548762744102  0.6218343534861057   T   T   T
  0.5004943451821392  0.1223799347979268  0.6061997232086970   T   T   T
  0.5017646554413036  0.3713122054843640  0.5948723667634189   T   T   T
  0.1661337033183682  0.8734625777766525  0.6179446759213940   T   T   T
  0.1592726831344196  0.6272335421342309  0.6014222162991698   T   T   T
  0.3344908185050262  0.8785167128686975  0.6030689907303880   T   T   T
  0.6711932738661156  0.3725003129174681  0.5934875178222976   T   T   T
  0.1666666716383389  0.6249999999803961  0.4070133268666680   F   F   F
  0.5000000000021103  0.3750000000061604  0.4070133268666680   F   F   F
  0.6666666865533486  0.8749999404036828  0.4070133268666680   F   F   F
  0.5001720877369892  0.9992643893717239  0.5054676703277282   T   T   T
  0.1635451475470567  0.4998405340283363  0.5020629798390944   T   T   T
  0.1663362140245742  0.2482671305937372  0.5061792896518227   T   T   T
  0.1660157996124640  0.0011329272042335  0.5065871915670576   T   T   T
  0.6654590563603028  0.7519874599149285  0.5021591989853612   T   T   T
  0.6672542754029229  0.2479856819670390  0.5025486782270497   T   T   T
  0.6686465710165364  0.4998857697727914  0.5006207053361269   T   T   T
  0.3338721031167426  0.7511707727545776  0.5015988001833553   T   T   T
  0.3330726244144450  0.0010811163931635  0.5058114321586148   T   T   T
  0.3300991406763543  0.2480821271894902  0.5028250580168905   T   T   T
  0.3312175796169172  0.4992334891686188  0.5009595721944075   T   T   T
  0.9997508541416089  0.5005848609990494  0.5069771142411093   T   T   T
  0.8333332538436267  0.6249999999803961  0.4070133268666680   F   F   F
  0.0006390332192077  0.1227585594092147  0.6198390389121892   T   T   T
  0.1666666716383389  0.3750000000061604  0.4070133268666680   F   F   F
  0.1644742545319254  0.7515298789641343  0.5033740092871519   T   T   T
  0.5011598629351338  0.7528928006116371  0.5039199421289335   T   T   T
  0.6661064032736421  0.0000109878076674  0.5055943417754761   T   T   T
  0.5012680754448714  0.4999130996636478  0.5002893368903160   T   T   T
  0.8361872902038884  0.5000094885744160  0.5027303517885869   T   T   T
  0.6666666865533486  0.6249999999803961  0.4070133268666680   F   F   F
  0.6666666865533486  0.3750000000061604  0.4070133268666680   F   F   F
  0.6666666865533486  0.1249999999871179  0.4070133268666680   F   F   F
  0.3333333432766779  0.8749999404036828  0.4070133268666680   F   F   F
  0.8341450226064488  0.0002231701717880  0.5064890308133233   T   T   T
  0.3333333432766779  0.3750000000061604  0.4070133268666680   F   F   F
  0.3333333432766779  0.1249999999871179  0.4070133268666680   F   F   F
  0.3333333432766779  0.6249999999803961  0.4070133268666680   F   F   F
  0.0000000000000000  0.6249999999803961  0.4070133268666680   F   F   F
  0.8333332538436267  0.8749999404036828  0.4070133268666680   F   F   F
  0.0000691133630487 -0.0000170559098287  0.5066857439391664   T   T   T
  0.0008756024676479  0.2498337490864970  0.5058995246444478   T   T   T
  0.9999024756058486  0.7508692474537916  0.5066410508407306   T   T   T
  0.8356774378205448  0.2486166505659013  0.5028487442014092   T   T   T
  0.5010297903269016  0.2479771367516939  0.5019493431965742   T   T   T
  0.0000000000000000  0.8749999404036828  0.4070133268666680   F   F   F
  0.0833333358191695  0.7500000000123208  0.4070133268666680   F   F   F
  0.0833333358191695  0.4999999999932783  0.4070133268666680   F   F   F
  0.0833333358191695  0.2500000000190425  0.4070133268666680   F   F   F
  0.0833333358191695  0.0000000000000000  0.4070133268666680   F   F   F
  0.9166666865332829  0.4999999999932783  0.4070133268666680   F   F   F
  0.9166666865332829  0.7500000000123208  0.4070133268666680   F   F   F
  0.5833141079979537  0.1232607949119377  0.5043746149709161   T   T   T
  0.7524742412166484  0.6247127402904536  0.5023636358279657   T   T   T
  0.5838685682715481  0.8758681542324137  0.5057557815107406   T   T   T
  0.9178113083647003  0.1249171847392194  0.5062925060167666   T   T   T
  0.9186238365870625  0.3744958226341383  0.5059385088199781   T   T   T
  0.5836786081578321  0.3737011940856241  0.5018411338916635   T   T   T
  0.5838610086599009  0.6274311446521483  0.5006717792359666   T   T   T
  0.0830339664929768  0.1247356030745359  0.5067388257635261   T   T   T
  0.4166666269218169  0.0000000000000000  0.4070133268666680   F   F   F
  0.2499999999799343  0.2500000000190425  0.4070133268666680   F   F   F
  0.4166666269218169  0.4999999999932783  0.4070133268666680   F   F   F