Au  C H  O Sr Ti                          
   1.00000000000000     
    23.6707801818999997    0.0000000000000000    0.0000000000000000
     0.0000000000000000   22.3170261383000010    0.0000000000000000
     0.0000000000000000    0.0000000000000000   30.0000000000000000
   Au   C    H    O    Sr   Ti
    50   1    1    264   72   72
Selective dynamics
Direct
  0.7173768980417209  0.5262018731191681  0.7530993343616125   T   T   T
  0.7059616572008443  0.7574645351581638  0.6883242966144556   T   T   T
  0.6570315632724265  0.4429984941848312  0.8125866496085681   T   T   T
  0.3683637908252385  0.6178197728629097  0.8199784869940512   T   T   T
  0.5702175994700959  0.5096028978717145  0.8565148610366650   T   T   T
  0.6622649678395818  0.1888608460753624  0.7510253667838791   T   T   T
  0.4724045774952320  0.4488724743071473  0.8780451257789221   T   T   T
  0.5167618933694796  0.3773344280197706  0.7322995992724728   T   T   T
  0.2829760259334913  0.3379844481503936  0.7024192445819851   T   T   T
  0.6697152713063322  0.6812947495298165  0.7488255721293058   T   T   T
  0.3977521238464609  0.3816073240918648  0.6899940865730534   T   T   T
  0.6166293194954613  0.3223099316883797  0.6961331558586089   T   T   T
  0.3755765537656365  0.4915813516701971  0.8325811941197093   T   T   T
  0.3257991012722642  0.4138863536701510  0.7688622091370261   T   T   T
  0.4217264082633206  0.6979408181275117  0.6991692810781556   T   T   T
  0.6999823049668192  0.3463393393712233  0.7573100772874322   T   T   T
  0.7748691602133847  0.4297491563682111  0.7949327204051317   T   T   T
  0.2564660654988811  0.5923865763558264  0.6944499491215538   T   T   T
  0.6493012355679202  0.4456875166079778  0.6945168883801186   T   T   T
  0.5644776156248058  0.6394247304459716  0.8608470468971501   T   T   T
  0.5428391584826397  0.6663980408370406  0.7012379397432630   T   T   T
  0.4440123559192461  0.4747078176988118  0.7561592639122605   T   T   T
  0.3732798509103299  0.7384512288276347  0.7780601236768806   T   T   T
  0.4630573330340594  0.5721039543757372  0.8627821819866525   T   T   T
  0.4523703004282912  0.5802759634847646  0.7027314009070371   T   T   T
  0.4866833264203783  0.2692424470930997  0.7753387838630725   T   T   T
  0.2888531557418690  0.5369466781778948  0.7777368848877044   T   T   T
  0.5576150056481224  0.2112936804190864  0.7109020076652161   T   T   T
  0.6229909653701154  0.5702307802136758  0.7040513086384735   T   T   T
  0.7207360441020969  0.2610647349729890  0.6911769764698656   T   T   T
  0.2924290921203445  0.7461162288287749  0.6981156201007355   T   T   T
  0.5125302171709373  0.6035466164608767  0.7764099154915424   T   T   T
  0.5781773445044284  0.7255471544619408  0.7934611876337971   T   T   T
  0.2404097585741778  0.4688796871999440  0.7088586015996341   T   T   T
  0.2840250433733163  0.6611847047297015  0.7650389102641315   T   T   T
  0.6021015525805142  0.2842761012864530  0.7842957927766588   T   T   T
  0.5143196731673296  0.4849444378955098  0.6781547432521957   T   T   T
  0.5634586189232564  0.4856936739081237  0.7621703857596132   T   T   T
  0.5514530319871427  0.3830106604435529  0.8267271512393809   T   T   T
  0.7647518231865543  0.4321497729430495  0.7048086732758679   T   T   T
  0.3908749818439171  0.8173879615189608  0.7064611385610843   T   T   T
  0.4634017958213286  0.6949023088430029  0.8298517029244155   T   T   T
  0.4405524333592161  0.2275482381375214  0.6975365213669894   T   T   T
  0.3715489524561630  0.2980694095927238  0.7548684385255444   T   T   T
  0.3493404680372829  0.4998008291409611  0.6979386233303314   T   T   T
  0.4304486858931865  0.3715455547485575  0.8141137838042957   T   T   T
  0.5958335761274746  0.7847103303504016  0.7130582565477832   T   T   T
  0.6352130863516022  0.5839698902205327  0.8000595198206391   T   T   T
  0.7338317009724235  0.6157837085747960  0.6936913720088794   T   T   T
  0.4849607140061368  0.7781680237872862  0.7567198097349312   T   T   T
  0.7273832142723787  0.1314026289810978  0.7506764884676721   T   T   T
  0.7606566719058664  0.1006250179341716  0.7498600381687962   T   T   T
  0.4147998241434648  0.8118878515416798  0.5480854259763012   T   T   T
  0.2510806834376156  0.0626276822202063  0.5472580211961671   T   T   T
  0.7464455488822639  0.5576381488526668  0.5446146828515509   T   T   T
  0.7485422582012229  0.8083357814996212  0.5456608604486176   T   T   T
  0.2495104942551478  0.3137628496928041  0.5459596599480564   T   T   T
  0.5829322178768697  0.3111223016997831  0.5451982680072843   T   T   T
  0.2531063283370409  0.8127778581847180  0.5512106011873453   T   T   T
  0.5830826329644457  0.0621773692906026  0.5455639510138696   T   T   T
  0.5862666612745917  0.8147579392677846  0.5504701308246769   T   T   T
  0.7479264763960149  0.3112600987486955  0.5482299612887166   T   T   T
  0.5814216443655603  0.5600786376590989  0.5493066510788013   T   T   T
  0.2522249143088255  0.5590331590820854  0.5440047943431584   T   T   T
  0.4160038179472996  0.3197022937613211  0.5526472203269871   T   T   T
  0.5766562136837696  0.4357481038602493  0.5523180966499494   T   T   T
  0.4165190024744083  0.0654099643391709  0.5473777087452613   T   T   T
  0.0849020452929760  0.8129593936933356  0.5473501059248682   T   T   T
  0.0824889494509661  0.5643100017091138  0.5462694322137692   T   T   T
  0.0862681009381396  0.3134075381531517  0.5468670566170778   T   T   T
  0.0822835353060610  0.0632621469933269  0.5475745273766951   T   T   T
  0.9157994360922244  0.9387189551395475  0.5463885690634800   T   T   T
  0.9133980115106186  0.6893675642771464  0.5450875853036865   T   T   T
  0.5836245320119312  0.9378944617325368  0.5461436192358096   T   T   T
  0.9166128676789106  0.1888853774066294  0.5454311866331250   T   T   T
  0.9160326303249526  0.4376087559101931  0.5458420097148451   T   T   T
  0.5796455769956548  0.6863023836493104  0.5472513783692690   T   T   T
  0.2515129742628111  0.9373511909942694  0.5453298228360894   T   T   T
  0.4976761018902428  0.5045368104540875  0.6090297093688739   T   T   T
  0.9171033992737182  0.5637607272425261  0.5467382989799748   T   T   T
  0.4203853112513257  0.5651838473459643  0.5556472071941937   T   T   T
  0.9154059429477711  0.8130852377523767  0.5469481632158968   T   T   T
  0.0836259334963601  0.9389378924245406  0.5458055251982562   T   T   T
  0.2493878037787385  0.6833411232913856  0.5521760862800149   T   T   T
  0.7494177968978989  0.9341998124341290  0.5477354888590462   T   T   T
  0.7519852409999255  0.6802668332980721  0.5532004411354132   T   T   T
  0.7521908082481942  0.4347666571908499  0.5494014040682805   T   T   T
  0.4231560295902532  0.4440358176517111  0.5456227776031760   T   T   T
  0.4234503769088160  0.6881045452771273  0.5466521539745089   T   T   T
  0.7483919897681823  0.1833572225329597  0.5509383385919473   T   T   T
  0.4159660569678926  0.9371134750211674  0.5460935486611738   T   T   T
  0.4987921151831223  0.2526825772809860  0.5902961529506736   T   T   T
  0.4156817732633057  0.1914856008981879  0.5465174038838271   T   T   T
  0.0866312765797984  0.6897580809532382  0.5451354590754358   T   T   T
  0.0824908914942794  0.4386141680257900  0.5450590469882569   T   T   T
  0.0835827636945237  0.1889214909463458  0.5455759342584170   T   T   T
  0.4994532216153114  0.1255621297803632  0.4995894702818688   T   T   T
  0.9996421556624152  0.5008494097827703  0.5944877464256175   T   T   T
  0.5807149200992885  0.1852049292474554  0.5499448758478395   T   T   T
  0.9996010467348254  0.7532664835743262  0.5922463518776889   T   T   T
  0.3340043021856730  0.9998556575240888  0.5920047113637484   T   T   T
  0.9998727993207548  0.9992359456846673  0.5931999118405572   T   T   T
  0.0005870814047537  0.2500851434452722  0.5919534753144893   T   T   T
  0.3333303329953219  0.4965461051047460  0.5908890422160800   T   T   T
  0.3360760642199294  0.7412799783125792  0.5905770421193599   T   T   T
  0.6633433662501153  0.2474514632459673  0.5905786449599338   T   T   T
  0.6659595345063296  0.0004956475860504  0.5918598917312381   T   T   T
  0.6661241789103459  0.7419007090904219  0.5899536604030865   T   T   T
  0.6668456801618458  0.4940380120333265  0.5916762879254989   T   T   T
  0.1674212096390895  0.9984649235231754  0.5923118184101632   T   T   T
  0.1683564854249980  0.2491628962058748  0.5930705221445456   T   T   T
  0.1707570403510368  0.7500194254956922  0.5950956106261091   T   T   T
  0.2484923175455744  0.4359594462221938  0.5490018508276647   T   T   T
  0.1654832267029344  0.5025932664995697  0.5874107479431382   T   T   T
  0.3348488313055504  0.2544911309010399  0.5928883129152149   T   T   T
  0.4996664380380474  0.0001068310339318  0.5910402877487754   T   T   T
  0.8327729346874344  0.8746022978366912  0.4985641492122684   T   T   T
  0.7485689942095837  0.9373589278373715  0.6402326329789384   T   T   T
  0.8321381497172772  0.0021899770469615  0.5922621118617571   T   T   T
  0.5017475369220504  0.7565129208418835  0.5930374728615121   T   T   T
  0.4176560209276969  0.0651564199408610  0.6401091244461665   T   T   T
  0.4290672719645344  0.3050259396221988  0.6551365939721704   T   T   T
  0.4135703690453866  0.8124382543277466  0.6399090577274366   T   T   T
  0.3971444640864075  0.5507801940039084  0.6523019536737770   T   T   T
  0.7531518349279401  0.5694998395874243  0.6349109586664260   T   T   T
  0.7411116165816291  0.8100598941432908  0.6399729096735219   T   T   T
  0.7466900261411111  0.3130676267045930  0.6398623823678286   T   T   T
  0.7475751500672960  0.0681990411420525  0.6390665357273335   T   T   T
  0.0837082109344162  0.3118394347098291  0.6404116028452447   T   T   T
  0.6665847669231336  0.8748759965879889  0.4991503214722365   T   T   T
  0.0874306399508252  0.5619407603731222  0.6413138838020602   T   T   T
  0.0841861191645380  0.0608100420423874  0.6420478336314637   T   T   T
  0.0866517312706366  0.4364312275794442  0.6393685010441772   T   T   T
  0.0834571864612091  0.1858344780574789  0.6409785425905929   T   T   T
  0.4185917380645969  0.1875475711989269  0.6397852166010137   T   T   T
  0.4149771955527355  0.4190221487746747  0.6298634313184701   T   T   T
  0.0843356982509979  0.9355883521132546  0.6406813220007905   T   T   T
  0.0830969467631422  0.6871206467211353  0.6395697766115669   T   T   T
  0.9126123770618983  0.4361557482791918  0.6396916567429655   T   T   T
  0.9163458381293342  0.6875746862155728  0.6394513819119632   T   T   T
  0.9143959445342076  0.9371394430071688  0.6410252843104989   T   T   T
  0.2406356952558235  0.4420010356127066  0.6415173449256751   T   T   T
  0.2544308828992777  0.6771092464817940  0.6634203332557282   T   T   T
  0.5784935475066765  0.1912831370765824  0.6447637763439187   T   T   T
  0.2519462666220379  0.9301587928509537  0.6373610305765249   T   T   T
  0.0840921313194866  0.8121311110805344  0.6419970699977774   T   T   T
  0.9166666865332829  0.8124999999834799  0.3605200052333331   F   F   F
  0.8333256968167970  0.5030170606737151  0.5888239463284310   T   T   T
  0.8313473999259345  0.2482161168704841  0.5910815332446433   T   T   T
  0.8305634116550206  0.7508456180945329  0.5928605729934501   T   T   T
  0.5820475117938467  0.9359570697769991  0.6394937963943359   T   T   T
  0.2533142490294062  0.1864967264810981  0.6410996330324094   T   T   T
  0.7454241853742852  0.1949959234460222  0.6472425231550157   T   T   T
  0.7553051789892269  0.4340542045385187  0.6382093136620933   T   T   T
  0.4173150535244207  0.9349259238820611  0.6397062998841205   T   T   T
  0.4213733093969675  0.6758934028866688  0.6334526006613039   T   T   T
  0.5912700835015829  0.8102229155088063  0.6461658669854745   T   T   T
  0.9158827337894371  0.0626636331924257  0.6414637244604239   T   T   T
  0.9124600746466301  0.5618349856212779  0.6420874470332464   T   T   T
  0.9144375839513795  0.3117222301214755  0.6397551102112953   T   T   T
  0.9141429648942178  0.8132619750701938  0.6415118119411730   T   T   T
  0.5828228518452424  0.0665971198233575  0.6388220088149065   T   T   T
  0.5829261808348207  0.3204866286047356  0.6338201237379373   T   T   T
  0.5912378150877169  0.5651985090050089  0.6394339857030026   T   T   T
  0.2474647626453998  0.5738310886857019  0.6285938805196802   T   T   T
  0.7540485027562146  0.6933917558571903  0.6570100369441093   T   T   T
  0.2620506917378945  0.7986617466592243  0.6468941598190524   T   T   T
  0.2509765893903698  0.0594808842430346  0.6423271719973072   T   T   T
  0.9166666865332829  0.5625000000092442  0.3605200052333331   F   F   F
  0.4995804321632069  0.3742338248367424  0.4998468451323664   T   T   T
  0.5000538387959881  0.8733404092929715  0.5008061880914751   T   T   T
  0.5004738363924615  0.6209708650388642  0.5000695790155195   T   T   T
  0.8323284584849340  0.6230235329723277  0.5000075844858222   T   T   T
  0.2518875719680052  0.1883770021069705  0.5471386522488586   T   T   T
  0.8324009980311805  0.3731696311378515  0.4997883105750792   T   T   T
  0.8328126505587093  0.1244469111492415  0.5000832660820526   T   T   T
  0.1667222888750528  0.3762406576775912  0.4978648667688658   T   T   T
  0.1678073768687719  0.6243359277315800  0.5000200250586501   T   T   T
  0.5810561867449796  0.4389804004804114  0.6466618452878947   T   T   T
  0.5805417432845750  0.6854071162409606  0.6391385333538560   T   T   T
  0.9162472602140416  0.1861484278668007  0.6399332894606478   T   T   T
  0.2491089318540053  0.3163947687975648  0.6413068541965327   T   T   T
  0.1677291200014537  0.8732898969598063  0.4999062415185451   T   T   T
  0.7480467180222715  0.0599446281883940  0.5445286771144229   T   T   T
  0.1670447639991400  0.1243134122298827  0.4993312736250631   T   T   T
  0.9157990196895137  0.4369432654108248  0.4536703017003888   T   T   T
  0.9157792552546120  0.1869112172628537  0.4532474471735303   T   T   T
  0.5827680036443447  0.9371158488879445  0.4542964473666199   T   T   T
  0.5827933260622629  0.6860318619233041  0.4545912544418750   T   T   T
  0.5827746092514025  0.4393281148054924  0.4563827921708868   T   T   T
  0.2500654579710235  0.9360380277299426  0.4541451599089948   T   T   T
  0.6654603122847543  0.6258027854909416  0.5029771136013719   T   T   T
  0.5846283544830506  0.5625586083602663  0.4550184118078463   T   T   T
  0.5832162076156454  0.0636106597279361  0.4538910584101437   T   T   T
  0.9166666865332829  0.6874999999963620  0.3605200052333331   F   F   F
  0.9166666865332829  0.4374999701794380  0.3605200052333331   F   F   F
  0.9166666865332829  0.1875000000030838  0.3605200052333331   F   F   F
  0.5833333134730552  0.9375000000154046  0.3605200052333331   F   F   F
  0.5833333134730552  0.6874999999963620  0.3605200052333331   F   F   F
  0.5833333134730552  0.4374999701794380  0.3605200052333331   F   F   F
  0.5833333134730552  0.1875000000030838  0.3605200052333331   F   F   F
  0.2499999999799343  0.9375000000154046  0.3605200052333331   F   F   F
  0.9166666865332829  0.9375000000154046  0.3605200052333331   F   F   F
  0.2499999999799343  0.6874999999963620  0.3605200052333331   F   F   F
  0.2499999999799343  0.1875000000030838  0.3605200052333331   F   F   F
  0.7499999404149307  0.9375000000154046  0.3605200052333331   F   F   F
  0.7499999404149307  0.6874999999963620  0.3605200052333331   F   F   F
  0.7499999404149307  0.4374999701794380  0.3605200052333331   F   F   F
  0.7499999404149307  0.1875000000030838  0.3605200052333331   F   F   F
  0.4166666269218169  0.9375000000154046  0.3605200052333331   F   F   F
  0.4166666269218169  0.6874999999963620  0.3605200052333331   F   F   F
  0.4166666269218169  0.4374999701794380  0.3605200052333331   F   F   F
  0.2499999999799343  0.4374999701794380  0.3605200052333331   F   F   F
  0.0833333358191695  0.0625000000159659  0.3605200052333331   F   F   F
  0.9153884728813563  0.6867826717273070  0.4530833566373705   T   T   T
  0.6654434053755643  0.3785436511343961  0.5032758475485511   T   T   T
  0.3343630933281265  0.3784704352585849  0.5029949824992634   T   T   T
  0.3358388888427472  0.6252422174794229  0.5043843773954315   T   T   T
  0.9176098792797976  0.0634475867082625  0.5474982790904317   T   T   T
  0.2498576965081342  0.1884889982030039  0.4540955907866627   T   T   T
  0.7494701125829857  0.9384591632037914  0.4553399516263430   T   T   T
  0.7490861176734159  0.6886599174503253  0.4574357262472971   T   T   T
  0.7494524541316342  0.4384329735773191  0.4560263989224921   T   T   T
  0.7506228882700706  0.1899290850734646  0.4558158432442468   T   T   T
  0.4171365848820589  0.9358640028326947  0.4540534072488282   T   T   T
  0.4169493341047091  0.6846758520108033  0.4547978086520481   T   T   T
  0.4164717063205924  0.4354224368321103  0.4538346749470297   T   T   T
  0.0845911625227904  0.6869013133560739  0.4530163760836119   T   T   T
  0.0838939143555461  0.9366743842081124  0.4534754924680377   T   T   T
  0.0828198845736867  0.4367996638059348  0.4528902574803856   T   T   T
  0.0838666618105765  0.1865833985389871  0.4529758248601713   T   T   T
  0.9166114114339328  0.8121489926820016  0.4541045438939116   T   T   T
  0.0833333358191695  0.3124999999901945  0.3605200052333331   F   F   F
  0.9161883167402323  0.5623367165589965  0.4539099305709290   T   T   T
  0.9161103573458196  0.0622612226903594  0.4541185951109828   T   T   T
  0.9161746743538350  0.3122090654517789  0.4538669496219678   T   T   T
  0.4172262745900911  0.1871529216069416  0.4535532047020958   T   T   T
  0.2523755483584647  0.6873881027522316  0.4561841471843475   T   T   T
  0.9164553337891328  0.9371476636076922  0.4536437993582281   T   T   T
  0.5826214883892938  0.1900415715589012  0.4554875010666132   T   T   T
  0.0000671067544927  0.1251152460687934  0.4984490789891944   T   T   T
  0.5835125875057161  0.8103265740374364  0.4554350365691482   T   T   T
 -0.0000239042672303  0.3734744671086825  0.4983433954822960   T   T   T
  0.9999321859136684  0.6271781403159761  0.4976935563478788   T   T   T
  0.3336167283067166  0.1256937026434986  0.4985128279202495   T   T   T
  0.0000591789733384  0.8751653877333648  0.4995562417358216   T   T   T
  0.3334246424061839  0.8738157419767228  0.4994595033113355   T   T   T
  0.6660351020480768  0.1266034239197810  0.4992013316225423   T   T   T
  0.2511670990240268  0.4392540754712882  0.4549315686835906   T   T   T
  0.0833333358191695  0.5625000000092442  0.3605200052333331   F   F   F
  0.9166666865332829  0.0625000000159659  0.3605200052333331   F   F   F
  0.7491861219083005  0.8132846069514664  0.4531091526713910   T   T   T
  0.2505319193057423  0.0620198529973669  0.4542670540640719   T   T   T
  0.9153063863121352  0.3127544712245996  0.5467134329215201   T   T   T
  0.2522652236118169  0.3141383075004557  0.4541755095821164   T   T   T
  0.2519668925914825  0.5646161908408069  0.4538921920323448   T   T   T
  0.2505058219884155  0.8107002402441225  0.4554525083660475   T   T   T
  0.8333332538436267  0.2500000000190425  0.4070133268666680   F   F   F
  0.5842753557588958  0.3151911787886996  0.4538403249557473   T   T   T
  0.8333332538436267  0.0000000000000000  0.4070133268666680   F   F   F
  0.5000000000021103  0.4999999999932783  0.4070133268666680   F   F   F
  0.0833333358191695  0.1875000000030838  0.3605200052333331   F   F   F
  0.0000000000000000  0.0000000000000000  0.4070133268666680   F   F   F
  0.0000000000000000  0.2500000000190425  0.4070133268666680   F   F   F
  0.0000000000000000  0.4999999999932783  0.4070133268666680   F   F   F
  0.7482018784553308  0.5642672470484728  0.4537645149934391   T   T   T
  0.3333333432766779  0.0000000000000000  0.4070133268666680   F   F   F
  0.3333333432766779  0.4999999999932783  0.4070133268666680   F   F   F
  0.3333333432766779  0.7500000000123208  0.4070133268666680   F   F   F
  0.6666666865533486  0.0000000000000000  0.4070133268666680   F   F   F
  0.6666666865533486  0.2500000000190425  0.4070133268666680   F   F   F
  0.6666666865533486  0.4999999999932783  0.4070133268666680   F   F   F
  0.6666666865533486  0.7500000000123208  0.4070133268666680   F   F   F
  0.1666666716383389  0.0000000000000000  0.4070133268666680   F   F   F
  0.1666666716383389  0.2500000000190425  0.4070133268666680   F   F   F
  0.1666666716383389  0.4999999999932783  0.4070133268666680   F   F   F
  0.1666666716383389  0.7500000000123208  0.4070133268666680   F   F   F
  0.5000000000021103  0.0000000000000000  0.4070133268666680   F   F   F
  0.5000000000021103  0.2500000000190425  0.4070133268666680   F   F   F
  0.5000000000021103  0.7500000000123208  0.4070133268666680   F   F   F
  0.9166666865332829  0.3124999999901945  0.3605200052333331   F   F   F
  0.3333333432766779  0.2500000000190425  0.4070133268666680   F   F   F
  0.7473139594524094  0.3141724540226002  0.4548737442382357   T   T   T
  0.0000000000000000  0.7500000000123208  0.4070133268666680   F   F   F
  0.4166034625962234  0.8098779064660292  0.4552063698644936   T   T   T
  0.5833333134730552  0.5625000000092442  0.3605200052333331   F   F   F
  0.7494874477976350  0.0642017543088527  0.4533739258782827   T   T   T
  0.5833333134730552  0.8124999999834799  0.3605200052333331   F   F   F
  0.5833333134730552  0.3124999999901945  0.3605200052333331   F   F   F
  0.5833333134730552  0.0625000000159659  0.3605200052333331   F   F   F
  0.2499999999799343  0.8124999999834799  0.3605200052333331   F   F   F
  0.2499999999799343  0.5625000000092442  0.3605200052333331   F   F   F
  0.2499999999799343  0.3124999999901945  0.3605200052333331   F   F   F
  0.2499999999799343  0.0625000000159659  0.3605200052333331   F   F   F
  0.7499999404149307  0.5625000000092442  0.3605200052333331   F   F   F
  0.7499999404149307  0.3124999999901945  0.3605200052333331   F   F   F
  0.7499999404149307  0.0625000000159659  0.3605200052333331   F   F   F
  0.4166666269218169  0.8124999999834799  0.3605200052333331   F   F   F
  0.4166666269218169  0.5625000000092442  0.3605200052333331   F   F   F
  0.4166666269218169  0.3124999999901945  0.3605200052333331   F   F   F
  0.7499999404149307  0.8124999999834799  0.3605200052333331   F   F   F
  0.0835012841387186  0.3120537175710246  0.4539747536772691   T   T   T
  0.4166666269218169  0.0625000000159659  0.3605200052333331   F   F   F
  0.4168897377385684  0.0615827464618611  0.4553501431373322   T   T   T
  0.0834688578110694  0.8121347165032462  0.4541959105358052   T   T   T
  0.0839526230970396  0.5624758387068629  0.4538797742679996   T   T   T
  0.4160815160985553  0.5595275259046427  0.4578876135759430   T   T   T
  0.0836909292257835  0.0618723977511964  0.4542230046147885   T   T   T
  0.4155370151077479  0.3113759628296244  0.4574025308875413   T   T   T
  0.8333332538436267  0.7500000000123208  0.4070133268666680   F   F   F
  0.0833333358191695  0.4374999701794380  0.3605200052333331   F   F   F
  0.0833333358191695  0.6874999999963620  0.3605200052333331   F   F   F
  0.0833333358191695  0.9375000000154046  0.3605200052333331   F   F   F
  0.4166666269218169  0.1875000000030838  0.3605200052333331   F   F   F
  0.0833333358191695  0.8124999999834799  0.3605200052333331   F   F   F
  0.8333332538436267  0.4999999999932783  0.4070133268666680   F   F   F
  0.8378066891868721  0.3729541731632979  0.6030322427910476   T   T   T
  0.8320786229678462  0.8763888087927606  0.6179895452698947   T   T   T
  0.5000000000021103  0.1249999999871179  0.4070133268666680   F   F   F
  0.9991302801958333  0.8751370997912385  0.6220019347373625   T   T   T
  0.3315743576612494  0.1199256615167270  0.6134139856079075   T   T   T
  0.8401743302222838  0.6270660698271978  0.6031757024446124   T   T   T
  0.8360496672552183  0.7518817902824376  0.5026138214445034   T   T   T
  0.5000000000021103  0.6249999999803961  0.4070133268666680   F   F   F
  0.1666666716383389  0.1249999999871179  0.4070133268666680   F   F   F
  0.8333332538436267  0.3750000000061604  0.4070133268666680   F   F   F
  0.8333332538436267  0.1249999999871179  0.4070133268666680   F   F   F
  0.5000000000021103  0.8749999404036828  0.4070133268666680   F   F   F
  0.3342217697579528  0.6243247388814906  0.5953114643875056   T   T   T
  0.0000000000000000  0.3750000000061604  0.4070133268666680   F   F   F
  0.3258704254812989  0.3736927927452113  0.5926836810030682   T   T   T
  0.5007921359534576  0.8769082897199193  0.6094549739873364   T   T   T
  0.6651309179517116  0.1242233702300834  0.6080007800956528   T   T   T
  0.1666666716383389  0.8749999404036828  0.4070133268666680   F   F   F
  0.5041560277427192  0.6252044360013725  0.5938944634525997   T   T   T
  0.0000000000000000  0.1249999999871179  0.4070133268666680   F   F   F
  0.8342584904907875  0.1240541989477025  0.6152192535465050   T   T   T
  0.9997077606315000  0.6218900555923561  0.6355425062335520   T   T   T
 -0.0002356550947115  0.3745736970677694  0.6232351996596465   T   T   T
  0.6664698593352797  0.6265219268767916  0.5934183867828987   T   T   T
  0.6654201733140617  0.8813260357073330  0.6070759012321697   T   T   T
  0.1631412480374297  0.3714424941536025  0.6075502693917160   T   T   T
  0.1676233014368559  0.1229635571632965  0.6216949393041774   T   T   T
  0.5002081992009649  0.1221061533012185  0.6061051744261852   T   T   T
  0.5014735919150253  0.3714265153620003  0.5949847451657144   T   T   T
  0.1660128748397728  0.8733517049847338  0.6177933718929404   T   T   T
  0.1590585566683842  0.6272112794811304  0.6014962369289799   T   T   T
  0.3345593051536416  0.8786052996048516  0.6030710116759274   T   T   T
  0.6702169050516993  0.3724412040885284  0.5929008477931959   T   T   T
  0.1666666716383389  0.6249999999803961  0.4070133268666680   F   F   F
  0.5000000000021103  0.3750000000061604  0.4070133268666680   F   F   F
  0.6666666865533486  0.8749999404036828  0.4070133268666680   F   F   F
  0.5001400189265489  0.9993595346777766  0.5055310007209997   T   T   T
  0.1633968885666356  0.4999122533061003  0.5020159263499554   T   T   T
  0.1662451908015499  0.2482597785207439  0.5061504410102731   T   T   T
  0.1659828201592873  0.0012305214249914  0.5065525153943068   T   T   T
  0.6654712070125622  0.7520378183070067  0.5021951894843465   T   T   T
  0.6667373473681401  0.2479704501853128  0.5024373542831921   T   T   T
  0.6683920347264911  0.4999973161381418  0.5006508067024394   T   T   T
  0.3337653283801295  0.7511456761703922  0.5015561993152335   T   T   T
  0.3330918141434258  0.0011059564411546  0.5058549823820342   T   T   T
  0.3300895437027876  0.2480824313370771  0.5028213786732051   T   T   T
  0.3311146651446818  0.4992933382729340  0.5009478123706858   T   T   T
  0.9997421569181618  0.5007752364111749  0.5070948105978641   T   T   T
  0.8333332538436267  0.6249999999803961  0.4070133268666680   F   F   F
  0.0006058022846718  0.1228421172547912  0.6195723034122199   T   T   T
  0.1666666716383389  0.3750000000061604  0.4070133268666680   F   F   F
  0.1643746050996911  0.7516373891529067  0.5033381739948187   T   T   T
  0.5011579433482786  0.7529413312905442  0.5039259000314846   T   T   T
  0.6658790649385181 -0.0001492694896711  0.5054496744225382   T   T   T
  0.5012348134708114  0.4998592682301135  0.5003047152032898   T   T   T
  0.8363359695728012  0.5001328238144072  0.5027561714196854   T   T   T
  0.6666666865533486  0.6249999999803961  0.4070133268666680   F   F   F
  0.6666666865533486  0.3750000000061604  0.4070133268666680   F   F   F
  0.6666666865533486  0.1249999999871179  0.4070133268666680   F   F   F
  0.3333333432766779  0.8749999404036828  0.4070133268666680   F   F   F
  0.8343463493393211  0.0002528753212227  0.5064848255284029   T   T   T
  0.3333333432766779  0.3750000000061604  0.4070133268666680   F   F   F
  0.3333333432766779  0.1249999999871179  0.4070133268666680   F   F   F
  0.3333333432766779  0.6249999999803961  0.4070133268666680   F   F   F
  0.0000000000000000  0.6249999999803961  0.4070133268666680   F   F   F
  0.8333332538436267  0.8749999404036828  0.4070133268666680   F   F   F
  0.0000738806300403  0.0000998400708951  0.5066405114897221   T   T   T
  0.0007341733700960  0.2498775340061545  0.5059413193885375   T   T   T
  0.9998032406147251  0.7509023637247558  0.5065879161093217   T   T   T
  0.8358277295263860  0.2486385227955202  0.5027340512511232   T   T   T
  0.5008874495430727  0.2479027142388341  0.5020599276742016   T   T   T
  0.0000000000000000  0.8749999404036828  0.4070133268666680   F   F   F
  0.0833333358191695  0.7500000000123208  0.4070133268666680   F   F   F
  0.0833333358191695  0.4999999999932783  0.4070133268666680   F   F   F
  0.0833333358191695  0.2500000000190425  0.4070133268666680   F   F   F
  0.0833333358191695  0.0000000000000000  0.4070133268666680   F   F   F
  0.9166666865332829  0.4999999999932783  0.4070133268666680   F   F   F
  0.9166666865332829  0.7500000000123208  0.4070133268666680   F   F   F
  0.5831230538366211  0.1232691689025567  0.5042306934242472   T   T   T
  0.7524625112208980  0.6247768818953791  0.5023717589894996   T   T   T
  0.5838132583663264  0.8759317462482136  0.5057335693980362   T   T   T
  0.9177468337467406  0.1249851272705531  0.5063456813791880   T   T   T
  0.9188463150599099  0.3746111580185280  0.5058873094140361   T   T   T
  0.5834758612024811  0.3734769943650577  0.5017892757253694   T   T   T
  0.5838475553756046  0.6274293474764961  0.5006505274383304   T   T   T
  0.0829946821409108  0.1247825000929275  0.5067145658763140   T   T   T
  0.4166666269218169  0.0000000000000000  0.4070133268666680   F   F   F
  0.2499999999799343  0.2500000000190425  0.4070133268666680   F   F   F
  0.4166666269218169  0.4999999999932783  0.4070133268666680   F   F   F
  0.7499999404149307  0.4999999999932783  0.4070133268666680   F   F   F