Au  C  H  O Sr Ti                       
   1.00000000000000     
    23.6707800000000006    0.0000000000000000    0.0000000000000000
     0.0000000000000000   22.3170259999999985    0.0000000000000000
     0.0000000000000000    0.0000000000000000   30.0000000000000000
   Au   C    H    O    Sr   Ti
    50     2     4   265    72    72
Selective dynamics
Direct
  0.7158368691575347  0.5242020933440514  0.7522179672508003   F   F   F
  0.5535727621489386  0.2128612709931872  0.7097341105156829   F   F   F
  0.7186579290416546  0.2576198228817788  0.6907928555095424   F   F   F
  0.2932332270466489  0.7462697307337933  0.6968645491611696   F   F   F
  0.5118786881295847  0.6030353052398851  0.7767714889331643   F   F   F
  0.5788305213771849  0.7256974279463719  0.7939002772355011   F   F   F
  0.2402186680917708  0.4692626225224856  0.7089421854376852   F   F   F
  0.2862245129407626  0.6619560907026383  0.7643164720148690   F   F   F
  0.6012911300781880  0.2817293456185794  0.7831130150921908   F   F   F
  0.5141074950741711  0.4848702939191085  0.6779720511915741   F   F   F
  0.4850372975416164  0.2703182780926241  0.7751800155963906   F   F   F
  0.7633598128306218  0.4295240741108657  0.7038618734706787   F   F   F
  0.2894371413569914  0.5378445257034556  0.7775440818516373   F   F   F
  0.3915053734725831  0.8167978399716631  0.7065294882720750   F   F   F
  0.4642326539990904  0.6947119029678177  0.8302736612712067   F   F   F
  0.4369814339456823  0.2275698843402623  0.6978468926507162   F   F   F
  0.3698203639071878  0.2988295075650598  0.7552980802006246   F   F   F
  0.4284821627484803  0.3711273072642456  0.8153027500448786   F   F   F
  0.5970073545743517  0.7844999662929339  0.7128644524372874   F   F   F
  0.6353732011673259  0.5838138003339211  0.7997086205096409   F   F   F
  0.7327881863494952  0.6146519802845347  0.6938233933190361   F   F   F
  0.4860704071077819  0.7742554251607601  0.7537282351273547   F   F   F
  0.5495583171074969  0.3815318342647345  0.8260785383116271   F   F   F
  0.5629374287943847  0.4856821219686509  0.7621260288478311   F   F   F
  0.7068240683881513  0.7569790709469828  0.6882356460974393   F   F   F
  0.3491922399286977  0.4993972862831129  0.6977470926545166   F   F   F
  0.3249945793477380  0.4146516390889516  0.7693192487279248   F   F   F
  0.6206999661260681  0.5713826780753593  0.7040082459429868   F   F   F
  0.6558440766397524  0.4405700755685729  0.8123103159471441   F   F   F
  0.3690009078620093  0.6179659181946562  0.8203486078143314   F   F   F
  0.6613961451683608  0.1840557633728253  0.7479187754379168   T   T   T
  0.4723182021506460  0.4490364201202368  0.8776855597991755   F   F   F
  0.5162919506011647  0.3775116864035226  0.7318651515310393   F   F   F
  0.2819240314178018  0.3398369749666443  0.7023338282027254   F   F   F
  0.4520008699124389  0.5796908791724036  0.7026652129259858   F   F   F
  0.3975027873696746  0.3817869261765097  0.6901140482174029   F   F   F
  0.6159548404700814  0.3216476524438292  0.6961188031542989   F   F   F
  0.4634556733998565  0.5722673539197842  0.8641439916610381   F   F   F
  0.5704898574376003  0.5089757249572813  0.8560835508270799   F   F   F
  0.3745795913445278  0.7397185330693574  0.7792872580058088   F   F   F
  0.3752198488033400  0.4922253257817673  0.8332333078338365   F   F   F
  0.5396959037626701  0.6681409988890152  0.7019938619684893   F   F   F
  0.5650065260716772  0.6389817266654134  0.8607794432876830   F   F   F
  0.6484491271762565  0.4458986610136222  0.6945249396495612   F   F   F
  0.4434711851698054  0.4743626050451724  0.7565712058003129   F   F   F
  0.2569029920660029  0.5928882270961040  0.6944916514101820   F   F   F
  0.7736329059349671  0.4279667559698623  0.7938630944148883   F   F   F
  0.6993561644544570  0.3435019442919440  0.7575342736309452   F   F   F
  0.4142469682637255  0.6947657230460962  0.6995488295668295   F   F   F
  0.6696803065565362  0.6812849645402679  0.7486264782867167   F   F   F
  0.7151141301621422  0.1132933869505166  0.7401697355174193   T   T   T
  0.6943807394594046  0.0512509695555892  0.7351026577374640   T   T   T
  0.6813608135789693  0.0361705744400780  0.7685111009919439   T   T   T
  0.7826753436372726  0.1592801114909292  0.7432013091636307   T   T   T
  0.6562954518608066  0.0500979115446043  0.7144013808638405   T   T   T
  0.7267580001378420  0.0214463889203316  0.7216849416200546   T   T   T
  0.4171897230987867  0.6851473646515842  0.4550102518476962   F   F   F
  0.5829729998709965  0.0625219403875548  0.5460212010345771   F   F   F
  0.4164433537559162  0.4354685790334756  0.4538281706369887   F   F   F
  0.0843877553154186  0.6869563958360132  0.4531602965840804   F   F   F
  0.0841227545949650  0.9367725375383102  0.4535995089503970   F   F   F
  0.0828004846290256  0.4368238733563956  0.4528364631469870   F   F   F
  0.0838411739120062  0.1865565564375586  0.4529643339690921   F   F   F
  0.9165487404936883  0.8123289528980422  0.4540591255475874   F   F   F
  0.0833333400000029  0.3125000000000000  0.3605200100000019   F   F   F
  0.5828006009944247  0.3111363686381736  0.5451032297497704   F   F   F
  0.9160550134591858  0.3121323593836252  0.4539103560272650   F   F   F
  0.4169238623961817  0.1872702077476447  0.4536409689183145   F   F   F
  0.2520516591277158  0.6876030706167811  0.4561045177067768   F   F   F
  0.9161592339478304  0.9371240461519079  0.4537685393723194   F   F   F
  0.5831825804540287  0.1902876276212737  0.4556602916053833   F   F   F
  0.5832811309497785  0.8104830150666658  0.4553815676096136   F   F   F
  0.9999254611473347  0.3737455069710620  0.4981657664564096   F   F   F
  0.9996762281257006  0.6271983154635734  0.4975810379256131   F   F   F
  0.3335911068227446  0.1256014507163030  0.4985856481892199   F   F   F
  0.0000579618542673  0.8751882887910227  0.4995367859995810   F   F   F
  0.3335350227470784  0.8741523067792087  0.4991905430793437   F   F   F
  0.6658717383330170  0.1273867543660572  0.5009146164924516   F   F   F
  0.2511343940478028  0.4392952083425499  0.4548982037725722   F   F   F
  0.0833333400000029  0.5625000000000000  0.3605200100000019   F   F   F
  0.7698598138975399  0.1178550497106770  0.7402486734765384   T   T   T
  0.9166666899999996  0.0625000000000000  0.3605200100000019   F   F   F
  0.7494252375876016  0.8132134062197878  0.4530616215400016   F   F   F
  0.2505206554114068  0.0620439781736266  0.4542630590345738   F   F   F
  0.6654282604462693  0.6258135388405819  0.5029778446231887   F   F   F
  0.9999518169892525  0.1251720467078243  0.4985074619611254   F   F   F
  0.9156843017322061  0.3124982627876634  0.5467169833564611   F   F   F
  0.5833333100000004  0.9375000000000000  0.3605200100000019   F   F   F
  0.7500272487980411  0.1898572595915766  0.4557481422553025   F   F   F
  0.5837868096155461  0.0637856645551977  0.4541903816244286   F   F   F
  0.9166666899999996  0.6875000000000000  0.3605200100000019   F   F   F
  0.9166666899999996  0.4374999699999975  0.3605200100000019   F   F   F
  0.9166666899999996  0.1875000000000000  0.3605200100000019   F   F   F
  0.2518337306537290  0.5646090039646481  0.4538388718704525   F   F   F
  0.5833333100000004  0.6875000000000000  0.3605200100000019   F   F   F
  0.5833333100000004  0.4374999699999975  0.3605200100000019   F   F   F
  0.5833333100000004  0.1875000000000000  0.3605200100000019   F   F   F
  0.2500000000000000  0.9375000000000000  0.3605200100000019   F   F   F
  0.9166666899999996  0.9375000000000000  0.3605200100000019   F   F   F
  0.2500000000000000  0.6875000000000000  0.3605200100000019   F   F   F
  0.2500000000000000  0.1875000000000000  0.3605200100000019   F   F   F
  0.7499999400000021  0.9375000000000000  0.3605200100000019   F   F   F
  0.4172750886951988  0.9359998316953835  0.4540857145056520   F   F   F
  0.2522211062852620  0.3143840621675267  0.4539307530683061   F   F   F
  0.7499999400000021  0.6875000000000000  0.3605200100000019   F   F   F
  0.4166666300000017  0.9375000000000000  0.3605200100000019   F   F   F
  0.4166666300000017  0.6875000000000000  0.3605200100000019   F   F   F
  0.4166666300000017  0.4374999699999975  0.3605200100000019   F   F   F
  0.2500000000000000  0.4374999699999975  0.3605200100000019   F   F   F
  0.0833333400000029  0.0625000000000000  0.3605200100000019   F   F   F
  0.9153083721358684  0.6868852021852803  0.4533546179099801   F   F   F
  0.6654328401199905  0.3785711854700580  0.5032492834370288   F   F   F
  0.3342740144930048  0.3784216977809081  0.5029817463473307   F   F   F
  0.3356728220266163  0.6258246129561371  0.5037664761515757   F   F   F
  0.9171085827690959  0.0634843038459678  0.5474587975807310   F   F   F
  0.2499809788693952  0.1887414966761654  0.4543360481979590   F   F   F
  0.7503731403391356  0.9386324523738807  0.4556755225381224   F   F   F
  0.7490788791060510  0.6885998053835110  0.4575178396986246   F   F   F
  0.7499999400000021  0.4374999699999975  0.3605200100000019   F   F   F
  0.7499999400000021  0.1875000000000000  0.3605200100000019   F   F   F
  0.0848908523591376  0.8128634126325949  0.5473290558287047   F   F   F
  0.5833333100000004  0.5625000000000000  0.3605200100000019   F   F   F
  0.5844045010289705  0.3154490148800733  0.4537060287788819   F   F   F
  0.2500000000000000  0.8125000000000000  0.3605200100000019   F   F   F
  0.2500000000000000  0.3125000000000000  0.3605200100000019   F   F   F
  0.7499999400000021  0.5625000000000000  0.3605200100000019   F   F   F
  0.7499999400000021  0.3125000000000000  0.3605200100000019   F   F   F
  0.7499999400000021  0.0625000000000000  0.3605200100000019   F   F   F
  0.4166666300000017  0.8125000000000000  0.3605200100000019   F   F   F
  0.4166666300000017  0.5625000000000000  0.3605200100000019   F   F   F
  0.4166666300000017  0.3125000000000000  0.3605200100000019   F   F   F
  0.0834594600004834  0.3119906605424632  0.4540204253486095   F   F   F
  0.4166666300000017  0.0625000000000000  0.3605200100000019   F   F   F
  0.4168345052078521  0.0615857107460016  0.4553306557682149   F   F   F
  0.0834452136240245  0.8121449869493134  0.4541674830361089   F   F   F
  0.0839600195519807  0.5625023532246587  0.4539706799611665   F   F   F
  0.4160676296865802  0.5595425463551464  0.4578740885436403   F   F   F
  0.7499999400000021  0.8125000000000000  0.3605200100000019   F   F   F
  0.8333332500000026  0.5000000000000000  0.4070133299999981   F   F   F
  0.4155651126107145  0.3114092469370604  0.4573639446522648   F   F   F
  0.8333332500000026  0.7500000000000000  0.4070133299999981   F   F   F
  0.0833333400000029  0.4374999699999975  0.3605200100000019   F   F   F
  0.0833333400000029  0.6875000000000000  0.3605200100000019   F   F   F
  0.0833333400000029  0.9375000000000000  0.3605200100000019   F   F   F
  0.4166666300000017  0.1875000000000000  0.3605200100000019   F   F   F
  0.0833333400000029  0.8125000000000000  0.3605200100000019   F   F   F
  0.4142017299729659  0.8117498913845296  0.5479412829009789   F   F   F
  0.2492269158618399  0.3137066449946886  0.5458177622510618   F   F   F
  0.7474710425370930  0.8071198020108525  0.5453220442011997   F   F   F
  0.7464587112879926  0.5576874170529962  0.5446494085910203   F   F   F
  0.0836543467358695  0.0618714204400845  0.4542321705471366   F   F   F
  0.2510423586012607  0.0625127815155224  0.5472725915129075   F   F   F
  0.2500000000000000  0.0625000000000000  0.3605200100000019   F   F   F
  0.2500000000000000  0.5625000000000000  0.3605200100000019   F   F   F
  0.5844507204555143  0.5628040141577983  0.4548939641778986   F   F   F
  0.5833333100000004  0.0625000000000000  0.3605200100000019   F   F   F
  0.8333332500000026  0.0000000000000000  0.4070133299999981   F   F   F
  0.5000000000000000  0.5000000000000000  0.4070133299999981   F   F   F
  0.0833333400000029  0.1875000000000000  0.3605200100000019   F   F   F
  0.2532873996406479  0.8125759278921834  0.5506787825570356   F   F   F
  0.0000000000000000  0.2500000000000000  0.4070133299999981   F   F   F
  0.0000000000000000  0.5000000000000000  0.4070133299999981   F   F   F
  0.7483189633878524  0.5641421996956097  0.4538591921070676   F   F   F
  0.3333333400000029  0.0000000000000000  0.4070133299999981   F   F   F
  0.3333333400000029  0.5000000000000000  0.4070133299999981   F   F   F
  0.3333333400000029  0.7500000000000000  0.4070133299999981   F   F   F
  0.6666666899999996  0.0000000000000000  0.4070133299999981   F   F   F
  0.6666666899999996  0.2500000000000000  0.4070133299999981   F   F   F
  0.6666666899999996  0.5000000000000000  0.4070133299999981   F   F   F
  0.5833333100000004  0.3125000000000000  0.3605200100000019   F   F   F
  0.8333332500000026  0.2500000000000000  0.4070133299999981   F   F   F
  0.6666666899999996  0.7500000000000000  0.4070133299999981   F   F   F
  0.1666666699999979  0.7500000000000000  0.4070133299999981   F   F   F
  0.5000000000000000  0.0000000000000000  0.4070133299999981   F   F   F
  0.5000000000000000  0.2500000000000000  0.4070133299999981   F   F   F
  0.5000000000000000  0.7500000000000000  0.4070133299999981   F   F   F
  0.9166666899999996  0.3125000000000000  0.3605200100000019   F   F   F
  0.3333333400000029  0.2500000000000000  0.4070133299999981   F   F   F
  0.7472989074530645  0.3140071159820081  0.4552392097927864   F   F   F
  0.0000000000000000  0.7500000000000000  0.4070133299999981   F   F   F
  0.4168634249567589  0.8103902705237473  0.4550060576052957   F   F   F
  0.7496477652908951  0.4382179943200839  0.4558407446488246   F   F   F
  0.7486191499883716  0.0646039852685050  0.4533451196376035   F   F   F
  0.5833333100000004  0.8125000000000000  0.3605200100000019   F   F   F
  0.2505292700817989  0.8108114563379232  0.4553307772701416   F   F   F
  0.1666666699999979  0.2500000000000000  0.4070133299999981   F   F   F
  0.1666666699999979  0.5000000000000000  0.4070133299999981   F   F   F
  0.1666666699999979  0.0000000000000000  0.4070133299999981   F   F   F
  0.9160971655274324  0.5621853482587511  0.4540788536962950   F   F   F
  0.0000000000000000  0.0000000000000000  0.4070133299999981   F   F   F
  0.0830885934564449  0.4384747836835885  0.5449439081513177   F   F   F
  0.0837165025903559  0.1889120005774174  0.5455157554615084   F   F   F
  0.4994272048095496  0.1255903995911467  0.4991594570523219   F   F   F
  0.9995855127689524  0.4981454617049934  0.5938749345265180   F   F   F
  0.5796056264717251  0.1851144952168440  0.5503088596841579   F   F   F
  0.9995929138665431  0.7537039649538997  0.5928721739277236   F   F   F
  0.3340667021152228  0.9998672721981166  0.5920029075455986   F   F   F
  0.9997824940624582  0.9990781278557677  0.5931845389007293   F   F   F
  0.0007697872592729  0.2483105543968023  0.5922484244685364   F   F   F
  0.3331504003397967  0.4963635798421393  0.5907447457265320   F   F   F
  0.3353934203257722  0.7412242379356329  0.5904864231268050   F   F   F
  0.6632460963216431  0.2473196036734819  0.5905831283017520   F   F   F
  0.6661651158754012  0.0009487908317567  0.5919622333703032   F   F   F
  0.9159918766368449  0.1887121533880673  0.5455985093355338   F   F   F
  0.6656569711127176  0.7407764806276731  0.5910209763221133   F   F   F
  0.1683634896727995  0.2486486186954835  0.5931293310810943   F   F   F
  0.1706914040101921  0.7502999588891583  0.5947625666743974   F   F   F
  0.2480906052328749  0.4358789165376393  0.5489669717109749   F   F   F
  0.1654122805475922  0.5034104499618763  0.5872696710696772   F   F   F
  0.3346569326398168  0.2545487655885807  0.5926778704353737   F   F   F
  0.4998844368825317  0.0000868542982673  0.5912173787355073   F   F   F
  0.8325307641539084  0.8735082428905869  0.4996237239670123   F   F   F
  0.7481809218164628  0.9400096987035482  0.6425761063276028   F   F   F
  0.8320267517271915  0.0016240644614669  0.5921919328518754   F   F   F
  0.5006642034119650  0.7565055046395130  0.5925714963397652   F   F   F
  0.4178121194002884  0.0650801985210805  0.6401199479450241   F   F   F
  0.4273681677873071  0.3047727749317772  0.6553156636747985   F   F   F
  0.4159838601934922  0.1914989253183279  0.5464860561533484   F   F   F
  0.6666203151791521  0.4946484073388930  0.5914941904970945   F   F   F
  0.0853951063132357  0.6892392000664529  0.5454116223605112   F   F   F
  0.4984732981020414  0.2533638185816969  0.5907980879048154   F   F   F
  0.4160162952374549  0.9371508627947520  0.5461107514235337   F   F   F
  0.7490485447892254  0.1840946681203519  0.5509533866926830   F   F   F
  0.5830698137413179  0.3208683515300024  0.6336332513408678   F   F   F
  0.9145101789796470  0.6885809484498040  0.5459264046654297   F   F   F
  0.9157123289508888  0.9386001195966003  0.5464305082244607   F   F   F
  0.0823145232996580  0.0632359802072457  0.5475796380049260   F   F   F
  0.0857217757733864  0.3132870100334060  0.5469859556224819   F   F   F
  0.0807910726079797  0.5643297739413669  0.5463230963737402   F   F   F
  0.4166276217611085  0.0654335209527162  0.5473575244565936   F   F   F
  0.5766648043937863  0.4358592373262127  0.5522413259096837   F   F   F
  0.2500083563217999  0.9360530497398685  0.4540114416197554   F   F   F
  0.4159484112768865  0.3196757702934292  0.5525180011246462   F   F   F
  0.2525420081368424  0.5590988873962957  0.5438560948250739   F   F   F
  0.5812051347006104  0.5600510302349662  0.5489396014675165   F   F   F
  0.7475316487093266  0.3122563380016601  0.5492067434054348   F   F   F
  0.4129948035246969  0.8126508360946545  0.6397626118046276   F   F   F
  0.3970514022948777  0.5501767389424757  0.6519593417455880   F   F   F
  0.5839265087161607  0.9376558718351617  0.5463384563538369   F   F   F
  0.5795739233255617  0.6861209161911148  0.5474837194696889   F   F   F
  0.2515235597770129  0.9372853384937940  0.5452685292728106   F   F   F
  0.4974395866949735  0.5043871585876829  0.6088886082502754   F   F   F
  0.9180177918476886  0.5637522761305007  0.5470658667886781   F   F   F
  0.4199360664123404  0.5649699891310149  0.5553429978850630   F   F   F
  0.9157718285534884  0.8126257320469463  0.5468827197160024   F   F   F
  0.0836948047111008  0.9388245374149093  0.5458680444346911   F   F   F
  0.2491391771496012  0.6832252837631074  0.5519595289775765   F   F   F
  0.7487388372713966  0.9330647275685351  0.5485316571714947   F   F   F
  0.7516923954977131  0.6798104943577457  0.5534229113602080   F   F   F
  0.7520153889143302  0.4354651951741602  0.5489490768907928   F   F   F
  0.4231256770282030  0.4439049346007025  0.5455579920492752   F   F   F
  0.4230872033170954  0.6879536874280276  0.5468046998030758   F   F   F
  0.5862051019720909  0.8143057695269533  0.5504481587861889   F   F   F
  0.9153975969164705  0.4373002136435034  0.5457210345924537   F   F   F
  0.7412558667755107  0.8101845823914076  0.6398063773645362   F   F   F
  0.1674520718140826  0.9983484461045933  0.5923139934845381   F   F   F
  0.9154459664371259  0.0627552263388012  0.6410770376400450   F   F   F
  0.5834862281103241  0.0663199948311828  0.6395829126891499   F   F   F
  0.5904772828153924  0.5662119257044012  0.6388133781194654   F   F   F
  0.2474825543335442  0.5736244590148374  0.6287426980242543   F   F   F
  0.7543082162699122  0.6918325510415926  0.6571387646594999   F   F   F
  0.2618559231913409  0.7995030378399974  0.6463914874803365   F   F   F
  0.2510405913613312  0.0593664909660276  0.6423216074911124   F   F   F
  0.9166666899999996  0.5625000000000000  0.3605200100000019   F   F   F
  0.4995702641528510  0.3743041472167761  0.4997836477222890   F   F   F
  0.5000577150613026  0.8733145821632817  0.5010402369331572   F   F   F
  0.5003151928388618  0.6210936758875647  0.5000935151727433   F   F   F
  0.8324962861795342  0.6231002387318583  0.5002042806071927   F   F   F
  0.8322800923602003  0.3729995858840311  0.4999541403334717   F   F   F
  0.8325868604424826  0.1244673942187262  0.5000284000424671   F   F   F
  0.9160992119901721  0.0622774439638221  0.4541417421897478   F   F   F
  0.9129493986525716  0.8135431789075369  0.6420318942355294   F   F   F
  0.5827688333123291  0.4396266037929593  0.4564504218169390   F   F   F
  0.5768775892744031  0.6864489189859242  0.6397856470760317   F   F   F
  0.9154354252489298  0.1858015705716625  0.6400000783962483   F   F   F
  0.2490819844857199  0.3162218661024738  0.6412446627887292   F   F   F
  0.1677414483299486  0.8732435608929876  0.4999130246135124   F   F   F
  0.5827566333193204  0.6861200296278511  0.4546255425535790   F   F   F
  0.5825641043114587  0.9372779328129397  0.4544904806370269   F   F   F
  0.9157555125149273  0.1868224483995746  0.4532594280888773   F   F   F
  0.9157102506332748  0.4369004765171738  0.4536506972597820   F   F   F
  0.1670777162547878  0.1243211595798286  0.4993174785556747   F   F   F
  0.7482356596626474  0.0600306742686172  0.5443170125653154   F   F   F
  0.7533682662586472  0.5680036590254431  0.6357538464692070   F   F   F
  0.9152847767857963  0.3118031393923175  0.6397044896217565   F   F   F
  0.9140638741598934  0.5627795436182410  0.6407500447435126   F   F   F
  0.1675112331262341  0.6243111148350664  0.5002780070831179   F   F   F
  0.5810914224068355  0.4391761071507077  0.6464201590233571   F   F   F
  0.2519517327083918  0.1881170741160929  0.5473406401620053   F   F   F
  0.1665717315748125  0.3758989386244238  0.4976601501973903   F   F   F
  0.7482402217317770  0.0700074872392946  0.6382031227385525   F   F   F
  0.0836495047437325  0.3112937656331241  0.6405356844898336   F   F   F
  0.5912941831011480  0.8104978808519689  0.6459590012943792   F   F   F
  0.6665552647886628  0.8745912209167699  0.4986449792461229   F   F   F
  0.0857321743124615  0.5628380579364674  0.6398504461244059   F   F   F
  0.0840829723032499  0.0602726644144838  0.6421786190996883   F   F   F
  0.0873865561464200  0.4365670236411958  0.6397120579659372   F   F   F
  0.0839748824891586  0.1852609264786551  0.6412536318480662   F   F   F
  0.4179742814454883  0.1873140470199814  0.6395891910407840   F   F   F
  0.0842764346228080  0.9354646495766588  0.6408413190549140   F   F   F
  0.9124303911338956  0.4361245991095402  0.6399649359538060   F   F   F
  0.9161749843497802  0.6878447742047555  0.6392005306468036   F   F   F
  0.9142609181125394  0.9371700527013402  0.6414767767260585   F   F   F
  0.4148288482190026  0.4187865696157544  0.6297913558053523   F   F   F
  0.7550981987245038  0.4324212275678292  0.6372513282042576   F   F   F
  0.4175445442735892  0.9348983005909233  0.6397957749234280   F   F   F
  0.0832683242372241  0.6871520061895637  0.6388602912422812   F   F   F
  0.2404326038382933  0.4419359401284240  0.6413126531845563   F   F   F
  0.4203511882676665  0.6755804104695144  0.6335965023339440   F   F   F
  0.8333623973706423  0.5030405275352621  0.5888507240713494   F   F   F
  0.2547725715804390  0.6772784767745961  0.6626290053482222   F   F   F
  0.5785507672657175  0.1913194521571171  0.6447807375369905   F   F   F
  0.7456006494583036  0.3118427424269257  0.6418992004468862   F   F   F
  0.0845752302746163  0.8126480497817425  0.6424391750848457   F   F   F
  0.9166666899999996  0.8125000000000000  0.3605200100000019   F   F   F
  0.2520687284127092  0.9301855715312684  0.6374100009778587   F   F   F
  0.5825674167924362  0.9363075335614752  0.6399622715828670   F   F   F
  0.8313863252169682  0.2494440875583379  0.5913445026903759   F   F   F
  0.8303195003880361  0.7507147844596105  0.5925907694625252   F   F   F
  0.2535264402496651  0.1864250003604297  0.6412430517801297   F   F   F
  0.7457061464720738  0.1939965683256304  0.6468769180965737   F   F   F
  0.6666666899999996  0.3750000000000000  0.4070133299999981   F   F   F
  0.6659350633912169  0.9996607112395779  0.5055935678114452   F   F   F
  0.8333332500000026  0.6250000000000000  0.4070133299999981   F   F   F
  0.5011169682704448  0.7528659082000360  0.5038369063406236   F   F   F
  0.1642697388235987  0.7514429855120142  0.5034354200641857   F   F   F
  0.3257235900380380  0.3735140389134202  0.5926311503564108   F   F   F
  0.1666666699999979  0.3750000000000000  0.4070133299999981   F   F   F
  0.6684437167974693  0.4999897246784570  0.5005771739740368   F   F   F
  0.3300868370531589  0.2480557155624723  0.5027850819020188   F   F   F
  0.3331537255759258  0.0010494504328591  0.5058145796475984   F   F   F
  0.3338725732206882  0.7511621370076895  0.5015239060298384   F   F   F
  0.9996061863560541  0.4998519496166480  0.5066851116733915   F   F   F
  0.5011722259793956  0.4998526191182648  0.5002070994565671   F   F   F
  0.8362668506236091  0.5001375068618543  0.5027287862372773   F   F   F
  0.6652804602495834  0.7517794750163915  0.5022238810838076   F   F   F
  0.0006346643003923  0.1228045177670296  0.6199639325703643   F   F   F
  0.6667400780724577  0.2483589496557670  0.5023798529150412   F   F   F
  0.0000169746099559  0.0000214473479261  0.5067344800212581   F   F   F
  0.0000000000000000  0.8749999400000021  0.4070133299999981   F   F   F
  0.3333333400000029  0.3750000000000000  0.4070133299999981   F   F   F
  0.5009275449362534  0.2479764883518385  0.5020556860764174   F   F   F
  0.9998689898037156  0.7511220021901153  0.5067513233887055   F   F   F
  0.0007461193345719  0.2496726774298068  0.5061404054946053   F   F   F
  0.6666666899999996  0.6250000000000000  0.4070133299999981   F   F   F
  0.8333332500000026  0.8749999400000021  0.4070133299999981   F   F   F
  0.3333333400000029  0.6250000000000000  0.4070133299999981   F   F   F
  0.3333333400000029  0.1250000000000000  0.4070133299999981   F   F   F
  0.6666666899999996  0.1250000000000000  0.4070133299999981   F   F   F
  0.8342203512749720  0.9998864121595261  0.5064122777157110   F   F   F
  0.3333333400000029  0.8749999400000021  0.4070133299999981   F   F   F
  0.0000000000000000  0.6250000000000000  0.4070133299999981   F   F   F
  0.1659772982342176  0.0011345837813437  0.5065497047619800   F   F   F
  0.3311087994882556  0.4992367324728448  0.5008568750258391   F   F   F
  0.1634002917041570  0.4997825727524159  0.5019876617065790   F   F   F
  0.8358824990521185  0.2486274391892493  0.5025837963443180   F   F   F
  0.5012061902917750  0.8770881126368621  0.6097586847630154   F   F   F
  0.8361851245719336  0.7517257253991403  0.5027382690278017   F   F   F
  0.0000000000000000  0.3750000000000000  0.4070133299999981   F   F   F
  0.9989203794375570  0.8748433537423921  0.6232738877799662   F   F   F
  0.0000000000000000  0.1250000000000000  0.4070133299999981   F   F   F
  0.8333332500000026  0.1250000000000000  0.4070133299999981   F   F   F
  0.5000000000000000  0.6250000000000000  0.4070133299999981   F   F   F
  0.8395137794593523  0.6271219302843676  0.6041211292999193   F   F   F
  0.3316312479169952  0.1197103370273922  0.6131032392586917   F   F   F
  0.3347098710758658  0.8786406733755925  0.6030255805220719   F   F   F
  0.6651564122261320  0.1243273509545091  0.6051508802893011   F   F   F
  0.3339254286713143  0.6244848240537024  0.5949601332789456   F   F   F
  0.1666666699999979  0.8749999400000021  0.4070133299999981   F   F   F
  0.8333332500000026  0.3750000000000000  0.4070133299999981   F   F   F
  0.8384611185291959  0.3726417946169533  0.6025829187730025   F   F   F
  0.8311472038227237  0.8776157270919072  0.6186464439876360   F   F   F
  0.1666666699999979  0.1250000000000000  0.4070133299999981   F   F   F
  0.5000000000000000  0.1250000000000000  0.4070133299999981   F   F   F
  0.0002009528799860  0.3753342936572679  0.6241277753949106   F   F   F
  0.1662892648677499  0.2481643496005361  0.5061726102576785   F   F   F
  0.5014515640775699  0.3716086608685387  0.5947406144001661   F   F   F
  0.1666666699999979  0.6250000000000000  0.4070133299999981   F   F   F
  0.5000000000000000  0.3750000000000000  0.4070133299999981   F   F   F
  0.6666666899999996  0.8749999400000021  0.4070133299999981   F   F   F
  0.5003130538197738  0.9992442926816310  0.5056946834275990   F   F   F
  0.1594796907025184  0.6273014950641453  0.6015916055126382   F   F   F
  0.6701651532644561  0.3727031658582689  0.5930584456935435   F   F   F
  0.5004869652145203  0.1220229182285095  0.6064819468119254   F   F   F
  0.1663142229145222  0.8736619414565965  0.6177549928884218   F   F   F
  0.5037043280700715  0.6250648033310213  0.5939853592662843   F   F   F
  0.1631486193876981  0.3710553897538276  0.6075656522039665   F   F   F
  0.6658709885592060  0.8819996986837566  0.6075481519431705   F   F   F
  0.6665449090334121  0.6258222458373339  0.5932118084545266   F   F   F
  0.8351261983156490  0.1236265955029268  0.6109047712206248   F   F   F
  0.9995670445263798  0.6239309220632379  0.6234704705112009   F   F   F
  0.5000000000000000  0.8749999400000021  0.4070133299999981   F   F   F
  0.1677788646399065  0.1225180555763004  0.6217171805589246   F   F   F
  0.9166919368550168  0.9997187914374734  0.6038240284321716   F   F   F
  0.5833333100000004  0.2500000000000000  0.4070133299999981   F   F   F
  0.0835585431372436  0.2476026672685450  0.6037448285356461   F   F   F
  0.7497625251257460  0.0026147733208788  0.6047758492746524   F   F   F
  0.5826667928191256  0.0012281918903341  0.6045865224647429   F   F   F
  0.5848908816331928  0.7500805743337011  0.5997123088025020   F   F   F
  0.5902057114845576  0.5014223241088089  0.5934976099083329   F   F   F
  0.0820080564887675  0.3743717274346139  0.5060524851566868   F   F   F
  0.2496727509101007  0.7528151657938551  0.5919397699853022   F   F   F
  0.2497526450300143  0.9976612726000127  0.6042093486153419   F   F   F
  0.7539681500676139  0.2481883328561096  0.5925990383946598   F   F   F
  0.2491197699616094  0.2456157858328325  0.6036272289097440   F   F   F