Au  C  H  O Sr Ti                       
   1.00000000000000     
    23.6707801818999997    0.0000000000000000    0.0000000000000000
     0.0000000000000000   22.3170261383000010    0.0000000000000000
     0.0000000000000000    0.0000000000000000   30.0000000000000000
   Au   C    H    O    Sr   Ti
    50     2     3   265    72    72
Selective dynamics
Direct
  0.7159529692282338  0.5254560745354531  0.7533719078701905   T   T   T
  0.6557462623994399  0.4414663969159495  0.8129396230493109   T   T   T
  0.3682306756649640  0.6190468836709606  0.8202376949483847   T   T   T
  0.5694837084198944  0.5102005907081387  0.8567478241260569   T   T   T
  0.6652600168793794  0.1974442531122530  0.7523250777147603   T   T   T
  0.4700517128624754  0.4511780761793541  0.8792803470962960   T   T   T
  0.5161672288224052  0.3779791546717928  0.7331992211325723   T   T   T
  0.2828183305531616  0.3395235530661169  0.7023507156470822   T   T   T
  0.6694968635163779  0.6812308296044870  0.7488701687765411   T   T   T
  0.3979892699541507  0.3813734967153943  0.6901279723105382   T   T   T
  0.4625011703527496  0.5736156607239978  0.8639243037401518   T   T   T
  0.7065227650117170  0.7569230756194874  0.6883672732977506   T   T   T
  0.4520953704960606  0.5801516510419418  0.7027728015101473   T   T   T
  0.4176795797570718  0.6968597646916967  0.6994191801886165   T   T   T
  0.7748582026435002  0.4301730619908172  0.7946872269559709   T   T   T
  0.2567848280784120  0.5931555057671386  0.6944646899318895   T   T   T
  0.6499802731478457  0.4481155444210859  0.6934320473195952   T   T   T
  0.5645113966923648  0.6397465622588122  0.8612419001850636   T   T   T
  0.5404870030658590  0.6678628377997045  0.7017667704519434   T   T   T
  0.4437112654815235  0.4750979855806609  0.7569858797927620   T   T   T
  0.3740715574740449  0.7397769460778304  0.7787064188886418   T   T   T
  0.3745505185313738  0.4931573874763827  0.8329441364683788   T   T   T
  0.6163012005023630  0.3245669023713319  0.6959065494489829   T   T   T
  0.3258562327937856  0.4144677703794231  0.7690503716192519   T   T   T
  0.7002327920700081  0.3481028652409868  0.7563134209009913   T   T   T
  0.4862898073007779  0.2699140380399210  0.7754073733387445   T   T   T
  0.4857085261774966  0.7766100444910184  0.7550658464714322   T   T   T
  0.7190930176232805  0.2611562189352766  0.6905131397205246   T   T   T
  0.2935623009930816  0.7467126344536115  0.6970626392937077   T   T   T
  0.5783179252856696  0.7257076390271389  0.7938953985565047   T   T   T
  0.2405814286570056  0.4694943656037233  0.7090499414354019   T   T   T
  0.2849430943981679  0.6623176858089819  0.7645784735119544   T   T   T
  0.6006227478033860  0.2919914534418125  0.7851594421453680   T   T   T
  0.5139948795443320  0.4846024544347988  0.6781827248822800   T   T   T
  0.2892722956071825  0.5381344006172849  0.7773077752744156   T   T   T
  0.5483931214021432  0.3858324555733255  0.8290942551467988   T   T   T
  0.5118971984364208  0.6035093517687385  0.7768099037803359   T   T   T
  0.7330179403858395  0.6149289558481703  0.6939833850988406   T   T   T
  0.5633924628094898  0.4861334940122656  0.7620706535680247   T   T   T
  0.6347122262523247  0.5840680634488977  0.8002070924296923   T   T   T
  0.4288146295579500  0.3718844254893494  0.8155781792531680   T   T   T
  0.3496464514213941  0.4994033814763507  0.6977315669730061   T   T   T
  0.5964544437317869  0.7845966662345933  0.7130473011439433   T   T   T
  0.3714742176417406  0.2983346511576644  0.7549405233190251   T   T   T
  0.4423976631237527  0.2273914466091113  0.6974200528189982   T   T   T
  0.4636583792684837  0.6952995590187216  0.8300679574714027   T   T   T
  0.3913292887118590  0.8177528712307418  0.7064782906482089   T   T   T
  0.7650294044232077  0.4326719801442778  0.7044375209487351   T   T   T
  0.6211854614551744  0.5717793818132330  0.7039879609441863   T   T   T
  0.5599151183771329  0.2129485576965150  0.7123981358101811   T   T   T
  0.7533567462083598  0.1449766585389748  0.8090030305389760   T   T   T
  0.7621841706134653  0.0871833883963338  0.8212094173783291   T   T   T
  0.7762609504530030  0.0764936926650719  0.8545631640238529   T   T   T
  0.7582910636603589  0.0514323898900803  0.7970285478640990   T   T   T
  0.7571620945418367  0.1814251578251714  0.8333113805658898   T   T   T
  0.5766615712778872  0.4358037003128593  0.5522292840604414   T   T   T
  0.0848894425353997  0.8129228378903298  0.5473094756386664   T   T   T
  0.4165695512412066  0.0654071743152507  0.5473872604645488   T   T   T
  0.4161151942410159  0.3195116516944739  0.5525869697502729   T   T   T
  0.2530826422838127  0.8125595057596458  0.5506834086310961   T   T   T
  0.5811622691931886  0.5600697564378819  0.5488824263160419   T   T   T
  0.7482558406304185  0.3116399449423329  0.5481572011545467   T   T   T
  0.5858989338524763  0.8143345504996979  0.5504022238958414   T   T   T
  0.5829722853553582  0.0616978911331513  0.5453903801232548   T   T   T
  0.2525153197292845  0.5590896586776546  0.5439290361609674   T   T   T
  0.0822838473333795  0.0632802960228981  0.5475731426248152   T   T   T
  0.2490434503384583  0.6831958724135812  0.5520425885206450   T   T   T
  0.7492727915899891  0.9340116825040122  0.5476130094978167   T   T   T
  0.9140690143214570  0.6890797959372990  0.5453987228310311   T   T   T
  0.9171415819817634  0.1891088640500057  0.5452817986160248   T   T   T
  0.9157151367545352  0.4376703720455671  0.5456797092452443   T   T   T
  0.5795681542107362  0.6861366737178495  0.5474319657113115   T   T   T
  0.2515050804414241  0.9372996607321046  0.5452651944389578   T   T   T
  0.4974409555801243  0.5044063531317795  0.6089852117255667   T   T   T
  0.9178551822192664  0.5639628948393397  0.5471711585661387   T   T   T
  0.4200181479044486  0.5650736900328935  0.5554321879490242   T   T   T
  0.9154966423605108  0.8128168508881715  0.5467986011137467   T   T   T
  0.0835918875709849  0.9390194299330668  0.5457538061136935   T   T   T
  0.0865228528069170  0.3135373388056530  0.5469070605331521   T   T   T
  0.8321558469722669  0.0020560391170286  0.5923088513786749   T   T   T
  0.9158240435773390  0.1869483297572300  0.4531847388822607   T   T   T
  0.9156351894795144  0.9385323736254252  0.5464251662431117   T   T   T
  0.2495520028914889  0.3137261549303343  0.5459890156357093   T   T   T
  0.5837680150885739  0.9375970877531853  0.5461683596795222   T   T   T
  0.7483388425680301  0.9369078350937148  0.6399839049434312   T   T   T
  0.5827942564801155  0.4396579345786945  0.4563534320099201   T   T   T
  0.4995692319886174  0.1256702930753112  0.4996382693056930   T   T   T
  0.4990807560942309  0.2525347891980526  0.5904213940185309   T   T   T
  0.0836179453913607  0.1889864905374374  0.5455044855761464   T   T   T
  0.0833333358191695  0.3124999999901945  0.3605200052333331   F   F   F
  0.9997299506852008  0.4993248189003441  0.5941808301758196   T   T   T
  0.5808914515985175  0.1846602664080672  0.5504361633582012   T   T   T
  0.9998083591624639  0.7531485984287033  0.5923413093157063   T   T   T
  0.3340175620546652  0.9998998458905376  0.5920066009411187   T   T   T
  0.9997164974598642  0.9993579682093605  0.5931815999666719   T   T   T
  0.0009658625302448  0.2501697604305927  0.5918973332197580   T   T   T
  0.3332481068295012  0.4964133546352538  0.5909175953053495   T   T   T
  0.3354351505998170  0.7412198554711096  0.5903957847460702   T   T   T
  0.6633763539466644  0.2480112693726720  0.5903361433658944   T   T   T
  0.6658646652115464  0.0003245272950234  0.5918648682661286   T   T   T
  0.4158141423167279  0.1914543004683325  0.5465838657538167   T   T   T
  0.6658012081683141  0.7414843163908639  0.5904798523997002   T   T   T
  0.4300917655956471  0.3049165453627736  0.6554459094978853   T   T   T
  0.1674343289806543  0.9984145635618547  0.5923117048813782   T   T   T
  0.1706396275638439  0.7502837258135473  0.5949067380457037   T   T   T
  0.2483834419904764  0.4358694820658023  0.5491011041883306   T   T   T
  0.1656397043576359  0.5027586232017306  0.5873879828786410   T   T   T
  0.3350895977326755  0.2544916194577430  0.5930462672209135   T   T   T
  0.4996625524587037  0.0000352742674232  0.5910163480104420   T   T   T
  0.8327089052400281  0.8742518243363114  0.4986100594173711   T   T   T
  0.4230993848416347  0.4439588541197367  0.5455310911728460   T   T   T
  0.7519701233097880  0.4353599289479452  0.5489213651215226   T   T   T
  0.7518889832868607  0.6805208516489700  0.5531726156654770   T   T   T
  0.7482912380338401  0.8081408661508853  0.5456931943485437   T   T   T
  0.4178675678382122  0.0651895835176025  0.6400900458824731   T   T   T
  0.2492123254768520  0.3162831850550442  0.6413564548692193   T   T   T
  0.6666744629647708  0.4946357393591124  0.5913309113135291   T   T   T
  0.5910531915097224  0.8100581604098128  0.6460594776373525   T   T   T
  0.1685474155455627  0.2485869182306388  0.5931804896361357   T   T   T
  0.9161023439812308  0.5621950867478640  0.4540879636018234   T   T   T
  0.7532539656631327  0.5684928469048735  0.6356196320790967   T   T   T
  0.9141195395641386  0.8133059696597301  0.6415693399092992   T   T   T
  0.9159992851000199  0.0625300377633998  0.6419894657182896   T   T   T
  0.7410971225903663  0.8098981134941374  0.6400026981014528   T   T   T
  0.7472198309249974  0.0671561458077299  0.6390526132287904   T   T   T
  0.0841797836628421  0.3114870542706545  0.6406243630675098   T   T   T
  0.0867425048214256  0.5628216539979494  0.6401155417491241   T   T   T
  0.0842527553397314  0.0606504614353549  0.6421210764407660   T   T   T
  0.0871582245441275  0.4365683828694681  0.6397161425484585   T   T   T
  0.0834734351188544  0.1856778678409818  0.6409926641034650   T   T   T
  0.4149392878492790  0.4188187406043480  0.6298693382153454   T   T   T
  0.6665110808692094  0.8743515928200067  0.4989108766186999   T   T   T
  0.8316338511646515  0.2478717888536411  0.5913978754126654   T   T   T
  0.8305555238381425  0.7508946247777286  0.5928669838461511   T   T   T
  0.0842079539531947  0.9356926027319468  0.6406355545351532   T   T   T
  0.8333406481842075  0.5030752796249138  0.5887393714732221   T   T   T
  0.4187488143930024  0.1875864358628739  0.6399594493087087   T   T   T
  0.0831701656626719  0.6871110050702008  0.6389803140994338   T   T   T
  0.2520289691665053  0.9302984844827632  0.6373274334419308   T   T   T
  0.5796152277857370  0.1920914278662324  0.6456320290812311   T   T   T
  0.0842575804150421  0.8126072409031804  0.6422977810798658   T   T   T
  0.2407420223313013  0.4420357897853746  0.6416015624833917   T   T   T
  0.9143233484763629  0.9372474534352233  0.6409579594733671   T   T   T
  0.9163789224620772  0.6875155543138002  0.6390441190133460   T   T   T
  0.9124253322678092  0.4360405143513610  0.6398261746202589   T   T   T
  0.2535270317664696  0.1865015286642432  0.6413047058814433   T   T   T
  0.2546721225997884  0.6777744503638383  0.6629397300763764   T   T   T
  0.5820445238361691  0.9356390976442734  0.6393359757340499   T   T   T
  0.7452037486866365  0.1956633456507622  0.6468620618623941   T   T   T
  0.9166666865332829  0.8124999999834799  0.3605200052333331   F   F   F
  0.4125905428746310  0.8129310890767981  0.6396059049486366   T   T   T
  0.7465489662646805  0.3127981825025981  0.6399983682278095   T   T   T
  0.0828675679436813  0.4389321629032029  0.5448630446904618   T   T   T
  0.4995890732120923  0.3743082921738372  0.4997324474079612   T   T   T
  0.9133618993833084  0.5623126501187967  0.6411761545108612   T   T   T
  0.5825462877259484  0.0662424097030592  0.6388447451569522   T   T   T
  0.5830653208967065  0.3209942888625524  0.6332391676996503   T   T   T
  0.2475522633624231  0.5738980827149978  0.6287391567428615   T   T   T
  0.7539095401665660  0.6922181420849113  0.6569498445845129   T   T   T
  0.2619300964554584  0.7996310791137146  0.6463316390866480   T   T   T
  0.2509741872941126  0.0594841981060064  0.6423427299472954   T   T   T
  0.9166666865332829  0.5625000000092442  0.3605200052333331   F   F   F
  0.4173629251756724  0.9350140880073519  0.6397870925852807   T   T   T
  0.4999738345136855  0.8733100513220751  0.5008543119838534   T   T   T
  0.4204475113594122  0.6760918855502167  0.6335889221770696   T   T   T
  0.8324389244070340  0.6230589379633453  0.5000636443708649   T   T   T
  0.8324372118197394  0.3732115969776512  0.4996879455548037   T   T   T
  0.9150481055710329  0.3119343312294567  0.6396175956052814   T   T   T
  0.1667567837682906  0.3762432150318170  0.4977438626843624   T   T   T
  0.5814311706368184  0.4397372192065359  0.6465651788516007   T   T   T
  0.5782666797252450  0.6859077345162813  0.6395628409905885   T   T   T
  0.9172083740019854  0.1869419943022467  0.6407363119806284   T   T   T
  0.4159550081036066  0.9371120045880572  0.5461097443178217   T   T   T
  0.1670855808187285  0.1244539521080804  0.4994813218488791   T   T   T
  0.7481104088606386  0.0598095324595284  0.5444174318581766   T   T   T
  0.1677150419428254  0.8733353391971700  0.4998546551844090   T   T   T
  0.5008297307876008  0.7563251187233895  0.5927504727364672   T   T   T
  0.5002900279984142  0.6211340021995997  0.5000379023989675   T   T   T
  0.7553437680703324  0.4340980548074937  0.6378289727666491   T   T   T
  0.2521063122015330  0.1883442707180115  0.5472497054618787   T   T   T
  0.7481952207349674  0.1837991510801458  0.5506225012524474   T   T   T
  0.0817213466161478  0.5643440480242886  0.5462877431536135   T   T   T
  0.3972149009847291  0.5506391745180255  0.6519999983194847   T   T   T
  0.1677186776766652  0.6242941001019860  0.5000969380930927   T   T   T
  0.8329116836691818  0.1244915980352888  0.4996458244703776   T   T   T
  0.0859616226735843  0.6893028596538574  0.5453487068775434   T   T   T
  0.5906992108392227  0.5661052696086566  0.6387948180229225   T   T   T
  0.0000000000000000  0.0000000000000000  0.4070133268666680   F   F   F
  0.5832563085080317  0.0636660152396677  0.4538304141977781   T   T   T
  0.9166666865332829  0.6874999999963620  0.3605200052333331   F   F   F
  0.9166666865332829  0.4374999701794380  0.3605200052333331   F   F   F
  0.9166666865332829  0.1875000000030838  0.3605200052333331   F   F   F
  0.5833333134730552  0.9375000000154046  0.3605200052333331   F   F   F
  0.5833333134730552  0.6874999999963620  0.3605200052333331   F   F   F
  0.5833333134730552  0.4374999701794380  0.3605200052333331   F   F   F
  0.5833333134730552  0.1875000000030838  0.3605200052333331   F   F   F
  0.2499999999799343  0.9375000000154046  0.3605200052333331   F   F   F
  0.9166666865332829  0.9375000000154046  0.3605200052333331   F   F   F
  0.9177382380212111  0.0632299311073010  0.5475000560615322   T   T   T
  0.2499999999799343  0.6874999999963620  0.3605200052333331   F   F   F
  0.7499999404149307  0.9375000000154046  0.3605200052333331   F   F   F
  0.7441124905814596  0.1601407431819597  0.7668373776562535   T   T   T
  0.5845655689474005  0.5628692331536120  0.4548516942060009   T   T   T
  0.7499999404149307  0.6874999999963620  0.3605200052333331   F   F   F
  0.4166666269218169  0.9375000000154046  0.3605200052333331   F   F   F
  0.4166666269218169  0.6874999999963620  0.3605200052333331   F   F   F
  0.4166666269218169  0.4374999701794380  0.3605200052333331   F   F   F
  0.2499999999799343  0.4374999701794380  0.3605200052333331   F   F   F
  0.0833333358191695  0.0625000000159659  0.3605200052333331   F   F   F
  0.9153561254024678  0.6867393347746636  0.4531793545203340   T   T   T
  0.6654771730159242  0.3785683798709420  0.5030875878523290   T   T   T
  0.3343686957857202  0.3784689762652878  0.5030038698818740   T   T   T
  0.3355962726302057  0.6257971945919519  0.5037859844323390   T   T   T
  0.2499097678599279  0.1884599444563345  0.4541151297105573   T   T   T
  0.2499999999799343  0.1875000000030838  0.3605200052333331   F   F   F
  0.2505059472284900  0.0620408812057776  0.4542672119684203   T   T   T
  0.7494946652020366  0.9384249366439001  0.4553480979052927   T   T   T
  0.7499999404149307  0.4374999701794380  0.3605200052333331   F   F   F
  0.7499999404149307  0.1875000000030838  0.3605200052333331   F   F   F
  0.5833333134730552  0.0625000000159659  0.3605200052333331   F   F   F
  0.7490895092170685  0.6886851587903158  0.4573856999829897   T   T   T
  0.7496474040820115  0.4383794442415000  0.4557272311447517   T   T   T
  0.9157857169017413  0.4369797850986711  0.4536239278712220   T   T   T
  0.7507255588509004  0.1898757606770371  0.4556592190873881   T   T   T
  0.4171685219829419  0.9358394408345533  0.4540319777630997   T   T   T
  0.4171294973013169  0.6847626675710543  0.4547073281975075   T   T   T
  0.4164354004657608  0.4354488464397434  0.4538149632529327   T   T   T
  0.0845862573527245  0.6868856523439573  0.4530565953666285   T   T   T
  0.0838972174649182  0.9366434464749760  0.4534674808943593   T   T   T
  0.0828136382527214  0.4368342095958374  0.4528370807430521   T   T   T
  0.0838582246769445  0.1865719063788181  0.4529763959714594   T   T   T
  0.9165876531283227  0.8121204599730684  0.4540379854308090   T   T   T
  0.9161255759445448  0.0621934354910991  0.4540983110827698   T   T   T
  0.7493901902726844  0.8131948499685714  0.4530509556075870   T   T   T
  0.9162748195538813  0.3122483642844638  0.4538608972151370   T   T   T
  0.2520925337401528  0.6876517172583955  0.4561444202755259   T   T   T
  0.7465208455623392  0.5581955724576411  0.5446690663744962   T   T   T
  0.9164360805357000  0.9371288600777719  0.4536734339191080   T   T   T
  0.0000501918701765  0.1250284087284885  0.4983940829486342   T   T   T
  0.5832791058158893  0.8105083345680669  0.4553218529973412   T   T   T
 -0.0000315905261926  0.3737644396324912  0.4982763003864839   T   T   T
  0.9998392002228332  0.6271853297739897  0.4976845899604714   T   T   T
  0.3337160521512704  0.1257217587784768  0.4985187017544027   T   T   T
  0.0000325800954348  0.8751359289859783  0.4995246864426706   T   T   T
  0.3334718185795699  0.8740211328531249  0.4993054283521190   T   T   T
  0.6660895120292792  0.1265051277075295  0.4989897304710626   T   T   T
  0.2511794847450353  0.4392673011050930  0.4549293814883669   T   T   T
  0.0833333358191695  0.5625000000092442  0.3605200052333331   F   F   F
  0.9166666865332829  0.0625000000159659  0.3605200052333331   F   F   F
  0.4172229321299931  0.1871564879390991  0.4535664488744856   T   T   T
  0.9152849936490020  0.3127368186895349  0.5467056531192439   T   T   T
  0.4230416162003559  0.6880575402217285  0.5466952362891997   T   T   T
  0.5827070384924041  0.1903278898181893  0.4556111720185180   T   T   T
  0.2510797413383768  0.0625847289119119  0.5472658770586717   T   T   T
  0.5827877339939773  0.3109386761798623  0.5447400820996179   T   T   T
  0.2499999999799343  0.8124999999834799  0.3605200052333331   F   F   F
  0.0833333358191695  0.1875000000030838  0.3605200052333331   F   F   F
  0.0000000000000000  0.2500000000190425  0.4070133268666680   F   F   F
  0.0000000000000000  0.4999999999932783  0.4070133268666680   F   F   F
  0.7482167317682010  0.5643062587766485  0.4537990555755608   T   T   T
  0.3333333432766779  0.0000000000000000  0.4070133268666680   F   F   F
  0.3333333432766779  0.4999999999932783  0.4070133268666680   F   F   F
  0.3333333432766779  0.7500000000123208  0.4070133268666680   F   F   F
  0.5827600897967076  0.6861622478461749  0.4546228995910988   T   T   T
  0.6666666865533486  0.0000000000000000  0.4070133268666680   F   F   F
  0.6666666865533486  0.4999999999932783  0.4070133268666680   F   F   F
  0.8333332538436267  0.2500000000190425  0.4070133268666680   F   F   F
  0.1666666716383389  0.0000000000000000  0.4070133268666680   F   F   F
  0.1666666716383389  0.4999999999932783  0.4070133268666680   F   F   F
  0.1666666716383389  0.7500000000123208  0.4070133268666680   F   F   F
  0.5000000000021103  0.4999999999932783  0.4070133268666680   F   F   F
  0.5000000000021103  0.2500000000190425  0.4070133268666680   F   F   F
  0.9166666865332829  0.3124999999901945  0.3605200052333331   F   F   F
  0.3333333432766779  0.2500000000190425  0.4070133268666680   F   F   F
  0.7473163980629722  0.3141613531102401  0.4547415168882833   T   T   T
  0.0000000000000000  0.7500000000123208  0.4070133268666680   F   F   F
  0.4166288981367284  0.8100064426696048  0.4551279165862905   T   T   T
  0.5843524574999289  0.3154535064529016  0.4535527474487066   T   T   T
  0.5827373847946146  0.9371643155450089  0.4543343317349636   T   T   T
  0.6666666865533486  0.2500000000190425  0.4070133268666680   F   F   F
  0.2522617235343844  0.3141431673316605  0.4541611782428448   T   T   T
  0.1666666716383389  0.2500000000190425  0.4070133268666680   F   F   F
  0.2504754810805401  0.8108190741466400  0.4553192828846130   T   T   T
  0.5833333134730552  0.5625000000092442  0.3605200052333331   F   F   F
  0.2500341549475038  0.9360602275811406  0.4540252743984873   T   T   T
  0.8333332538436267  0.0000000000000000  0.4070133268666680   F   F   F
  0.5000000000021103  0.7500000000123208  0.4070133268666680   F   F   F
  0.6666666865533486  0.7500000000123208  0.4070133268666680   F   F   F
  0.5000000000021103  0.0000000000000000  0.4070133268666680   F   F   F
  0.6654190536281653  0.6260920948909297  0.5029863456807586   T   T   T
  0.2499999999799343  0.0625000000159659  0.3605200052333331   F   F   F
  0.2499999999799343  0.5625000000092442  0.3605200052333331   F   F   F
  0.2499999999799343  0.3124999999901945  0.3605200052333331   F   F   F
  0.7499999404149307  0.5625000000092442  0.3605200052333331   F   F   F
  0.7499999404149307  0.3124999999901945  0.3605200052333331   F   F   F
  0.7499999404149307  0.0625000000159659  0.3605200052333331   F   F   F
  0.4166666269218169  0.8124999999834799  0.3605200052333331   F   F   F
  0.4166666269218169  0.3124999999901945  0.3605200052333331   F   F   F
  0.7499999404149307  0.8124999999834799  0.3605200052333331   F   F   F
  0.4166666269218169  0.0625000000159659  0.3605200052333331   F   F   F
  0.4169969276653656  0.0616067058870887  0.4553726805252927   T   T   T
  0.0834544569016259  0.8121053206226170  0.4541918621887530   T   T   T
  0.4166666269218169  0.5625000000092442  0.3605200052333331   F   F   F
  0.5833333134730552  0.3124999999901945  0.3605200052333331   F   F   F
  0.5833333134730552  0.8124999999834799  0.3605200052333331   F   F   F
  0.0834196708668829  0.3120461142722883  0.4539937988850741   T   T   T
  0.8333332538436267  0.7500000000123208  0.4070133268666680   F   F   F
  0.4143811408010984  0.8117855347407055  0.5479325005119430   T   T   T
  0.8333332538436267  0.4999999999932783  0.4070133268666680   F   F   F
  0.7495425758797677  0.0640795245758720  0.4533609282425683   T   T   T
  0.4166666269218169  0.1875000000030838  0.3605200052333331   F   F   F
  0.0833333358191695  0.9375000000154046  0.3605200052333331   F   F   F
  0.0833333358191695  0.8124999999834799  0.3605200052333331   F   F   F
  0.0833333358191695  0.4374999701794380  0.3605200052333331   F   F   F
  0.2518946116142432  0.5646324445007832  0.4537926422556645   T   T   T
  0.4154854543146427  0.3113909553797404  0.4573600774249797   T   T   T
  0.0837328835111300  0.0618737829338457  0.4541942809610652   T   T   T
  0.4160338630839527  0.5595122851473734  0.4578901619019420   T   T   T
  0.0839394711350928  0.5624826692628048  0.4538878699345274   T   T   T
  0.0833333358191695  0.6874999999963620  0.3605200052333331   F   F   F
  0.8360488917761393  0.7517030846005633  0.5026139477398917   T   T   T
  0.1666666716383389  0.8749999404036828  0.4070133268666680   F   F   F
  0.0000000000000000  0.1249999999871179  0.4070133268666680   F   F   F
  0.8358145312968956  0.2483934858842174  0.5029257484472316   T   T   T
  0.9997100563795754  0.6230688567028551  0.6257304039723984   T   T   T
  0.8333332538436267  0.3750000000061604  0.4070133268666680   F   F   F
  0.8376368348853341  0.3725754756653923  0.6032555428099727   T   T   T
  0.5000000000021103  0.6249999999803961  0.4070133268666680   F   F   F
  0.1636347670742506  0.4998955958964167  0.5020423222705648   T   T   T
  0.9990506794090976  0.8751713496635924  0.6224114214034827   T   T   T
  0.3317552347304524  0.1199561497788131  0.6136379715866991   T   T   T
  0.8395517339769654  0.6270206436710947  0.6039005035357315   T   T   T
  0.5000000000021103  0.3750000000061604  0.4070133268666680   F   F   F
  0.5000000000021103  0.1249999999871179  0.4070133268666680   F   F   F
  0.8320325706406738  0.8762075818193104  0.6182024839731587   T   T   T
  0.8333332538436267  0.1249999999871179  0.4070133268666680   F   F   F
  0.6665880079120966  0.6261943075937974  0.5933599795091834   T   T   T
  0.5000000000021103  0.8749999404036828  0.4070133268666680   F   F   F
  0.5014422788292664  0.3714959683201178  0.5948212874344949   T   T   T
  0.5037284927347119  0.6251142388960701  0.5940479730916322   T   T   T
  0.8332932897377514  0.1254598012365197  0.6228404917524019   T   T   T
  0.0001990832701309  0.3750023533180299  0.6245421439293594   T   T   T
  0.6652840056774432  0.8810175055496806  0.6072363744782233   T   T   T
  0.1666666716383389  0.6249999999803961  0.4070133268666680   F   F   F
  0.1633734293746978  0.3713488593157806  0.6077291082880255   T   T   T
  0.1595984463912310  0.6274557506473177  0.6014997050861242   T   T   T
  0.6707541866750053  0.3725578782837197  0.5929218117191147   T   T   T
  0.1662388096683583  0.8735959311623818  0.6181097323087799   T   T   T
  0.3344703122636687  0.8787560454660377  0.6028370158587975   T   T   T
  0.6666666865533486  0.8749999404036828  0.4070133268666680   F   F   F
  0.1677212323446514  0.1229762603621529  0.6220227753843965   T   T   T
  0.3340943530694083  0.6245484602500945  0.5951402486249965   T   T   T
  0.6652276837871116  0.1249570536678175  0.6113959231250236   T   T   T
  0.5005381535865246  0.1223781899441850  0.6064859103100068   T   T   T
  0.3259265637174329  0.3736137214173805  0.5927065886747498   T   T   T
  0.1666666716383389  0.1249999999871179  0.4070133268666680   F   F   F
  0.8361516167150660  0.5000930026334705  0.5027252795650353   T   T   T
  0.1643782308463584  0.7515762334766590  0.5034238234141416   T   T   T
  0.5012477681738482  0.4998221061549934  0.5002091870061208   T   T   T
  0.3302659642595107  0.2480206399815697  0.5029036530540585   T   T   T
  0.6666666865533486  0.3750000000061604  0.4070133268666680   F   F   F
  0.3311936027708302  0.4992474080619027  0.5009258639498071   T   T   T
  0.0005805462907275  0.1226400755454422  0.6197222987840040   T   T   T
  0.1666666716383389  0.3750000000061604  0.4070133268666680   F   F   F
  0.3331635985871051  0.0012615864159385  0.5058210164459861   T   T   T
  0.6659272205872261 -0.0000027777910354  0.5054715164789224   T   T   T
  0.1659931172154834  0.0012578417544301  0.5065571781242236   T   T   T
  0.6654586219409482  0.7519139444104662  0.5022438637348078   T   T   T
  0.6669485772642755  0.2479837004880677  0.5026402200868233   T   T   T
  0.8333332538436267  0.6249999999803961  0.4070133268666680   F   F   F
  0.0000000000000000  0.3750000000061604  0.4070133268666680   F   F   F
  0.3338307371469587  0.7511817579078636  0.5015216323816867   T   T   T
  0.5011278601549511  0.2479826959115801  0.5021751744603282   T   T   T
 -0.0000459265567296  0.0000111228776281  0.5066602418950016   T   T   T
  0.5011227068397082  0.7528348318621484  0.5038802008447858   T   T   T
  0.3333333432766779  0.3750000000061604  0.4070133268666680   F   F   F
  0.6685705499247098  0.4998815048665450  0.5006183336296564   T   T   T
  0.0000000000000000  0.8749999404036828  0.4070133268666680   F   F   F
  0.5003283102499639  0.9993323599393535  0.5054755825643957   T   T   T
  0.5007335596556161  0.8768177180967374  0.6095370738457672   T   T   T
  0.1663753225555554  0.2482422140122665  0.5062441201695144   T   T   T
  0.3333333432766779  0.8749999404036828  0.4070133268666680   F   F   F
  0.8342317345185173  0.0004406225710285  0.5066320198310394   T   T   T
  0.0000000000000000  0.6249999999803961  0.4070133268666680   F   F   F
  0.3333333432766779  0.1249999999871179  0.4070133268666680   F   F   F
  0.3333333432766779  0.6249999999803961  0.4070133268666680   F   F   F
  0.8333332538436267  0.8749999404036828  0.4070133268666680   F   F   F
  0.6666666865533486  0.6249999999803961  0.4070133268666680   F   F   F
  0.0008021168585455  0.2499164929501526  0.5059035231718305   T   T   T
  0.9999310194997879  0.7510825872513867  0.5065571933899198   T   T   T
  0.9997141643820530  0.5002207982318814  0.5068201588423665   T   T   T
  0.6666666865533486  0.1249999999871179  0.4070133268666680   F   F   F
  0.7519402906732144  0.7526325825996182  0.5905468840137309   T   T   T
  0.0833333358191695  0.2500000000190425  0.4070133268666680   F   F   F
  0.9180091549529074  0.7519503876029255  0.6032937331472261   T   T   T
  0.0833333358191695  0.4999999999932783  0.4070133268666680   F   F   F
  0.4166666269218169  0.4999999999932783  0.4070133268666680   F   F   F
  0.2499999999799343  0.2500000000190425  0.4070133268666680   F   F   F
  0.5838458563541581  0.8757744120871970  0.5057318663397731   T   T   T
  0.9186430335123573  0.3744637505383560  0.5058893176579804   T   T   T
  0.0833333358191695  0.0000000000000000  0.4070133268666680   F   F   F
  0.9166666865332829  0.4999999999932783  0.4070133268666680   F   F   F
  0.9166666865332829  0.7500000000123208  0.4070133268666680   F   F   F
  0.5836703778068858  0.1235031031990418  0.5047656573156265   T   T   T
  0.7524834308482885  0.6247225307401065  0.5023529565320020   T   T   T