Au  C  H  O Sr Ti                       
   1.00000000000000     
    23.6707801818999997    0.0000000000000000    0.0000000000000000
     0.0000000000000000   22.3170261383000010    0.0000000000000000
     0.0000000000000000    0.0000000000000000   30.0000000000000000
   Au   C    H    O    Sr   Ti
    50     2     3   265    72    72
Selective dynamics
Direct
  0.7160301209429190  0.5255087023686886  0.7535287451660714   T   T   T
  0.6556867936642437  0.4415045716638741  0.8129082933636834   T   T   T
  0.3682981823495276  0.6188810200761807  0.8201190841904670   T   T   T
  0.5694859621886493  0.5100328844987048  0.8566299947556153   T   T   T
  0.6657354359034797  0.1973586910075213  0.7528515978932381   T   T   T
  0.4702179706899841  0.4511285105064401  0.8790488796724489   T   T   T
  0.5160924063801463  0.3781466017946703  0.7333239278410940   T   T   T
  0.2827830312536280  0.3394297463964403  0.7022974208027616   T   T   T
  0.6695364939144339  0.6813805301497958  0.7488684345126625   T   T   T
  0.3980133803849812  0.3815362508517499  0.6900677497300794   T   T   T
  0.4624302798407069  0.5735506842562857  0.8639368800745956   T   T   T
  0.7065151240316677  0.7570467553779653  0.6883417629060430   T   T   T
  0.4522144366662842  0.5800954292927778  0.7026394463294705   T   T   T
  0.4174720079417025  0.6966845584913094  0.6994520619429693   T   T   T
  0.7747775907359250  0.4301238951383126  0.7946646218857116   T   T   T
  0.2567779660719992  0.5930142187027400  0.6945542319368596   T   T   T
  0.6499904087349813  0.4478133415587563  0.6935322844552231   T   T   T
  0.5644011704041264  0.6394873903099046  0.8611563225379246   T   T   T
  0.5404624033898945  0.6679830005303262  0.7015182404633231   T   T   T
  0.4435559875750317  0.4753319882344322  0.7570625428357052   T   T   T
  0.3740039825985990  0.7398092779130143  0.7786784881646271   T   T   T
  0.3744117308322270  0.4930181775469276  0.8329851385730044   T   T   T
  0.6157433707928432  0.3242764809001826  0.6959429755096610   T   T   T
  0.3257760604135391  0.4144420719535328  0.7689763347486377   T   T   T
  0.7000040306195546  0.3482060035103744  0.7561272786878012   T   T   T
  0.4862205256968171  0.2699169220863863  0.7753817875195658   T   T   T
  0.4855224636437110  0.7767423800273694  0.7552885984624832   T   T   T
  0.7188277297590652  0.2611994275097106  0.6903784085495130   T   T   T
  0.2937081069870787  0.7466434819026023  0.6970778709254791   T   T   T
  0.5782107665208834  0.7255823329211286  0.7939079209518387   T   T   T
  0.2405844996543296  0.4694883274126849  0.7090548304492624   T   T   T
  0.2848566801229148  0.6623710477843630  0.7646430360616158   T   T   T
  0.6007475267881801  0.2910451636130272  0.7852775742123325   T   T   T
  0.5139229872960365  0.4844416721465535  0.6781015624551811   T   T   T
  0.2892527789185517  0.5381866233365878  0.7772963953675863   T   T   T
  0.5488553170013420  0.3852854155375783  0.8289767611395775   T   T   T
  0.5118385178823577  0.6035619674480434  0.7767504205681796   T   T   T
  0.7330126784229649  0.6149487758019641  0.6940076579083696   T   T   T
  0.5631223132199088  0.4862691488173844  0.7621463525134594   T   T   T
  0.6347509736397655  0.5842223357145991  0.8001324390259947   T   T   T
  0.4291995171882119  0.3717116308975021  0.8154605213430774   T   T   T
  0.3496782955146879  0.4993999078016650  0.6977496286551275   T   T   T
  0.5963688145650364  0.7845452778281949  0.7130714363052554   T   T   T
  0.3716167198465999  0.2984545421468820  0.7548598597141239   T   T   T
  0.4431786089216240  0.2275827526568121  0.6970315368659596   T   T   T
  0.4635517534090424  0.6952511902717043  0.8300567243792006   T   T   T
  0.3914331725185441  0.8177640396095983  0.7063990896285982   T   T   T
  0.7652210837521904  0.4330621278575855  0.7043937368057397   T   T   T
  0.6212211173179173  0.5715627237376070  0.7042368035343205   T   T   T
  0.5604202849186881  0.2123383943384820  0.7123994730063445   T   T   T
  0.7577804963179268  0.1511494923556986  0.8111211226058557   T   T   T
  0.7632854426095474  0.0916467581392268  0.8192395662939951   T   T   T
  0.7773839797327746  0.0754817697650131  0.8513855321983484   T   T   T
  0.7560193801689988  0.0594136527207981  0.7927255920672754   T   T   T
  0.7640313723335318  0.1839290818750338  0.8376704980082196   T   T   T
  0.5766492466299636  0.4357728788602878  0.5522203732449712   T   T   T
  0.0849047758218169  0.8129554408082779  0.5473398749679937   T   T   T
  0.4165343311141175  0.0653824225060497  0.5473303013954383   T   T   T
  0.4161304913262270  0.3194524527058016  0.5525601602441728   T   T   T
  0.2532575608548425  0.8126236326930513  0.5507638635574935   T   T   T
  0.5812115200504798  0.5600478035084878  0.5489610665325650   T   T   T
  0.7481248990396316  0.3115670571992241  0.5480744853270509   T   T   T
  0.5858017806718345  0.8143068611711859  0.5502890424932896   T   T   T
  0.5828875276049277  0.0619026170173244  0.5453864025887331   T   T   T
  0.2524599844902856  0.5591229283167644  0.5439901676222445   T   T   T
  0.0823260249972482  0.0633155612564529  0.5475930738719684   T   T   T
  0.2492143771153191  0.6832845897933378  0.5520574525099601   T   T   T
  0.7493552761280248  0.9339556625856903  0.5476341172758002   T   T   T
  0.9139931650912981  0.6891080789881874  0.5453440654727416   T   T   T
  0.9170184589507339  0.1890870390334182  0.5453218202927035   T   T   T
  0.9158200883923739  0.4376896172418936  0.5457152549068148   T   T   T
  0.5795238523343950  0.6861218629078965  0.5473663558347410   T   T   T
  0.2515335679304236  0.9373250519123417  0.5452874807945166   T   T   T
  0.4974834455979152  0.5043932599833491  0.6089205453654057   T   T   T
  0.9176719571912115  0.5638812245611620  0.5468801423987073   T   T   T
  0.4200815798298180  0.5651104027351491  0.5553752210314044   T   T   T
  0.9156150033698938  0.8128627228759726  0.5468475605372662   T   T   T
  0.0835920397401908  0.9389968793433241  0.5457624233714474   T   T   T
  0.0865816685377400  0.3135690979438131  0.5468568882467533   T   T   T
  0.8321527079049394  0.0020585018489043  0.5922923875038449   T   T   T
  0.9158660621293173  0.1868647086775765  0.4531583559006204   T   T   T
  0.9156761377485114  0.9385496144564209  0.5464020922409570   T   T   T
  0.2495196960352606  0.3137608792668214  0.5459832269841793   T   T   T
  0.5838080353382900  0.9376507826425663  0.5461046368319544   T   T   T
  0.7483819621953353  0.9369699435973751  0.6399947376913309   T   T   T
  0.5827927454833128  0.4397383257221716  0.4563843699878721   T   T   T
  0.4994603109786782  0.1257273306137451  0.4995209265552930   T   T   T
  0.4990550187557132  0.2524488761812487  0.5903966057578076   T   T   T
  0.0837650783235801  0.1889907766708104  0.5454562365388571   T   T   T
  0.0833333358191695  0.3124999999901945  0.3605200052333331   F   F   F
  0.9997531952868965  0.4994910899182055  0.5939744841592858   T   T   T
  0.5806364447574921  0.1849490762832583  0.5501655983428221   T   T   T
  0.9998313765578258  0.7530839670141344  0.5923864652868539   T   T   T
  0.3340381479027122  0.9998758380423207  0.5920034755539636   T   T   T
  0.9997468558135716  0.9993323296350947  0.5931859382257275   T   T   T
  0.0009456357223013  0.2501574516010864  0.5917753816185223   T   T   T
  0.3332574485265883  0.4964287294742882  0.5908605833021990   T   T   T
  0.3357414669353144  0.7411918208135172  0.5903416055207767   T   T   T
  0.6633771841311109  0.2478593941380065  0.5902561829171569   T   T   T
  0.6659267073949986  0.0003016710227216  0.5918230491855320   T   T   T
  0.4156815292680049  0.1913718444317136  0.5464921071438903   T   T   T
  0.6658261342703400  0.7416258782481934  0.5901727345662694   T   T   T
  0.4300072087784749  0.3048998303001101  0.6553290864097385   T   T   T
  0.1674519806083496  0.9983756560372032  0.5923550218699406   T   T   T
  0.1707433512426413  0.7504318524052833  0.5949550681962114   T   T   T
  0.2484251857378975  0.4358715122370521  0.5490748053808638   T   T   T
  0.1655734538308191  0.5027159585423471  0.5874346926392771   T   T   T
  0.3350090475494190  0.2545877082098920  0.5930724005015483   T   T   T
  0.4996809336029244 -0.0000076213154035  0.5910171279026004   T   T   T
  0.8327624815223920  0.8742293683246226  0.4986261361004539   T   T   T
  0.4231339271277063  0.4439165832012289  0.5455411687359297   T   T   T
  0.7520644586341954  0.4352562408887415  0.5489407545309865   T   T   T
  0.7519362704786761  0.6803479015019621  0.5532522786243637   T   T   T
  0.7483134544766524  0.8081088816534333  0.5456702551133861   T   T   T
  0.4178921225108340  0.0651552169183712  0.6400653249378723   T   T   T
  0.2491762737336746  0.3162264598224473  0.6413344337161431   T   T   T
  0.6667541168450527  0.4944156827213399  0.5913071918726072   T   T   T
  0.5911549265696716  0.8100018989721528  0.6460621507444759   T   T   T
  0.1684603767572359  0.2488009727386979  0.5930826240014185   T   T   T
  0.9161801443565436  0.5623171719557908  0.4539303306796595   T   T   T
  0.7531311071855216  0.5687864155461466  0.6354340769110297   T   T   T
  0.9142295128784990  0.8132661029063958  0.6415912559285504   T   T   T
  0.9160401353830877  0.0625789534043998  0.6419586590395346   T   T   T
  0.7411430393611781  0.8099164002631447  0.6400007229875925   T   T   T
  0.7473458349285389  0.0673361272949874  0.6389072445721578   T   T   T
  0.0841105813720150  0.3115740462370805  0.6405848188397341   T   T   T
  0.0868613606325867  0.5628584564738183  0.6401806976996455   T   T   T
  0.0842675553482882  0.0606375296624342  0.6421277628746271   T   T   T
  0.0870015555284969  0.4365821784560411  0.6396357736114501   T   T   T
  0.0835378178550611  0.1857138934240045  0.6409202787185854   T   T   T
  0.4149394353509459  0.4189560102211393  0.6297933538663120   T   T   T
  0.6665285743549569  0.8743646094120304  0.4989045487386712   T   T   T
  0.8316795655299839  0.2478981018010467  0.5913670936879892   T   T   T
  0.8305428644531333  0.7508790146823053  0.5928795131792312   T   T   T
  0.0842657245619129  0.9356707312380580  0.6406431568532036   T   T   T
  0.8333369123025881  0.5030842175461960  0.5887249374933071   T   T   T
  0.4186979805908631  0.1875429334157118  0.6398455862819038   T   T   T
  0.0833293771750769  0.6871333548200175  0.6390846933782037   T   T   T
  0.2520343507950347  0.9302478064793829  0.6373661521885585   T   T   T
  0.5799817390633482  0.1918423774014617  0.6456045940896130   T   T   T
  0.0842784651250698  0.8125750512755099  0.6422848477887924   T   T   T
  0.2407148139373800  0.4420386470977934  0.6415903865023459   T   T   T
  0.9143260063107302  0.9372842676480991  0.6409598686193527   T   T   T
  0.9163892763784000  0.6875864037831855  0.6391950270344366   T   T   T
  0.9124653784394549  0.4360911674377940  0.6397900986759429   T   T   T
  0.2534071634784773  0.1864781010984140  0.6411314493558756   T   T   T
  0.2547443540036277  0.6775710567307357  0.6631489247020285   T   T   T
  0.5820912168943769  0.9355460840609208  0.6392886467800553   T   T   T
  0.7450136902344339  0.1956064763758022  0.6465777890463146   T   T   T
  0.9166666865332829  0.8124999999834799  0.3605200052333331   F   F   F
  0.4127394252613249  0.8129044986210519  0.6395707555152127   T   T   T
  0.7466302049380104  0.3128220273089390  0.6399860613534250   T   T   T
  0.0827853699738268  0.4390029153671584  0.5448087536645045   T   T   T
  0.4995460309230523  0.3742920281303192  0.4997426915201896   T   T   T
  0.9131618412760264  0.5622239339143791  0.6411551413447236   T   T   T
  0.5825775021772340  0.0661891932337685  0.6388036939844308   T   T   T
  0.5831644124066202  0.3209740992485019  0.6330664389932611   T   T   T
  0.2475913086777488  0.5737711101603002  0.6288959901870388   T   T   T
  0.7538295199563547  0.6923151609177519  0.6570527491537825   T   T   T
  0.2623219306955363  0.7994910474954363  0.6462971687358138   T   T   T
  0.2509545541983698  0.0594904736476414  0.6423509019069845   T   T   T
  0.9166666865332829  0.5625000000092442  0.3605200052333331   F   F   F
  0.4174043941005369  0.9349771932551780  0.6398128981628630   T   T   T
  0.4999939934499656  0.8734464858297490  0.5008746466930816   T   T   T
  0.4207521340250582  0.6759075122634447  0.6335822704369434   T   T   T
  0.8324494518731906  0.6230938741830834  0.5000162869761910   T   T   T
  0.8325469676917646  0.3732913295091390  0.4996480658064583   T   T   T
  0.9151091916502919  0.3119341440839644  0.6396351758774708   T   T   T
  0.1667640087788308  0.3762644863099857  0.4977365226612030   T   T   T
  0.5813296191704852  0.4395484212826054  0.6465983212235384   T   T   T
  0.5793958414209703  0.6854640628424956  0.6394929763107973   T   T   T
  0.9171844297153341  0.1868783396875034  0.6408211214343708   T   T   T
  0.4159721255665196  0.9371108868296849  0.5461213572711601   T   T   T
  0.1670754629508735  0.1242934212429406  0.4993516832560516   T   T   T
  0.7481124250219469  0.0598120522713372  0.5444347912553910   T   T   T
  0.1677565725157659  0.8732655451444979  0.4998751436549098   T   T   T
  0.5011149997587324  0.7562179616821665  0.5930883073528390   T   T   T
  0.5003159046933554  0.6211035169270519  0.5001010785614224   T   T   T
  0.7553265181018197  0.4340891433439081  0.6377886126493372   T   T   T
  0.2520270847829481  0.1883266107563059  0.5471740088271518   T   T   T
  0.7485431290065544  0.1837751736204453  0.5505945534733659   T   T   T
  0.0821281055076273  0.5644486120178529  0.5462629514968986   T   T   T
  0.3972140801009186  0.5506109960809741  0.6519484133294849   T   T   T
  0.1677919595917934  0.6242988207235397  0.5000253361137361   T   T   T
  0.8329182631847185  0.1243969757914941  0.4996064360167298   T   T   T
  0.0861742167139898  0.6894243640016493  0.5452352206516687   T   T   T
  0.5910063771028845  0.5656056575021036  0.6390654589011784   T   T   T
  0.0000000000000000  0.0000000000000000  0.4070133268666680   F   F   F
  0.5832268107084223  0.0636754127348604  0.4538412814734618   T   T   T
  0.9166666865332829  0.6874999999963620  0.3605200052333331   F   F   F
  0.9166666865332829  0.4374999701794380  0.3605200052333331   F   F   F
  0.9166666865332829  0.1875000000030838  0.3605200052333331   F   F   F
  0.5833333134730552  0.9375000000154046  0.3605200052333331   F   F   F
  0.5833333134730552  0.6874999999963620  0.3605200052333331   F   F   F
  0.5833333134730552  0.4374999701794380  0.3605200052333331   F   F   F
  0.5833333134730552  0.1875000000030838  0.3605200052333331   F   F   F
  0.2499999999799343  0.9375000000154046  0.3605200052333331   F   F   F
  0.9166666865332829  0.9375000000154046  0.3605200052333331   F   F   F
  0.9177231751275314  0.0632898942507050  0.5475122862751625   T   T   T
  0.2499999999799343  0.6874999999963620  0.3605200052333331   F   F   F
  0.7499999404149307  0.9375000000154046  0.3605200052333331   F   F   F
  0.7485072851933646  0.1720997614345857  0.7703177299693021   T   T   T
  0.5844619542257320  0.5628632372249950  0.4548548931111654   T   T   T
  0.7499999404149307  0.6874999999963620  0.3605200052333331   F   F   F
  0.4166666269218169  0.9375000000154046  0.3605200052333331   F   F   F
  0.4166666269218169  0.6874999999963620  0.3605200052333331   F   F   F
  0.4166666269218169  0.4374999701794380  0.3605200052333331   F   F   F
  0.2499999999799343  0.4374999701794380  0.3605200052333331   F   F   F
  0.0833333358191695  0.0625000000159659  0.3605200052333331   F   F   F
  0.9154309520966968  0.6867810861880168  0.4531411980731209   T   T   T
  0.6654820672213699  0.3786176984360862  0.5030312538365063   T   T   T
  0.3343509843425235  0.3784849242082373  0.5029884471494486   T   T   T
  0.3356331519288151  0.6257765733729270  0.5037931221160512   T   T   T
  0.2498715126506240  0.1885058336819107  0.4541059696078805   T   T   T
  0.2499999999799343  0.1875000000030838  0.3605200052333331   F   F   F
  0.2504966782187658  0.0620231326080330  0.4542506730182542   T   T   T
  0.7495644366996423  0.9383664200301255  0.4552798151568392   T   T   T
  0.7499999404149307  0.4374999701794380  0.3605200052333331   F   F   F
  0.7499999404149307  0.1875000000030838  0.3605200052333331   F   F   F
  0.5833333134730552  0.0625000000159659  0.3605200052333331   F   F   F
  0.7490767054150957  0.6887158629121585  0.4573985032362537   T   T   T
  0.7496454536008591  0.4383838499052298  0.4557807030646678   T   T   T
  0.9159923198483504  0.4370309410829498  0.4535751191552375   T   T   T
  0.7508206182469372  0.1896730148559948  0.4555313248311569   T   T   T
  0.4171647157515234  0.9358481036133911  0.4540329188372590   T   T   T
  0.4171309785731173  0.6847187022781810  0.4547224699825846   T   T   T
  0.4164447640628913  0.4354121979534999  0.4538087142369150   T   T   T
  0.0845635452101371  0.6869115757930151  0.4530242575034772   T   T   T
  0.0838673882371482  0.9366240115746717  0.4534497387065827   T   T   T
  0.0827623235675429  0.4367874035901175  0.4527831005852465   T   T   T
  0.0838801814160293  0.1865905160054797  0.4529637888388759   T   T   T
  0.9165744268401136  0.8121296586449016  0.4540652038491466   T   T   T
  0.9161427711387738  0.0621778473723177  0.4541024274751808   T   T   T
  0.7494156971061688  0.8131911228784943  0.4530852292600400   T   T   T
  0.9162685845451385  0.3122778900552310  0.4538812731781697   T   T   T
  0.2521353751917479  0.6876357214947841  0.4561247586202207   T   T   T
  0.7465180418800562  0.5580480092019329  0.5446272646118443   T   T   T
  0.9164663518134472  0.9371234640682921  0.4536892066872844   T   T   T
  0.0000916747998626  0.1250827557549740  0.4984310452440930   T   T   T
  0.5832913498350191  0.8105220300123389  0.4553336711732804   T   T   T
  0.0000598792361478  0.3736758755032241  0.4982416068518313   T   T   T
  0.9999281521015075  0.6271692883171475  0.4976824305979579   T   T   T
  0.3336242409414598  0.1256859497288796  0.4984533636510766   T   T   T
  0.0000068724725819  0.8751621216315081  0.4995398639385544   T   T   T
  0.3335038062437419  0.8740116394356734  0.4993452434808260   T   T   T
  0.6660839301800389  0.1265918089069572  0.4990290160747501   T   T   T
  0.2511688401010351  0.4392896848910920  0.4549294573042543   T   T   T
  0.0833333358191695  0.5625000000092442  0.3605200052333331   F   F   F
  0.9166666865332829  0.0625000000159659  0.3605200052333331   F   F   F
  0.4170961559366943  0.1871129749853166  0.4535413299775283   T   T   T
  0.9153632124878140  0.3129378851838427  0.5467380253041898   T   T   T
  0.4231394268322782  0.6880973320789997  0.5466293459924499   T   T   T
  0.5826805764806454  0.1903351934839309  0.4555742888276179   T   T   T
  0.2510986506377031  0.0626061585130115  0.5472740148288389   T   T   T
  0.5828794683360420  0.3108673486612186  0.5446594244174370   T   T   T
  0.2499999999799343  0.8124999999834799  0.3605200052333331   F   F   F
  0.0833333358191695  0.1875000000030838  0.3605200052333331   F   F   F
  0.0000000000000000  0.2500000000190425  0.4070133268666680   F   F   F
  0.0000000000000000  0.4999999999932783  0.4070133268666680   F   F   F
  0.7482082045385440  0.5643070513785299  0.4537922243263100   T   T   T
  0.3333333432766779  0.0000000000000000  0.4070133268666680   F   F   F
  0.3333333432766779  0.4999999999932783  0.4070133268666680   F   F   F
  0.3333333432766779  0.7500000000123208  0.4070133268666680   F   F   F
  0.5827368386530892  0.6861505276268349  0.4545913608776581   T   T   T
  0.6666666865533486  0.0000000000000000  0.4070133268666680   F   F   F
  0.6666666865533486  0.4999999999932783  0.4070133268666680   F   F   F
  0.8333332538436267  0.2500000000190425  0.4070133268666680   F   F   F
  0.1666666716383389  0.0000000000000000  0.4070133268666680   F   F   F
  0.1666666716383389  0.4999999999932783  0.4070133268666680   F   F   F
  0.1666666716383389  0.7500000000123208  0.4070133268666680   F   F   F
  0.5000000000021103  0.4999999999932783  0.4070133268666680   F   F   F
  0.5000000000021103  0.2500000000190425  0.4070133268666680   F   F   F
  0.9166666865332829  0.3124999999901945  0.3605200052333331   F   F   F
  0.3333333432766779  0.2500000000190425  0.4070133268666680   F   F   F
  0.7474177073846672  0.3141186467450541  0.4547061297910578   T   T   T
  0.0000000000000000  0.7500000000123208  0.4070133268666680   F   F   F
  0.4167065288654176  0.8099734098927058  0.4551810876197966   T   T   T
  0.5843870389374103  0.3155249756702994  0.4534869894709001   T   T   T
  0.5827358920953810  0.9370574964977076  0.4542788750885789   T   T   T
  0.6666666865533486  0.2500000000190425  0.4070133268666680   F   F   F
  0.2522533778280824  0.3141442044834393  0.4541597479123852   T   T   T
  0.1666666716383389  0.2500000000190425  0.4070133268666680   F   F   F
  0.2505555352240152  0.8107998098072239  0.4553529943441946   T   T   T
  0.5833333134730552  0.5625000000092442  0.3605200052333331   F   F   F
  0.2500466641896782  0.9360959049036314  0.4540780423160387   T   T   T
  0.8333332538436267  0.0000000000000000  0.4070133268666680   F   F   F
  0.5000000000021103  0.7500000000123208  0.4070133268666680   F   F   F
  0.6666666865533486  0.7500000000123208  0.4070133268666680   F   F   F
  0.5000000000021103  0.0000000000000000  0.4070133268666680   F   F   F
  0.6654076380626703  0.6260591228805856  0.5029786788369289   T   T   T
  0.2499999999799343  0.0625000000159659  0.3605200052333331   F   F   F
  0.2499999999799343  0.5625000000092442  0.3605200052333331   F   F   F
  0.2499999999799343  0.3124999999901945  0.3605200052333331   F   F   F
  0.7499999404149307  0.5625000000092442  0.3605200052333331   F   F   F
  0.7499999404149307  0.3124999999901945  0.3605200052333331   F   F   F
  0.7499999404149307  0.0625000000159659  0.3605200052333331   F   F   F
  0.4166666269218169  0.8124999999834799  0.3605200052333331   F   F   F
  0.4166666269218169  0.3124999999901945  0.3605200052333331   F   F   F
  0.7499999404149307  0.8124999999834799  0.3605200052333331   F   F   F
  0.4166666269218169  0.0625000000159659  0.3605200052333331   F   F   F
  0.4168443890675348  0.0615739976366145  0.4553805710127760   T   T   T
  0.0835107920364186  0.8120958797478443  0.4541876071316437   T   T   T
  0.4166666269218169  0.5625000000092442  0.3605200052333331   F   F   F
  0.5833333134730552  0.3124999999901945  0.3605200052333331   F   F   F
  0.5833333134730552  0.8124999999834799  0.3605200052333331   F   F   F
  0.0835583181714839  0.3120590855624522  0.4539562056642793   T   T   T
  0.8333332538436267  0.7500000000123208  0.4070133268666680   F   F   F
  0.4146584566789463  0.8119031338726275  0.5479720437829930   T   T   T
  0.8333332538436267  0.4999999999932783  0.4070133268666680   F   F   F
  0.7495071695694285  0.0640344703929386  0.4533954473089719   T   T   T
  0.4166666269218169  0.1875000000030838  0.3605200052333331   F   F   F
  0.0833333358191695  0.9375000000154046  0.3605200052333331   F   F   F
  0.0833333358191695  0.8124999999834799  0.3605200052333331   F   F   F
  0.0833333358191695  0.4374999701794380  0.3605200052333331   F   F   F
  0.2518724474432201  0.5646162694743634  0.4538380004090934   T   T   T
  0.4154984297683560  0.3113316104094058  0.4573598092588325   T   T   T
  0.0836865853016032  0.0618792642058708  0.4542071326612598   T   T   T
  0.4160201060627050  0.5595255382644433  0.4578716504531009   T   T   T
  0.0839519778676618  0.5624263255523444  0.4538712462998760   T   T   T
  0.0833333358191695  0.6874999999963620  0.3605200052333331   F   F   F
  0.8361032401244987  0.7517269635896711  0.5026250773425065   T   T   T
  0.1666666716383389  0.8749999404036828  0.4070133268666680   F   F   F
  0.0000000000000000  0.1249999999871179  0.4070133268666680   F   F   F
  0.8358469191192115  0.2483881584051331  0.5029594541999018   T   T   T
  0.9996999445963142  0.6229454665722475  0.6280516893080500   T   T   T
  0.8333332538436267  0.3750000000061604  0.4070133268666680   F   F   F
  0.8376950480839711  0.3724835502569634  0.6033129730846570   T   T   T
  0.5000000000021103  0.6249999999803961  0.4070133268666680   F   F   F
  0.1636258722096680  0.4998947205707209  0.5020555796906114   T   T   T
  0.9990929814722410  0.8752524439036949  0.6222358266334130   T   T   T
  0.3317002471290001  0.1199690053512516  0.6136962325575476   T   T   T
  0.8396512123890240  0.6270309625372239  0.6037294264803515   T   T   T
  0.5000000000021103  0.3750000000061604  0.4070133268666680   F   F   F
  0.5000000000021103  0.1249999999871179  0.4070133268666680   F   F   F
  0.8320662259344619  0.8762170917772687  0.6181449774625417   T   T   T
  0.8333332538436267  0.1249999999871179  0.4070133268666680   F   F   F
  0.6665577306546050  0.6262527072352727  0.5934664328926880   T   T   T
  0.5000000000021103  0.8749999404036828  0.4070133268666680   F   F   F
  0.5013935290959032  0.3714890790617803  0.5947479633643226   T   T   T
  0.5038821037206838  0.6250988006779674  0.5940194214189088   T   T   T
  0.8335460953580293  0.1254716959110213  0.6218190410677161   T   T   T
  0.0001884952298095  0.3749472296871613  0.6241094389483840   T   T   T
  0.6653694778677580  0.8810250169466943  0.6071550015157741   T   T   T
  0.1666666716383389  0.6249999999803961  0.4070133268666680   F   F   F
  0.1633294874804574  0.3714074950770087  0.6078208004277064   T   T   T
  0.1595957728031419  0.6274153021717189  0.6014131428931244   T   T   T
  0.6709276599903224  0.3724770176265756  0.5929761191798181   T   T   T
  0.1662401218314459  0.8736547297622898  0.6179486270346590   T   T   T
  0.3344855873344362  0.8786604409325336  0.6028871540774060   T   T   T
  0.6666666865533486  0.8749999404036828  0.4070133268666680   F   F   F
  0.1677349234897068  0.1228544054469964  0.6217903627555211   T   T   T
  0.3341100166892220  0.6244415314460486  0.5952007802864336   T   T   T
  0.6652664600605684  0.1247909715662786  0.6109864999560233   T   T   T
  0.5004769788661858  0.1221965989876127  0.6062572658889935   T   T   T
  0.3259178159529030  0.3736412469978799  0.5926810918875380   T   T   T
  0.1666666716383389  0.1249999999871179  0.4070133268666680   F   F   F
  0.8361579547352713  0.5000806360548075  0.5027066882665104   T   T   T
  0.1643984978383098  0.7515601141971970  0.5033024802684919   T   T   T
  0.5012743373564646  0.4998979845385710  0.5002222133366606   T   T   T
  0.3301803046976813  0.2481163573334348  0.5028636616425886   T   T   T
  0.6666666865533486  0.3750000000061604  0.4070133268666680   F   F   F
  0.3312033784444670  0.4992277321587784  0.5009197473264969   T   T   T
  0.0006681784334933  0.1226520891684510  0.6197588821091726   T   T   T
  0.1666666716383389  0.3750000000061604  0.4070133268666680   F   F   F
  0.3330843836790797  0.0011530752285011  0.5058182822204914   T   T   T
  0.6659081461940257  0.0000231562752809  0.5054565909388831   T   T   T
  0.1660286178207261  0.0011869836538599  0.5065843942417203   T   T   T
  0.6654005750746431  0.7519270694908983  0.5021975214023227   T   T   T
  0.6669037306238405  0.2480003300503099  0.5025592503092543   T   T   T
  0.8333332538436267  0.6249999999803961  0.4070133268666680   F   F   F
  0.0000000000000000  0.3750000000061604  0.4070133268666680   F   F   F
  0.3339134267511993  0.7511437778527736  0.5015103135572752   T   T   T
  0.5010457321916821  0.2479606574082142  0.5021295297083502   T   T   T
  0.0000042945105252 -0.0000039319483549  0.5067053818340237   T   T   T
  0.5011798726800908  0.7528634439446212  0.5039369415245467   T   T   T
  0.3333333432766779  0.3750000000061604  0.4070133268666680   F   F   F
  0.6686237918267307  0.4999179455317903  0.5005912335287750   T   T   T
  0.0000000000000000  0.8749999404036828  0.4070133268666680   F   F   F
  0.5002191257735670  0.9993815743282973  0.5054652092364328   T   T   T
  0.5007523688155660  0.8767804515768086  0.6094833414796433   T   T   T
  0.1664013697884360  0.2482823772062897  0.5061830418632752   T   T   T
  0.3333333432766779  0.8749999404036828  0.4070133268666680   F   F   F
  0.8341994242085038  0.0003841589813879  0.5066510271615153   T   T   T
  0.0000000000000000  0.6249999999803961  0.4070133268666680   F   F   F
  0.3333333432766779  0.1249999999871179  0.4070133268666680   F   F   F
  0.3333333432766779  0.6249999999803961  0.4070133268666680   F   F   F
  0.8333332538436267  0.8749999404036828  0.4070133268666680   F   F   F
  0.6666666865533486  0.6249999999803961  0.4070133268666680   F   F   F
  0.0008470451065700  0.2498542117971702  0.5058464225464633   T   T   T
  0.9999796808487883  0.7509817364484264  0.5066028199120580   T   T   T
  0.9998159937459429  0.5004189772799391  0.5068245259311518   T   T   T
  0.6666666865533486  0.1249999999871179  0.4070133268666680   F   F   F
  0.7518567333267050  0.7525671493399131  0.5905396418047330   T   T   T
  0.0833333358191695  0.2500000000190425  0.4070133268666680   F   F   F
  0.9180424324651690  0.7519023809054103  0.6032902071208969   T   T   T
  0.0833333358191695  0.4999999999932783  0.4070133268666680   F   F   F
  0.4166666269218169  0.4999999999932783  0.4070133268666680   F   F   F
  0.2499999999799343  0.2500000000190425  0.4070133268666680   F   F   F
  0.5838273258777303  0.8758022239093562  0.5057297578883608   T   T   T
  0.9188609454326615  0.3745940001949872  0.5059120331394823   T   T   T
  0.0833333358191695  0.0000000000000000  0.4070133268666680   F   F   F
  0.9166666865332829  0.4999999999932783  0.4070133268666680   F   F   F
  0.9166666865332829  0.7500000000123208  0.4070133268666680   F   F   F
  0.5833569528102625  0.1235621373259012  0.5046193527370326   T   T   T
  0.7524635493333880  0.6247279502052512  0.5023683271249737   T   T   T