Au  C  H  O Sr Ti                       
   1.00000000000000     
    23.6707800000000006    0.0000000000000000    0.0000000000000000
     0.0000000000000000   22.3170259999999985    0.0000000000000000
     0.0000000000000000    0.0000000000000000   30.0000000000000000
   Au   C    H    O    Sr   Ti
    50     2     4   265    72    72
Selective dynamics
Direct
  0.7158376968256680  0.5242065116091189  0.7522239523434562   T   T   T
  0.5538077049524288  0.2129706803506834  0.7097473243694937   T   T   T
  0.7186770258740527  0.2574589317076273  0.6908975943398373   T   T   T
  0.2932368698696828  0.7462781407508936  0.6968613633797702   T   T   T
  0.5118813970730903  0.6030351616996908  0.7767707501959074   T   T   T
  0.5788306408671728  0.7257067537751984  0.7939000945578392   T   T   T
  0.2402209385605920  0.4692624428403203  0.7089334648464186   T   T   T
  0.2862241312033914  0.6619592192309015  0.7643119843304680   T   T   T
  0.6011718945197764  0.2819639473687500  0.7831302822828133   T   T   T
  0.5140670258427960  0.4848765135108739  0.6779779927735835   T   T   T
  0.4850365154505176  0.2703118516654368  0.7751680443041353   T   T   T
  0.7632723918599574  0.4294733187664500  0.7038828360832219   T   T   T
  0.2894381667143924  0.5378418815994349  0.7775391319245117   T   T   T
  0.3915025184868583  0.8168135793878599  0.7065250391859286   T   T   T
  0.4642316349268215  0.6947196912210400  0.8302744336426844   T   T   T
  0.4373284738785719  0.2276257547816389  0.6977144148375268   T   T   T
  0.3699154645750131  0.2987602554031583  0.7552312045995465   T   T   T
  0.4284904120232456  0.3710991182239812  0.8152982402993195   T   T   T
  0.5970072178205015  0.7845087603868818  0.7128658641637962   T   T   T
  0.6353782973014324  0.5838123940991533  0.7997104515535116   T   T   T
  0.7327995488169682  0.6146680855348549  0.6938281481012905   T   T   T
  0.4860667419262189  0.7742667100675258  0.7537240793337727   T   T   T
  0.5495506460053223  0.3816006769081158  0.8260934225594981   T   T   T
  0.5629408561762793  0.4856833221175110  0.7621226916720112   T   T   T
  0.7068209742673420  0.7569816767231853  0.6882408933869568   T   T   T
  0.3492081506606325  0.4993901080349287  0.6977327624611842   T   T   T
  0.3250226930695019  0.4146260899844880  0.7693104362992420   T   T   T
  0.6207191166455299  0.5713875563286076  0.7040051506129362   T   T   T
  0.6558695112730880  0.4405750926843750  0.8123017828896555   T   T   T
  0.3689999363376449  0.6179662751313023  0.8203449452644943   T   T   T
  0.6611430257786600  0.1842881063418566  0.7482797286136917   T   T   T
  0.4722862611880821  0.4490475752138346  0.8776827818021400   T   T   T
  0.5163059593430316  0.3775087690326466  0.7318629585523053   T   T   T
  0.2819371186441453  0.3398383958746656  0.7023281923009329   T   T   T
  0.4519930391513344  0.5796972283263148  0.7026643965021397   T   T   T
  0.3975108625578019  0.3817728212257229  0.6901084869653366   T   T   T
  0.6160650516304822  0.3217425119909663  0.6960911858807398   T   T   T
  0.4634560658877027  0.5722699676555316  0.8641449188834067   T   T   T
  0.5704952377166760  0.5089779667621995  0.8560847960828669   T   T   T
  0.3745790214829924  0.7397255802366528  0.7792845823865373   T   T   T
  0.3752172652315189  0.4922196568664959  0.8332320708788900   T   T   T
  0.5396949155358730  0.6681498381454017  0.7019895387667733   T   T   T
  0.5650093760131443  0.6389845839030248  0.8607815361968084   T   T   T
  0.6484249837433240  0.4459292718684132  0.6945136552506717   T   T   T
  0.4434759016255942  0.4743565181450814  0.7565713604628898   T   T   T
  0.2569070625951216  0.5928903060249391  0.6944935698354076   T   T   T
  0.7736387710170276  0.4279816433449272  0.7938731756774275   T   T   T
  0.6994269660345450  0.3434843331774890  0.7575571204434504   T   T   T
  0.4142419822907241  0.6947736571651542  0.6995347283783487   T   T   T
  0.6696866279751055  0.6812924849027614  0.7486279014802388   T   T   T
  0.7151939453204001  0.1139152184382404  0.7417700942744920   T   T   T
  0.6950216287796724  0.0518488323862749  0.7356218047082577   T   T   T
  0.6833990403254633  0.0351853362541788  0.7689665712881113   T   T   T
  0.7823200365325547  0.1603242949623215  0.7468136796550230   T   T   T
  0.6564037177180884  0.0510830352324527  0.7155804788061459   T   T   T
  0.7273355771763154  0.0229915036095044  0.7211280490149049   T   T   T
  0.4171981154035634  0.6851344004396821  0.4549994960689313   T   T   T
  0.5829719105601721  0.0625076103142244  0.5460164846797432   T   T   T
  0.4164582845706279  0.4354830967959501  0.4538105343791658   T   T   T
  0.0843903618084435  0.6869915577606510  0.4531580579267534   T   T   T
  0.0841162082046278  0.9367666408891828  0.4535856716526284   T   T   T
  0.0828050469074113  0.4368269289247740  0.4528369128119315   T   T   T
  0.0838540861931285  0.1865477389094031  0.4529688924633293   T   T   T
  0.9165648570430824  0.8123133880639489  0.4540448383945324   T   T   T
  0.0833333400000029  0.3125000000000000  0.3605200100000019   F   F   F
  0.5827945607889754  0.3111605478977466  0.5451080414300314   T   T   T
  0.9160796086292651  0.3121551907736229  0.4538981234169906   T   T   T
  0.4169288488045783  0.1872670590568525  0.4536283148294140   T   T   T
  0.2520744690271788  0.6875834105721197  0.4561046214251464   T   T   T
  0.9161689178847985  0.9371353724405400  0.4537484805009082   T   T   T
  0.5831846596451256  0.1902898926734569  0.4556679155484120   T   T   T
  0.5832647940637214  0.8104831285312863  0.4553731878245225   T   T   T
  0.9999112110130198  0.3737183419522254  0.4981800267018424   T   T   T
  0.9997004930115273  0.6272162372704363  0.4976004471321072   T   T   T
  0.3335920247059453  0.1255841361731849  0.4985829584440372   T   T   T
  0.0000738323403918  0.8751869460292917  0.4995372772609082   T   T   T
  0.3335452927072781  0.8741630105706504  0.4991741624612271   T   T   T
  0.6658887673187929  0.1273540979187182  0.5009102821549858   T   T   T
  0.2511222147454201  0.4392995152425603  0.4548947513087715   T   T   T
  0.0833333400000029  0.5625000000000000  0.3605200100000019   F   F   F
  0.7699218670796258  0.1186843908274456  0.7437540233855773   T   T   T
  0.9166666899999996  0.0625000000000000  0.3605200100000019   F   F   F
  0.7494351420295498  0.8132137030996098  0.4530565808522253   T   T   T
  0.2505211175056531  0.0620566503002390  0.4542768201289787   T   T   T
  0.6654112886195511  0.6257683306780436  0.5029751033721529   T   T   T
  0.9999558855961463  0.1251847545440866  0.4985028142599759   T   T   T
  0.9156623486063785  0.3125112632174613  0.5467190371639522   T   T   T
  0.5833333100000004  0.9375000000000000  0.3605200100000019   F   F   F
  0.7500252751964235  0.1898735683207793  0.4557599214914816   T   T   T
  0.5837900615572610  0.0637641387526242  0.4541739278516156   T   T   T
  0.9166666899999996  0.6875000000000000  0.3605200100000019   F   F   F
  0.9166666899999996  0.4374999699999975  0.3605200100000019   F   F   F
  0.9166666899999996  0.1875000000000000  0.3605200100000019   F   F   F
  0.2518265445395069  0.5646261505801506  0.4538421531808999   T   T   T
  0.5833333100000004  0.6875000000000000  0.3605200100000019   F   F   F
  0.5833333100000004  0.4374999699999975  0.3605200100000019   F   F   F
  0.5833333100000004  0.1875000000000000  0.3605200100000019   F   F   F
  0.2500000000000000  0.9375000000000000  0.3605200100000019   F   F   F
  0.9166666899999996  0.9375000000000000  0.3605200100000019   F   F   F
  0.2500000000000000  0.6875000000000000  0.3605200100000019   F   F   F
  0.2500000000000000  0.1875000000000000  0.3605200100000019   F   F   F
  0.7499999400000021  0.9375000000000000  0.3605200100000019   F   F   F
  0.4172787100509298  0.9360207904706916  0.4540836758634102   T   T   T
  0.2522361663013606  0.3143494977150719  0.4539350781616446   T   T   T
  0.7499999400000021  0.6875000000000000  0.3605200100000019   F   F   F
  0.4166666300000017  0.9375000000000000  0.3605200100000019   F   F   F
  0.4166666300000017  0.6875000000000000  0.3605200100000019   F   F   F
  0.4166666300000017  0.4374999699999975  0.3605200100000019   F   F   F
  0.2500000000000000  0.4374999699999975  0.3605200100000019   F   F   F
  0.0833333400000029  0.0625000000000000  0.3605200100000019   F   F   F
  0.9153049262066563  0.6868879083359873  0.4533663243430270   T   T   T
  0.6654386273048425  0.3785850367444687  0.5032675643760181   T   T   T
  0.3342863558176738  0.3784754424974834  0.5029503328540219   T   T   T
  0.3356649550017720  0.6258269519033702  0.5037740928212704   T   T   T
  0.9171060011107950  0.0634797687201306  0.5474740565709965   T   T   T
  0.2499653597343725  0.1887408595764563  0.4543371652327243   T   T   T
  0.7503740601933677  0.9386242050115248  0.4556904870413163   T   T   T
  0.7490969435394750  0.6885927770875557  0.4575237767734402   T   T   T
  0.7499999400000021  0.4374999699999975  0.3605200100000019   F   F   F
  0.7499999400000021  0.1875000000000000  0.3605200100000019   F   F   F
  0.0848958990002142  0.8128971151738292  0.5473314992680661   T   T   T
  0.5833333100000004  0.5625000000000000  0.3605200100000019   F   F   F
  0.5844023781684763  0.3154454013322231  0.4537048681355929   T   T   T
  0.2500000000000000  0.8125000000000000  0.3605200100000019   F   F   F
  0.2500000000000000  0.3125000000000000  0.3605200100000019   F   F   F
  0.7499999400000021  0.5625000000000000  0.3605200100000019   F   F   F
  0.7499999400000021  0.3125000000000000  0.3605200100000019   F   F   F
  0.7499999400000021  0.0625000000000000  0.3605200100000019   F   F   F
  0.4166666300000017  0.8125000000000000  0.3605200100000019   F   F   F
  0.4166666300000017  0.5625000000000000  0.3605200100000019   F   F   F
  0.4166666300000017  0.3125000000000000  0.3605200100000019   F   F   F
  0.0834976437627211  0.3119337592418262  0.4540275946628122   T   T   T
  0.4166666300000017  0.0625000000000000  0.3605200100000019   F   F   F
  0.4167980234400140  0.0615823880305642  0.4553181236568430   T   T   T
  0.0834350851026358  0.8121758844411904  0.4541642059919212   T   T   T
  0.0839865630707634  0.5625251487630926  0.4539681414731571   T   T   T
  0.4160665488159316  0.5595535596744201  0.4578701337338009   T   T   T
  0.7499999400000021  0.8125000000000000  0.3605200100000019   F   F   F
  0.8333332500000026  0.5000000000000000  0.4070133299999981   F   F   F
  0.4155557385761465  0.3114071884720095  0.4573557579838158   T   T   T
  0.8333332500000026  0.7500000000000000  0.4070133299999981   F   F   F
  0.0833333400000029  0.4374999699999975  0.3605200100000019   F   F   F
  0.0833333400000029  0.6875000000000000  0.3605200100000019   F   F   F
  0.0833333400000029  0.9375000000000000  0.3605200100000019   F   F   F
  0.4166666300000017  0.1875000000000000  0.3605200100000019   F   F   F
  0.0833333400000029  0.8125000000000000  0.3605200100000019   F   F   F
  0.4141969179248574  0.8117428572414320  0.5479219689427116   T   T   T
  0.2492684815801281  0.3136729974523369  0.5458343833533639   T   T   T
  0.7474700588765805  0.8071249384081070  0.5453272165068930   T   T   T
  0.7464489757599462  0.5576840189986616  0.5446278637044896   T   T   T
  0.0836626075288281  0.0618993664921847  0.4542280799531773   T   T   T
  0.2510644975268425  0.0625248407374822  0.5472693371470243   T   T   T
  0.2500000000000000  0.0625000000000000  0.3605200100000019   F   F   F
  0.2500000000000000  0.5625000000000000  0.3605200100000019   F   F   F
  0.5844445687558509  0.5627908393528386  0.4549022666839130   T   T   T
  0.5833333100000004  0.0625000000000000  0.3605200100000019   F   F   F
  0.8333332500000026  0.0000000000000000  0.4070133299999981   F   F   F
  0.5000000000000000  0.5000000000000000  0.4070133299999981   F   F   F
  0.0833333400000029  0.1875000000000000  0.3605200100000019   F   F   F
  0.2532830224925990  0.8125978908229755  0.5506718447469308   T   T   T
  0.0000000000000000  0.2500000000000000  0.4070133299999981   F   F   F
  0.0000000000000000  0.5000000000000000  0.4070133299999981   F   F   F
  0.7483077427601369  0.5641434074425077  0.4538718778628622   T   T   T
  0.3333333400000029  0.0000000000000000  0.4070133299999981   F   F   F
  0.3333333400000029  0.5000000000000000  0.4070133299999981   F   F   F
  0.3333333400000029  0.7500000000000000  0.4070133299999981   F   F   F
  0.6666666899999996  0.0000000000000000  0.4070133299999981   F   F   F
  0.6666666899999996  0.2500000000000000  0.4070133299999981   F   F   F
  0.6666666899999996  0.5000000000000000  0.4070133299999981   F   F   F
  0.5833333100000004  0.3125000000000000  0.3605200100000019   F   F   F
  0.8333332500000026  0.2500000000000000  0.4070133299999981   F   F   F
  0.6666666899999996  0.7500000000000000  0.4070133299999981   F   F   F
  0.1666666699999979  0.7500000000000000  0.4070133299999981   F   F   F
  0.5000000000000000  0.0000000000000000  0.4070133299999981   F   F   F
  0.5000000000000000  0.2500000000000000  0.4070133299999981   F   F   F
  0.5000000000000000  0.7500000000000000  0.4070133299999981   F   F   F
  0.9166666899999996  0.3125000000000000  0.3605200100000019   F   F   F
  0.3333333400000029  0.2500000000000000  0.4070133299999981   F   F   F
  0.7473015293871065  0.3140105921990600  0.4552628386133739   T   T   T
  0.0000000000000000  0.7500000000000000  0.4070133299999981   F   F   F
  0.4168688079079506  0.8103798098244467  0.4550014104284003   T   T   T
  0.7496495747025447  0.4382091272780423  0.4558530634031083   T   T   T
  0.7486349507616844  0.0646021889043314  0.4533384807231307   T   T   T
  0.5833333100000004  0.8125000000000000  0.3605200100000019   F   F   F
  0.2505317694088994  0.8108008494061943  0.4553240339785768   T   T   T
  0.1666666699999979  0.2500000000000000  0.4070133299999981   F   F   F
  0.1666666699999979  0.5000000000000000  0.4070133299999981   F   F   F
  0.1666666699999979  0.0000000000000000  0.4070133299999981   F   F   F
  0.9160822633355490  0.5622014718386024  0.4540731807614637   T   T   T
  0.0000000000000000  0.0000000000000000  0.4070133299999981   F   F   F
  0.0831192091038211  0.4384939546371618  0.5449317767327257   T   T   T
  0.0837288861405486  0.1889141917844444  0.5454995735320626   T   T   T
  0.4994196356126914  0.1255811940898408  0.4991535676801822   T   T   T
  0.9995951693350105  0.4981534053664373  0.5938511360140681   T   T   T
  0.5795941092066090  0.1851203151685546  0.5503175264417345   T   T   T
  0.9995907612278145  0.7536823490767605  0.5928698550145611   T   T   T
  0.3340530052382392  0.9998571408951825  0.5919985251497920   T   T   T
  0.9997818802918141  0.9990675446095514  0.5931930580411698   T   T   T
  0.0007860206829704  0.2483244175064629  0.5922418413185976   T   T   T
  0.3331375523116370  0.4963661290958013  0.5907504137288045   T   T   T
  0.3354246930660389  0.7412130208733948  0.5905075481704281   T   T   T
  0.6632312595824016  0.2473366882400741  0.5905799576598489   T   T   T
  0.6661941323026268  0.0009917764494698  0.5919482897883935   T   T   T
  0.9159711885479280  0.1887179953215246  0.5456107562675526   T   T   T
  0.6656730287497074  0.7407849128605309  0.5910271924277709   T   T   T
  0.1683590796928156  0.2486929255147746  0.5931110975078829   T   T   T
  0.1706665845617761  0.7503618842116913  0.5947620407025498   T   T   T
  0.2481017282016427  0.4358446769660697  0.5489657157794863   T   T   T
  0.1654301383742380  0.5034037665276823  0.5872847620234061   T   T   T
  0.3346832577250297  0.2545586603993868  0.5926684289608679   T   T   T
  0.4998985395359678  0.0000909020904306  0.5912443453171253   T   T   T
  0.8325538784727026  0.8735469552485251  0.4996288762040227   T   T   T
  0.7481791834951981  0.9400337223384808  0.6425700796372452   T   T   T
  0.8320337613467151  0.0016164939060655  0.5922045524763465   T   T   T
  0.5006803351690882  0.7565081469012358  0.5925694832064913   T   T   T
  0.4178036148901806  0.0650896108897803  0.6401327036217171   T   T   T
  0.4274574846183513  0.3047511031361617  0.6552420874167018   T   T   T
  0.4159743159233502  0.1915495631741714  0.5464884501892722   T   T   T
  0.6666327535989925  0.4946404296713705  0.5915002187991827   T   T   T
  0.0854409914185795  0.6892447159813581  0.5454247432648224   T   T   T
  0.4984806473701789  0.2533449729668232  0.5907958663454498   T   T   T
  0.4160308060626286  0.9371631945487291  0.5461327430720277   T   T   T
  0.7490420134493981  0.1840782259599653  0.5509360838364344   T   T   T
  0.5830724602111473  0.3208437623078914  0.6336316506505513   T   T   T
  0.9145154656508303  0.6885494692768518  0.5459327237839395   T   T   T
  0.9157317389177781  0.9386499931261693  0.5464146191881420   T   T   T
  0.0822985777655245  0.0632506467727476  0.5475661586565180   T   T   T
  0.0856957099984944  0.3132442575152683  0.5469812326315563   T   T   T
  0.0808230045365652  0.5643666309932002  0.5463367713970038   T   T   T
  0.4166537655274730  0.0654184946500106  0.5473592834297974   T   T   T
  0.5766952486771159  0.4358569310403807  0.5522323916802842   T   T   T
  0.2500027020667451  0.9360606496691671  0.4540090366767679   T   T   T
  0.4159418378611310  0.3196594573568033  0.5524831970778267   T   T   T
  0.2525617931461374  0.5591112219466665  0.5438402587159102   T   T   T
  0.5811477084338618  0.5600248344747895  0.5489375072953463   T   T   T
  0.7475438559425466  0.3122747394769979  0.5492906430188761   T   T   T
  0.4130134527334082  0.8126492416956038  0.6397724582485634   T   T   T
  0.3970598228996068  0.5501832895401301  0.6519471799308079   T   T   T
  0.5839274066678100  0.9376535649632987  0.5463376210919554   T   T   T
  0.5795842240808916  0.6861325872822275  0.5474551315357248   T   T   T
  0.2515028352830101  0.9372961340737747  0.5452544964907796   T   T   T
  0.4974373540461940  0.5043694728771276  0.6088909076539548   T   T   T
  0.9180179415395260  0.5637311412205901  0.5470484053380694   T   T   T
  0.4199474422994174  0.5649728452923539  0.5553558096991088   T   T   T
  0.9157877526281042  0.8126598935329654  0.5468944245307348   T   T   T
  0.0836638186884889  0.9388530357053233  0.5458631571932847   T   T   T
  0.2491208698344960  0.6832475676145238  0.5519509949391393   T   T   T
  0.7487305763071728  0.9330849349594765  0.5485378318041213   T   T   T
  0.7516793796470059  0.6797977056642458  0.5534244670373742   T   T   T
  0.7520175919576088  0.4354782262806786  0.5489634371019093   T   T   T
  0.4231511061634769  0.4438954606631398  0.5455712006313754   T   T   T
  0.4231241042844638  0.6879207851396540  0.5468071935141224   T   T   T
  0.5861695132478337  0.8142974185484833  0.5504546865616623   T   T   T
  0.9153791810463133  0.4373112247081610  0.5457284788208389   T   T   T
  0.7412692004370285  0.8101908069377547  0.6398135236121307   T   T   T
  0.1674430686134054  0.9983321545991577  0.5923091741935250   T   T   T
  0.9155243166658663  0.0627092031875448  0.6411118467655823   T   T   T
  0.5835029121602918  0.0663161200805963  0.6395950014730537   T   T   T
  0.5904673319666139  0.5662016535166762  0.6388253706231599   T   T   T
  0.2475093394709575  0.5736142726186566  0.6287607556330803   T   T   T
  0.7542990220482332  0.6918501334088711  0.6571443465438412   T   T   T
  0.2618613606603550  0.7995499134326750  0.6463893508424552   T   T   T
  0.2510336336233799  0.0593708611820986  0.6423055565651843   T   T   T
  0.9166666899999996  0.5625000000000000  0.3605200100000019   F   F   F
  0.4995918641180769  0.3742927914332038  0.4997536691454796   T   T   T
  0.5000361119200337  0.8733061702062609  0.5010394279538273   T   T   T
  0.5002844121323525  0.6211042697842868  0.5000801953480684   T   T   T
  0.8324826778254305  0.6230866053348931  0.5001938315831939   T   T   T
  0.8322594543685772  0.3729869963127839  0.4999537659838788   T   T   T
  0.8326020141900488  0.1244661259543137  0.4999992961960171   T   T   T
  0.9161016236838790  0.0622786181926106  0.4541471360543387   T   T   T
  0.9129386691744144  0.8135604496597134  0.6420247753240347   T   T   T
  0.5827739665810402  0.4395893343624760  0.4564315106092682   T   T   T
  0.5768684555963514  0.6864417503626004  0.6397811812715558   T   T   T
  0.9155017448473345  0.1858217503424499  0.6400375769843613   T   T   T
  0.2491108668698347  0.3161991284285263  0.6412242916925197   T   T   T
  0.1677264683321168  0.8732678649707564  0.4999071012866412   T   T   T
  0.5827793584741257  0.6861006028007842  0.4546292875628741   T   T   T
  0.5825547257340746  0.9372789318163655  0.4545034523712732   T   T   T
  0.9157709784156622  0.1868299566211861  0.4532698220107400   T   T   T
  0.9156934332502960  0.4369178361031591  0.4536205901713231   T   T   T
  0.1670682196550015  0.1243318801014550  0.4992909873063741   T   T   T
  0.7482573685367686  0.0600420698038537  0.5443557336737245   T   T   T
  0.7533617624937233  0.5680046675347300  0.6357562417111065   T   T   T
  0.9152681910107549  0.3117999065968924  0.6397018905118721   T   T   T
  0.9140630045124237  0.5627977223735122  0.6407412080623814   T   T   T
  0.1675313329784769  0.6243319984285984  0.5002779054554892   T   T   T
  0.5810881335781467  0.4392188485530213  0.6464581458181949   T   T   T
  0.2519442794442993  0.1881144441479663  0.5473239521914661   T   T   T
  0.1665566988251297  0.3758813230823446  0.4976671869704072   T   T   T
  0.7482836999684950  0.0699578076007379  0.6382907134629927   T   T   T
  0.0836577584952062  0.3113206254759350  0.6405492360294350   T   T   T
  0.5912810865702625  0.8105150497130482  0.6459528959189355   T   T   T
  0.6665616065545904  0.8746000328239136  0.4986495274012326   T   T   T
  0.0857188349340524  0.5628235292300854  0.6398655599569292   T   T   T
  0.0840942696973256  0.0602865521293568  0.6421979391714181   T   T   T
  0.0873936995567166  0.4365635760205093  0.6397145936447652   T   T   T
  0.0839434419313346  0.1852721039567027  0.6412601720389807   T   T   T
  0.4179342306533854  0.1872928332843556  0.6395522789444429   T   T   T
  0.0842646361831557  0.9354760331529233  0.6408458300713906   T   T   T
  0.9124121256142995  0.4361233869845427  0.6399778763918891   T   T   T
  0.9161782613219649  0.6878411757522327  0.6391906244366072   T   T   T
  0.9142192958190721  0.9372334479130886  0.6414869796133185   T   T   T
  0.4148942419513064  0.4188234866324553  0.6298321563853532   T   T   T
  0.7550902228274767  0.4323727142481886  0.6372719659913312   T   T   T
  0.4175334370696247  0.9349025064678841  0.6397875726669432   T   T   T
  0.0832834086545756  0.6871487327170813  0.6388617333172422   T   T   T
  0.2404271803490453  0.4419341656829523  0.6413108367042026   T   T   T
  0.4203552296692285  0.6755922477451621  0.6335921942036115   T   T   T
  0.8333534350139069  0.5030468321440259  0.5888643299510146   T   T   T
  0.2547780359091351  0.6772865579141066  0.6626222360368065   T   T   T
  0.5785431090797609  0.1913122040768047  0.6447803604820799   T   T   T
  0.7455488809125126  0.3116861193111869  0.6420198363674821   T   T   T
  0.0845619377417032  0.8126404656747018  0.6424220907697236   T   T   T
  0.9166666899999996  0.8125000000000000  0.3605200100000019   F   F   F
  0.2520564592969018  0.9301948366078580  0.6373931681851231   T   T   T
  0.5825380517763468  0.9362889598912761  0.6399111126536802   T   T   T
  0.8314344844399584  0.2494079760245658  0.5913670671620374   T   T   T
  0.8303241123735108  0.7507191429200512  0.5925808233797717   T   T   T
  0.2535373724440815  0.1864286533159611  0.6412235827052576   T   T   T
  0.7457300453440084  0.1939778803740289  0.6468742314685175   T   T   T
  0.6666666899999996  0.3750000000000000  0.4070133299999981   F   F   F
  0.6659565601692892  0.9996665181855090  0.5056254409907146   T   T   T
  0.8333332500000026  0.6250000000000000  0.4070133299999981   F   F   F
  0.5011266388341412  0.7528651165425836  0.5038365335529410   T   T   T
  0.1642725832324464  0.7514567978341090  0.5034237230471863   T   T   T
  0.3257596194644657  0.3734991972823909  0.5926221509631358   T   T   T
  0.1666666699999979  0.3750000000000000  0.4070133299999981   F   F   F
  0.6684369761807517  0.4999920327686542  0.5005938235802806   T   T   T
  0.3300760070619237  0.2480495040228885  0.5027711047549401   T   T   T
  0.3331352273642836  0.0010645168657141  0.5058119206470293   T   T   T
  0.3338681044485629  0.7511740534193296  0.5015090607513968   T   T   T
  0.9996185455812038  0.4998467623458038  0.5066850297679626   T   T   T
  0.5011891533267309  0.4998491023620960  0.5002014503484152   T   T   T
  0.8362508710917037  0.5001390839955315  0.5027453361972555   T   T   T
  0.6652811364487518  0.7517752740849386  0.5022438771396061   T   T   T
  0.0006400786951581  0.1228087457009685  0.6199374111473761   T   T   T
  0.6667561923424010  0.2483483266156385  0.5024068864729871   T   T   T
  0.0000298856847841  0.0000418426443604  0.5067261350473053   T   T   T
  0.0000000000000000  0.8749999400000021  0.4070133299999981   F   F   F
  0.3333333400000029  0.3750000000000000  0.4070133299999981   F   F   F
  0.5009044561029221  0.2479806678268814  0.5020536248965443   T   T   T
  0.9998924089133870  0.7511399252778659  0.5067585621997321   T   T   T
  0.0007654315865797  0.2496653773280966  0.5061264692186134   T   T   T
  0.6666666899999996  0.6250000000000000  0.4070133299999981   F   F   F
  0.8333332500000026  0.8749999400000021  0.4070133299999981   F   F   F
  0.3333333400000029  0.6250000000000000  0.4070133299999981   F   F   F
  0.3333333400000029  0.1250000000000000  0.4070133299999981   F   F   F
  0.6666666899999996  0.1250000000000000  0.4070133299999981   F   F   F
  0.8342377630253652  0.9999067528985744  0.5064430220700672   T   T   T
  0.3333333400000029  0.8749999400000021  0.4070133299999981   F   F   F
  0.0000000000000000  0.6250000000000000  0.4070133299999981   F   F   F
  0.1659674896508679  0.0011537741411694  0.5065322921261226   T   T   T
  0.3311134273852469  0.4992427605767755  0.5008355085980551   T   T   T
  0.1634154429251314  0.4997780209056633  0.5019803850616857   T   T   T
  0.8358909363514035  0.2486307944277157  0.5026186942350647   T   T   T
  0.5012035962705111  0.8770962085070954  0.6097423205283351   T   T   T
  0.8361850843804681  0.7517394456325562  0.5027492462741389   T   T   T
  0.0000000000000000  0.3750000000000000  0.4070133299999981   F   F   F
  0.9989098526634299  0.8748758441609205  0.6232599300945479   T   T   T
  0.0000000000000000  0.1250000000000000  0.4070133299999981   F   F   F
  0.8333332500000026  0.1250000000000000  0.4070133299999981   F   F   F
  0.5000000000000000  0.6250000000000000  0.4070133299999981   F   F   F
  0.8394877274694688  0.6271122003880256  0.6041298026823074   T   T   T
  0.3316138526208762  0.1196983314584839  0.6131196608970833   T   T   T
  0.3346964096164392  0.8786545364420634  0.6030162762420833   T   T   T
  0.6651762048105577  0.1243218593663717  0.6053921433551702   T   T   T
  0.3339342268776463  0.6244958713147400  0.5949450356802192   T   T   T
  0.1666666699999979  0.8749999400000021  0.4070133299999981   F   F   F
  0.8333332500000026  0.3750000000000000  0.4070133299999981   F   F   F
  0.8384390762294489  0.3726417874307282  0.6025878339522083   T   T   T
  0.8311463465225464  0.8776354709609983  0.6186431777180172   T   T   T
  0.1666666699999979  0.1250000000000000  0.4070133299999981   F   F   F
  0.5000000000000000  0.1250000000000000  0.4070133299999981   F   F   F
  0.0001986442745282  0.3753262612589682  0.6240970632048967   T   T   T
  0.1662905405920476  0.2481501220839247  0.5061509261071878   T   T   T
  0.5014611045730323  0.3716282331599743  0.5947499704010695   T   T   T
  0.1666666699999979  0.6250000000000000  0.4070133299999981   F   F   F
  0.5000000000000000  0.3750000000000000  0.4070133299999981   F   F   F
  0.6666666899999996  0.8749999400000021  0.4070133299999981   F   F   F
  0.5003059957620963  0.9992305719948373  0.5057008699164077   T   T   T
  0.1594940571897260  0.6273263943822674  0.6015891242940785   T   T   T
  0.6701836070797194  0.3727103393567767  0.5930719288293977   T   T   T
  0.5004805303644644  0.1220020646861395  0.6064587490256557   T   T   T
  0.1663141837326779  0.8736603601673926  0.6177478870062215   T   T   T
  0.5037296946421705  0.6250556525496471  0.5939963327029717   T   T   T
  0.1631511188745691  0.3710529889704742  0.6075502991439808   T   T   T
  0.6658718752679756  0.8820166602431371  0.6075426795647242   T   T   T
  0.6665435318652376  0.6258071939160664  0.5932294453642946   T   T   T
  0.8351193608952000  0.1236989161035444  0.6112572210071427   T   T   T
  0.9995668775882758  0.6239399938344808  0.6234437974239568   T   T   T
  0.5000000000000000  0.8749999400000021  0.4070133299999981   F   F   F
  0.1677984800203029  0.1225057980364502  0.6216799809221587   T   T   T
  0.9166688477810397 -0.0002514911142781  0.6038127247107206   T   T   T
  0.5833333100000004  0.2500000000000000  0.4070133299999981   F   F   F
  0.0835620695365917  0.2476091138209507  0.6037525164471881   T   T   T
  0.7497637080844445  0.0026177966766522  0.6048036895244925   T   T   T
  0.5826949389090921  0.0012278814831822  0.6045877700980130   T   T   T
  0.5848919861730727  0.7500928571676746  0.5997199108592367   T   T   T
  0.5901938700418815  0.5014348066729704  0.5935054681482184   T   T   T
  0.0819969250039188  0.3743716750201792  0.5060495480639278   T   T   T
  0.2496702562235155  0.7528264291357251  0.5919386084673650   T   T   T
  0.2497597127652593  0.9976532507457043  0.6042013276304244   T   T   T
  0.7539500722594734  0.2481821917232517  0.5926341677966993   T   T   T
  0.2491133660316477  0.2456212404350505  0.6036121712099655   T   T   T