Au O  Sr Ti H                           
   1.00000000000000     
    23.6707801818999997    0.0000000000000000    0.0000000000000000
     0.0000000000000000   22.3170261383000010    0.0000000000000000
     0.0000000000000000    0.0000000000000000   30.0000000000000000
   Au   O    Sr   Ti   H 
    50   264    72    72     1
Selective dynamics
Direct
  0.7190914196865918  0.5266145223714886  0.7541637449976335   F   F   F
  0.6256316183948911  0.5660195446325531  0.7035359085963435   F   F   F
  0.7193830166470221  0.2590219146400727  0.6918408869570598   F   F   F
  0.2907969129648791  0.7465754900053483  0.6989633726058599   F   F   F
  0.5125748212471137  0.6037749569835569  0.7769039510152354   F   F   F
  0.5764406555177786  0.7243915359163466  0.7923581786218463   F   F   F
  0.5521786207424810  0.3838492122128798  0.8297840306947748   F   F   F
  0.2411165269303552  0.4687850973252949  0.7093813785223162   F   F   F
  0.2815532717080487  0.6615611205958203  0.7661726825528348   F   F   F
  0.6019731466206508  0.2867471646949795  0.7871155567293471   F   F   F
  0.5154884093187917  0.4840319268280311  0.6778786922715767   F   F   F
  0.5621645233234531  0.4857492564530048  0.7624769305736407   F   F   F
  0.4630831108936917  0.6963328929173969  0.8296897363080546   F   F   F
  0.7648296591458958  0.4322642584975753  0.7057928198370291   F   F   F
  0.7338444638265358  0.6160156478342955  0.6938477207718563   F   F   F
  0.6351353267333053  0.5830104238141587  0.8000215794406174   F   F   F
  0.5947769285756692  0.7847138311086539  0.7125994551510146   F   F   F
  0.4840722215390798  0.7805904691265084  0.7570626958762219   F   F   F
  0.3484112675767861  0.5025130710948034  0.6967701061505451   F   F   F
  0.4332325003522328  0.3734975502433926  0.8145893146499787   F   F   F
  0.3743066616284167  0.2975056385081061  0.7563992031414486   F   F   F
  0.4408346130433713  0.2284571774648185  0.6971041189982117   F   F   F
  0.3895047581161748  0.8167233814828521  0.7063151937088676   F   F   F
  0.2901590465114694  0.5374245739860868  0.7775443953946493   F   F   F
  0.5564159691739619  0.2087551139103354  0.7117359452612035   F   F   F
  0.4542213995032256  0.5806625567824355  0.7020686291288030   F   F   F
  0.6147342401252089  0.3189863545979534  0.6971265936849775   F   F   F
  0.7053833817804289  0.7571176354492479  0.6883461966144822   F   F   F
  0.6570818722122880  0.4433864215466414  0.8124181103270729   F   F   F
  0.3672611746829162  0.6197624237509842  0.8204808721001626   F   F   F
  0.5700976828781208  0.5098998118102145  0.8562126035321782   F   F   F
  0.6656602258120472  0.1924707794620204  0.7515039817192459   F   F   F
  0.4723288739504525  0.4503992132217149  0.8804864062481315   F   F   F
  0.5179719540661338  0.3769046958057771  0.7337370314250364   F   F   F
  0.2775160281717817  0.3267965022448465  0.7058475735107308   F   F   F
  0.6696118425559376  0.6805041126648277  0.7493036972839491   F   F   F
  0.4011887154376126  0.3833893721031956  0.6912572224445128   F   F   F
  0.3775577371409682  0.4927960464804855  0.8318941463734575   F   F   F
  0.4617958170210130  0.5730306062250392  0.8628474706303138   F   F   F
  0.3264845045444034  0.4148338483963556  0.7692263104187518   F   F   F
  0.4873073337181992  0.2687174817237405  0.7749766656643899   F   F   F
  0.4272724951965543  0.6997625320312721  0.6986646092560491   F   F   F
  0.6994929536523671  0.3463025693619670  0.7565988003839195   F   F   F
  0.7744286794099864  0.4288168815915370  0.7961255864303141   F   F   F
  0.2563243671265312  0.5934066792176083  0.6947456119325821   F   F   F
  0.6482174266266512  0.4404864670258988  0.6966544702766839   F   F   F
  0.5636679785138767  0.6392826947488075  0.8611435672185976   F   F   F
  0.5466390297697146  0.6639868775392443  0.7016895783950616   F   F   F
  0.4424092809631830  0.4740918768537483  0.7540642047909998   F   F   F
  0.3727073942872252  0.7375759093519108  0.7771784608510615   F   F   F
  0.2499484295209768  0.1886777881097004  0.4543094287445584   F   F   F
  0.7494194160597942  0.9384913923754894  0.4553190868707233   F   F   F
  0.7490119434436906  0.6886387643846419  0.4572803118684376   F   F   F
  0.7494412936484167  0.4383542655948602  0.4558535184014900   F   F   F
  0.7500413926158984  0.1897329167279977  0.4556227310144223   F   F   F
  0.4174462742839182  0.9357090778055834  0.4539677152374395   F   F   F
  0.4170109182543840  0.6845783821824440  0.4546659378043429   F   F   F
  0.4168171587100744  0.4354887723453942  0.4540286510610301   F   F   F
  0.0843993466685760  0.6869479723625815  0.4531022761200703   F   F   F
  0.0838854163589673  0.9366849213338355  0.4534676101516979   F   F   F
  0.0830614709424964  0.4369773797484342  0.4531094722953455   F   F   F
  0.0838686732170970  0.1865813716144444  0.4530204709497312   F   F   F
  0.9165477364397958  0.8120190953414266  0.4540803850753719   F   F   F
  0.9161051734313048  0.5624267779038874  0.4538117300954525   F   F   F
  0.2512323377229677  0.4394747337625162  0.4550452108350171   F   F   F
  0.9161542481278815  0.0621424409551992  0.4541042316431927   F   F   F
  0.9163004537905266  0.3122625330287150  0.4538426248970850   F   F   F
  0.4173081375893304  0.1871102881919313  0.4535585810434100   F   F   F
  0.2524650279220353  0.6872973986993145  0.4560782410870274   F   F   F
  0.9167822993958765  0.9368243437260659  0.4532743871572649   F   F   F
  0.5826225168059125  0.1890868241776644  0.4550703106875389   F   F   F
  0.0001432339106771  0.1251920160153048  0.4984342441629934   F   F   F
  0.5837004245260360  0.8099465903092806  0.4554439355163566   F   F   F
  0.0000311131872905  0.3734691327355222  0.4986033448291067   F   F   F
  0.9998112017204761  0.6269598682171846  0.4976827936599619   F   F   F
  0.3335337609570459  0.1254979682234421  0.4984181235971050   F   F   F
  0.0000435000438728  0.8749976215831694  0.4995637409471456   F   F   F
  0.3335038578063632  0.8738016539649323  0.4988422686835108   F   F   F
  0.6659329097060720  0.1257836937719787  0.4991877353227281   F   F   F
  0.3358020688151413  0.6251256871139290  0.5043674442963848   F   F   F
  0.3343612134464067  0.3784774254207477  0.5030223735149022   F   F   F
  0.6655560242093870  0.3785695297916121  0.5033288771644706   F   F   F
  0.9153600605835237  0.6867203483979267  0.4530032228064726   F   F   F
  0.9161337166792336  0.4370139893596487  0.4536685500090769   F   F   F
  0.9158163283424656  0.1869506351912023  0.4531967935839134   F   F   F
  0.5826655429914496  0.9361769352651947  0.4537564065403004   F   F   F
  0.5827932691769604  0.6860070764483339  0.4545666226431209   F   F   F
  0.5827242535065125  0.4390099435449031  0.4560502228619399   F   F   F
  0.2499893030863873  0.9359266924859924  0.4540937615442928   F   F   F
  0.6654120230930900  0.6258841600213572  0.5029379875228912   F   F   F
  0.5846478852789332  0.5624915139285918  0.4550460163952152   F   F   F
  0.5828685252272905  0.0624087072331534  0.4547745017808538   F   F   F
  0.9166666865332829  0.6874999999963620  0.3605200052333331   F   F   F
  0.9166666865332829  0.4374999701794380  0.3605200052333331   F   F   F
  0.9166666865332829  0.1875000000030838  0.3605200052333331   F   F   F
  0.5833333134730552  0.9375000000154046  0.3605200052333331   F   F   F
  0.5833333134730552  0.6874999999963620  0.3605200052333331   F   F   F
  0.5833333134730552  0.4374999701794380  0.3605200052333331   F   F   F
  0.5833333134730552  0.1875000000030838  0.3605200052333331   F   F   F
  0.2499999999799343  0.9375000000154046  0.3605200052333331   F   F   F
  0.9166666865332829  0.9375000000154046  0.3605200052333331   F   F   F
  0.2499999999799343  0.6874999999963620  0.3605200052333331   F   F   F
  0.2499999999799343  0.1875000000030838  0.3605200052333331   F   F   F
  0.7499999404149307  0.9375000000154046  0.3605200052333331   F   F   F
  0.7499999404149307  0.6874999999963620  0.3605200052333331   F   F   F
  0.7499999404149307  0.4374999701794380  0.3605200052333331   F   F   F
  0.7499999404149307  0.1875000000030838  0.3605200052333331   F   F   F
  0.4166666269218169  0.9375000000154046  0.3605200052333331   F   F   F
  0.4166666269218169  0.6874999999963620  0.3605200052333331   F   F   F
  0.4166666269218169  0.4374999701794380  0.3605200052333331   F   F   F
  0.2499999999799343  0.4374999701794380  0.3605200052333331   F   F   F
  0.0833333358191695  0.0625000000159659  0.3605200052333331   F   F   F
  0.0833333358191695  0.3124999999901945  0.3605200052333331   F   F   F
  0.0833333358191695  0.5625000000092442  0.3605200052333331   F   F   F
  0.9166666865332829  0.3124999999901945  0.3605200052333331   F   F   F
  0.9166666865332829  0.0625000000159659  0.3605200052333331   F   F   F
  0.5833333134730552  0.8124999999834799  0.3605200052333331   F   F   F
  0.5833333134730552  0.5625000000092442  0.3605200052333331   F   F   F
  0.5833333134730552  0.3124999999901945  0.3605200052333331   F   F   F
  0.5833333134730552  0.0625000000159659  0.3605200052333331   F   F   F
  0.2499999999799343  0.8124999999834799  0.3605200052333331   F   F   F
  0.2499999999799343  0.5625000000092442  0.3605200052333331   F   F   F
  0.2499999999799343  0.3124999999901945  0.3605200052333331   F   F   F
  0.2499999999799343  0.0625000000159659  0.3605200052333331   F   F   F
  0.7499999404149307  0.8124999999834799  0.3605200052333331   F   F   F
  0.7499999404149307  0.5625000000092442  0.3605200052333331   F   F   F
  0.7499999404149307  0.3124999999901945  0.3605200052333331   F   F   F
  0.7499999404149307  0.0625000000159659  0.3605200052333331   F   F   F
  0.4166666269218169  0.8124999999834799  0.3605200052333331   F   F   F
  0.4166666269218169  0.5625000000092442  0.3605200052333331   F   F   F
  0.4166666269218169  0.3124999999901945  0.3605200052333331   F   F   F
  0.4166666269218169  0.0625000000159659  0.3605200052333331   F   F   F
  0.0833333358191695  0.8124999999834799  0.3605200052333331   F   F   F
  0.4166666269218169  0.1875000000030838  0.3605200052333331   F   F   F
  0.0833333358191695  0.9375000000154046  0.3605200052333331   F   F   F
  0.0833333358191695  0.6874999999963620  0.3605200052333331   F   F   F
  0.0833333358191695  0.4374999701794380  0.3605200052333331   F   F   F
  0.8333332538436267  0.4999999999932783  0.4070133268666680   F   F   F
  0.8333332538436267  0.7500000000123208  0.4070133268666680   F   F   F
  0.0837387942817784  0.0618972347657802  0.4541951685077663   F   F   F
  0.0834504897621926  0.3120103666373595  0.4540157398408908   F   F   F
  0.0839396154805172  0.5625112398118191  0.4538690176606295   F   F   F
  0.0835362517861284  0.8121584451583743  0.4541992295583412   F   F   F
  0.4168952959724663  0.0615402829040619  0.4553367261266601   F   F   F
  0.4154650492454550  0.3113153661502039  0.4573780733902097   F   F   F
  0.4161131631054573  0.5594834720675550  0.4578308622992111   F   F   F
  0.4166479606574072  0.8097650435880297  0.4551513202988531   F   F   F
  0.7496145092659674  0.0641194630167590  0.4533116341110670   F   F   F
  0.7474216675397969  0.3141024428289825  0.4546967109665161   F   F   F
  0.7481618050753269  0.5642455511297086  0.4537343167395207   F   F   F
  0.7494138859506947  0.8131815101202093  0.4530538938696367   F   F   F
  0.2503255568664429  0.0619726335699369  0.4541847605331952   F   F   F
  0.9152952592914119  0.3125083541752005  0.5467148509746238   F   F   F
  0.2522419856427902  0.3144519519084810  0.4540175697616533   F   F   F
  0.2519301701606906  0.5645782689466117  0.4538267824391866   F   F   F
  0.2501862965175619  0.8104341310390808  0.4555204880521586   F   F   F
  0.8333332538436267  0.2500000000190425  0.4070133268666680   F   F   F
  0.5844178630402581  0.3145299367923329  0.4542014181455514   F   F   F
  0.8333332538436267  0.0000000000000000  0.4070133268666680   F   F   F
  0.5000000000021103  0.4999999999932783  0.4070133268666680   F   F   F
  0.0833333358191695  0.1875000000030838  0.3605200052333331   F   F   F
  0.0000000000000000  0.0000000000000000  0.4070133268666680   F   F   F
  0.0000000000000000  0.2500000000190425  0.4070133268666680   F   F   F
  0.0000000000000000  0.4999999999932783  0.4070133268666680   F   F   F
  0.0000000000000000  0.7500000000123208  0.4070133268666680   F   F   F
  0.3333333432766779  0.0000000000000000  0.4070133268666680   F   F   F
  0.3333333432766779  0.2500000000190425  0.4070133268666680   F   F   F
  0.3333333432766779  0.4999999999932783  0.4070133268666680   F   F   F
  0.3333333432766779  0.7500000000123208  0.4070133268666680   F   F   F
  0.6666666865533486  0.0000000000000000  0.4070133268666680   F   F   F
  0.6666666865533486  0.2500000000190425  0.4070133268666680   F   F   F
  0.6666666865533486  0.4999999999932783  0.4070133268666680   F   F   F
  0.6666666865533486  0.7500000000123208  0.4070133268666680   F   F   F
  0.1666666716383389  0.0000000000000000  0.4070133268666680   F   F   F
  0.1666666716383389  0.2500000000190425  0.4070133268666680   F   F   F
  0.1666666716383389  0.4999999999932783  0.4070133268666680   F   F   F
  0.1666666716383389  0.7500000000123208  0.4070133268666680   F   F   F
  0.5000000000021103  0.0000000000000000  0.4070133268666680   F   F   F
  0.5000000000021103  0.2500000000190425  0.4070133268666680   F   F   F
  0.5000000000021103  0.7500000000123208  0.4070133268666680   F   F   F
  0.1671140937861608  0.1242784081017518  0.4993326197427308   F   F   F
  0.9176829749471622  0.0633401393142776  0.5474053623428787   F   F   F
  0.1677819587688845  0.8732134194071364  0.4999421412853522   F   F   F
  0.2518293146557227  0.1880181640559044  0.5474051827300030   F   F   F
  0.7492738459227013  0.9340178069483329  0.5476210864151270   F   F   F
  0.7517603121973977  0.6804044284632553  0.5530084672630835   F   F   F
  0.7528292745433305  0.4345696401858348  0.5496525662882519   F   F   F
  0.4232516388696936  0.4435717773905452  0.5459123696706172   F   F   F
  0.4232888157014614  0.6880121191250126  0.5465653974123867   F   F   F
  0.7484674472196318  0.1836158680091629  0.5507515710298065   F   F   F
  0.4160103609026038  0.9367617023948398  0.5459952410768878   F   F   F
  0.0836149591834854  0.9389582310328635  0.5457021967934708   F   F   F
  0.4157371027168040  0.1912872553144140  0.5464312819170800   F   F   F
  0.0864383200024719  0.6895477565459203  0.5452386943985204   F   F   F
  0.0828107234052879  0.4385391024749055  0.5452906605352581   F   F   F
  0.0840027332856579  0.1889785932730845  0.5457484516935693   F   F   F
  0.4994005829645829  0.1255056877941030  0.4996522280516658   F   F   F
  0.9997973482890075  0.4986540355848348  0.5947179294054052   F   F   F
  0.9993584344411772  0.7539429778775215  0.5921113790043506   F   F   F
  0.3346447670211319  0.2540109582146215  0.5923080016238060   F   F   F
  0.3339828056151859  0.9998333257438929  0.5920243359103452   F   F   F
  0.9996450587142505  0.9982711050623365  0.5927325203644429   F   F   F
  0.0011285928136502  0.2500870559860857  0.5919472275772364   F   F   F
  0.3335060656058886  0.4970736971545051  0.5907859019798352   F   F   F
  0.3357357544575024  0.7397673089404435  0.5912189885252985   F   F   F
  0.6633463388208938  0.2473203302289235  0.5909028691583202   F   F   F
  0.6657988765749110  0.0003810254662753  0.5918783238005645   F   F   F
  0.6661901290048888  0.7419831899161338  0.5899112176811201   F   F   F
  0.6669402448316077  0.4937922789794129  0.5913557072194777   F   F   F
  0.1673551785037546  0.9984062641890787  0.5922577422116007   F   F   F
  0.1687507260543128  0.2493978117122850  0.5934970851896253   F   F   F
  0.1705577096992528  0.7500205547217718  0.5947773569304431   F   F   F
  0.2483411472267676  0.4358048630346900  0.5495968396752602   F   F   F
  0.1656735929133148  0.5028432756816770  0.5881229586566548   F   F   F
  0.2491203739860381  0.6832722537811975  0.5519679708885477   F   F   F
  0.5807159033934255  0.1861685642453921  0.5491619085626880   F   F   F
  0.9149707016843962  0.8130609222464500  0.5469023255310645   F   F   F
  0.9168090737653429  0.5634603587710174  0.5466025366893277   F   F   F
  0.5814784144541676  0.5602700726999856  0.5494555061909381   F   F   F
  0.5862696435670713  0.8148344086661368  0.5505437212475854   F   F   F
  0.5830915949305862  0.3119554151804991  0.5458130228899378   F   F   F
  0.5826076205456800  0.0632949165523016  0.5469437211848103   F   F   F
  0.2539212168372345  0.8126386884263823  0.5512202040419467   F   F   F
  0.2520020690477409  0.5589635721216411  0.5440856970011723   F   F   F
  0.2494739294423383  0.3136677188747967  0.5459282111132922   F   F   F
  0.2511552254801543  0.0624029265338422  0.5471877514831220   F   F   F
  0.7488313487447016  0.8083491825753697  0.5455941843254664   F   F   F
  0.7464723366315908  0.5576691359925476  0.5445855614233963   F   F   F
  0.4139900129240317  0.8114944353565718  0.5479863436985113   F   F   F
  0.7482956786202379  0.0596196462821155  0.5445133546614969   F   F   F
  0.7479468612998161  0.3112413285012749  0.5479590704471207   F   F   F
  0.4159920054766530  0.3195217940932622  0.5526039192632268   F   F   F
  0.4207160891198996  0.5649037654430913  0.5552614951786623   F   F   F
  0.4164921796940106  0.0652298775143692  0.5472931262663963   F   F   F
  0.0848730727080920  0.8129241139762655  0.5473178459381955   F   F   F
  0.0828529252588268  0.5637793349959566  0.5462937707817304   F   F   F
  0.0867067212583024  0.3134608647528339  0.5471435728272311   F   F   F
  0.0823045695385574  0.0632929302478331  0.5475230583321533   F   F   F
  0.9156836602988676  0.9387367279355487  0.5460511521462905   F   F   F
  0.9132160161502085  0.6894244092138777  0.5449967912372173   F   F   F
  0.5834850646316525  0.9383186883677368  0.5455238694179272   F   F   F
  0.9170150591851751  0.1888930913221927  0.5455088725104531   F   F   F
  0.9157235487359827  0.4374193250914047  0.5458744095677588   F   F   F
  0.5765530195202331  0.4361420661155648  0.5516846367846426   F   F   F
  0.5795779192040129  0.6864958077380834  0.5471745594786626   F   F   F
  0.2516677738524393  0.9372710663910766  0.5453100590725413   F   F   F
  0.4979272100909213  0.5037522710017086  0.6087870680768717   F   F   F
  0.4983284591317272  0.2532097309295267  0.5903794707631462   F   F   F
  0.4995844890543992  0.9999646771287090  0.5909835842396305   F   F   F
  0.7543148161910196  0.6931409342332557  0.6577026851339909   F   F   F
  0.7484473894756789  0.9366787365454385  0.6399211565147382   F   F   F
  0.2535335328046173  0.1865230359181638  0.6412589570516047   F   F   F
  0.7457974088137789  0.1944084546434297  0.6468006159369253   F   F   F
  0.7561468356728724  0.4363409802402884  0.6393058513582019   F   F   F
  0.4172477101757224  0.9348723285581073  0.6397275025346616   F   F   F
  0.4219188795398239  0.6758796673279619  0.6334995688261031   F   F   F
  0.5911786464868882  0.8098818058621262  0.6460090793984321   F   F   F
  0.9162349743593197  0.0624229010362285  0.6414116847750222   F   F   F
  0.9131733780767917  0.5615475100725575  0.6426691103314965   F   F   F
  0.9152540378021143  0.3120759826635151  0.6395521722655246   F   F   F
  0.9139412829589446  0.8126348750960446  0.6415982179836845   F   F   F
  0.5821620258744034  0.0654933721987518  0.6398265247384174   F   F   F
  0.5824546523737339  0.3194629736591850  0.6342946647145808   F   F   F
  0.5913107129292854  0.5642281535874289  0.6398479359838305   F   F   F
  0.2476673148990116  0.5739629792259251  0.6289706123655776   F   F   F
  0.2617065460434631  0.7987632478576288  0.6467383739265529   F   F   F
  0.2517398058271851  0.3166672920057394  0.6416866831892847   F   F   F
  0.2508683302034527  0.0594960970831693  0.6420837031915099   F   F   F
  0.9166666865332829  0.5625000000092442  0.3605200052333331   F   F   F
  0.4995999370545405  0.3740087947362838  0.4998515411520259   F   F   F
  0.5000084384650165  0.8725971945666018  0.5008344661786595   F   F   F
  0.5005312989382347  0.6209613104783500  0.5000389427659044   F   F   F
  0.8323079877494024  0.6230923352532329  0.4999980606299133   F   F   F
  0.8327583856384706  0.8749362367027302  0.4982199591126601   F   F   F
  0.8325955329846266  0.3731914335523072  0.4994922022980290   F   F   F
  0.8328896231101695  0.1246025858999644  0.4996641962458170   F   F   F
  0.1667863975889716  0.3762303253094288  0.4978264328757547   F   F   F
  0.1677491840581240  0.6243479260889444  0.4999311823287442   F   F   F
  0.5820455941581031  0.4381337438060342  0.6458746641533821   F   F   F
  0.5807101646683179  0.6850045684455210  0.6387439072942840   F   F   F
  0.9170784975303761  0.1868559320423984  0.6406516111676339   F   F   F
  0.5817802477793705  0.9352787571628411  0.6390499682105997   F   F   F
  0.8303181142163538  0.7501555305915488  0.5932671459569292   F   F   F
  0.8316017147924839  0.2479664913619004  0.5915134128270338   F   F   F
  0.8334167426355705  0.5038205115695291  0.5893319460177935   F   F   F
  0.8322005461086448  0.0019523715378256  0.5922272478771404   F   F   F
  0.5014798668490599  0.7564794784111015  0.5929939768339665   F   F   F
  0.4176662086409237  0.0651205795237715  0.6399670051891988   F   F   F
  0.4249157328281115  0.3052121247695112  0.6561096365480736   F   F   F
  0.4124977556149076  0.8127381506202411  0.6394575874141069   F   F   F
  0.3986224670895879  0.5509473166261216  0.6517456010643272   F   F   F
  0.7520713996653470  0.5711786120390130  0.6342604167907950   F   F   F
  0.7410113077201430  0.8099297602732065  0.6399682593020515   F   F   F
  0.7467358112159914  0.3127291814364668  0.6401920617189560   F   F   F
  0.7476903105198218  0.0669071987527730  0.6390980009540002   F   F   F
  0.0840535847118531  0.3120201485051552  0.6406929115618638   F   F   F
  0.6665894828161711  0.8744883593101420  0.4989137988704897   F   F   F
  0.0868891499555176  0.5617276044022645  0.6420654737200806   F   F   F
  0.0835303979961353  0.0605401153334313  0.6414419312275328   F   F   F
  0.0873457984637085  0.4363679425113460  0.6396143429958272   F   F   F
  0.0837015890199027  0.1857231824422598  0.6410822435861974   F   F   F
  0.4186769697791064  0.1880611633944156  0.6399190443752687   F   F   F
  0.4135503353360690  0.4188744054350977  0.6297091288213181   F   F   F
  0.0842571187739196  0.9353073440249275  0.6408427502269944   F   F   F
  0.0829050168491676  0.6872406193204128  0.6398992539011772   F   F   F
  0.9125053962944278  0.4361498231008412  0.6397470964193559   F   F   F
  0.9167115752145492  0.6874274443410400  0.6398571328936598   F   F   F
  0.9141038909095229  0.9366808429541322  0.6408864556682516   F   F   F
  0.2411624096048257  0.4422985477393553  0.6423162943432743   F   F   F
  0.2530522904393422  0.6776244372720797  0.6637851879602650   F   F   F
  0.5782895328743649  0.1905279397547446  0.6441152264185774   F   F   F
  0.2519672488623996  0.9302144476547269  0.6374995734801416   F   F   F
  0.0839382316186956  0.8118535501849919  0.6418784997824218   F   F   F
  0.9166666865332829  0.8124999999834799  0.3605200052333331   F   F   F
  0.0005643386586556  0.1230062093906312  0.6189810177658899   F   F   F
  0.8333332538436267  0.6249999999803961  0.4070133268666680   F   F   F
  0.9996827306896705  0.5004834207516566  0.5072620061514783   F   F   F
  0.3311205416628127  0.4992745062013171  0.5010021675867264   F   F   F
  0.3300004189560184  0.2479253146831297  0.5027844216984931   F   F   F
  0.3331742878524935  0.0010189720101081  0.5057811816550029   F   F   F
  0.3336682855620481  0.7509177866505965  0.5016708070877200   F   F   F
  0.6658811086562295  0.0001954791840006  0.5055607901018107   F   F   F
  0.6686607689924031  0.4996700095428892  0.5006769148790653   F   F   F
  0.6671040143571574  0.2477193752872466  0.5030590655025406   F   F   F
  0.6655312328395198  0.7519143958396484  0.5020416130796121   F   F   F
  0.1659682852739266  0.0011146798160482  0.5065138904043920   F   F   F
  0.1664363427619122  0.2482830283575197  0.5063685555686277   F   F   F
  0.1634706145217422  0.4998477764918334  0.5023149731723748   F   F   F
  0.5001740034432487  0.9993117036849952  0.5054677940398520   F   F   F
  0.1642872721773259  0.7513510777521617  0.5034055938132909   F   F   F
  0.5008788262592532  0.7527472181692616  0.5039723708409198   F   F   F
  0.8342038753924044  0.0004622228512048  0.5064489918799566   F   F   F
  0.5011864264586379  0.4997038929218576  0.5002840673567590   F   F   F
  0.5010867207229879  0.2477867344632116  0.5019865140774797   F   F   F
  0.8353961334895956  0.2483888986676419  0.5033136911406331   F   F   F
  0.9996941427118315  0.7506454875539035  0.5065425862822224   F   F   F
  0.0009296377077135  0.2498272939583615  0.5059535188643238   F   F   F
  0.0000210600692228  0.0000147045976036  0.5064411630605719   F   F   F
  0.8333332538436267  0.8749999404036828  0.4070133268666680   F   F   F
  0.0000000000000000  0.6249999999803961  0.4070133268666680   F   F   F
  0.0000000000000000  0.8749999404036828  0.4070133268666680   F   F   F
  0.3333333432766779  0.1249999999871179  0.4070133268666680   F   F   F
  0.3333333432766779  0.3750000000061604  0.4070133268666680   F   F   F
  0.3333333432766779  0.6249999999803961  0.4070133268666680   F   F   F
  0.3333333432766779  0.8749999404036828  0.4070133268666680   F   F   F
  0.6666666865533486  0.1249999999871179  0.4070133268666680   F   F   F
  0.6666666865533486  0.3750000000061604  0.4070133268666680   F   F   F
  0.6666666865533486  0.6249999999803961  0.4070133268666680   F   F   F
  0.8361293068904558  0.4998737618236291  0.5030025778805438   F   F   F
  0.6666666865533486  0.8749999404036828  0.4070133268666680   F   F   F
  0.1666666716383389  0.3750000000061604  0.4070133268666680   F   F   F
  0.1666666716383389  0.6249999999803961  0.4070133268666680   F   F   F
  0.1666666716383389  0.8749999404036828  0.4070133268666680   F   F   F
  0.5000000000021103  0.1249999999871179  0.4070133268666680   F   F   F
  0.5000000000021103  0.3750000000061604  0.4070133268666680   F   F   F
  0.5000000000021103  0.6249999999803961  0.4070133268666680   F   F   F
  0.5000000000021103  0.8749999404036828  0.4070133268666680   F   F   F
  0.8333332538436267  0.1249999999871179  0.4070133268666680   F   F   F
  0.8333332538436267  0.3750000000061604  0.4070133268666680   F   F   F
  0.1666666716383389  0.1249999999871179  0.4070133268666680   F   F   F
  0.0000000000000000  0.3750000000061604  0.4070133268666680   F   F   F
  0.8358303892964472  0.7515758487971524  0.5025408591794402   F   F   F
  0.8369529484319287  0.3725912800103046  0.6044259478603209   F   F   F
  0.8319608690576814  0.8756249526836584  0.6182103304654660   F   F   F
  0.8406125079229767  0.6267290990106673  0.6030117992549648   F   F   F
  0.9988933466930163  0.8747959603061588  0.6218521779324320   F   F   F
  0.3316274254898985  0.1197465454256843  0.6132943229862562   F   F   F
  0.3343618256484433  0.6239852292964088  0.5952684336725582   F   F   F
  0.3260331774069627  0.3734583673931766  0.5933019765616336   F   F   F
  0.6709543114523484  0.3718282737318859  0.5940383072725552   F   F   F
  0.6653677597636971  0.1246027597761952  0.6118927247711028   F   F   F
  0.3343559445731756  0.8787179473375133  0.6029965761448821   F   F   F
  0.1586438554924783  0.6270548228745341  0.6017768417196976   F   F   F
  0.1662212600703299  0.8727295527663301  0.6186997522381006   F   F   F
  0.5013991574497823  0.3714803125506876  0.5950002500728502   F   F   F
  0.5001760592772939  0.1217518984156811  0.6060828980841890   F   F   F
  0.1674786290361681  0.1226519167957889  0.6214791498152437   F   F   F
  0.1640828742014335  0.3713025457296695  0.6080847061663732   F   F   F
  0.6652124114673654  0.8808777859816175  0.6069147655459020   F   F   F
  0.6663092951305600  0.6263520526597404  0.5932852356889242   F   F   F
  0.0002621764666273  0.3749845997105794  0.6225717972160965   F   F   F
  0.9998194489870968  0.6222174041766024  0.6441063972564365   F   F   F
  0.8336626733040191  0.1249958829978013  0.6196984614939183   F   F   F
  0.5003421136100812  0.8764633868429570  0.6095009260714406   F   F   F
  0.0000000000000000  0.1249999999871179  0.4070133268666680   F   F   F
  0.5041287479073446  0.6249272846138041  0.5938190180082401   F   F   F
  0.9161622204086441  0.9998134079270216  0.6036991993385286   F   F   F
  0.5842110205178841  0.7497534943201032  0.5992346572690224   F   F   F
  0.5906528078278583  0.5005890404095084  0.5935092857861335   F   F   F
  0.2424761527194121  0.4980353049252457  0.5941533479890069   F   F   F
  0.2491179859446362  0.7524961159409855  0.5923088220556210   F   F   F
  0.5839143554051489  0.2472444271530918  0.5969646770086285   F   F   F
  0.5825678620470782  0.0009272960959024  0.6043195055045345   F   F   F
  0.2494193314568420  0.9975672200627983  0.6041800457247248   F   F   F
  0.2492846030618594  0.2455162646251097  0.6035186910812271   F   F   F
  0.4170102235815705  0.0000874675260292  0.6046965384949488   F   F   F
  0.4147701465846581  0.2484907304385757  0.5909533113138750   F   F   F
  0.4157745596720090  0.7500230373127295  0.5945845823556937   F   F   F
  0.7566215524676352  0.5025541434201770  0.5954596318411092   F   F   F
  0.7515184490760873  0.7527359717331734  0.5904503868393931   F   F   F
  0.7538548935948910  0.2481150387930455  0.5943071367206585   F   F   F
  0.7495609796275176  0.0016744028975708  0.6041748668706290   F   F   F
  0.0838088054737653  0.2483766674603984  0.6038817481195977   F   F   F
  0.0814171131491008  0.5001534162520329  0.6036130856374697   F   F   F
  0.0800200791762862  0.7507950320957377  0.6031371564450154   F   F   F
  0.0832620759310103  0.9981947061625149  0.6034922644414280   F   F   F