Au O  Sr Ti H 
 1.0000000000000000
    23.6707801818999997    0.0000000000000000    0.0000000000000000
     0.0000000000000000   22.3170261383000010    0.0000000000000000
     0.0000000000000000    0.0000000000000000   30.0000000000000000
 Au  O   Sr  Ti  H  
  50 264  72  72   1
Selective dynamics
Cartesian
 17.0214549260917529 11.7524700605728132 22.6249123499290867   F   F   F
 14.8091885138718329 12.6318729723534293 21.1060772578903304   F   F   F
 17.0283572536437440  5.7805988394149539 20.7552266087117978   F   F   F
  6.8833898043666970 16.6613447246634720 20.9689011781758730   F   F   F
 12.1330459205171355 13.4744614966529355 23.3071185304571458   F   F   F
 13.6448000446717188 16.1662648414084593 23.7707453586552901   F   F   F
 13.0704987527399457  8.5663729021206709 24.8935209208431729   F   F   F
  5.7074163071916448 10.4618892702541384 21.2814413556694220   F   F   F
  6.6645856040959739 14.7640768204198931 22.9851804765851000   F   F   F
 14.2491740290641182  6.3993439695812295 23.6134667018804905   F   F   F
 12.2020128233024412 10.8021531627928127 20.3363607681473404   F   F   F
 13.3068728576521043 10.8404788529214802 22.8743079172092294   F   F   F
 10.9615385239149337 15.5400793721956170 24.8906920892415577   F   F   F
 18.1041147382399998  9.6468527555432573 21.1737845951109556   F   F   F
 17.3706709909421981 13.7476373143198138 20.8154316231556429   F   F   F
 15.0341487048632203 13.0110588671619283 24.0006473832185137   F   F   F
 14.0788339335803361 17.5124790799373500 21.3779836545304143   F   F   F
 11.4583671482156397 17.4204579028042232 22.7118808762867630   F   F   F
  8.2471665277071633 11.2145973424601682 20.9031031845164357   F   F   F
 10.2549512834925700  8.3353545913728890 24.4376794394993482   F   F   F
  8.8601307080271230  6.6394411108771028 22.6919760942433975   F   F   F
 10.4348992219225103  5.0984848009646546 20.9131235699463431   F   F   F
  9.2198815091721240 18.2268370523136234 21.1894558112661038   F   F   F
  6.8682910077626689 11.9937182650122534 23.3263318618395452   F   F   F
 13.1708000960157658  4.6587933336407330 21.3520783578360458   F   F   F
 10.7517749015557733 12.9586614572457641 21.0620588738640890   F   F   F
 14.5512390682911938  7.1188268133234942 20.9137978105492728   F   F   F
 16.6969749740897520 16.8966140600888224 20.6503858984345428   F   F   F
 15.5536405586483539  9.8950663590237777 24.3725433098120874   F   F   F
  8.6933585352656042 13.8312542103868434 24.6144261630048824   F   F   F
 13.4946569336184901 11.3794474280828446 25.6863781059653427   F   F   F
 15.7566968810309334  4.2953754161128197 22.5451194515774596   F   F   F
 11.1803929488455331 10.0515710141387267 26.4145921874440468   F   F   F
 12.2608002650886583  8.4113919479455532 22.0121109427511392   F   F   F
  6.5690208998081809  7.2931260825033251 21.1754272053220021   F   F   F
 15.8502347323385546 15.1868280695615958 22.4791109185185398   F   F   F
  9.4964498945824936  8.5561106383735037 20.7377166733354770   F   F   F
  8.9370862018394686 10.9977422501559392 24.9568243912037069   F   F   F
 10.9310672736253256 12.7883390171701521 25.8854241189093557   F   F   F
  7.7281429398670731  9.2578578377131233 23.0767893125626458   F   F   F
 11.5349447774712175  5.9969750634468557 23.2492999699316556   F   F   F
 10.1138733115696020 15.6166187179448670 20.9599382776814984   F   F   F
 16.5575439446931192  7.7284434922115040 22.6979640115175343   F   F   F
 18.3313310368728608  9.5699175550225881 23.8837675929094750   F   F   F
  6.0673977495166911 13.2430723707412099 20.8423683579774845   F   F   F
 15.3438122157563228  9.8303479981844113 20.8996341083005319   F   F   F
 13.3424608149778798 14.2668886084720690 25.8343070165578830   F   F   F
 12.9393723125260536 14.8182125015315052 21.0506873518519058   F   F   F
 10.4721728401119574 10.5803208077007902 22.6219261437300396   F   F   F
  8.8222748023416653 16.4605008479869426 23.3153538255318402   F   F   F
  5.9164743320022328  4.2107271289608379 13.6292828623366606   F   F   F
 17.7393422615992229 20.9443369342133749 13.6595726061216247   F   F   F
 17.7296970668733600 15.3683693046186001 13.7184093560532325   F   F   F
 17.7398601211903930  9.7827636031158480 13.6756055520446456   F   F   F
 17.7540649319370871  4.2342744619145467 13.6686819304325731   F   F   F
  9.8812789963278167 20.8822439472318457 13.6190314571232030   F   F   F
  9.8709737794517558 15.2777536488806671 13.6399781341302777   F   F   F
  9.8663873398702311  9.7188143153684017 13.6208595318309360   F   F   F
  1.9977983824877916 15.3306358548678592 13.5930682836021504   F   F   F
  1.9856332511002825 20.9040218727587614 13.6040283045509636   F   F   F
  1.9661298202650874  9.7520356056916402 13.5932841688602739   F   F   F
  1.9852369278695636  4.1639413472393993 13.5906141284920352   F   F   F
 21.6953999954844150 18.1218513755333923 13.6224115522611662   F   F   F
 21.6849241837937541 12.5516931033608792 13.6143519028634792   F   F   F
  5.9468654408252579  9.8077691205005095 13.6513563250504948   F   F   F
 21.6860858201490210  1.3868344790949807 13.6231269492957363   F   F   F
 21.6895466222508233  6.9687711116135524 13.6152787469126064   F   F   F
  9.8780091929951368  4.1757451923242570 13.6067574313022490   F   F   F
  5.9760441795597812 15.3384340115581495 13.6823472326107609   F   F   F
 21.7009522836565587 20.9071333659303669 13.5982316147178786   F   F   F
 13.7911295243380145  4.2198555975811489 13.6521093206262520   F   F   F
  0.0033904584142102  2.7939134937200323 14.9530273248897778   F   F   F
 13.8166444410375373 18.0755992265592518 13.6633180654906141   F   F   F
  0.0007364734170431  8.3347203971068886 14.9581003448731202   F   F   F
 23.6663111793266019 13.9918797666681023 14.9304838097988366   F   F   F
  7.8950043388565341  2.8007414371460579 14.9525437079132111   F   F   F
  0.0010296799764847 19.5273447918218785 14.9869122284144130   F   F   F
  7.8942965079499938 19.5006543512250907 14.9652680605052311   F   F   F
 15.7631515215454261  2.8071179816811513 14.9756320596818817   F   F   F
  7.9486969555504849 13.9509462990443733 15.1310233288914606   F   F   F
  7.9145907848432886  8.4464905958712571 15.0906712054470553   F   F   F
 15.7542303477996928  8.4485460915232711 15.0998663149341024   F   F   F
 21.6672867813632912 15.3255559648989745 13.5900966841941031   F   F   F
 21.6855998247412671  9.7528526233419690 13.6100565002723677   F   F   F
 21.6780869951892043  4.1721822121338610 13.5959038075173648   F   F   F
 13.7921479877180637 20.8926851343869160 13.6126921962090570   F   F   F
 13.7951713661786552 15.3096378561562894 13.6369986792937290   F   F   F
 13.7935377114144639  9.7973963850652090 13.6815066858582206   F   F   F
  5.9174418411841829 20.8871004597425554 13.6228128463288556   F   F   F
 15.7508217290299815 13.9678731587446396 15.0881396256867024   F   F   F
 13.8390715762503476 12.5531378189163014 13.6513804918565000   F   F   F
 13.7969527356034352  1.3927767505797632 13.6432350534255455   F   F   F
 21.6982156369999721 15.3429554700000619 10.8156001569999933   F   F   F
 21.6982156369999721  9.7636982699999884 10.8156001569999933   F   F   F
 21.6982156369999721  4.1844424010000720 10.8156001569999933   F   F   F
 13.8079546360000549 20.9222120050000342 10.8156001569999933   F   F   F
 13.8079546360000549 15.3429554700000619 10.8156001569999933   F   F   F
 13.8079546360000549  9.7636982699999884 10.8156001569999933   F   F   F
 13.8079546360000549  4.1844424010000720 10.8156001569999933   F   F   F
  5.9176950450000287 20.9222120050000342 10.8156001569999933   F   F   F
 21.6982156369999721 20.9222120050000342 10.8156001569999933   F   F   F
  5.9176950450000287 15.3429554700000619 10.8156001569999933   F   F   F
  5.9176950450000287  4.1844424010000720 10.8156001569999933   F   F   F
 17.7530837259999217 20.9222120050000342 10.8156001569999933   F   F   F
 17.7530837259999217 15.3429554700000619 10.8156001569999933   F   F   F
 17.7530837259999217  9.7636982699999884 10.8156001569999933   F   F   F
 17.7530837259999217  4.1844424010000720 10.8156001569999933   F   F   F
  9.8628241350000643 20.9222120050000342 10.8156001569999933   F   F   F
  9.8628241350000643 15.3429554700000619 10.8156001569999933   F   F   F
  9.8628241350000643  9.7636982699999884 10.8156001569999933   F   F   F
  5.9176950450000287  9.7636982699999884 10.8156001569999933   F   F   F
  1.9725650740000149  1.3948141340000613 10.8156001569999933   F   F   F
  1.9725650740000149  6.9740706679999214 10.8156001569999933   F   F   F
  1.9725650740000149 12.5533272030000536 10.8156001569999933   F   F   F
 21.6982156369999721  6.9740706679999214 10.8156001569999933   F   F   F
 21.6982156369999721  1.3948141340000613 10.8156001569999933   F   F   F
 13.8079546360000549 18.1325837370000720 10.8156001569999933   F   F   F
 13.8079546360000549 12.5533272030000536 10.8156001569999933   F   F   F
 13.8079546360000549  6.9740706679999214 10.8156001569999933   F   F   F
 13.8079546360000549  1.3948141340000613 10.8156001569999933   F   F   F
  5.9176950450000287 18.1325837370000720 10.8156001569999933   F   F   F
  5.9176950450000287 12.5533272030000536 10.8156001569999933   F   F   F
  5.9176950450000287  6.9740706679999214 10.8156001569999933   F   F   F
  5.9176950450000287  1.3948141340000613 10.8156001569999933   F   F   F
 17.7530837259999217 18.1325837370000720 10.8156001569999933   F   F   F
 17.7530837259999217 12.5533272030000536 10.8156001569999933   F   F   F
 17.7530837259999217  6.9740706679999214 10.8156001569999933   F   F   F
 17.7530837259999217  1.3948141340000613 10.8156001569999933   F   F   F
  9.8628241350000643 18.1325837370000720 10.8156001569999933   F   F   F
  9.8628241350000643 12.5533272030000536 10.8156001569999933   F   F   F
  9.8628241350000643  6.9740706679999214 10.8156001569999933   F   F   F
  9.8628241350000643  1.3948141340000613 10.8156001569999933   F   F   F
  1.9725650740000149 18.1325837370000720 10.8156001569999933   F   F   F
  9.8628241350000643  4.1844424010000720 10.8156001569999933   F   F   F
  1.9725650740000149 20.9222120050000342 10.8156001569999933   F   F   F
  1.9725650740000149 15.3429554700000619 10.8156001569999933   F   F   F
  1.9725650740000149  9.7636982699999884 10.8156001569999933   F   F   F
 19.7256482699999580 11.1585130689999925 12.2103998060000407   F   F   F
 19.7256482699999580 16.7377696039999648 12.2103998060000407   F   F   F
  1.9821625921412906  1.3813622061564486 13.6258550552330391   F   F   F
  1.9753381992328307  6.9631435076665653 13.6204721952268084   F   F   F
  1.9869161865924714 12.5535780419679135 13.6160705298189288   F   F   F
  1.9773682532492467 18.1249612490404850 13.6259768867501680   F   F   F
  9.8682369098323548  1.3733961021283150 13.6601017837998882   F   F   F
  9.8343818539514025  6.9476331636285131 13.7213422017063689   F   F   F
  9.8497232146643459 12.4860072700784190 13.7349258689763669   F   F   F
  9.8623822899584788 18.0715476436356361 13.6545396089655569   F   F   F
 17.7439602699976149  1.4309557321188466 13.5993490233319498   F   F   F
 17.6920539955236080  7.0098324267182441 13.6409013289954686   F   F   F
 17.7095736284316274 12.5922827129812394 13.6120295021856901   F   F   F
 17.7392113596024359 18.1477930165349228 13.5916168160891484   F   F   F
  5.9254012304973136  1.3830448832395879 13.6255428159959067   F   F   F
 21.6657528842221119  6.9742571085650678 16.4014455292388028   F   F   F
  5.9707645947964272  7.0176324299809592 13.6205270928496258   F   F   F
  5.9633836790623604 12.5997079851977354 13.6148034731755878   F   F   F
  5.9221048293908565 18.0864796857696426 13.6656146415647992   F   F   F
 19.7256482699999580  5.5792565349999723 12.2103998060000407   F   F   F
 13.8336267704016294  7.0193728206723272 13.6260425443664914   F   F   F
 19.7256482699999580  0.0000000000000000 12.2103998060000407   F   F   F
 11.8353900909999528 11.1585130689999925 12.2103998060000407   F   F   F
  1.9725650740000149  4.1844424010000720 10.8156001569999933   F   F   F
  0.0000000000000000  0.0000000000000000 12.2103998060000407   F   F   F
  0.0000000000000000  5.5792565349999723 12.2103998060000407   F   F   F
  0.0000000000000000 11.1585130689999925 12.2103998060000407   F   F   F
  0.0000000000000000 16.7377696039999648 12.2103998060000407   F   F   F
  7.8902602960000570  0.0000000000000000 12.2103998060000407   F   F   F
  7.8902602960000570  5.5792565349999723 12.2103998060000407   F   F   F
  7.8902602960000570 11.1585130689999925 12.2103998060000407   F   F   F
  7.8902602960000570 16.7377696039999648 12.2103998060000407   F   F   F
 15.7805205919999434  0.0000000000000000 12.2103998060000407   F   F   F
 15.7805205919999434  5.5792565349999723 12.2103998060000407   F   F   F
 15.7805205919999434 11.1585130689999925 12.2103998060000407   F   F   F
 15.7805205919999434 16.7377696039999648 12.2103998060000407   F   F   F
  3.9451301480000271  0.0000000000000000 12.2103998060000407   F   F   F
  3.9451301480000271  5.5792565349999723 12.2103998060000407   F   F   F
  3.9451301480000271 11.1585130689999925 12.2103998060000407   F   F   F
  3.9451301480000271 16.7377696039999648 12.2103998060000407   F   F   F
 11.8353900909999528  0.0000000000000000 12.2103998060000407   F   F   F
 11.8353900909999528  5.5792565349999723 12.2103998060000407   F   F   F
 11.8353900909999528 16.7377696039999648 12.2103998060000407   F   F   F
  3.9557209793096257  2.7735244820331855 14.9799785922818973   F   F   F
 21.7222719766463861  1.4135635446802455 16.4221608702862731   F   F   F
  3.9715298645069121 19.4875267052234342 14.9982642385605391   F   F   F
  5.9609963505741330  4.1960062817108339 16.4221554819001270   F   F   F
 17.7358965028830937 20.8444998113035886 16.4286325924537806   F   F   F
 17.7947530995011505 15.1846034146295175 16.5902540178925584   F   F   F
 17.8200562722143481  9.6983020189389784 16.4895769886476486   F   F   F
 10.0186965053135140  9.8992029502369814 16.3773710901186007   F   F   F
 10.0195765099261198 15.3543844459801253 16.3969619223715242   F   F   F
 17.7168084164437687  4.0977601257672074 16.5225471308941820   F   F   F
  9.8472898063184999 20.9057353977040812 16.3798572323067262   F   F   F
  1.9792313187508921 20.9547553847323762 16.3710659038042330   F   F   F
  9.8408215718693910  4.2689626767754767 16.3929384575124146   F   F   F
  2.0460624720712492 15.3886553064413931 16.3571608319555502   F   F   F
  1.9601944304307550  9.7868886125990144 16.3587198160578104   F   F   F
  1.9884102342835801  4.2174402056546558 16.3724535508070517   F   F   F
 11.8212014220674000  2.8009137150063763 14.9895668415500083   F   F   F
 23.6659832577956522 11.1284751461155373 17.8415378821621928   F   F   F
 23.6555938245849013 16.8257651440803748 17.7633413701305578   F   F   F
  7.9213027191802921  5.6687691938903928 17.7692400487141100   F   F   F
  7.9056335762513354 22.3133064645698482 17.7607300773104306   F   F   F
 23.6623784447475067 22.2784423447858480 17.7819756109332694   F   F   F
  0.0267146724068451  5.5811993652919325 17.7584168273170135   F   F   F
  7.8943487682873794 11.0932066920585015 17.7235770593951507   F   F   F
  7.9471272429678548 16.5094063698837807 17.7365696557590340   F   F   F
 15.7019253706975483  5.5194542742518138 17.7270860747495860   F   F   F
 15.7599788527606979  0.0085033552901970 17.7563497140168352   F   F   F
 15.7692401030263696 16.5588582435376139 17.6973365304336667   F   F   F
 15.7869959298716260 11.0199751968743236 17.7406712165843707   F   F   F
  3.9614276426650870 22.2814586945501922 17.7677322663479238   F   F   F
  3.9944613419675967  5.5658174828179359 17.8049125556887624   F   F   F
  4.0372340546193577 16.7382283239880891 17.8433207079132465   F   F   F
  5.8784287061257467  9.7258685195434111 16.4879051902577167   F   F   F
  3.9216231997965965 11.2219665268563986 17.6436887596996002   F   F   F
  5.8968736114562148 15.2486047472101145 16.5590391266564225   F   F   F
 13.7459984973592295  4.1547287143942073 16.4748572568806999   F   F   F
 21.6580703524502169 18.1451018538043449 16.4070697659320039   F   F   F
 21.7015860538708516 12.5747595545886668 16.3980761006797700   F   F   F
 13.7640477290642611 12.5035618569528388 16.4836651857280891   F   F   F
 13.8774598601970034 18.1846807965883634 16.5163116374276235   F   F   F
 13.8022329695154440  6.9619171545675034 16.3743906866981987   F   F   F
 13.7907769182365509  1.4125543071193036 16.4083116355442762   F   F   F
  6.0105133072747474 18.1356788506054514 16.5366061212583979   F   F   F
  5.9650855818129846 12.4744046493961296 16.3225709100351608   F   F   F
  5.9052425449443939  7.0001306808697317 16.3778463333988178   F   F   F
  5.9450401338762475  1.3926477425621890 16.4156325444937039   F   F   F
 17.7254222494516043 18.0399498364080202 16.3678255297639730   F   F   F
 17.6695825922757237 12.4455166844688989 16.3375668427019463   F   F   F
  9.7994665934267768 18.1101425249376007 16.4395903109554347   F   F   F
 17.7127425196853245  1.3305332044341542 16.3354006398448561   F   F   F
 17.7044857415699788  6.9459808634822071 16.4387721134136804   F   F   F
  9.8468553190655275  7.1307762305357656 16.5781175778968013   F   F   F
  9.9586780645458433 12.6069720990176251 16.6578448553598157   F   F   F
  9.8586948330173598  1.4557368814862426 16.4187937879919126   F   F   F
  2.0090118474356498 18.1420487000626700 16.4195353781457918   F   F   F
  1.9611933812291220 12.5818781553382095 16.3888131234518504   F   F   F
  2.0524157391985258  6.9955143120230492 16.4143071848168525   F   F   F
  1.9482133735131351  1.4125099787104587 16.4256917499646420   F   F   F
 21.6749466390921590 20.9498120943198103 16.3815345643888151   F   F   F
 21.6165355768819829 15.3859025608080735 16.3499037371165379   F   F   F
 13.8115467043175180 20.9404826943581419 16.3657160825379080   F   F   F
 21.7064618894643502  4.2155320563816554 16.3652661753135327   F   F   F
 21.6758908295187602  9.7618985114624124 16.3762322870326962   F   F   F
 13.6474597882740678  9.7333938895132057 16.5505391035393536   F   F   F
 13.7190615237611411 15.3205448851241641 16.4152367843599336   F   F   F
  5.9571725537292357 20.9171028873219882 16.3593017721762237   F   F   F
 11.7863255366489827 11.2422525991730495 18.2636120423061072   F   F   F
 11.7958234144920606  5.6508881836260860 17.7113841228942874   F   F   F
 11.8255546226935433 -0.0007883014418074 17.7295075271889289   F   F   F
 17.8552202020080060 15.4688443468092895 19.7310805540196910   F   F   F
 17.7163336339956281 20.9038838466743186 19.1976346954420976   F   F   F
  6.0013365237586420  4.1626394679807293 19.2377687115481670   F   F   F
 17.6536065242615656  4.3386185637839487 19.4040184781077620   F   F   F
 17.8985855324517757  9.7378330612339781 19.1791755407461650   F   F   F
  9.8765788289706311 20.8635701924046835 19.1918250760398230   F   F   F
  9.9871490521807367 15.0836242021036639 19.0049870647830943   F   F   F
 13.9936597892243135 18.0741534303587130 19.3802723819530200   F   F   F
 21.6879966730281737  1.3930935140539498 19.2423505432507653   F   F   F
 21.6155263004188676 12.5320704601865618 19.2800733099449246   F   F   F
 21.6647771394103223  6.9646078622372709 19.1865651679657603   F   F   F
 21.6337032080849134 18.1355937484125640 19.2479465395104441   F   F   F
 13.7802293447225761  1.4616172992449232 19.1947957421526105   F   F   F
 13.7871560422637138  7.1294635333711218 19.0288399414375213   F   F   F
 13.9967859049516203 12.5918944515754472 19.1954380795148900   F   F   F
  5.8624785692159840 12.8091468098015895 18.8691183709673886   F   F   F
  6.1947981235590888 17.8260202807520685 19.4021512177965008   F   F   F
  5.9588776067695219  7.0670722328367068 19.2506004956785368   F   F   F
  5.9382490988461667  1.3277759537318881 19.2625110957452357   F   F   F
 21.6982156369999721 12.5533272030000536 10.8156001569999933   F   F   F
 11.8259202889091757  8.3467640480837133 14.9955462345608783   F   F   F
 11.8355898360005547 19.4737743993500807 15.0250339853597303   F   F   F
 11.8479663513277611 13.8580097968184113 15.0011682829771864   F   F   F
 19.7013794216556981 13.9055679324208583 14.9999418188974900   F   F   F
 19.7120406910821799 19.5259748638406485 14.9465987733799146   F   F   F
 19.7081858417110425  8.3285229771764655 14.9847660689408819   F   F   F
 19.7151471844263391  2.7807591664293350 14.9899258873746035   F   F   F
  3.9479641546595845  8.3963420039516947 14.9347929862725604   F   F   F
  3.9707540615329604 13.9335889859202933 14.9979354698622505   F   F   F
 13.7774733151597850  9.7778422125904427 19.3762399246014283   F   F   F
 13.7458626572586535 15.2872648588536002 19.1623172188285729   F   F   F
 21.7079635245887168  4.1700687194866450 19.2195483350289251   F   F   F
 13.7711923593567249 20.8726404701998511 19.1714990463179582   F   F   F
 19.6542775626651149 16.7412405840019645 17.7980143787078973   F   F   F
 19.6846613897440008  5.5338746691461083 17.7454023848110261   F   F   F
 19.7276245148416933 11.2437755257087897 17.6799583805338933   F   F   F
 19.6988361941949250  0.0435711266413514 17.7668174363142874   F   F   F
 11.8704196938325612 16.8823722927880340 17.7898193050190372   F   F   F
  9.8864850141469631  1.4532976753733038 19.1990101556759178   F   F   F
 10.0580869076052597  6.8114269662073008 19.6832890964422766   F   F   F
  9.7641436986876489 18.1378985509855291 19.1837276224231346   F   F   F
  9.4357047940442271 12.2955056659713922 19.5523680319297704   F   F   F
 17.8021167825722806 12.7470080145124989 19.0278125037239221   F   F   F
 17.5403157773458283 18.0752236302041993 19.1990477790616225   F   F   F
 17.6758192412464972  6.9791853163267890 19.2057618515687558   F   F   F
 17.6984129844511919  1.4931697034061218 19.1729400286199585   F   F   F
  1.9896139272149140  6.9633618098657379 19.2207873468558219   F   F   F
 15.7786931193080502 19.5159795723634666 14.9674139661146981   F   F   F
  2.0567339687892625 12.5360896300499558 19.2619642116023151   F   F   F
  1.9772296894731718  1.3510753363119277 19.2432579368260157   F   F   F
  2.0675431952469849  9.7384347789419810 19.1884302898747876   F   F   F
  1.9812819145657827  4.1447891170522162 19.2324673075858250   F   F   F
  9.9104105188651985  4.1969658990722127 19.1975713312579934   F   F   F
  9.7890590818912031  9.3480310547599412 18.8912738646395439   F   F   F
  1.9944317372577305 20.8732784439482550 19.2252825068098332   F   F   F
  1.9624264298133927 15.3371668646751349 19.1969776170353192   F   F   F
 21.5997146504829516  9.7335670023564376 19.1924128925807871   F   F   F
 21.6992781871068239 15.3413362435438074 19.1957139868097535   F   F   F
 21.6375522651388295 20.9039308554522236 19.2265936700474924   F   F   F
  5.7085023858931754  9.8707882508312998 19.2694888302981795   F   F   F
  5.9899451415159772 15.1225622785518237 19.9135556388078747   F   F   F
 13.6885644141627640  4.2520170115831011 19.3234567925572343   F   F   F
  5.9642613608600152 20.7596201425347928 19.1249872044041993   F   F   F
  1.9868834295035116 18.1181568999500975 19.2563549934726304   F   F   F
 21.6982156369999721 18.1325837370000720 10.8156001569999933   F   F   F
  0.0133583363372679  2.7451327901439373 18.5694305329766181   F   F   F
 19.7256482699999580 13.9481413360000008 12.2103998060000407   F   F   F
 23.6632701697967001 11.1693015827005535 15.2178601845443033   F   F   F
  7.8378815554120376 11.1423222050816850 15.0300650276017560   F   F   F
  7.8113673770427789  5.5329557281297097 15.0835326509548135   F   F   F
  7.8864953300173850  0.0227404249838567 15.1734354496499986   F   F   F
  7.8981886412106750 16.7582518723957428 15.0501242126316654   F   F   F
 15.7619253502814729  0.0043625140589131 15.1668237030543160   F   F   F
 15.8277220790793773 11.1511486634933057 15.0203074463719517   F   F   F
 15.7908724823113555  5.5283597732487788 15.0917719650761502   F   F   F
 15.7536435167331241 16.7804932257175636 15.0612483923883005   F   F   F
  3.9285987978859565  0.0248763385906032 15.1954167121317933   F   F   F
  3.9396780837966010  5.5409388335509853 15.1910566670588700   F   F   F
  3.8694769825442266 11.1551158931393584 15.0694491951711651   F   F   F
 11.8395088882059962 22.3016654114470896 15.1640338211956127   F   F   F
  3.8888079063935042 16.7679216412349383 15.1021678143988094   F   F   F
 11.8561925941507820 16.7990793434160857 15.1191711252275116   F   F   F
 19.7462565613027650  0.0103154394520593 15.1934697563986489   F   F   F
 11.8634737308544445 11.1519048397474076 15.0085220207027668   F   F   F
 11.8611136183030226  5.5298630297394746 15.0595954223244313   F   F   F
 19.7744782406414217  5.5433015440293483 15.0994107342189192   F   F   F
 23.6635403012646499 16.7521749663374706 15.1962775884666641   F   F   F
  0.0220052498280112  5.5754022493295627 15.1786055659297876   F   F   F
  0.0004985082691293  0.0003281628890169 15.1932348918171947   F   F   F
 19.7256482699999580 19.5273965409999306 12.2103998060000407   F   F   F
  0.0000000000000000 13.9481413360000008 12.2103998060000407   F   F   F
  0.0000000000000000 19.5273965409999306 12.2103998060000407   F   F   F
  7.8902602960000570  2.7896282670000101 12.2103998060000407   F   F   F
  7.8902602960000570  8.3688848019999824 12.2103998060000407   F   F   F
  7.8902602960000570 13.9481413360000008 12.2103998060000407   F   F   F
  7.8902602960000570 19.5273965409999306 12.2103998060000407   F   F   F
 15.7805205919999434  2.7896282670000101 12.2103998060000407   F   F   F
 15.7805205919999434  8.3688848019999824 12.2103998060000407   F   F   F
 15.7805205919999434 13.9481413360000008 12.2103998060000407   F   F   F
 19.7918330270484297 11.1556958084682485 15.0900773364162806   F   F   F
 15.7805205919999434 19.5273965409999306 12.2103998060000407   F   F   F
  3.9451301480000271  8.3688848019999824 12.2103998060000407   F   F   F
  3.9451301480000271 13.9481413360000008 12.2103998060000407   F   F   F
  3.9451301480000271 19.5273965409999306 12.2103998060000407   F   F   F
 11.8353900909999528  2.7896282670000101 12.2103998060000407   F   F   F
 11.8353900909999528  8.3688848019999824 12.2103998060000407   F   F   F
 11.8353900909999528 13.9481413360000008 12.2103998060000407   F   F   F
 11.8353900909999528 19.5273965409999306 12.2103998060000407   F   F   F
 19.7256482699999580  2.7896282670000101 12.2103998060000407   F   F   F
 19.7256482699999580  8.3688848019999824 12.2103998060000407   F   F   F
  3.9451301480000271  2.7896282670000101 12.2103998060000407   F   F   F
  0.0000000000000000  8.3688848019999824 12.2103998060000407   F   F   F
 19.7847574143880571 16.7729378625211041 15.0762257753832003   F   F   F
 19.8113292649251953  8.3151293348926298 18.1327784358097333   F   F   F
 19.6931628514068962 19.5413449563889650 18.5463099139640555   F   F   F
 19.8979538932003912 13.9867296842542945 18.0903539776488564   F   F   F
 23.6445848347328109 19.5228443118317792 18.6555653379729769   F   F   F
  7.8498798910607341  2.6723867842361138 18.3988296895876609   F   F   F
  7.9146052761431189 13.9254946721209993 17.8580530101768353   F   F   F
  7.7174596744065926  8.3344801466803702 17.7990592968489736   F   F   F
 15.8820120184865701  8.2981013038334730 17.8211492181767674   F   F   F
 15.7497739814897617  2.7807630468296285 18.3567817431330980   F   F   F
  7.9144660665031319 19.6103713989246806 18.0898972843465202   F   F   F
  3.7552238305715719 13.9939988722381337 18.0533052515910200   F   F   F
  3.9345869086832321 19.4767282407531148 18.5609925671430460   F   F   F
 11.8685092393836289  8.2903358450575606 17.8500075021854379   F   F   F
 11.8395575514018905  2.7171402993303770 18.1824869425257525   F   F   F
  3.9643498130810504  2.7372260330442710 18.6443744944572600   F   F   F
  3.8839696468364990  8.2863686182663727 18.2425411849912678   F   F   F
 15.7460967661155617 19.6585725743995177 18.2074429663770090   F   F   F
 15.7720608581922210 13.9783151309853633 17.7985570706677159   F   F   F
  0.0062059215103334  8.3685411132009566 18.6771539164828084   F   F   F
 23.6665063985620172 13.8860420727144280 19.3231919176930020   F   F   F
 19.7334458856345414  2.7895363880417801 18.5909538448176228   F   F   F
 11.8434881870115145 19.5600563134372898 18.2850277821431924   F   F   F
  0.0000000000000000  2.7896282670000101 12.2103998060000407   F   F   F
 11.9331207750913126 13.9465185452630998 17.8145705402472672   F   F   F
 21.6862745302544440 22.3128619581301244 18.1109759801558887   F   F   F
 13.8287306465222333 16.7322683300234871 17.9770397180707704   F   F   F
 13.9812127779153297 11.1716586993655067 17.8052785735840331   F   F   F
  5.7395997103739447 11.1146669178128601 17.8246004396701387   F   F   F
  5.8968170846531045 16.7934754884241961 17.7692646616686822   F   F   F
 13.8217083518511750  5.5177603433245173 17.9089403102587603   F   F   F
 13.7898358035558317  0.0206944912102041 18.1295851651359889   F   F   F
  5.9039501680313107 22.2627337248526800 18.1254013717417166   F   F   F
  5.9007610418094600  5.4791928950162747 18.1055607324367820   F   F   F
  9.8709573360042757  0.0019520150645769 18.1408961548483738   F   F   F
  9.8179329658198586  5.5455741263229559 17.7285993394163377   F   F   F
  9.8417082072223980 16.7382837280354089 17.8375374706708811   F   F   F
 17.9098224493492530 11.2155139546190696 17.8637889552332432   F   F   F
 17.7890280107224363 16.7988283564078458 17.7135116051817931   F   F   F
 17.8443334753343485  5.5371898060497733 17.8292141016198045   F   F   F
 17.7426931816925304  0.0373676932311484 18.1252460061188252   F   F   F
  1.9838198116771819  5.5430285798575136 18.1164524435878320   F   F   F
  1.9272065883972356 11.1619368636566474 18.1083925691240033   F   F   F
  1.8941377043200238 16.7555123557863759 18.0941146933505479   F   F   F
  1.9708782968516589 22.2767373485414737 18.1047679332428189   F   F   F