Au  O Sr Ti  H                          
   1.00000000000000     
    23.6707801818999997    0.0000000000000000    0.0000000000000000
     0.0000000000000000   22.3170261383000010    0.0000000000000000
     0.0000000000000000    0.0000000000000000   30.0000000000000000
   Au   O    Sr   Ti   H 
    50   264    72    72     1
Selective dynamics
Direct
  0.7173967417577374  0.5261755736141823  0.7538708991620893   T   T   T
  0.6236705066890221  0.5686724211724318  0.7040475906599639   T   T   T
  0.7187245190566699  0.2594649638961412  0.6917619389261728   T   T   T
  0.2936030172378375  0.7462685186965400  0.6975322598170292   T   T   T
  0.5118195544837865  0.6034912855899242  0.7767489242639500   T   T   T
  0.5770660495096730  0.7243321217484622  0.7927660100540326   T   T   T
  0.5498595178088181  0.3844816276559064  0.8294352570780442   T   T   T
  0.2407283250023951  0.4686640479263848  0.7090945632561496   T   T   T
  0.2842409310837700  0.6615466100488933  0.7650746359402376   T   T   T
  0.6026325158098802  0.2894814735670609  0.7874429014959844   T   T   T
  0.5144414851318271  0.4839282966559898  0.6780197254140550   T   T   T
  0.5624989830280817  0.4861641034311915  0.7624593153250614   T   T   T
  0.4633975025614254  0.6952847132667256  0.8301888957107159   T   T   T
  0.7649834520539788  0.4322685362696733  0.7056861118391005   T   T   T
  0.7334091572869400  0.6157077293034783  0.6938848617255632   T   T   T
  0.6349121140985867  0.5839807563649714  0.8000788789499190   T   T   T
  0.5950150566555773  0.7844604212524460  0.7128634958666076   T   T   T
  0.4847300592679381  0.7790301735793586  0.7568651972768963   T   T   T
  0.3491298733985981  0.5004229809579394  0.6974442951640405   T   T   T
  0.4307154031494108  0.3722200781050562  0.8153609086696856   T   T   T
  0.3726508646070432  0.2987939309290591  0.7553213194116007   T   T   T
  0.4415812630982553  0.2284245035650282  0.6969100847560996   T   T   T
  0.3912724859229087  0.8172784379961113  0.7064407739640428   T   T   T
  0.2898390049788108  0.5371162411513994  0.7775550524503050   T   T   T
  0.5563639876462919  0.2096943457110355  0.7116287675972772   T   T   T
  0.4526607351388213  0.5799783055353924  0.7024595074002374   T   T   T
  0.6140907719347447  0.3206575494921743  0.6973262855188529   T   T   T
  0.7055852978777010  0.7574561866395817  0.6883194728268003   T   T   T
  0.6559490231629616  0.4413014991786155  0.8126414212967807   T   T   T
  0.3682858898562074  0.6187757820763294  0.8202111686341932   T   T   T
  0.5700900915517659  0.5099800679527537  0.8567730380361829   T   T   T
  0.6649029947740609  0.1942720393254124  0.7523707709049580   T   T   T
  0.4716686296191341  0.4504243670648477  0.8795039229174094   T   T   T
  0.5161759875680468  0.3773595732626155  0.7340422000562905   T   T   T
  0.2834325157116305  0.3379297410055268  0.7026414278321192   T   T   T
  0.6694825183430373  0.6811679789690125  0.7488267296821512   T   T   T
  0.3976941648302960  0.3820094626503657  0.6900641852613464   T   T   T
  0.3758348724138090  0.4927536131407778  0.8331749194792704   T   T   T
  0.4626253580053325  0.5733473530636046  0.8640066686448389   T   T   T
  0.3264403393003723  0.4141864573728489  0.7692233081757974   T   T   T
  0.4874111393734205  0.2685832647736022  0.7752308526481213   T   T   T
  0.4227054173589982  0.6979577378184018  0.6993279088424924   T   T   T
  0.7001407649803463  0.3471055401374063  0.7560782999468844   T   T   T
  0.7739938434968550  0.4300650154722044  0.7961730457248573   T   T   T
  0.2567356681543442  0.5925987507888523  0.6946094646307736   T   T   T
  0.6479224349495536  0.4428715365304473  0.6967655137689260   T   T   T
  0.5645111376564170  0.6394316097931567  0.8610178870329286   T   T   T
  0.5435629847265975  0.6654669535839722  0.7014144469824812   T   T   T
  0.4429197783320364  0.4746557566256757  0.7559519369832322   T   T   T
  0.3736909980777521  0.7385460059667509  0.7781064097189961   T   T   T
  0.2495638004018433  0.1884534266880587  0.4541233267345800   T   T   T
  0.7494475465839174  0.9384409186618025  0.4553295778967186   T   T   T
  0.7491058479872764  0.6888129984017307  0.4572513393725503   T   T   T
  0.7490627072441864  0.4386650645078662  0.4558137427212330   T   T   T
  0.7500129335388223  0.1896804079861770  0.4554930589765623   T   T   T
  0.4170928444540156  0.9358242998952926  0.4540476776004764   T   T   T
  0.4170656452773952  0.6846887375778884  0.4546836250696885   T   T   T
  0.4164576921339879  0.4354107071751701  0.4538157106792724   T   T   T
  0.0844267430274501  0.6870764172351733  0.4531652563734340   T   T   T
  0.0837537228826471  0.9360142449252472  0.4529973698992288   T   T   T
  0.0825677959835044  0.4366169887866608  0.4527385663762926   T   T   T
  0.0839849992762836  0.1863087206357611  0.4527046599009710   T   T   T
  0.9166951095320450  0.8121387930900678  0.4540578585913714   T   T   T
  0.9161705732063248  0.5624387759507318  0.4538354491768763   T   T   T
  0.2511693253537055  0.4392589401382917  0.4549044340289489   T   T   T
  0.9161508690119572  0.0624369224762045  0.4538056032517229   T   T   T
  0.9162882852998274  0.3122447185289537  0.4536979919002135   T   T   T
  0.4170771249319318  0.1871178011981963  0.4535398054541590   T   T   T
  0.2522390288808492  0.6875129352228329  0.4559882888472332   T   T   T
  0.9166389434467089  0.9371794288703855  0.4536093585148290   T   T   T
  0.5827382094785565  0.1894065087235763  0.4551747012595925   T   T   T
  0.0002559945975706  0.1248929818120806  0.4984793417743240   T   T   T
  0.5835814021872301  0.8102060111630165  0.4554999776855070   T   T   T
  0.9997626310139096  0.3731888183326214  0.4985593577485206   T   T   T
  0.9998586770483912  0.6270849204658835  0.4976862230652715   T   T   T
  0.3333128363573886  0.1252420290627742  0.4981315178142158   T   T   T
  0.0001321040547809  0.8751619880421034  0.4997894775012652   T   T   T
  0.3333158593063567  0.8739427516679765  0.4995820504234405   T   T   T
  0.6657637019756151  0.1256359702573379  0.4990278844725675   T   T   T
  0.3356955588525783  0.6255061519523525  0.5039654828059811   T   T   T
  0.3343614094861946  0.3784837942660063  0.5030049860757585   T   T   T
  0.6655201190577817  0.3784707937978896  0.5033109339602979   T   T   T
  0.9153711050117951  0.6867904513971962  0.4530572194847624   T   T   T
  0.9162245576927130  0.4372391182409186  0.4536715723377546   T   T   T
  0.9159010681993648  0.1868507517844004  0.4531976155461050   T   T   T
  0.5830534995470963  0.9364026021156592  0.4539025722553783   T   T   T
  0.5827840377448065  0.6860409060606781  0.4545246155953103   T   T   T
  0.5827488387265575  0.4392206713662330  0.4560221998035104   T   T   T
  0.2500581708597581  0.9360262440368653  0.4540620034609759   T   T   T
  0.6654447709735405  0.6260921311030683  0.5029492938350921   T   T   T
  0.5845965463972932  0.5626170629864552  0.4549635741593658   T   T   T
  0.5827861995309069  0.0626493376603066  0.4546330908908727   T   T   T
  0.9166666865332829  0.6874999999963620  0.3605200052333331   F   F   F
  0.9166666865332829  0.4374999701794380  0.3605200052333331   F   F   F
  0.9166666865332829  0.1875000000030838  0.3605200052333331   F   F   F
  0.5833333134730552  0.9375000000154046  0.3605200052333331   F   F   F
  0.5833333134730552  0.6874999999963620  0.3605200052333331   F   F   F
  0.5833333134730552  0.4374999701794380  0.3605200052333331   F   F   F
  0.5833333134730552  0.1875000000030838  0.3605200052333331   F   F   F
  0.2499999999799343  0.9375000000154046  0.3605200052333331   F   F   F
  0.9166666865332829  0.9375000000154046  0.3605200052333331   F   F   F
  0.2499999999799343  0.6874999999963620  0.3605200052333331   F   F   F
  0.2499999999799343  0.1875000000030838  0.3605200052333331   F   F   F
  0.7499999404149307  0.9375000000154046  0.3605200052333331   F   F   F
  0.7499999404149307  0.6874999999963620  0.3605200052333331   F   F   F
  0.7499999404149307  0.4374999701794380  0.3605200052333331   F   F   F
  0.7499999404149307  0.1875000000030838  0.3605200052333331   F   F   F
  0.4166666269218169  0.9375000000154046  0.3605200052333331   F   F   F
  0.4166666269218169  0.6874999999963620  0.3605200052333331   F   F   F
  0.4166666269218169  0.4374999701794380  0.3605200052333331   F   F   F
  0.2499999999799343  0.4374999701794380  0.3605200052333331   F   F   F
  0.0833333358191695  0.0625000000159659  0.3605200052333331   F   F   F
  0.0833333358191695  0.3124999999901945  0.3605200052333331   F   F   F
  0.0833333358191695  0.5625000000092442  0.3605200052333331   F   F   F
  0.9166666865332829  0.3124999999901945  0.3605200052333331   F   F   F
  0.9166666865332829  0.0625000000159659  0.3605200052333331   F   F   F
  0.5833333134730552  0.8124999999834799  0.3605200052333331   F   F   F
  0.5833333134730552  0.5625000000092442  0.3605200052333331   F   F   F
  0.5833333134730552  0.3124999999901945  0.3605200052333331   F   F   F
  0.5833333134730552  0.0625000000159659  0.3605200052333331   F   F   F
  0.2499999999799343  0.8124999999834799  0.3605200052333331   F   F   F
  0.2499999999799343  0.5625000000092442  0.3605200052333331   F   F   F
  0.2499999999799343  0.3124999999901945  0.3605200052333331   F   F   F
  0.2499999999799343  0.0625000000159659  0.3605200052333331   F   F   F
  0.7499999404149307  0.8124999999834799  0.3605200052333331   F   F   F
  0.7499999404149307  0.5625000000092442  0.3605200052333331   F   F   F
  0.7499999404149307  0.3124999999901945  0.3605200052333331   F   F   F
  0.7499999404149307  0.0625000000159659  0.3605200052333331   F   F   F
  0.4166666269218169  0.8124999999834799  0.3605200052333331   F   F   F
  0.4166666269218169  0.5625000000092442  0.3605200052333331   F   F   F
  0.4166666269218169  0.3124999999901945  0.3605200052333331   F   F   F
  0.4166666269218169  0.0625000000159659  0.3605200052333331   F   F   F
  0.0833333358191695  0.8124999999834799  0.3605200052333331   F   F   F
  0.4166666269218169  0.1875000000030838  0.3605200052333331   F   F   F
  0.0833333358191695  0.9375000000154046  0.3605200052333331   F   F   F
  0.0833333358191695  0.6874999999963620  0.3605200052333331   F   F   F
  0.0833333358191695  0.4374999701794380  0.3605200052333331   F   F   F
  0.8333332538436267  0.4999999999932783  0.4070133268666680   F   F   F
  0.8333332538436267  0.7500000000123208  0.4070133268666680   F   F   F
  0.0834120795635988  0.0607001701861257  0.4550568592268238   T   T   T
  0.0834301140461915  0.3119204210008069  0.4541069583841747   T   T   T
  0.0839273107986020  0.5625069187897526  0.4539029933090913   T   T   T
  0.0833713209309837  0.8124025095866607  0.4543432690143099   T   T   T
  0.4169730257386763  0.0615651488535718  0.4553262458270508   T   T   T
  0.4154933272875727  0.3113101217244616  0.4573625648744656   T   T   T
  0.4160588004714371  0.5595135599188239  0.4578672381254335   T   T   T
  0.4163147011866024  0.8099114705988222  0.4552249196312584   T   T   T
  0.7495302625982951  0.0640511813882585  0.4533695727034213   T   T   T
  0.7473359734171249  0.3140919158057351  0.4545899019941442   T   T   T
  0.7481690524214328  0.5644716061487681  0.4535997372220549   T   T   T
  0.7489490617304273  0.8133486016248637  0.4529534859113403   T   T   T
  0.2496310375683439  0.0619154458813683  0.4542662540393843   T   T   T
  0.9132956669671125  0.3127167730736469  0.5465699078786063   T   T   T
  0.2522773482735978  0.3141288288755442  0.4541625527159525   T   T   T
  0.2519233061983103  0.5645867139728608  0.4537761161176243   T   T   T
  0.2506504827916265  0.8107363970693426  0.4554330230142574   T   T   T
  0.8333332538436267  0.2500000000190425  0.4070133268666680   F   F   F
  0.5841862171722020  0.3147978711493430  0.4540260419552356   T   T   T
  0.8333332538436267  0.0000000000000000  0.4070133268666680   F   F   F
  0.5000000000021103  0.4999999999932783  0.4070133268666680   F   F   F
  0.0833333358191695  0.1875000000030838  0.3605200052333331   F   F   F
  0.0000000000000000  0.0000000000000000  0.4070133268666680   F   F   F
  0.0000000000000000  0.2500000000190425  0.4070133268666680   F   F   F
  0.0000000000000000  0.4999999999932783  0.4070133268666680   F   F   F
  0.0000000000000000  0.7500000000123208  0.4070133268666680   F   F   F
  0.3333333432766779  0.0000000000000000  0.4070133268666680   F   F   F
  0.3333333432766779  0.2500000000190425  0.4070133268666680   F   F   F
  0.3333333432766779  0.4999999999932783  0.4070133268666680   F   F   F
  0.3333333432766779  0.7500000000123208  0.4070133268666680   F   F   F
  0.6666666865533486  0.0000000000000000  0.4070133268666680   F   F   F
  0.6666666865533486  0.2500000000190425  0.4070133268666680   F   F   F
  0.6666666865533486  0.4999999999932783  0.4070133268666680   F   F   F
  0.6666666865533486  0.7500000000123208  0.4070133268666680   F   F   F
  0.1666666716383389  0.0000000000000000  0.4070133268666680   F   F   F
  0.1666666716383389  0.2500000000190425  0.4070133268666680   F   F   F
  0.1666666716383389  0.4999999999932783  0.4070133268666680   F   F   F
  0.1666666716383389  0.7500000000123208  0.4070133268666680   F   F   F
  0.5000000000021103  0.0000000000000000  0.4070133268666680   F   F   F
  0.5000000000021103  0.2500000000190425  0.4070133268666680   F   F   F
  0.5000000000021103  0.7500000000123208  0.4070133268666680   F   F   F
  0.1667138653881364  0.1247877457954950  0.4999196175007631   T   T   T
  0.9180723516235528  0.0627512588339373  0.5465128838055586   T   T   T
  0.1677178885761786  0.8730818808078403  0.4997262142857184   T   T   T
  0.2517569733434909  0.1882774838796983  0.5470828995592815   T   T   T
  0.7499662033472148  0.9343174189963560  0.5476118389009828   T   T   T
  0.7518740228956964  0.6805373117224156  0.5531051299758329   T   T   T
  0.7526658952985998  0.4346572425139351  0.5493560490422497   T   T   T
  0.4231490339742669  0.4438586401128846  0.5454977997034519   T   T   T
  0.4232358393264927  0.6880724143045688  0.5466093682307759   T   T   T
  0.7471202494221669  0.1839849896605986  0.5503808732513618   T   T   T
  0.4158977935732550  0.9371490182232237  0.5461055136748678   T   T   T
  0.0845594410779706  0.9398768040854691  0.5449233551951954   T   T   T
  0.4154079460294374  0.1913290406033265  0.5463901767525600   T   T   T
  0.0866066539102777  0.6897297899834139  0.5451022742457149   T   T   T
  0.0823273406760107  0.4393796784074442  0.5447941674417536   T   T   T
  0.0824929523582831  0.1907239650886746  0.5446882871060463   T   T   T
  0.4993583735258720  0.1255380983734936  0.4996562911591508   T   T   T
  0.9993673830887551  0.5014813124990904  0.5944530802740114   T   T   T
  0.9994086747101882  0.7532691093252659  0.5922432244225598   T   T   T
  0.3345942193912325  0.2543822513332553  0.5927938009095085   T   T   T
  0.3332693055400175  0.0000551877955179  0.5921226963598158   T   T   T
  0.0009339606035070  0.9969289128342023  0.5912368644219315   T   T   T
  0.0001301514509269  0.2527657474900797  0.5915791285099089   T   T   T
  0.3333363659166158  0.4965267943609926  0.5907058683028441   T   T   T
  0.3355710546118124  0.7402617699995198  0.5904926762204861   T   T   T
  0.6633373418087003  0.2479959992018622  0.5906282665776640   T   T   T
  0.6658957355084162  0.0003357328431605  0.5919436618661721   T   T   T
  0.6659338578713752  0.7420114843526828  0.5899918170172452   T   T   T
  0.6670094824929275  0.4939298718418077  0.5910859500444867   T   T   T
  0.1659556572443632 -0.0000607353006212  0.5920890476322257   T   T   T
  0.1681764725828414  0.2493792957460622  0.5929447225424216   T   T   T
  0.1708982178831958  0.7495441729129810  0.5951961982194758   T   T   T
  0.2485091929318600  0.4359646181042683  0.5489924857291310   T   T   T
  0.1655177381143826  0.5026059048358127  0.5874886727654608   T   T   T
  0.2490153398218490  0.6832366277096217  0.5518107488270604   T   T   T
  0.5809500292098516  0.1860226608573794  0.5493451063391932   T   T   T
  0.9154867318340255  0.8129713756067071  0.5468781379279245   T   T   T
  0.9167319534439903  0.5635504369380231  0.5465427907875953   T   T   T
  0.5813428798976713  0.5603070443936373  0.5491904669840439   T   T   T
  0.5858953854938678  0.8149829870919129  0.5505641497901214   T   T   T
  0.5827658370260083  0.3117764924434407  0.5454621135468773   T   T   T
  0.5825429249779573  0.0633135207173002  0.5469524462372449   T   T   T
  0.2529915015234281  0.8128724576717088  0.5513613202104688   T   T   T
  0.2522771779132307  0.5590016968363214  0.5438285372531099   T   T   T
  0.2493707203357222  0.3137652801641598  0.5460018867780846   T   T   T
  0.2506617865119464  0.0626812930106864  0.5472543314480318   T   T   T
  0.7484730592987425  0.8083142593982068  0.5456668563961413   T   T   T
  0.7464475838625348  0.5579332822123350  0.5444268485348828   T   T   T
  0.4143880488299784  0.8117411632422270  0.5479438212763365   T   T   T
  0.7483266871290014  0.0598161537698868  0.5446522757290240   T   T   T
  0.7487526758906983  0.3113630487719403  0.5478420262719678   T   T   T
  0.4159768457513771  0.3196087306676593  0.5525862350944470   T   T   T
  0.4203871025904002  0.5650757709490261  0.5553556264882133   T   T   T
  0.4163267539124269  0.0652271328040641  0.5472345454507922   T   T   T
  0.0851814975954020  0.8134617884126195  0.5476893922487472   T   T   T
  0.0826580032100720  0.5643728809716131  0.5463524674654225   T   T   T
  0.0866649495755835  0.3144441469774535  0.5472467544329032   T   T   T
  0.0824974355978862  0.0667581706542142  0.5503771119503821   T   T   T
  0.9144033598647339  0.9383528272534226  0.5461151672103076   T   T   T
  0.9132160541578954  0.6893445147935925  0.5449824707926447   T   T   T
  0.5832014028840288  0.9387301983205196  0.5456260952542281   T   T   T
  0.9181118717624949  0.1885327157534405  0.5453297739222430   T   T   T
  0.9158377244409398  0.4375273773990964  0.5458328519725685   T   T   T
  0.5765918717316725  0.4362086649178913  0.5517005080600320   T   T   T
  0.5795462853408824  0.6864848490409563  0.5471368907387018   T   T   T
  0.2508349488619955  0.9376202492685239  0.5450556258700812   T   T   T
  0.4976500810513069  0.5044971992715879  0.6089894150851548   T   T   T
  0.4986107278508953  0.2527946424263995  0.5902606448611742   T   T   T
  0.4993265447436578  0.0000026368301253  0.5913109486459871   T   T   T
  0.7539359205076337  0.6933929622100716  0.6573460467056218   T   T   T
  0.7487350446954196  0.9366635946703039  0.6397932251582199   T   T   T
  0.2523847494958578  0.1858724852049019  0.6406951346471906   T   T   T
  0.7454540016169687  0.1942961255243824  0.6468828188376208   T   T   T
  0.7555730155366946  0.4365132277532105  0.6391188479270274   T   T   T
  0.4167059710134139  0.9352312707757284  0.6397633015680859   T   T   T
  0.4213878489246451  0.6761741453287282  0.6335671198861749   T   T   T
  0.5910525684653679  0.8101298182766378  0.6460712364136094   T   T   T
  0.9195727402608112  0.0632654547516737  0.6400751249507595   T   T   T
  0.9121898717998738  0.5616678759420205  0.6424722734644763   T   T   T
  0.9132107861959219  0.3118227921941288  0.6396695360257008   T   T   T
  0.9138499145200184  0.8129510081630659  0.6415379845799936   T   T   T
  0.5821563848777084  0.0655258217584770  0.6398508725290972   T   T   T
  0.5829503981533312  0.3201197049433651  0.6340120991414079   T   T   T
  0.5917454028999396  0.5648481527123699  0.6394145438725690   T   T   T
  0.2476261473841740  0.5737551525314784  0.6287117399584440   T   T   T
  0.2621899095158732  0.7988655931117281  0.6466529414948866   T   T   T
  0.2491577648790394  0.3160761129662139  0.6416450828090902   T   T   T
  0.2488412203995182  0.0595835063887351  0.6419944525493062   T   T   T
  0.9166666865332829  0.5625000000092442  0.3605200052333331   F   F   F
  0.4995080813322516  0.3741752257916239  0.4997390945311084   T   T   T
  0.4998995434593324  0.8733138525921185  0.5008106037348796   T   T   T
  0.5003983519968336  0.6211140163939802  0.4999944318674440   T   T   T
  0.8323200272463338  0.6230429167312621  0.4999613820915081   T   T   T
  0.8325449248744685  0.8738557209659628  0.4981249180613136   T   T   T
  0.8325855908400360  0.3739354261721156  0.4985026540191378   T   T   T
  0.8327744978376932  0.1249199381961138  0.4996472909767811   T   T   T
  0.1667204869926288  0.3763063039584372  0.4977586779992575   T   T   T
  0.1677417066944688  0.6243428683756990  0.4998743231081717   T   T   T
  0.5815619217792284  0.4390026501927324  0.6459818452708871   T   T   T
  0.5802271772290074  0.6853021652877603  0.6389726469877317   T   T   T
  0.9180240458410940  0.1860191361410735  0.6396223871750734   T   T   T
  0.5817372550167000  0.9353179413895486  0.6390728869755010   T   T   T
  0.8304825589116136  0.7508387681070197  0.5928660027068993   T   T   T
  0.8312344935202961  0.2459852484615253  0.5912191289054941   T   T   T
  0.8330574155595746  0.5037352085605089  0.5890215889455148   T   T   T
  0.8326853585615011  0.0033190933285015  0.5929511862298819   T   T   T
  0.5011693812630102  0.7564144853743503  0.5930907442478003   T   T   T
  0.4175165117804574  0.0652235966247538  0.6400281196966364   T   T   T
  0.4269583614746215  0.3049475807213265  0.6548062242763004   T   T   T
  0.4118209419049764  0.8130000161260872  0.6392882631757330   T   T   T
  0.3973559957661645  0.5508582312167165  0.6517899838603664   T   T   T
  0.7520008088508622  0.5710783460902932  0.6342708299570300   T   T   T
  0.7410588927355093  0.8100350996793512  0.6399508350092475   T   T   T
  0.7469311760126883  0.3125746360864066  0.6399286629333261   T   T   T
  0.7474377111021455  0.0667490292158445  0.6396807574595735   T   T   T
  0.0835975446246146  0.3127153410600843  0.6409494695352572   T   T   T
  0.6665401474267866  0.8748597485271083  0.4995245352227606   T   T   T
  0.0874417422952021  0.5615490764867292  0.6415856886652410   T   T   T
  0.0816454497148669  0.0598691108909161  0.6458854980522410   T   T   T
  0.0861410392003236  0.4365836791968719  0.6390252670410761   T   T   T
  0.0829309535922634  0.1858369478855912  0.6389897555429637   T   T   T
  0.4184427562678437  0.1878472119192464  0.6398520883294079   T   T   T
  0.4150211471922916  0.4192127558928916  0.6297985144228997   T   T   T
  0.0843185800308252  0.9350115153118944  0.6395498447978586   T   T   T
  0.0830455216021318  0.6859636445388111  0.6395615632933224   T   T   T
  0.9125738234726132  0.4363427883503007  0.6395325473648052   T   T   T
  0.9161206287380071  0.6873050186876642  0.6394172216193328   T   T   T
  0.9156418813894154  0.9372505578893935  0.6405615683157158   T   T   T
  0.2407899204331896  0.4419665275634410  0.6414851021008816   T   T   T
  0.2546530522997140  0.6774087455119369  0.6635575723226229   T   T   T
  0.5787038735222440  0.1908108855947081  0.6442399981902758   T   T   T
  0.2500849599016419  0.9300205608215584  0.6367397827321779   T   T   T
  0.0839614280973115  0.8108169918786685  0.6420972474769919   T   T   T
  0.9166666865332829  0.8124999999834799  0.3605200052333331   F   F   F
  0.0011013970862887  0.1239917801030211  0.6114205396171696   T   T   T
  0.8333332538436267  0.6249999999803961  0.4070133268666680   F   F   F
  0.9993171403630489  0.5008124399201480  0.5069495641767252   T   T   T
  0.3311925112402255  0.4991874760283050  0.5009547738849164   T   T   T
  0.3299690837249492  0.2481110351271553  0.5028010072164972   T   T   T
  0.3328354376595460  0.0011209368496128  0.5058770829705890   T   T   T
  0.3338643027970706  0.7511362158987451  0.5015798926023934   T   T   T
  0.6658365357363116  0.0002722550466681  0.5056280027591570   T   T   T
  0.6685347436137635  0.4997136072997787  0.5007509938637272   T   T   T
  0.6670000084628935  0.2478346853053273  0.5030858582245132   T   T   T
  0.6654719106784343  0.7520343845194325  0.5021854784373708   T   T   T
  0.1660109439190020  0.0012907972362639  0.5059658608947246   T   T   T
  0.1661499081009446  0.2486666130054120  0.5060139536880657   T   T   T
  0.1635690425472227  0.4999015765479172  0.5019995535484291   T   T   T
  0.4999740937604266  0.9995629075158262  0.5055660227697527   T   T   T
  0.1645716700297657  0.7513300598498807  0.5034461534528731   T   T   T
  0.5010814858231308  0.7529085243424956  0.5039384311893397   T   T   T
  0.8339876619896301  0.0005400516744645  0.5066531272656492   T   T   T
  0.5013303987285924  0.4998386599222752  0.5003196686907176   T   T   T
  0.5010311181214462  0.2479528844930361  0.5020175752903058   T   T   T
  0.8350373211469048  0.2482989113753324  0.5032556031463313   T   T   T
  0.9995010121929382  0.7506278923672425  0.5066202371433579   T   T   T
  0.0003410027262949  0.2504421655765400  0.5054381384554032   T   T   T
 -0.0000187755587516  0.9995735425943117  0.5054086869831059   T   T   T
  0.8333332538436267  0.8749999404036828  0.4070133268666680   F   F   F
  0.0000000000000000  0.6249999999803961  0.4070133268666680   F   F   F
  0.0000000000000000  0.8749999404036828  0.4070133268666680   F   F   F
  0.3333333432766779  0.1249999999871179  0.4070133268666680   F   F   F
  0.3333333432766779  0.3750000000061604  0.4070133268666680   F   F   F
  0.3333333432766779  0.6249999999803961  0.4070133268666680   F   F   F
  0.3333333432766779  0.8749999404036828  0.4070133268666680   F   F   F
  0.6666666865533486  0.1249999999871179  0.4070133268666680   F   F   F
  0.6666666865533486  0.3750000000061604  0.4070133268666680   F   F   F
  0.6666666865533486  0.6249999999803961  0.4070133268666680   F   F   F
  0.8359172336001195  0.5000064286388739  0.5029190903949246   T   T   T
  0.6666666865533486  0.8749999404036828  0.4070133268666680   F   F   F
  0.1666666716383389  0.3750000000061604  0.4070133268666680   F   F   F
  0.1666666716383389  0.6249999999803961  0.4070133268666680   F   F   F
  0.1666666716383389  0.8749999404036828  0.4070133268666680   F   F   F
  0.5000000000021103  0.1249999999871179  0.4070133268666680   F   F   F
  0.5000000000021103  0.3750000000061604  0.4070133268666680   F   F   F
  0.5000000000021103  0.6249999999803961  0.4070133268666680   F   F   F
  0.5000000000021103  0.8749999404036828  0.4070133268666680   F   F   F
  0.8333332538436267  0.1249999999871179  0.4070133268666680   F   F   F
  0.8333332538436267  0.3750000000061604  0.4070133268666680   F   F   F
  0.1666666716383389  0.1249999999871179  0.4070133268666680   F   F   F
  0.0000000000000000  0.3750000000061604  0.4070133268666680   F   F   F
  0.8357976989748587  0.7516808163286186  0.5025218846794141   T   T   T
  0.8363612578181424  0.3730888916732266  0.6041432169954839   T   T   T
  0.8325489955490225  0.8763781648542621  0.6181004354097162   T   T   T
  0.8398958337074091  0.6269938956000766  0.6031154315048709   T   T   T
  0.9989483214045569  0.8733303409593430  0.6209023486557185   T   T   T
  0.3307715329421791  0.1194110424616586  0.6140916535713994   T   T   T
  0.3343880454262607  0.6241855115911566  0.5953329939378925   T   T   T
  0.3257976755542875  0.3736327147761383  0.5928742460812069   T   T   T
  0.6710660973987603  0.3720339578989083  0.5941489431518773   T   T   T
  0.6652468423511819  0.1244044803985634  0.6118340759219613   T   T   T
  0.3337178107552764  0.8790809958364295  0.6029612876922568   T   T   T
  0.1592885773387854  0.6269193328420557  0.6013028498201576   T   T   T
  0.1657953717306797  0.8710276999339698  0.6166097900386287   T   T   T
  0.5016047866979576  0.3714662077533316  0.5949964308735585   T   T   T
  0.5001232290095954  0.1218818208394336  0.6062730241000771   T   T   T
  0.1661295122060069  0.1221122146516303  0.6174540976957746   T   T   T
  0.1633647141275151  0.3717719781401874  0.6077990594839564   T   T   T
  0.6652982493875252  0.8810759521046903  0.6070375555379387   T   T   T
  0.6662345253538046  0.6266749527185730  0.5934854913810151   T   T   T
  0.9990351476655086  0.3741435491662657  0.6234505077305041   T   T   T
  0.9992882828951236  0.6214106394606704  0.6377705097262452   T   T   T
  0.8341380823483122  0.1240408388297445  0.6212328645978624   T   T   T
  0.5000384301416023  0.8770605328461542  0.6093926758489425   T   T   T
  0.0000000000000000  0.1249999999871179  0.4070133268666680   F   F   F
  0.5040067808557304  0.6251111964890473  0.5939319059675324   T   T   T
  0.9170264428959010  0.0000670836572074  0.6030836275880302   T   T   T
  0.5846411914552387  0.7501070331359526  0.5997074822298264   T   T   T
  0.5907177456726237  0.5011712154374478  0.5937296771350511   T   T   T
  0.2423509465112825  0.4979708107374543  0.5939509671907095   T   T   T
  0.2496027545922402  0.7523624000006083  0.5922018320829131   T   T   T
  0.5839136174278317  0.2474978375767296  0.5972107952028263   T   T   T
  0.5824652123108592  0.0009241674184451  0.6043531608249867   T   T   T
  0.2485834096622609 -0.0021494127588610  0.6039763274844187   T   T   T
  0.2486764326835608  0.2458410984939462  0.6037324308617560   T   T   T
  0.4165362485300707  0.0002153684912352  0.6045469977351506   T   T   T
  0.4144304038733746  0.2486476640555344  0.5911282541179997   T   T   T
  0.4163146340585225  0.7503627227314634  0.5943590098085566   T   T   T
  0.7562749179989168  0.5027334560891942  0.5955941441301589   T   T   T
  0.7518599236999092  0.7527907054818364  0.5905884402409604   T   T   T
  0.7535700859226343  0.2475775027197260  0.5945046704837552   T   T   T
  0.7498791667711336  0.0018833678183931  0.6043009942715770   T   T   T
  0.0830971850501461  0.2495344220501108  0.6033453009634789   T   T   T
  0.0810874443021492  0.5004707521546674  0.6028121408714566   T   T   T
  0.0801079018005940  0.7500860390047250  0.6033535576772606   T   T   T
  0.0828881523455721  0.9933217541880234  0.6007967443057225   T   T   T