Au  O Sr Ti  H                          
   1.00000000000000     
    23.6707801818999997    0.0000000000000000    0.0000000000000000
     0.0000000000000000   22.3170261383000010    0.0000000000000000
     0.0000000000000000    0.0000000000000000   30.0000000000000000
   Au   O    Sr   Ti   H 
    50   264    72    72     1
Selective dynamics
Direct
  0.7179367489884034  0.5261129249651000  0.7541400086824231   T   T   T
  0.6246190667800520  0.5676452497237431  0.7037713071055113   T   T   T
  0.7187985959992105  0.2595023449578478  0.6919173830460463   T   T   T
  0.2916981042940899  0.7458502454817548  0.6981258658041850   T   T   T
  0.5125841416498643  0.6036797270758858  0.7767214449704010   T   T   T
  0.5772187239330910  0.7249825566468643  0.7926824360949103   T   T   T
  0.5500529255999196  0.3844907999347870  0.8295696488883784   T   T   T
  0.2413023302791856  0.4677245337054200  0.7090673339996650   T   T   T
  0.2834490157219099  0.6609352577435254  0.7654751559711597   T   T   T
  0.6026205917387826  0.2895722441451855  0.7876626061910414   T   T   T
  0.5145303905916294  0.4831868443803621  0.6778898639925578   T   T   T
  0.5624477279797843  0.4860148170059770  0.7625862564524799   T   T   T
  0.4635252184483009  0.6951663505846053  0.8299958178435132   T   T   T
  0.7648764585471720  0.4321407116347460  0.7057331947430884   T   T   T
  0.7337239644106188  0.6157159251752603  0.6939601945529282   T   T   T
  0.6353010452446123  0.5839704988732868  0.7999487802442498   T   T   T
  0.5948082243064807  0.7852420934228789  0.7126150935642439   T   T   T
  0.4843880515111544  0.7794707300772052  0.7571142287184335   T   T   T
  0.3493766818508167  0.5004938928193186  0.6971027563392764   T   T   T
  0.4307897545773896  0.3723744724520447  0.8153603327158538   T   T   T
  0.3727206032931599  0.2986163842733070  0.7554675889525695   T   T   T
  0.4413620713668987  0.2282225182787637  0.6970581863308513   T   T   T
  0.3901275269141353  0.8161776449028516  0.7066561736408001   T   T   T
  0.2901793503229296  0.5364681166608288  0.7773680064955324   T   T   T
  0.5560307896042056  0.2087846239962262  0.7118608963667657   T   T   T
  0.4536842110957035  0.5798495661324726  0.7024242635287067   T   T   T
  0.6135283932645974  0.3199036665047769  0.6975026712934594   T   T   T
  0.7055135016024405  0.7577259707118661  0.6882765598502223   T   T   T
  0.6562400349937116  0.4412492664568899  0.8125684757239477   T   T   T
  0.3683936888927000  0.6182258508259448  0.8200451265633198   T   T   T
  0.5712660143219722  0.5101513365571814  0.8570630837577361   T   T   T
  0.6648361762133307  0.1942867649633719  0.7524159741089703   T   T   T
  0.4724106171627040  0.4508532289510810  0.8794816850566505   T   T   T
  0.5160278954959819  0.3773200474550525  0.7340912187496391   T   T   T
  0.2831704880734476  0.3371245418420062  0.7029175855038655   T   T   T
  0.6694076282957273  0.6812516737137011  0.7486559929275511   T   T   T
  0.3974290497561041  0.3819180333773670  0.6900309499464479   T   T   T
  0.3760484487946646  0.4924677183429910  0.8332902193464943   T   T   T
  0.4630574194910657  0.5733675086213325  0.8638081529446976   T   T   T
  0.3265523667387210  0.4139116034404821  0.7692104602026940   T   T   T
  0.4873892831606917  0.2684936413337702  0.7752518488365034   T   T   T
  0.4248961588144315  0.6982487902440757  0.6993410349872534   T   T   T
  0.7000203856958643  0.3471258990029504  0.7560335150445674   T   T   T
  0.7743351880349258  0.4296765852740597  0.7962463123775408   T   T   T
  0.2565869174169398  0.5923446053474744  0.6948956856688284   T   T   T
  0.6479485974924398  0.4417768132109560  0.6967953333807038   T   T   T
  0.5650081805659685  0.6397096140927038  0.8610624575004767   T   T   T
  0.5450961892808321  0.6651664408158998  0.7014860294710108   T   T   T
  0.4429457439111244  0.4747678331871164  0.7559452423410981   T   T   T
  0.3733174373766612  0.7376126863159348  0.7780863721254817   T   T   T
  0.2500311774533100  0.1884470639989512  0.4542787344702068   T   T   T
  0.7494668455671836  0.9384203044361050  0.4553621129415766   T   T   T
  0.7490152274670224  0.6886562094415102  0.4573173322373776   T   T   T
  0.7483763687036539  0.4386411945709677  0.4557092464670501   T   T   T
  0.7497673354161470  0.1896393743349256  0.4555959093134461   T   T   T
  0.4171061214898590  0.9358176581089886  0.4540807235018184   T   T   T
  0.4169042872942067  0.6845411469129631  0.4547934890143076   T   T   T
  0.4163834906035738  0.4353494128289053  0.4538173143157415   T   T   T
  0.0845297378907211  0.6871981780049893  0.4532711820811812   T   T   T
  0.0839748923592076  0.9376492370718025  0.4539986293135927   T   T   T
  0.0821852070487443  0.4365007277018665  0.4525583416421755   T   T   T
  0.0838843882928288  0.1865052512972696  0.4527454041746461   T   T   T
  0.9175076155024391  0.8123664524579629  0.4539379706836479   T   T   T
  0.9160751657747302  0.5624610767136189  0.4537648440727571   T   T   T
  0.2518594217804919  0.4392782337023263  0.4547855505863491   T   T   T
  0.9166870588607321  0.0623503984942249  0.4535666370328709   T   T   T
  0.9163876030449342  0.3121914105568840  0.4536355854570899   T   T   T
  0.4168978400052343  0.1871244064316939  0.4537445690322853   T   T   T
  0.2522406006297869  0.6875371265874703  0.4561855570639785   T   T   T
  0.9168485493028845  0.9373375657497979  0.4537334389297873   T   T   T
  0.5827766299072963  0.1892436474131551  0.4551765068572494   T   T   T
 -0.0000283642979285  0.1255123799484247  0.4985986581936909   T   T   T
  0.5836838301042382  0.8100428242323348  0.4555285398902908   T   T   T
 -0.0000889964169626  0.3723600084525102  0.4992118257655298   T   T   T
  0.9998838211521970  0.6269578700034796  0.4976482877251356   T   T   T
  0.3334667062893515  0.1246379911635452  0.4986072825886754   T   T   T
  0.0003249716909325  0.8765314250859443  0.5007272316180695   T   T   T
  0.3332234250188316  0.8745024646836641  0.5001865836205610   T   T   T
  0.6656296255289450  0.1258167557883335  0.4990492845225283   T   T   T
  0.3355301664480180  0.6252771576152705  0.5044517398498242   T   T   T
  0.3340335217108252  0.3778641078512350  0.5032320429837074   T   T   T
  0.6656450018310925  0.3781929746712069  0.5036583693609175   T   T   T
  0.9153404720595777  0.6867556392292897  0.4530407003694246   T   T   T
  0.9167045159507641  0.4371231293941518  0.4536069923250048   T   T   T
  0.9159905222856710  0.1867694339675635  0.4528973746928405   T   T   T
  0.5828649790490552  0.9362419147600530  0.4539652866538162   T   T   T
  0.5827670147107068  0.6859970593738478  0.4545607026999092   T   T   T
  0.5829888976649147  0.4389381997586957  0.4560760541651436   T   T   T
  0.2502587873837236  0.9360979524803371  0.4542221543350113   T   T   T
  0.6654396567032730  0.6259896734133039  0.5029798970364289   T   T   T
  0.5846663155520772  0.5625086417590994  0.4550515037752944   T   T   T
  0.5828022930457657  0.0625423985955690  0.4546747752133388   T   T   T
  0.9166666865332829  0.6874999999963620  0.3605200052333331   F   F   F
  0.9166666865332829  0.4374999701794380  0.3605200052333331   F   F   F
  0.9166666865332829  0.1875000000030838  0.3605200052333331   F   F   F
  0.5833333134730552  0.9375000000154046  0.3605200052333331   F   F   F
  0.5833333134730552  0.6874999999963620  0.3605200052333331   F   F   F
  0.5833333134730552  0.4374999701794380  0.3605200052333331   F   F   F
  0.5833333134730552  0.1875000000030838  0.3605200052333331   F   F   F
  0.2499999999799343  0.9375000000154046  0.3605200052333331   F   F   F
  0.9166666865332829  0.9375000000154046  0.3605200052333331   F   F   F
  0.2499999999799343  0.6874999999963620  0.3605200052333331   F   F   F
  0.2499999999799343  0.1875000000030838  0.3605200052333331   F   F   F
  0.7499999404149307  0.9375000000154046  0.3605200052333331   F   F   F
  0.7499999404149307  0.6874999999963620  0.3605200052333331   F   F   F
  0.7499999404149307  0.4374999701794380  0.3605200052333331   F   F   F
  0.7499999404149307  0.1875000000030838  0.3605200052333331   F   F   F
  0.4166666269218169  0.9375000000154046  0.3605200052333331   F   F   F
  0.4166666269218169  0.6874999999963620  0.3605200052333331   F   F   F
  0.4166666269218169  0.4374999701794380  0.3605200052333331   F   F   F
  0.2499999999799343  0.4374999701794380  0.3605200052333331   F   F   F
  0.0833333358191695  0.0625000000159659  0.3605200052333331   F   F   F
  0.0833333358191695  0.3124999999901945  0.3605200052333331   F   F   F
  0.0833333358191695  0.5625000000092442  0.3605200052333331   F   F   F
  0.9166666865332829  0.3124999999901945  0.3605200052333331   F   F   F
  0.9166666865332829  0.0625000000159659  0.3605200052333331   F   F   F
  0.5833333134730552  0.8124999999834799  0.3605200052333331   F   F   F
  0.5833333134730552  0.5625000000092442  0.3605200052333331   F   F   F
  0.5833333134730552  0.3124999999901945  0.3605200052333331   F   F   F
  0.5833333134730552  0.0625000000159659  0.3605200052333331   F   F   F
  0.2499999999799343  0.8124999999834799  0.3605200052333331   F   F   F
  0.2499999999799343  0.5625000000092442  0.3605200052333331   F   F   F
  0.2499999999799343  0.3124999999901945  0.3605200052333331   F   F   F
  0.2499999999799343  0.0625000000159659  0.3605200052333331   F   F   F
  0.7499999404149307  0.8124999999834799  0.3605200052333331   F   F   F
  0.7499999404149307  0.5625000000092442  0.3605200052333331   F   F   F
  0.7499999404149307  0.3124999999901945  0.3605200052333331   F   F   F
  0.7499999404149307  0.0625000000159659  0.3605200052333331   F   F   F
  0.4166666269218169  0.8124999999834799  0.3605200052333331   F   F   F
  0.4166666269218169  0.5625000000092442  0.3605200052333331   F   F   F
  0.4166666269218169  0.3124999999901945  0.3605200052333331   F   F   F
  0.4166666269218169  0.0625000000159659  0.3605200052333331   F   F   F
  0.0833333358191695  0.8124999999834799  0.3605200052333331   F   F   F
  0.4166666269218169  0.1875000000030838  0.3605200052333331   F   F   F
  0.0833333358191695  0.9375000000154046  0.3605200052333331   F   F   F
  0.0833333358191695  0.6874999999963620  0.3605200052333331   F   F   F
  0.0833333358191695  0.4374999701794380  0.3605200052333331   F   F   F
  0.8333332538436267  0.4999999999932783  0.4070133268666680   F   F   F
  0.8333332538436267  0.7500000000123208  0.4070133268666680   F   F   F
  0.0833090786564218  0.0623939628260553  0.4535486090823837   T   T   T
  0.0832810078684132  0.3119204383326113  0.4540434367430950   T   T   T
  0.0839794675424938  0.5624930927039496  0.4539094766086312   T   T   T
  0.0829060712550508  0.8128398482491017  0.4543036933262327   T   T   T
  0.4169255076097580  0.0615357148330978  0.4553768930837769   T   T   T
  0.4153948957447042  0.3112137362601828  0.4573833770145903   T   T   T
  0.4159108345648255  0.5594343996688396  0.4579023502851127   T   T   T
  0.4162259144092630  0.8100054858894133  0.4551666169739191   T   T   T
  0.7491555103736759  0.0639507175504092  0.4534333469911440   T   T   T
  0.7472889830552559  0.3139568069306955  0.4545206945356740   T   T   T
  0.7481769160738627  0.5643177508541209  0.4536860413756583   T   T   T
  0.7485957876373021  0.8131554937788477  0.4529669500444276   T   T   T
  0.2503732959131247  0.0617496623834286  0.4543770175745381   T   T   T
  0.9119385555855695  0.3125550626354061  0.5460392932088577   T   T   T
  0.2522923974982660  0.3141056465815453  0.4541124048567279   T   T   T
  0.2518966283608934  0.5646496188167620  0.4538753300880873   T   T   T
  0.2507592121436850  0.8107892415752452  0.4554626171282089   T   T   T
  0.8333332538436267  0.2500000000190425  0.4070133268666680   F   F   F
  0.5843747204417937  0.3146123859300600  0.4540439925143841   T   T   T
  0.8333332538436267  0.0000000000000000  0.4070133268666680   F   F   F
  0.5000000000021103  0.4999999999932783  0.4070133268666680   F   F   F
  0.0833333358191695  0.1875000000030838  0.3605200052333331   F   F   F
  0.0000000000000000  0.0000000000000000  0.4070133268666680   F   F   F
  0.0000000000000000  0.2500000000190425  0.4070133268666680   F   F   F
  0.0000000000000000  0.4999999999932783  0.4070133268666680   F   F   F
  0.0000000000000000  0.7500000000123208  0.4070133268666680   F   F   F
  0.3333333432766779  0.0000000000000000  0.4070133268666680   F   F   F
  0.3333333432766779  0.2500000000190425  0.4070133268666680   F   F   F
  0.3333333432766779  0.4999999999932783  0.4070133268666680   F   F   F
  0.3333333432766779  0.7500000000123208  0.4070133268666680   F   F   F
  0.6666666865533486  0.0000000000000000  0.4070133268666680   F   F   F
  0.6666666865533486  0.2500000000190425  0.4070133268666680   F   F   F
  0.6666666865533486  0.4999999999932783  0.4070133268666680   F   F   F
  0.6666666865533486  0.7500000000123208  0.4070133268666680   F   F   F
  0.1666666716383389  0.0000000000000000  0.4070133268666680   F   F   F
  0.1666666716383389  0.2500000000190425  0.4070133268666680   F   F   F
  0.1666666716383389  0.4999999999932783  0.4070133268666680   F   F   F
  0.1666666716383389  0.7500000000123208  0.4070133268666680   F   F   F
  0.5000000000021103  0.0000000000000000  0.4070133268666680   F   F   F
  0.5000000000021103  0.2500000000190425  0.4070133268666680   F   F   F
  0.5000000000021103  0.7500000000123208  0.4070133268666680   F   F   F
  0.1670974052140308  0.1246824282909681  0.4995889076989802   T   T   T
  0.9184583020443476  0.0625403641869409  0.5456999131671120   T   T   T
  0.1676696170472699  0.8728851905500297  0.4994772939034692   T   T   T
  0.2522613895169845  0.1879140378108521  0.5472996378324726   T   T   T
  0.7500571377593843  0.9339474341156787  0.5477784793273700   T   T   T
  0.7520796186134661  0.6804143582823142  0.5531853286982109   T   T   T
  0.7531415072966458  0.4344048822911216  0.5494491432109833   T   T   T
  0.4229611366224012  0.4438727592685763  0.5455141703717085   T   T   T
  0.4232091386981731  0.6880355738481591  0.5466504875910826   T   T   T
  0.7475764774367277  0.1839887987870415  0.5503576092492150   T   T   T
  0.4160122076514796  0.9373417623946532  0.5462127015930366   T   T   T
  0.0868602144933856  0.9385302943934147  0.5470466941643014   T   T   T
  0.4153083978304221  0.1910319087324142  0.5465459727726375   T   T   T
  0.0865663164152748  0.6896212774301496  0.5453489455989567   T   T   T
  0.0824257297734964  0.4390773427782971  0.5446993769720964   T   T   T
  0.0816081177538981  0.1890713528259023  0.5448754538957451   T   T   T
  0.4993853219946917  0.1253604957691783  0.4997597563792279   T   T   T
  0.9995341649950168  0.5007332235712593  0.5944690647157559   T   T   T
  0.9993493238656589  0.7536167271884874  0.5921663692284742   T   T   T
  0.3345660851931176  0.2543709730934157  0.5926438482388477   T   T   T
  0.3325717621193435  0.0006458299602359  0.5923229559881384   T   T   T
  0.0002238462115741  0.9962779635499200  0.5910238741295905   T   T   T
 -0.0000924443915596  0.2536886335994613  0.5903968565615053   T   T   T
  0.3331334182070266  0.4963849490494323  0.5909584743425265   T   T   T
  0.3355656512093268  0.7400561528583248  0.5906431500538899   T   T   T
  0.6635244168164049  0.2477294211204666  0.5905954372625902   T   T   T
  0.6661174054138069  0.0005657708988241  0.5919419043171373   T   T   T
  0.6661627358807007  0.7420286313772847  0.5899670505727872   T   T   T
  0.6670509341333969  0.4931357439194199  0.5910973838113046   T   T   T
  0.1646697636224751  0.0061274363789269  0.5943516216267520   T   T   T
  0.1679683948829184  0.2465414083012059  0.5933031279049500   T   T   T
  0.1706588330287254  0.7500988176430198  0.5953066605337405   T   T   T
  0.2481404111682406  0.4358888321552288  0.5489321695024417   T   T   T
  0.1654385160809101  0.5027583446305655  0.5877045255845437   T   T   T
  0.2489493808416883  0.6835456766439734  0.5520514904716564   T   T   T
  0.5811011409692711  0.1857750063703165  0.5493451549875227   T   T   T
  0.9155074057780384  0.8130595414994325  0.5467630724732334   T   T   T
  0.9167481529782054  0.5635146781564299  0.5465105632853522   T   T   T
  0.5814228668006032  0.5601108953976677  0.5494094091825567   T   T   T
  0.5861841275666398  0.8147847535582179  0.5504978527359411   T   T   T
  0.5828838369045820  0.3114274340594572  0.5454979853344053   T   T   T
  0.5824743675472430  0.0630612791194444  0.5467458152812278   T   T   T
  0.2530836631545242  0.8130692094952551  0.5515681143671813   T   T   T
  0.2519475304321834  0.5590645055806246  0.5440646739109241   T   T   T
  0.2480947842275949  0.3137168814575061  0.5461322059803807   T   T   T
  0.2507559994907178  0.0623328655330384  0.5474411003383628   T   T   T
  0.7486099621025685  0.8081785186146893  0.5456280194001161   T   T   T
  0.7465055213728012  0.5576660123454366  0.5445901132847862   T   T   T
  0.4144168733889078  0.8116773850768074  0.5480740702763727   T   T   T
  0.7479826362508368  0.0596976743126426  0.5446408263532393   T   T   T
  0.7493004356187808  0.3113672576355883  0.5477596504428549   T   T   T
  0.4159636394618297  0.3193663814316338  0.5525930388038297   T   T   T
  0.4201282017437959  0.5649641501842458  0.5555117840038569   T   T   T
  0.4165171248269275  0.0649821910723418  0.5473673430749335   T   T   T
  0.0851207052059604  0.8129141171575762  0.5475100215446838   T   T   T
  0.0829215238927691  0.5642051155651913  0.5464067477168700   T   T   T
  0.0879762340220724  0.3138220737935015  0.5468116011869567   T   T   T
  0.0810270575065238  0.0637611336244879  0.5464169576343213   T   T   T
  0.9136328245422460  0.9383048651452411  0.5462297483613532   T   T   T
  0.9132025284547691  0.6892981929294257  0.5450694891387509   T   T   T
  0.5833706050248908  0.9386113641787809  0.5458760565175017   T   T   T
  0.9182521267445459  0.1878036607187877  0.5448802392390182   T   T   T
  0.9158103491015290  0.4376858064382754  0.5456143060962764   T   T   T
  0.5764886439385681  0.4360023342900740  0.5516749661568230   T   T   T
  0.5795675416314920  0.6864871446939054  0.5471625255447876   T   T   T
  0.2485106215250845  0.9378704938682175  0.5456527079855960   T   T   T
  0.4975451600035364  0.5041080338953746  0.6090262786934865   T   T   T
  0.4986347286608905  0.2527072065590860  0.5902890413975500   T   T   T
  0.4992785442636781 -0.0001371607495046  0.5914711542320781   T   T   T
  0.7537184625199839  0.6935685885338828  0.6574767157946223   T   T   T
  0.7491797915613126  0.9373479389827186  0.6402526244772541   T   T   T
  0.2530239860568066  0.1865908493490551  0.6417392066172247   T   T   T
  0.7455001034077472  0.1943858681430588  0.6469836689752387   T   T   T
  0.7559385565464913  0.4364699992295324  0.6392150094347483   T   T   T
  0.4161761775845762  0.9355008338399216  0.6397292385366726   T   T   T
  0.4215612736522817  0.6763507328584520  0.6337049946493303   T   T   T
  0.5910384863929012  0.8106093883913011  0.6458832205976575   T   T   T
  0.9203578966516964  0.0653784985425205  0.6390694774365202   T   T   T
  0.9125480916698896  0.5615196938292992  0.6426875442234101   T   T   T
  0.9135740239612871  0.3120447801345298  0.6396373818079325   T   T   T
  0.9140482125350806  0.8132653466844433  0.6414408104515511   T   T   T
  0.5820889614420227  0.0656062790462184  0.6398273272119709   T   T   T
  0.5831183751856600  0.3196065019830855  0.6339983578689912   T   T   T
  0.5916972640668389  0.5643192187332214  0.6395088075241195   T   T   T
  0.2475328428105988  0.5733250776332641  0.6290388360728785   T   T   T
  0.2621566683317049  0.7990792507195376  0.6470167214253196   T   T   T
  0.2487715841603875  0.3151979624521984  0.6417467796797054   T   T   T
  0.2510085681063963  0.0609385253131495  0.6437052688784489   T   T   T
  0.9166666865332829  0.5625000000092442  0.3605200052333331   F   F   F
  0.4994234934402633  0.3738523217009226  0.4999278914623668   T   T   T
  0.5000118529490856  0.8731960853763655  0.5009205752703961   T   T   T
  0.5003844133554077  0.6209982823361923  0.5001107265401598   T   T   T
  0.8322573626913107  0.6231484701133597  0.4999516286749663   T   T   T
  0.8324669883060776  0.8733613674041966  0.4975584450000087   T   T   T
  0.8325488009912995  0.3749176748591611  0.4974697022379716   T   T   T
  0.8323131228075190  0.1245520712620046  0.4991958834596717   T   T   T
  0.1666106072192768  0.3768174531162099  0.4969348992217299   T   T   T
  0.1677171403713093  0.6243864058570402  0.4999727231089250   T   T   T
  0.5815998175962644  0.4382228960614573  0.6459059972823764   T   T   T
  0.5805915878077330  0.6852667356926387  0.6388053876307008   T   T   T
  0.9185283411098212  0.1866321654916674  0.6381036020534072   T   T   T
  0.5821467536760959  0.9354484845091818  0.6392424690129872   T   T   T
  0.8307199484670630  0.7507241160505765  0.5930980095533919   T   T   T
  0.8312250702562456  0.2459986188596951  0.5913782095256604   T   T   T
  0.8333494823141209  0.5035655999685501  0.5892268112417888   T   T   T
  0.8327223452260397  0.0039448054418174  0.5928532679221019   T   T   T
  0.5013541611370985  0.7566857119747415  0.5931686608225988   T   T   T
  0.4177106163473120  0.0653743404035400  0.6400486996363957   T   T   T
  0.4268646494809504  0.3048588139979834  0.6548409174225454   T   T   T
  0.4116883753124573  0.8130175789071968  0.6396201505895454   T   T   T
  0.3979605282021627  0.5510601409214928  0.6519065331821955   T   T   T
  0.7523578190211131  0.5708695730330829  0.6344153193813225   T   T   T
  0.7412308597399406  0.8103528309289526  0.6399782314324984   T   T   T
  0.7470105333102792  0.3125997022509699  0.6400054150088650   T   T   T
  0.7471848949255177  0.0666047976481957  0.6402284564183113   T   T   T
  0.0840607609370677  0.3121024138545371  0.6403056225790120   T   T   T
  0.6666019402893757  0.8748796068518486  0.4994632348753771   T   T   T
  0.0872928778942111  0.5613810870401438  0.6420507222998150   T   T   T
  0.0756073943350181  0.0661038052760430  0.6419365562026922   T   T   T
  0.0865235163481871  0.4363850107534501  0.6390733759898866   T   T   T
  0.0793662787384197  0.1865805789115181  0.6394313745821097   T   T   T
  0.4185069718284543  0.1878053113845879  0.6398909147220430   T   T   T
  0.4145770029872852  0.4187647925034557  0.6296277169606090   T   T   T
  0.0836628993136858  0.9377820635394210  0.6405777848328811   T   T   T
  0.0828733127895171  0.6867876959146655  0.6400115399823405   T   T   T
  0.9125877823425627  0.4362261715199777  0.6394844173791213   T   T   T
  0.9167727239874794  0.6874827894125357  0.6398832121068798   T   T   T
  0.9150795740953267  0.9388703208463925  0.6405712363426235   T   T   T
  0.2406341724694003  0.4412890560376371  0.6413800463485216   T   T   T
  0.2542814463242739  0.6769917235647256  0.6634214203975785   T   T   T
  0.5787706647155912  0.1907157946648232  0.6443304252865693   T   T   T
  0.2484289627956849  0.9317755102418819  0.6367403824481614   T   T   T
  0.0834712911309889  0.8121434126760194  0.6416012254001657   T   T   T
  0.9166666865332829  0.8124999999834799  0.3605200052333331   F   F   F
 -0.0011557355628900  0.1273232834821242  0.6016558187720310   T   T   T
  0.8333332538436267  0.6249999999803961  0.4070133268666680   F   F   F
  0.9995686937442606  0.5009887778234393  0.5070454192789131   T   T   T
  0.3310688464190135  0.4991494306773751  0.5010882688554298   T   T   T
  0.3301289921050796  0.2479495998252279  0.5027892086503697   T   T   T
  0.3325482118891103  0.0009960679963095  0.5062026410726967   T   T   T
  0.3337385925632524  0.7511654664229984  0.5018271866609698   T   T   T
  0.6659496704328937  0.0002486992764807  0.5057007380028496   T   T   T
  0.6686018044418478  0.4995794397853734  0.5007854321288249   T   T   T
  0.6669353696419248  0.2477532285953354  0.5029695855712165   T   T   T
  0.6655925527863265  0.7520645557627648  0.5023071551015137   T   T   T
  0.1655037589272716  0.0020774743194186  0.5070249847006649   T   T   T
  0.1663673963954869  0.2479461128746830  0.5062164394318315   T   T   T
  0.1634840759078872  0.5000246798567511  0.5021342672628731   T   T   T
  0.4999875271172622 -0.0005262119312335  0.5056085811156369   T   T   T
  0.1644678607773962  0.7512677139406959  0.5034233584187473   T   T   T
  0.5009464780949188  0.7529585408046681  0.5040672737909948   T   T   T
  0.8337373891898523  0.0006408754487382  0.5064104396727973   T   T   T
  0.5012895391928208  0.4996562001052707  0.5004111109958175   T   T   T
  0.5010487460008557  0.2478001992853094  0.5019446541702363   T   T   T
  0.8347174822519060  0.2483296776417602  0.5031180560475556   T   T   T
 -0.0002636361503594  0.7507654875457053  0.5066772533034436   T   T   T
  0.0002942480901280  0.2509173980182099  0.5041853054536262   T   T   T
 -0.0000882853540598  0.9990412379879703  0.5050192981333304   T   T   T
  0.8333332538436267  0.8749999404036828  0.4070133268666680   F   F   F
  0.0000000000000000  0.6249999999803961  0.4070133268666680   F   F   F
  0.0000000000000000  0.8749999404036828  0.4070133268666680   F   F   F
  0.3333333432766779  0.1249999999871179  0.4070133268666680   F   F   F
  0.3333333432766779  0.3750000000061604  0.4070133268666680   F   F   F
  0.3333333432766779  0.6249999999803961  0.4070133268666680   F   F   F
  0.3333333432766779  0.8749999404036828  0.4070133268666680   F   F   F
  0.6666666865533486  0.1249999999871179  0.4070133268666680   F   F   F
  0.6666666865533486  0.3750000000061604  0.4070133268666680   F   F   F
  0.6666666865533486  0.6249999999803961  0.4070133268666680   F   F   F
  0.8360336994949596  0.5000540173952511  0.5029184404872589   T   T   T
  0.6666666865533486  0.8749999404036828  0.4070133268666680   F   F   F
  0.1666666716383389  0.3750000000061604  0.4070133268666680   F   F   F
  0.1666666716383389  0.6249999999803961  0.4070133268666680   F   F   F
  0.1666666716383389  0.8749999404036828  0.4070133268666680   F   F   F
  0.5000000000021103  0.1249999999871179  0.4070133268666680   F   F   F
  0.5000000000021103  0.3750000000061604  0.4070133268666680   F   F   F
  0.5000000000021103  0.6249999999803961  0.4070133268666680   F   F   F
  0.5000000000021103  0.8749999404036828  0.4070133268666680   F   F   F
  0.8333332538436267  0.1249999999871179  0.4070133268666680   F   F   F
  0.8333332538436267  0.3750000000061604  0.4070133268666680   F   F   F
  0.1666666716383389  0.1249999999871179  0.4070133268666680   F   F   F
  0.0000000000000000  0.3750000000061604  0.4070133268666680   F   F   F
  0.8359233369740258  0.7515586703329074  0.5025894633123537   T   T   T
  0.8363003147858954  0.3733510627476004  0.6042813331503348   T   T   T
  0.8326992416051874  0.8769412100023168  0.6178401714848187   T   T   T
  0.8407096305633314  0.6269190267169610  0.6031476031783127   T   T   T
  0.9984107634148620  0.8748104241472985  0.6210319945443402   T   T   T
  0.3313715238288578  0.1201246895958324  0.6139943128469739   T   T   T
  0.3342297064098006  0.6242731818555901  0.5957135253198464   T   T   T
  0.3253706026171381  0.3732265161130269  0.5929946113516963   T   T   T
  0.6712051714059742  0.3719159768144175  0.5942981756734483   T   T   T
  0.6651897623521627  0.1245096850508644  0.6121684417334667   T   T   T
  0.3325770546752931  0.8803596659376615  0.6039059614634711   T   T   T
  0.1588439733516301  0.6269277444424796  0.6018182784048578   T   T   T
  0.1643732721281580  0.8730638725811715  0.6158614448619236   T   T   T
  0.5015680455414360  0.3712045168043234  0.5949861324280137   T   T   T
  0.5001873096202109  0.1217230946560177  0.6062657089229795   T   T   T
  0.1664122568168115  0.1234842047401160  0.6246480773480815   T   T   T
  0.1635685115765652  0.3712748520934444  0.6076537804045218   T   T   T
  0.6658976348048091  0.8816658062469152  0.6073318445326480   T   T   T
  0.6662553810061147  0.6267129316803826  0.5935289287370353   T   T   T
 -0.0004000097301638  0.3745675609264595  0.6231147638653926   T   T   T
  0.9996196923398979  0.6215640005092605  0.6419476979504259   T   T   T
  0.8334049823302601  0.1256792917438788  0.6241013427719909   T   T   T
  0.5001172025042659  0.8772274446501407  0.6097149187103379   T   T   T
  0.0000000000000000  0.1249999999871179  0.4070133268666680   F   F   F
  0.5040009570790487  0.6250882822955965  0.5939729390519790   T   T   T
  0.9168494868810684  0.0017136076996414  0.6028026544954325   T   T   T
  0.5845634326378250  0.7503325001332807  0.5995727149259661   T   T   T
  0.5908503677987583  0.5006748545190333  0.5937161026388634   T   T   T
  0.2423886336116626  0.4977994014262257  0.5941380203043568   T   T   T
  0.2491292662928260  0.7527245042863369  0.5924388030579197   T   T   T
  0.5840078361597226  0.2472162365181206  0.5972565063383615   T   T   T
  0.5826187960380951  0.0009906770753792  0.6044443670967625   T   T   T
  0.2479929180083029  0.0006830018438866  0.6047127648255315   T   T   T
  0.2484838593096609  0.2451050496689987  0.6038112948194315   T   T   T
  0.4161285312489197  0.0004702363169728  0.6045224571755415   T   T   T
  0.4144761106813102  0.2485424107714960  0.5911630347778171   T   T   T
  0.4158295153819340  0.7505993278048777  0.5945539843816710   T   T   T
  0.7565281840436363  0.5027978962727629  0.5956299582921420   T   T   T
  0.7520288493502942  0.7527961538718850  0.5907027186670706   T   T   T
  0.7534855442636907  0.2477845685624475  0.5943458960040692   T   T   T
  0.7497831854522853  0.0022083293153333  0.6044416422387633   T   T   T
  0.0826477957264406  0.2485593138552379  0.6025630583616411   T   T   T
  0.0812247703613161  0.5004646411444250  0.6030501342639260   T   T   T
  0.0798092286890516  0.7506718607258498  0.6034271988928877   T   T   T
  0.0818584135984560 -0.0040236261164161  0.6016900485064577   T   T   T