Au  O Sr Ti  H                          
   1.00000000000000     
    23.6707801818999997    0.0000000000000000    0.0000000000000000
     0.0000000000000000   22.3170261383000010    0.0000000000000000
     0.0000000000000000    0.0000000000000000   30.0000000000000000
   Au   O    Sr   Ti   H 
    50   264    72    72     1
Selective dynamics
Direct
  0.7170042229639466  0.5259783072716292  0.7535403566925603   T   T   T
  0.6230820209204985  0.5725294249325003  0.7045828735199510   T   T   T
  0.7185045540730722  0.2593108050323422  0.6917154882212404   T   T   T
  0.2940905590306565  0.7456700031236977  0.6974686878913972   T   T   T
  0.5112971761969495  0.6041500749179755  0.7760105625495752   T   T   T
  0.5783953672686418  0.7212352506147598  0.7905521421256256   T   T   T
  0.5490265934702507  0.3842263490916276  0.8292613994109103   T   T   T
  0.2413814776417358  0.4674098371268959  0.7096930522125751   T   T   T
  0.2837530242976427  0.6613070861359355  0.7650906043200701   T   T   T
  0.6022285445357777  0.2895554696538448  0.7873224781637900   T   T   T
  0.5141625986000486  0.4837504160164835  0.6779725475606232   T   T   T
  0.5620992739997317  0.4860111252250230  0.7624693849599545   T   T   T
  0.4633244379605154  0.6956053814079459  0.8298579484456455   T   T   T
  0.7642932623545007  0.4321055694136728  0.7054741233652082   T   T   T
  0.7356575923530868  0.6130171600815638  0.6922096333984411   T   T   T
  0.6339133078653221  0.5846575939693982  0.7990783593736551   T   T   T
  0.5912714525972937  0.7852707309445305  0.7122472036280454   T   T   T
  0.4847978958738848  0.7783762302605747  0.7568459074019513   T   T   T
  0.3491612551581065  0.5005920744074187  0.6975941276148102   T   T   T
  0.4298599703144391  0.3715973507241526  0.8152227430872699   T   T   T
  0.3721777845598780  0.2983347229673268  0.7552616263077150   T   T   T
  0.4414851148833497  0.2280920922951546  0.6969695826795793   T   T   T
  0.3909320073695263  0.8174495795144897  0.7065797273179613   T   T   T
  0.2897714835671201  0.5371645919208294  0.7777610597159842   T   T   T
  0.5563436971132280  0.2100563684863322  0.7113037054688002   T   T   T
  0.4525405277704878  0.5798486169105147  0.7020963631463579   T   T   T
  0.6142912312108354  0.3212473894240166  0.6975188463675124   T   T   T
  0.7161391522117190  0.7627287547695347  0.6952072316631583   T   T   T
  0.6554989588979062  0.4418130586161323  0.8122102085255712   T   T   T
  0.3688899034582749  0.6187575061105807  0.8189842749932709   T   T   T
  0.5701850772805678  0.5100204795134786  0.8565761709526346   T   T   T
  0.6647783199201449  0.1942571661658471  0.7524049536225785   T   T   T
  0.4710517909020014  0.4503643591597435  0.8792828522317272   T   T   T
  0.5157136505694330  0.3772463340669149  0.7338033398377252   T   T   T
  0.2831656422358552  0.3378518413155698  0.7025578681756603   T   T   T
  0.6784820605147079  0.6782189879482076  0.7536339483161071   T   T   T
  0.3975796751009812  0.3821238363791299  0.6900426922704381   T   T   T
  0.3751943070409878  0.4925325469810318  0.8334035990757098   T   T   T
  0.4624292176611809  0.5730873155388101  0.8633680335380957   T   T   T
  0.3263077057703986  0.4141661010397609  0.7693596261993175   T   T   T
  0.4871310077779748  0.2684977588432612  0.7752083705495375   T   T   T
  0.4201079247617348  0.6970690506297749  0.6996819280108298   T   T   T
  0.7002693898045443  0.3466332481096863  0.7566671649210762   T   T   T
  0.7739121367483738  0.4301086721690376  0.7959193029975136   T   T   T
  0.2570080372836488  0.5918531811124536  0.6947876712444960   T   T   T
  0.6474199994799515  0.4447510977023779  0.6966773031160588   T   T   T
  0.5639907220516295  0.6394620714481021  0.8609286106318638   T   T   T
  0.5434290444017622  0.6676632395577831  0.7009571207618045   T   T   T
  0.4428235912085440  0.4747082337786982  0.7561731821396214   T   T   T
  0.3731973519791876  0.7393136606626837  0.7783457383507630   T   T   T
  0.2499365328301038  0.1886828946533439  0.4543277626316753   T   T   T
  0.7495039004347208  0.9382422136154631  0.4554223497417725   T   T   T
  0.7490585869133402  0.6885814022350063  0.4572801399083081   T   T   T
  0.7495685245422186  0.4382939790414891  0.4557654459568098   T   T   T
  0.7501802458076937  0.1897572734812144  0.4556014759397402   T   T   T
  0.4169298004998939  0.9357872607874882  0.4538753263573073   T   T   T
  0.4168564942827719  0.6846550729295554  0.4547865529718254   T   T   T
  0.4164539605265208  0.4354566725778896  0.4537921713035158   T   T   T
  0.0845892830221286  0.6869352944433631  0.4530526278000434   T   T   T
  0.0841586300697032  0.9367680511342772  0.4536182026122910   T   T   T
  0.0827782434081739  0.4368268467928369  0.4528782264904427   T   T   T
  0.0838660462560884  0.1865590022286157  0.4529588201213842   T   T   T
  0.9165953922048740  0.8121528674897043  0.4540864441525297   T   T   T
  0.9163213547789492  0.5624996510746754  0.4537452651748226   T   T   T
  0.2511836808074450  0.4393189058164572  0.4549038138789825   T   T   T
  0.9161499091724100  0.0621709140471464  0.4540956898187747   T   T   T
  0.9162450106151990  0.3122246621165732  0.4538457602317357   T   T   T
  0.4173430836663063  0.1869959983804253  0.4535199122111528   T   T   T
  0.2523392112941555  0.6874266882006715  0.4559258059108219   T   T   T
  0.9164239539278892  0.9370551691057769  0.4536584171561383   T   T   T
  0.5826666309128609  0.1892249910451875  0.4551700309241736   T   T   T
  0.0000720296590508  0.1251020247963228  0.4984178563475931   T   T   T
  0.5833064820872855  0.8102551041002177  0.4552629696558624   T   T   T
 -0.0000206515958249  0.3733973152615740  0.4984142955834933   T   T   T
  0.0003400107911563  0.6270149670212467  0.4977270328070578   T   T   T
  0.3335969320629176  0.1256122001417848  0.4984965080156729   T   T   T
  0.0001841793805333  0.8751568058839947  0.4996131821435379   T   T   T
  0.3333826661211680  0.8735914145776439  0.4989707047392786   T   T   T
  0.6659947079744403  0.1260222466316070  0.4991262796138326   T   T   T
  0.3353655535432332  0.6250605709337549  0.5041453591341853   T   T   T
  0.3343505648433736  0.3784607476079156  0.5029247937198601   T   T   T
  0.6654294565469721  0.3785869661228299  0.5033124979253659   T   T   T
  0.9155556887848733  0.6868082118182659  0.4531210964177000   T   T   T
  0.9158092080372270  0.4370049063998843  0.4536529410785546   T   T   T
  0.9158149576435560  0.1869417989734205  0.4532079291992136   T   T   T
  0.5829268889812376  0.9363237156092585  0.4541848466156267   T   T   T
  0.5827097864214883  0.6859991675253324  0.4546328708352185   T   T   T
  0.5827425555224733  0.4389426694709360  0.4559971818657544   T   T   T
  0.2499985442382860  0.9360134302036021  0.4540435590330135   T   T   T
  0.6653142329630752  0.6260476120430732  0.5030011682644953   T   T   T
  0.5844446887108738  0.5623949018013875  0.4550505803289379   T   T   T
  0.5829544960376831  0.0626671338073023  0.4545480424789666   T   T   T
  0.9166666865332829  0.6874999999963620  0.3605200052333331   F   F   F
  0.9166666865332829  0.4374999701794380  0.3605200052333331   F   F   F
  0.9166666865332829  0.1875000000030838  0.3605200052333331   F   F   F
  0.5833333134730552  0.9375000000154046  0.3605200052333331   F   F   F
  0.5833333134730552  0.6874999999963620  0.3605200052333331   F   F   F
  0.5833333134730552  0.4374999701794380  0.3605200052333331   F   F   F
  0.5833333134730552  0.1875000000030838  0.3605200052333331   F   F   F
  0.2499999999799343  0.9375000000154046  0.3605200052333331   F   F   F
  0.9166666865332829  0.9375000000154046  0.3605200052333331   F   F   F
  0.2499999999799343  0.6874999999963620  0.3605200052333331   F   F   F
  0.2499999999799343  0.1875000000030838  0.3605200052333331   F   F   F
  0.7499999404149307  0.9375000000154046  0.3605200052333331   F   F   F
  0.7499999404149307  0.6874999999963620  0.3605200052333331   F   F   F
  0.7499999404149307  0.4374999701794380  0.3605200052333331   F   F   F
  0.7499999404149307  0.1875000000030838  0.3605200052333331   F   F   F
  0.4166666269218169  0.9375000000154046  0.3605200052333331   F   F   F
  0.4166666269218169  0.6874999999963620  0.3605200052333331   F   F   F
  0.4166666269218169  0.4374999701794380  0.3605200052333331   F   F   F
  0.2499999999799343  0.4374999701794380  0.3605200052333331   F   F   F
  0.0833333358191695  0.0625000000159659  0.3605200052333331   F   F   F
  0.0833333358191695  0.3124999999901945  0.3605200052333331   F   F   F
  0.0833333358191695  0.5625000000092442  0.3605200052333331   F   F   F
  0.9166666865332829  0.3124999999901945  0.3605200052333331   F   F   F
  0.9166666865332829  0.0625000000159659  0.3605200052333331   F   F   F
  0.5833333134730552  0.8124999999834799  0.3605200052333331   F   F   F
  0.5833333134730552  0.5625000000092442  0.3605200052333331   F   F   F
  0.5833333134730552  0.3124999999901945  0.3605200052333331   F   F   F
  0.5833333134730552  0.0625000000159659  0.3605200052333331   F   F   F
  0.2499999999799343  0.8124999999834799  0.3605200052333331   F   F   F
  0.2499999999799343  0.5625000000092442  0.3605200052333331   F   F   F
  0.2499999999799343  0.3124999999901945  0.3605200052333331   F   F   F
  0.2499999999799343  0.0625000000159659  0.3605200052333331   F   F   F
  0.7499999404149307  0.8124999999834799  0.3605200052333331   F   F   F
  0.7499999404149307  0.5625000000092442  0.3605200052333331   F   F   F
  0.7499999404149307  0.3124999999901945  0.3605200052333331   F   F   F
  0.7499999404149307  0.0625000000159659  0.3605200052333331   F   F   F
  0.4166666269218169  0.8124999999834799  0.3605200052333331   F   F   F
  0.4166666269218169  0.5625000000092442  0.3605200052333331   F   F   F
  0.4166666269218169  0.3124999999901945  0.3605200052333331   F   F   F
  0.4166666269218169  0.0625000000159659  0.3605200052333331   F   F   F
  0.0833333358191695  0.8124999999834799  0.3605200052333331   F   F   F
  0.4166666269218169  0.1875000000030838  0.3605200052333331   F   F   F
  0.0833333358191695  0.9375000000154046  0.3605200052333331   F   F   F
  0.0833333358191695  0.6874999999963620  0.3605200052333331   F   F   F
  0.0833333358191695  0.4374999701794380  0.3605200052333331   F   F   F
  0.8333332538436267  0.4999999999932783  0.4070133268666680   F   F   F
  0.8333332538436267  0.7500000000123208  0.4070133268666680   F   F   F
  0.0836763126362018  0.0618688561328914  0.4542133378266701   T   T   T
  0.0835612211479520  0.3120576793858408  0.4539189015112575   T   T   T
  0.0840221080377555  0.5624822117492448  0.4537938968649021   T   T   T
  0.0835428768285603  0.8120755225884826  0.4542203031856336   T   T   T
  0.4168796399645298  0.0615568843080975  0.4553427134180127   T   T   T
  0.4152916502580496  0.3112548128372956  0.4573416492314670   T   T   T
  0.4159113220600844  0.5594338948172352  0.4577820307220040   T   T   T
  0.4170180514838830  0.8098782442284741  0.4550678312319099   T   T   T
  0.7495531551892373  0.0640338177697512  0.4533665310091506   T   T   T
  0.7473499544834263  0.3141709045395741  0.4547817536336690   T   T   T
  0.7481521759644221  0.5642889872092457  0.4537237089617322   T   T   T
  0.7493163758282283  0.8129276312886509  0.4533627828716069   T   T   T
  0.2504899591420195  0.0620098984030542  0.4542248892620380   T   T   T
  0.9152373544372610  0.3126268356872011  0.5466843041778549   T   T   T
  0.2521931578960477  0.3143377329173901  0.4539651226017626   T   T   T
  0.2519095178894738  0.5645349696760897  0.4537391564835315   T   T   T
  0.2500952333562301  0.8104815159883997  0.4554629631320425   T   T   T
  0.8333332538436267  0.2500000000190425  0.4070133268666680   F   F   F
  0.5844069350016774  0.3146707511989231  0.4540893733310591   T   T   T
  0.8333332538436267  0.0000000000000000  0.4070133268666680   F   F   F
  0.5000000000021103  0.4999999999932783  0.4070133268666680   F   F   F
  0.0833333358191695  0.1875000000030838  0.3605200052333331   F   F   F
  0.0000000000000000  0.0000000000000000  0.4070133268666680   F   F   F
  0.0000000000000000  0.2500000000190425  0.4070133268666680   F   F   F
  0.0000000000000000  0.4999999999932783  0.4070133268666680   F   F   F
  0.0000000000000000  0.7500000000123208  0.4070133268666680   F   F   F
  0.3333333432766779  0.0000000000000000  0.4070133268666680   F   F   F
  0.3333333432766779  0.2500000000190425  0.4070133268666680   F   F   F
  0.3333333432766779  0.4999999999932783  0.4070133268666680   F   F   F
  0.3333333432766779  0.7500000000123208  0.4070133268666680   F   F   F
  0.6666666865533486  0.0000000000000000  0.4070133268666680   F   F   F
  0.6666666865533486  0.2500000000190425  0.4070133268666680   F   F   F
  0.6666666865533486  0.4999999999932783  0.4070133268666680   F   F   F
  0.6666666865533486  0.7500000000123208  0.4070133268666680   F   F   F
  0.1666666716383389  0.0000000000000000  0.4070133268666680   F   F   F
  0.1666666716383389  0.2500000000190425  0.4070133268666680   F   F   F
  0.1666666716383389  0.4999999999932783  0.4070133268666680   F   F   F
  0.1666666716383389  0.7500000000123208  0.4070133268666680   F   F   F
  0.5000000000021103  0.0000000000000000  0.4070133268666680   F   F   F
  0.5000000000021103  0.2500000000190425  0.4070133268666680   F   F   F
  0.5000000000021103  0.7500000000123208  0.4070133268666680   F   F   F
  0.1670657804873312  0.1243121166428194  0.4993070991692600   T   T   T
  0.9177133864718238  0.0632434192497876  0.5474678183084807   T   T   T
  0.1677921435883800  0.8732264530513030  0.4999045065595529   T   T   T
  0.2519006856433392  0.1880521002660513  0.5473441096512099   T   T   T
  0.7493582455280776  0.9339893471039851  0.5477039201887706   T   T   T
  0.7517701100616192  0.6804330351918931  0.5529840579872605   T   T   T
  0.7524145553897980  0.4349509744211493  0.5493078809366806   T   T   T
  0.4231550969409397  0.4437839654400008  0.5454972436756840   T   T   T
  0.4224592756109723  0.6876064334495474  0.5467373323551481   T   T   T
  0.7484123084723477  0.1836327995962405  0.5507805173877680   T   T   T
  0.4157737603369023  0.9370609161084560  0.5460133611416720   T   T   T
  0.0841229385997080  0.9383153287595315  0.5461047465917179   T   T   T
  0.4157263041545605  0.1913865003094238  0.5464707405592347   T   T   T
  0.0868173781541951  0.6894316740272898  0.5453497960820846   T   T   T
  0.0824799131961427  0.4385232543038846  0.5450665574878677   T   T   T
  0.0836614543696459  0.1889458078154347  0.5454999891066206   T   T   T
  0.4995261390136816  0.1253603227293917  0.4997581952383202   T   T   T
  0.9997261171347246  0.5007191353874767  0.5943736457010110   T   T   T
 -0.0000077114532310  0.7532807736602041  0.5923431748417979   T   T   T
  0.3347288091808342  0.2542589813923954  0.5926040494670006   T   T   T
  0.3340046597116920  0.9998601554653158  0.5919924431429198   T   T   T
  0.9999130510194705  0.9991852158432573  0.5930959400131792   T   T   T
  0.0007567211121751  0.2499203291469290  0.5916059886320855   T   T   T
  0.3332543871753862  0.4964001869160747  0.5906138177690902   T   T   T
  0.3348745658850448  0.7401866964152107  0.5905344206325412   T   T   T
  0.6634238225850400  0.2475835035765886  0.5905221606572759   T   T   T
  0.6659154942472238  0.0002283909571670  0.5919515947455567   T   T   T
  0.6650362408384599  0.7427254484358972  0.5896031081640620   T   T   T
  0.6668321037761983  0.4931387311439869  0.5907721860063051   T   T   T
  0.1675123969989823  0.9983770969716862  0.5922933602701297   T   T   T
  0.1684847614327861  0.2488380504850546  0.5931963549605120   T   T   T
  0.1709224178160841  0.7495965531368554  0.5951921429337921   T   T   T
  0.2485588196372530  0.4358090371628269  0.5489802246156501   T   T   T
  0.1655998795746592  0.5021924226943262  0.5875675061979786   T   T   T
  0.2488568355627937  0.6832915717781349  0.5517216986964438   T   T   T
  0.5808179441871447  0.1858526117234624  0.5494245069518876   T   T   T
  0.9157033118924452  0.8129078354817695  0.5469445214048542   T   T   T
  0.9168930266247733  0.5634907502926878  0.5463923222135633   T   T   T
  0.5811447185987251  0.5602140231958380  0.5494111447627090   T   T   T
  0.5845814870397656  0.8134660840252418  0.5495929100157197   T   T   T
  0.5827815253749233  0.3117176034233996  0.5455177976772057   T   T   T
  0.5830657062957549  0.0628741896371915  0.5465702790616056   T   T   T
  0.2530838763604727  0.8128795540609951  0.5512433828628369   T   T   T
  0.2518644234817933  0.5590537394868613  0.5440542321688289   T   T   T
  0.2494856440415276  0.3136712710003259  0.5459320429861337   T   T   T
  0.2510676882286432  0.0624834899538186  0.5472735957079138   T   T   T
  0.7483763506824972  0.8081956838193810  0.5464024302989562   T   T   T
  0.7466659827471503  0.5575368724256774  0.5441927729762671   T   T   T
  0.4140199287733324  0.8116681642109843  0.5478494037339534   T   T   T
  0.7482664949503662  0.0595834900698369  0.5445697688632728   T   T   T
  0.7480911554262522  0.3114963670639992  0.5479489131171680   T   T   T
  0.4159623849244258  0.3197186916288315  0.5525713802219931   T   T   T
  0.4202586437823344  0.5648449397908115  0.5552966980186009   T   T   T
  0.4165151810377874  0.0652946034949505  0.5473258998145127   T   T   T
  0.0853315087886752  0.8126745127700544  0.5474140951516309   T   T   T
  0.0831310422527852  0.5639441242117677  0.5461242886793245   T   T   T
  0.0864225335150888  0.3134280991464288  0.5468934117137398   T   T   T
  0.0823977144709987  0.0631651367522878  0.5475871678000820   T   T   T
  0.9156524642502040  0.9385227192178910  0.5463949757114364   T   T   T
  0.9139642482831024  0.6891013040477856  0.5451638322067650   T   T   T
  0.5837525784370849  0.9374843571764658  0.5461357831194432   T   T   T
  0.9168788533892425  0.1888831314179084  0.5454546519529623   T   T   T
  0.9160660936270413  0.4375841273473459  0.5457390998835874   T   T   T
  0.5762212399499045  0.4362357491897903  0.5516211551508065   T   T   T
  0.5787217338899910  0.6856638190621864  0.5474365885627746   T   T   T
  0.2515906297304280  0.9373662870526189  0.5451568896726450   T   T   T
  0.4976220500353138  0.5046411735571710  0.6091607302968536   T   T   T
  0.4986177116187409  0.2529526487924739  0.5903152905489426   T   T   T
  0.4996732140939045 -0.0000405392707310  0.5910217560754677   T   T   T
  0.7490922182178759  0.6910066895744541  0.6539808057548118   T   T   T
  0.7486691136494934  0.9364119981970798  0.6399233295354863   T   T   T
  0.2535170030402192  0.1864692731100148  0.6412858166951010   T   T   T
  0.7455780455388524  0.1945180571282998  0.6468312129095714   T   T   T
  0.7557750624069218  0.4360045548201391  0.6389385255802890   T   T   T
  0.4173847261990399  0.9349762079512026  0.6397987119169916   T   T   T
  0.4206904409838892  0.6756724285313113  0.6338823691697927   T   T   T
  0.5885905326582350  0.8105085945515597  0.6445165956836602   T   T   T
  0.9160221813409108  0.0625243400423978  0.6417165803358699   T   T   T
  0.9124943659376483  0.5616202840296264  0.6418991875367880   T   T   T
  0.9151167224661981  0.3117706055296300  0.6395096738371142   T   T   T
  0.9142640949184214  0.8132383240402052  0.6414813871711139   T   T   T
  0.5821922667752475  0.0654165681172259  0.6397234563831513   T   T   T
  0.5832397037044076  0.3197688920889999  0.6342957571695993   T   T   T
  0.5928899139678977  0.5646043233959853  0.6398043026757969   T   T   T
  0.2476790191715152  0.5732871928839219  0.6290100691765300   T   T   T
  0.2620254651418290  0.7983995892566296  0.6469249699043294   T   T   T
  0.2495334282774377  0.3162195714744836  0.6413740744481535   T   T   T
  0.2509932399339223  0.0594126652361067  0.6423217955528226   T   T   T
  0.9166666865332829  0.5625000000092442  0.3605200052333331   F   F   F
  0.4994505893136600  0.3739534644743772  0.4995340520839699   T   T   T
  0.4997962427293302  0.8735632159894349  0.5006635112443331   T   T   T
  0.5000493447137198  0.6209264008312125  0.4999824328185452   T   T   T
  0.8324011967757898  0.6231035690951475  0.4999728484994052   T   T   T
  0.8327094324052110  0.8740845492018753  0.4989780632808589   T   T   T
  0.8324733041174803  0.3732008614148121  0.4996985029659889   T   T   T
  0.8328388095095456  0.1244945504708767  0.4997147661045028   T   T   T
  0.1667499221060451  0.3762526885752056  0.4977692848047573   T   T   T
  0.1678326249381284  0.6243890791783373  0.4997738689621627   T   T   T
  0.5815313466806915  0.4388820029965725  0.6459241662878064   T   T   T
  0.5796835291316795  0.6849362959418285  0.6386846154502950   T   T   T
  0.9170638793660220  0.1866223790379828  0.6406952218141974   T   T   T
  0.5822123955086216  0.9354640967910205  0.6394525861708303   T   T   T
  0.8307456808844990  0.7507833301211967  0.5927904928871216   T   T   T
  0.8315546383795021  0.2479343395147596  0.5914466665342842   T   T   T
  0.8332762726212887  0.5030117706042909  0.5887237139073570   T   T   T
  0.8322324863337685  0.0019581522841221  0.5923065568753459   T   T   T
  0.4994354206565275  0.7554643849677217  0.5926325953352543   T   T   T
  0.4177422438531836  0.0651612644291711  0.6400075618698234   T   T   T
  0.4271046647074310  0.3050912705161257  0.6550356348040471   T   T   T
  0.4119936646754265  0.8127008819393160  0.6395343766074304   T   T   T
  0.3971403524087443  0.5505435173052728  0.6515808346498284   T   T   T
  0.7525030941708991  0.5710271523205485  0.6328102702497993   T   T   T
  0.7411964449966275  0.8087195782665350  0.6407074831932090   T   T   T
  0.7465475642101287  0.3127001523287531  0.6400853959343880   T   T   T
  0.7475992590396009  0.0668506418493383  0.6391720810552304   T   T   T
  0.0837751946629023  0.3116732083921357  0.6403313444938139   T   T   T
  0.6664368395314463  0.8741388924173321  0.4992442382971237   T   T   T
  0.0874600938832552  0.5618972137734192  0.6412928847597900   T   T   T
  0.0842793163942359  0.0606087013883338  0.6421351415123516   T   T   T
  0.0866113068960650  0.4363588954856146  0.6393123832044846   T   T   T
  0.0834790307220652  0.1858068988989934  0.6409484591908803   T   T   T
  0.4184640408970594  0.1879209636211268  0.6397676490599487   T   T   T
  0.4149905225999489  0.4190756234168915  0.6297787010991517   T   T   T
  0.0844143877284281  0.9355571411322435  0.6407270024111026   T   T   T
  0.0830778244841195  0.6870645179091724  0.6398320160149903   T   T   T
  0.9127868951017769  0.4358041810525926  0.6393778223211272   T   T   T
  0.9163361844069441  0.6874838067431260  0.6395935866499736   T   T   T
  0.9146269062889766  0.9368639517870926  0.6407506997399971   T   T   T
  0.2407951525645232  0.4419744978742476  0.6416782527629799   T   T   T
  0.2559295282850352  0.6763507295917326  0.6633771797628452   T   T   T
  0.5787027079000440  0.1907009898818522  0.6441751608601796   T   T   T
  0.2520061041817889  0.9300689060274735  0.6372904624581837   T   T   T
  0.0843684265222675  0.8121197061172484  0.6420552078252693   T   T   T
  0.9166666865332829  0.8124999999834799  0.3605200052333331   F   F   F
  0.0007055121984871  0.1226132782785284  0.6196880377914388   T   T   T
  0.8333332538436267  0.6249999999803961  0.4070133268666680   F   F   F
  0.9999157493188640  0.5005869872098467  0.5069700218926108   T   T   T
  0.3310805777887787  0.4992573103528223  0.5009421075817601   T   T   T
  0.3300593054120188  0.2480215512770689  0.5027446525056053   T   T   T
  0.3331270276997066  0.0010232271437333  0.5057278519270640   T   T   T
  0.3341292066402882  0.7510034734106408  0.5018020810362380   T   T   T
  0.6660636304038170  0.0000316563921703  0.5056584227956998   T   T   T
  0.6684996850135452  0.4996054844672136  0.5005360543094390   T   T   T
  0.6669560052498059  0.2476629022612779  0.5029943530034516   T   T   T
  0.6659064213420504  0.7520728110676537  0.5020439199989294   T   T   T
  0.1660646121122002  0.0010510740062939  0.5065359797800693   T   T   T
  0.1663939732171635  0.2481915859294399  0.5062329586700709   T   T   T
  0.1637489831564693  0.4998155045708567  0.5021296015258460   T   T   T
  0.5001221605816550  0.9993549087134470  0.5055596558749343   T   T   T
  0.1648168660456711  0.7514244492161463  0.5035090841261652   T   T   T
  0.5009632251965975  0.7527957548828513  0.5038103297972867   T   T   T
  0.8342147413784219  0.0003183133523479  0.5064588590986545   T   T   T
  0.5012681766339849  0.4997454589572352  0.5002422684353867   T   T   T
  0.5010006069011990  0.2478589873001004  0.5019154982429936   T   T   T
  0.8354604693115498  0.2482239249841490  0.5033111305847763   T   T   T
  0.0001574556896135  0.7506581601089490  0.5066767954131234   T   T   T
  0.0007312478750346  0.2497277633048750  0.5057992904317196   T   T   T
  0.0001427098376890 -0.0000893412751720  0.5066671560474172   T   T   T
  0.8333332538436267  0.8749999404036828  0.4070133268666680   F   F   F
  0.0000000000000000  0.6249999999803961  0.4070133268666680   F   F   F
  0.0000000000000000  0.8749999404036828  0.4070133268666680   F   F   F
  0.3333333432766779  0.1249999999871179  0.4070133268666680   F   F   F
  0.3333333432766779  0.3750000000061604  0.4070133268666680   F   F   F
  0.3333333432766779  0.6249999999803961  0.4070133268666680   F   F   F
  0.3333333432766779  0.8749999404036828  0.4070133268666680   F   F   F
  0.6666666865533486  0.1249999999871179  0.4070133268666680   F   F   F
  0.6666666865533486  0.3750000000061604  0.4070133268666680   F   F   F
  0.6666666865533486  0.6249999999803961  0.4070133268666680   F   F   F
  0.8364087608144276  0.4998759828525125  0.5025555083079147   T   T   T
  0.6666666865533486  0.8749999404036828  0.4070133268666680   F   F   F
  0.1666666716383389  0.3750000000061604  0.4070133268666680   F   F   F
  0.1666666716383389  0.6249999999803961  0.4070133268666680   F   F   F
  0.1666666716383389  0.8749999404036828  0.4070133268666680   F   F   F
  0.5000000000021103  0.1249999999871179  0.4070133268666680   F   F   F
  0.5000000000021103  0.3750000000061604  0.4070133268666680   F   F   F
  0.5000000000021103  0.6249999999803961  0.4070133268666680   F   F   F
  0.5000000000021103  0.8749999404036828  0.4070133268666680   F   F   F
  0.8333332538436267  0.1249999999871179  0.4070133268666680   F   F   F
  0.8333332538436267  0.3750000000061604  0.4070133268666680   F   F   F
  0.1666666716383389  0.1249999999871179  0.4070133268666680   F   F   F
  0.0000000000000000  0.3750000000061604  0.4070133268666680   F   F   F
  0.8361236290887987  0.7516037156794670  0.5027416332176300   T   T   T
  0.8370325862416250  0.3721199427788477  0.6042717846652567   T   T   T
  0.8324002425444502  0.8759100792409110  0.6168032744141927   T   T   T
  0.8400704685075735  0.6269297918192173  0.6026832244338167   T   T   T
  0.9993910152281608  0.8750097132373499  0.6218405154331177   T   T   T
  0.3316349172109235  0.1197994403941422  0.6133390005670435   T   T   T
  0.3343341017837768  0.6243635545876961  0.5955207106509945   T   T   T
  0.3259806089574270  0.3735380972941446  0.5927146688371243   T   T   T
  0.6708064501456584  0.3717820781866249  0.5940442274417925   T   T   T
  0.6653312068025115  0.1244920711571059  0.6117770552316122   T   T   T
  0.3346017073447757  0.8785154412661617  0.6028234660954365   T   T   T
  0.1593810422579703  0.6270624168764455  0.6016748026371617   T   T   T
  0.1661624791049716  0.8733330893197719  0.6175075626645963   T   T   T
  0.5016499176996526  0.3712626154626206  0.5949364830988786   T   T   T
  0.5002233223477436  0.1218911930142326  0.6060733238358510   T   T   T
  0.1677059258941710  0.1228136195327290  0.6220465659259142   T   T   T
  0.1633427927162409  0.3714061112432735  0.6078091760201108   T   T   T
  0.6655992938188889  0.8805157368074785  0.6076140027745908   T   T   T
  0.6665557388401643  0.6272835173094512  0.5936419092919178   T   T   T
  0.0000180924602554  0.3745056177593254  0.6224743692569245   T   T   T
  0.9996695874135262  0.6217481408358383  0.6364900096146473   T   T   T
  0.8334792024657449  0.1249894840930850  0.6199906709881365   T   T   T
  0.5006129097040075  0.8763711119196276  0.6099807392450863   T   T   T
  0.0000000000000000  0.1249999999871179  0.4070133268666680   F   F   F
  0.5037577635267519  0.6251778081196652  0.5936965989417481   T   T   T
  0.9164096116901179  0.0002585228011431  0.6037950856608764   T   T   T
  0.5856244490426792  0.7515786758927985  0.5988977098450931   T   T   T
  0.5907340258819450  0.5010694079843711  0.5937103535312468   T   T   T
  0.2426177161086337  0.4975888038499404  0.5941253878381718   T   T   T
  0.2501876323740341  0.7526236901985922  0.5921598051081006   T   T   T
  0.5839923903423088  0.2474027237822966  0.5968846148548187   T   T   T
  0.5827077753836434  0.0007921774667464  0.6042736047484983   T   T   T
  0.2497153061651258  0.9976596920150445  0.6042660761920819   T   T   T
  0.2490983768779280  0.2456192125871968  0.6036291271300041   T   T   T
  0.4171438586667852  0.0000343899423847  0.6046624947149818   T   T   T
  0.4146772082444472  0.2487232022119111  0.5910823191362655   T   T   T
  0.4177969817019275  0.7501649106912246  0.5946900448921862   T   T   T
  0.7563182748299611  0.5009821226643600  0.5940287904002356   T   T   T
  0.7524928905727912  0.7514589508306806  0.5911355862975072   T   T   T
  0.7537067379385473  0.2480688501131333  0.5943389272399224   T   T   T
  0.7497463009603506  0.0016220885951684  0.6041983276379003   T   T   T
  0.0834805713299600  0.2480679837866288  0.6034590209463392   T   T   T
  0.0814973870775330  0.5001339794750841  0.6031871178243288   T   T   T
  0.0811173443771409  0.7509499057861887  0.6034872115364018   T   T   T
  0.0835895526898732  0.9988097246289042  0.6037449051705936   T   T   T