Au  C  H  O Sr Ti                       
   1.00000000000000     
    23.6707801818999997    0.0000000000000000    0.0000000000000000
     0.0000000000000000   22.3170261383000010    0.0000000000000000
     0.0000000000000000    0.0000000000000000   30.0000000000000000
   Au   C    H    O    Sr   Ti
    50     2     4   264    72    72
Selective dynamics
Direct
  0.7133139156226491  0.5320322731247913  0.7547277253216649   F   F   F
  0.5697377509125232  0.5128202038336482  0.8578092081771658   F   F   F
  0.6414534318665872  0.1813115985458964  0.7425168143354526   T   T   T
  0.4712031808830162  0.4532323838410903  0.8776646776597872   F   F   F
  0.5229010625362420  0.3812850234365470  0.7340659587375455   F   F   F
  0.2808194944442732  0.3416900954656228  0.7026766613119975   F   F   F
  0.6694707651161664  0.6828921204863008  0.7482340310196562   F   F   F
  0.3968405186755106  0.3824084566356163  0.6907322649150061   F   F   F
  0.4507753593520505  0.5789961745758703  0.7040145194808147   F   F   F
  0.3751456154431168  0.4960288437105120  0.8336351389563816   F   F   F
  0.3226063534082755  0.4170990689430312  0.7710123963935018   F   F   F
  0.3703108400994495  0.6217799616900521  0.8203138224265558   F   F   F
  0.4145013095151242  0.6951336034527458  0.7002347601806065   F   F   F
  0.7724154305606561  0.4381058086536598  0.7936420723030793   F   F   F
  0.2577559228251545  0.5945173231969036  0.6944131471985173   F   F   F
  0.6364301546816336  0.4364316118113081  0.7066107231596064   F   F   F
  0.5622612958565654  0.6424274799751828  0.8648623415066226   F   F   F
  0.5394421893234451  0.6670946238556326  0.7022135871196582   F   F   F
  0.4391423320116559  0.4698281338854642  0.7547146545794305   F   F   F
  0.3763677019771663  0.7430100072148562  0.7801410800709405   F   F   F
  0.4612752148489605  0.5760273066822990  0.8676872857148012   F   F   F
  0.6504079032518035  0.4461721198644923  0.8078625924343896   F   F   F
  0.7062754181923054  0.7578791256774622  0.6875287262225100   F   F   F
  0.6995405732847217  0.3491792706184427  0.7598509648636238   T   T   T
  0.2899173883787327  0.5405351379718510  0.7777727043017180   F   F   F
  0.6142778204304946  0.3111387418769525  0.6990947176428222   F   F   F
  0.5381286958552352  0.2114211716815859  0.7056572832512060   F   F   F
  0.2947424466246886  0.7471806579736153  0.6950899568017803   F   F   F
  0.5035690821793395  0.6122783816205626  0.7792825917082027   F   F   F
  0.5778061072236369  0.7241399970196127  0.7944199973091699   F   F   F
  0.2393146032669691  0.4701866534171444  0.7106449850667715   F   F   F
  0.2893382645990386  0.6646453538280994  0.7631093613628792   F   F   F
  0.6009837700864153  0.2862827751695249  0.7873773624884493   F   F   F
  0.5133225319390320  0.4847058539492508  0.6770618799529942   F   F   F
  0.5539434743501133  0.4975479608947708  0.7636330120721837   F   F   F
  0.4830391130163818  0.2727109961462730  0.7728553308243633   F   F   F
  0.5478967942844406  0.3842762805037765  0.8283244995252161   F   F   F
  0.3919185157295644  0.8171230336558466  0.7066081820864341   F   F   F
  0.4630538534144577  0.7022091615291330  0.8363654836217975   F   F   F
  0.4225813230080675  0.2279592630616278  0.6990975871668610   F   F   F
  0.3669116194433926  0.3019049358243961  0.7577554631384871   F   F   F
  0.3466621079361545  0.5007103622791433  0.6962105539518788   F   F   F
  0.4276123903592719  0.3723738756581341  0.8170379238425056   F   F   F
  0.5957962348864072  0.7841663016150449  0.7127268509744127   F   F   F
  0.6294340254813449  0.5905340056368900  0.8002395235778721   F   F   F
  0.7324824566113932  0.6176379222279209  0.6930729268576528   F   F   F
  0.4867058408238591  0.7766498061596465  0.7549198191514606   F   F   F
  0.7570495008131388  0.4368190494306461  0.7039266733526546   F   F   F
  0.7469616123266221  0.2384809966071799  0.6969704542874737   T   T   T
  0.6225626709837329  0.5692579911212761  0.7029566896862107   F   F   F
  0.7638198608866702  0.2831385401719331  0.7542145416348589   T   T   T
  0.7273107685546734  0.1656261463767734  0.7362667370646392   T   T   T
  0.7596424667669979  0.2578253616990480  0.7851722732198994   T   T   T
  0.8039937933648034  0.3070536230194847  0.7525478343192944   T   T   T
  0.7477718707801628  0.1635580639377991  0.7686831335548447   T   T   T
  0.7327543946045694  0.1247510287555542  0.7161052020848850   T   T   T
  0.7501686305791466  0.1873214942683745  0.4535537609109923   F   F   F
  0.5828261662627341  0.0624975563693226  0.5459224518622676   F   F   F
  0.5850332063245034  0.8145895942700392  0.5506296638762720   F   F   F
  0.7471516312779372  0.3136944476584560  0.5489225536284223   F   F   F
  0.5810416075607847  0.5602989415221558  0.5489824784897479   F   F   F
  0.2526552549372454  0.5590778910515795  0.5438941832359987   F   F   F
  0.4161124376059178  0.3188485700638424  0.5524618194234492   F   F   F
  0.5767241589098262  0.4361570295260506  0.5515591203800696   F   F   F
  0.4165430993519124  0.0649917868299497  0.5470792832164264   F   F   F
  0.0854489454382019  0.8125845555101634  0.5473684747374179   F   F   F
  0.0847375321010517  0.3134265345763723  0.5471406621671520   F   F   F
  0.4994982508014516  0.7564481953090549  0.5925730164152156   F   F   F
  0.0824952174261711  0.0630909280872842  0.5474339750740214   F   F   F
  0.9144231763601525  0.6886902061218123  0.5455736755331699   F   F   F
  0.5839051797386006  0.9379420790685700  0.5460862751141207   F   F   F
  0.9164824657062809  0.1879221454188951  0.5454744538945207   F   F   F
  0.9153965674642990  0.4374609120815265  0.5457096407574582   F   F   F
  0.5789889639786949  0.6860952689587592  0.5475571126473469   F   F   F
  0.2515004389342650  0.9372288367068364  0.5451818046662282   F   F   F
  0.4970062095335095  0.5048025487830614  0.6085518878437171   F   F   F
  0.9177174951413747  0.5637410582290698  0.5471536323641430   F   F   F
  0.4196571549627919  0.5644634686636181  0.5552206647121096   F   F   F
  0.9156073291564866  0.8125776454008005  0.5468401670930092   F   F   F
  0.0841382867059295  0.9383758165006597  0.5460272112621922   F   F   F
  0.2487760457990333  0.6832123744413678  0.5514856253170066   F   F   F
  0.7483245520505548  0.9343931446102332  0.5470083779223671   F   F   F
  0.7514520837222989  0.6808537973025679  0.5529352843701574   F   F   F
  0.9159413194157580  0.9382623151748106  0.5461004459342931   F   F   F
  0.4176274755164400  0.0653439294537321  0.6398478088722328   F   F   F
  0.5826805481458948  0.9371594981009324  0.4543156463324749   F   F   F
  0.2533166915534864  0.8126325106061927  0.5504442726665459   F   F   F
  0.5840204097920818  0.3112771123470495  0.5461660546429528   F   F   F
  0.7527586031226434  0.4366130575049283  0.5481398959934793   F   F   F
  0.0855296279066877  0.6890839023761686  0.5454039637728556   F   F   F
  0.0829341344084895  0.4388378078683672  0.5448181934854190   F   F   F
  0.0836953710038557  0.1888701970635225  0.5456546783623040   F   F   F
  0.4998131747634886  0.1256534918954770  0.4996024197038196   F   F   F
  0.9994433743086617  0.4980538017168215  0.5939971255660481   F   F   F
  0.5812385846472594  0.1860275883729443  0.5495925258944254   F   F   F
  0.0001405733994417  0.7535842063813760  0.5927149265711762   F   F   F
  0.3340202721680683  0.9998844205860067  0.5919242251089045   F   F   F
  0.9999820967492283  0.9983659697904628  0.5926240923240300   F   F   F
  0.0000903237241090  0.2477125160978986  0.5924276155631389   F   F   F
  0.3330667073517048  0.4955965576815728  0.5912327063755924   F   F   F
  0.3347052430098785  0.7402997179647244  0.5901933828453210   F   F   F
  0.6652049427794324  0.2462180666741460  0.5911349548934268   F   F   F
  0.6659064815495483  0.0000279591668217  0.5918184146959788   F   F   F
  0.6647858385930689  0.7419492763070465  0.5906388854812050   F   F   F
  0.6668073950398323  0.4948506883327113  0.5909026691014390   F   F   F
  0.1674158217023560  0.9985269479319925  0.5922232202072166   F   F   F
  0.1683482112286470  0.2494353434656986  0.5932464185181487   F   F   F
  0.1709682117349942  0.7501631392534449  0.5947913998174101   F   F   F
  0.2480240237849998  0.4355503416286979  0.5495223044778399   F   F   F
  0.1653536191248079  0.5036510915400356  0.5871899131498566   F   F   F
  0.3346052482705417  0.2538861778427801  0.5919848488001378   F   F   F
  0.4996128099482817  0.0000185601368585  0.5909936723432310   F   F   F
  0.8326051886317103  0.8741286584081109  0.4988518464292184   F   F   F
  0.7473218660178844  0.9336605711147783  0.6399946641780687   F   F   F
  0.8322112279632776  0.9977148293846412  0.5922209101424301   F   F   F
  0.7500371743735812  0.1868853912183610  0.5467072837752625   F   F   F
  0.4227375469294401  0.6872400795295164  0.5469840050022086   F   F   F
  0.4231895984017697  0.4432741860210996  0.5460843564865314   F   F   F
  0.0833333358191695  0.3124999999901945  0.3605200052333331   F   F   F
  0.4116157091442787  0.8128535343558880  0.6391449535317051   F   F   F
  0.9153313276644894  0.0618986380748225  0.6399195585225783   F   F   F
  0.9142919900792776  0.5623717802435024  0.6406811806809145   F   F   F
  0.4173430587001405  0.9350251992314824  0.6398515277589709   F   F   F
  0.7412233255294538  0.8106611530652046  0.6395324607513828   F   F   F
  0.7510107190353068  0.3062094757047191  0.6444955089399258   F   F   F
  0.7489300121912237  0.0624795426452422  0.6401448756949719   F   F   F
  0.0833075299600949  0.3115660343209896  0.6404093033741063   F   F   F
  0.6662427738248695  0.8742027992103019  0.4988154708770551   F   F   F
  0.0857604338505169  0.5626410770260080  0.6398273448245604   F   F   F
  0.0872670593374067  0.4363535450525262  0.6396147460429376   F   F   F
  0.0836262257227460  0.1854943979866732  0.6411893641332185   F   F   F
  0.4170695024094044  0.1869102191091088  0.6396812465387427   F   F   F
  0.4160408929999235  0.4180801786600412  0.6301907831647213   F   F   F
  0.0846753524739370  0.9357963871788968  0.6410187328968036   F   F   F
  0.0833177726046443  0.6868685166887758  0.6387991786895952   F   F   F
  0.0836320531491310  0.0607486484470314  0.6415880871185706   F   F   F
  0.8330577398923538  0.5030890515196802  0.5897299240036631   F   F   F
  0.9121184886817701  0.4354137471891306  0.6400449689611563   F   F   F
  0.8307340678906385  0.7513836799718732  0.5924170736873862   F   F   F
  0.8319023070204494  0.2493879866112039  0.5904047428816099   F   F   F
  0.7472462422995889  0.1860038094840064  0.6402093305952405   F   F   F
  0.9166666865332829  0.8124999999834799  0.3605200052333331   F   F   F
  0.5814847094169622  0.9355532116421301  0.6393210048851401   F   F   F
  0.0852344456029783  0.8121528032036807  0.6427799869535420   F   F   F
  0.5774488350506743  0.1911106226246417  0.6442957319787794   F   F   F
  0.2538036221740043  0.6786375109294838  0.6624625006432012   F   F   F
  0.2391406767708801  0.4440523426957554  0.6427238196575900   F   F   F
  0.9155678116094847  0.9366591361370808  0.6415928973613489   F   F   F
  0.9161392187716118  0.6872706347549311  0.6385152319311231   F   F   F
  0.2519418322209361  0.9304676173411437  0.6373626543990909   F   F   F
  0.2535400464308708  0.1867438276212638  0.6412826486014964   F   F   F
  0.3975674700460559  0.5502455501861547  0.6518787053579302   F   F   F
  0.4174315772039066  0.1905628784161948  0.5473044098108133   F   F   F
  0.7526007806277875  0.5688907580572860  0.6356242168126300   F   F   F
  0.4998878053412028  0.8735229471795236  0.5008301603770775   F   F   F
  0.9152327118112282  0.3105755273058293  0.6402064353136296   F   F   F
  0.9142050152931134  0.8125293119668981  0.6425840342579008   F   F   F
  0.5827886116383354  0.0661423470620974  0.6387737949220309   F   F   F
  0.2493340054425346  0.3134930540514915  0.5457009385170934   F   F   F
  0.5906637196889903  0.5660087249375891  0.6386552924819213   F   F   F
  0.2476874565764433  0.5740903357032181  0.6287405213718529   F   F   F
  0.7535910934329166  0.6943584908383755  0.6545483257664273   F   F   F
  0.2625332593844121  0.8011910026445932  0.6457273411104083   F   F   F
  0.2510053799099410  0.0595970840676685  0.6420296469592159   F   F   F
  0.9166666865332829  0.5625000000092442  0.3605200052333331   F   F   F
  0.4997304943586727  0.3729346620443152  0.5007659306833077   F   F   F
  0.5001023216463096  0.6209526608043916  0.4999307296329434   F   F   F
  0.8323712686683820  0.6230834805746071  0.5000833173549424   F   F   F
  0.2516930429580526  0.1879426620433122  0.5473758440521621   F   F   F
  0.8326070055298800  0.3728832776759958  0.4995008738190307   F   F   F
  0.8331548747914681  0.1242491810018791  0.4990012571398381   F   F   F
  0.1664840725825059  0.3758318970921195  0.4978386212051191   F   F   F
  0.1674545191779870  0.6240344909256663  0.5001452467902254   F   F   F
  0.5806330382287683  0.4394661280355052  0.6452323808297962   F   F   F
  0.5766151385701761  0.6863134239807280  0.6398833153854255   F   F   F
  0.9136704079474711  0.1847885321935081  0.6396830014891250   F   F   F
  0.2504581172953451  0.3172954288666716  0.6407066633238259   F   F   F
  0.1677256891886358  0.8732982053322544  0.4998282463418846   F   F   F
  0.9157319163037556  0.4370534353068649  0.4535734077579789   F   F   F
  0.1670873026478574  0.1242978920049183  0.4993283304476250   F   F   F
  0.7496114596851555  0.0615794451628844  0.5461073508287981   F   F   F
  0.4210024167891930  0.3033429012281843  0.6557372563842918   F   F   F
  0.5898502602474522  0.8104789535476726  0.6460605373802224   F   F   F
  0.4201159913664299  0.6760554066862454  0.6339829409946276   F   F   F
  0.7525073730861038  0.4339179716633836  0.6374002343999976   F   F   F
  0.4991241403867264  0.2544249752527747  0.5917211795592223   F   F   F
  0.5889268697630072  0.3197129658219282  0.6344921687407847   F   F   F
  0.9160332597026724  0.1867059286720405  0.4530180748859891   F   F   F
  0.6652681525517181  0.6261077819606271  0.5029815783074270   F   F   F
  0.5845612389839445  0.5624717930803484  0.4550034441575832   F   F   F
  0.5833296994885799  0.0634988628936384  0.4540958903600938   F   F   F
  0.9166666865332829  0.6874999999963620  0.3605200052333331   F   F   F
  0.9166666865332829  0.4374999701794380  0.3605200052333331   F   F   F
  0.9166666865332829  0.1875000000030838  0.3605200052333331   F   F   F
  0.5833333134730552  0.9375000000154046  0.3605200052333331   F   F   F
  0.5833333134730552  0.6874999999963620  0.3605200052333331   F   F   F
  0.5833333134730552  0.4374999701794380  0.3605200052333331   F   F   F
  0.5833333134730552  0.1875000000030838  0.3605200052333331   F   F   F
  0.2499999999799343  0.9375000000154046  0.3605200052333331   F   F   F
  0.9166666865332829  0.9375000000154046  0.3605200052333331   F   F   F
  0.2499999999799343  0.6874999999963620  0.3605200052333331   F   F   F
  0.2499999999799343  0.1875000000030838  0.3605200052333331   F   F   F
  0.7499999404149307  0.9375000000154046  0.3605200052333331   F   F   F
  0.7499999404149307  0.6874999999963620  0.3605200052333331   F   F   F
  0.7499999404149307  0.4374999701794380  0.3605200052333331   F   F   F
  0.7499999404149307  0.1875000000030838  0.3605200052333331   F   F   F
  0.4166666269218169  0.9375000000154046  0.3605200052333331   F   F   F
  0.4166666269218169  0.6874999999963620  0.3605200052333331   F   F   F
  0.4166666269218169  0.4374999701794380  0.3605200052333331   F   F   F
  0.2499999999799343  0.4374999701794380  0.3605200052333331   F   F   F
  0.0833333358191695  0.0625000000159659  0.3605200052333331   F   F   F
  0.9152953929198162  0.6868593995606318  0.4533179314419016   F   F   F
  0.6655286735286481  0.3786387465735928  0.5029757080428467   F   F   F
  0.3344138054274808  0.3783833190718795  0.5031498297094217   F   F   F
  0.3354507950123988  0.6255872212509956  0.5035074454516320   F   F   F
  0.9161856380207283  0.0622931481473756  0.5465603444404081   F   F   F
  0.7496293531652256  0.9374990980945412  0.4548910060164602   F   F   F
  0.2499665758351739  0.9360977724833361  0.4539847242883326   F   F   F
  0.2500105755247688  0.1887094090790740  0.4543551917230104   F   F   F
  0.7490461764945024  0.6886960054984783  0.4571879473389870   F   F   F
  0.2505813344422521  0.0620837298225112  0.4541598904740454   F   F   F
  0.4170212566056790  0.9362811959082222  0.4541185808760346   F   F   F
  0.4158360976775555  0.9367750982578968  0.5461895323478529   F   F   F
  0.4171889399342987  0.6851733365639276  0.4550213730297727   F   F   F
  0.4172736119001712  0.4355405856413981  0.4542206567374691   F   F   F
  0.0843095733958847  0.6869503948748772  0.4531446431343369   F   F   F
  0.0839661780144141  0.9368630686525066  0.4536450594424437   F   F   F
  0.0827236855126188  0.4368124834117353  0.4528188770461412   F   F   F
  0.0838426925964484  0.1865935134686438  0.4529806243321488   F   F   F
  0.9165359915465672  0.8121208988853681  0.4540562774869699   F   F   F
  0.7466495383658511  0.5586373401890583  0.5447367476550511   F   F   F
  0.9161081850257133  0.5622196632950178  0.4540690142815933   F   F   F
  0.9163393791605401  0.0621834622136177  0.4538504911813348   F   F   F
  0.9162654135744575  0.3121657988532647  0.4538371726162609   F   F   F
  0.4170525505852325  0.1873489357576830  0.4538629249384556   F   F   F
  0.5823880340190115  0.4386031261901451  0.4559987384695390   F   F   F
  0.2519573011121921  0.6875295718744567  0.4559595189200749   F   F   F
  0.5832147498143101  0.1895783113151452  0.4552871848938338   F   F   F
  0.0001209235801838  0.1250522107748253  0.4984869603434419   F   F   F
  0.5831350156688231  0.8103878297164329  0.4554633641759764   F   F   F
  0.9998239760931398  0.3738023899997245  0.4981396881232172   F   F   F
  0.9996219994548170  0.6270778070718990  0.4976494001113707   F   F   F
  0.3338308687672438  0.1258085057531986  0.4987928505280408   F   F   F
  0.0001435250196806  0.8749250095584031  0.4994409459376499   F   F   F
  0.3334371235390634  0.8739592391456483  0.4987908712792830   F   F   F
  0.6662188819599777  0.1255101395034615  0.4997873790857597   F   F   F
  0.2512324851604362  0.4395722050763951  0.4551780456128398   F   F   F
  0.0833333358191695  0.5625000000092442  0.3605200052333331   F   F   F
  0.9166666865332829  0.0625000000159659  0.3605200052333331   F   F   F
  0.7492850063868204  0.8130971980780686  0.4530602426482773   F   F   F
  0.7494221454801320  0.4379771289876686  0.4551838517750824   F   F   F
  0.9163906017021546  0.9369364887986578  0.4535152097488009   F   F   F
  0.9159403784917188  0.3124159696238706  0.5468132249254509   F   F   F
  0.0807006512718260  0.5643405740081562  0.5463450165993393   F   F   F
  0.5833333134730552  0.0625000000159659  0.3605200052333331   F   F   F
  0.5840975292156259  0.3146142821212266  0.4542831019485760   F   F   F
  0.7478420972619659  0.8080005050625942  0.5454555359634554   F   F   F
  0.5000000000021103  0.4999999999932783  0.4070133268666680   F   F   F
  0.0833333358191695  0.1875000000030838  0.3605200052333331   F   F   F
  0.0000000000000000  0.0000000000000000  0.4070133268666680   F   F   F
  0.0000000000000000  0.2500000000190425  0.4070133268666680   F   F   F
  0.0000000000000000  0.4999999999932783  0.4070133268666680   F   F   F
  0.7481745459768234  0.5642949911766451  0.4537739496944297   F   F   F
  0.3333333432766779  0.0000000000000000  0.4070133268666680   F   F   F
  0.3333333432766779  0.4999999999932783  0.4070133268666680   F   F   F
  0.3333333432766779  0.7500000000123208  0.4070133268666680   F   F   F
  0.6666666865533486  0.0000000000000000  0.4070133268666680   F   F   F
  0.6666666865533486  0.2500000000190425  0.4070133268666680   F   F   F
  0.6666666865533486  0.4999999999932783  0.4070133268666680   F   F   F
  0.8333332538436267  0.2500000000190425  0.4070133268666680   F   F   F
  0.1666666716383389  0.0000000000000000  0.4070133268666680   F   F   F
  0.1666666716383389  0.4999999999932783  0.4070133268666680   F   F   F
  0.1666666716383389  0.7500000000123208  0.4070133268666680   F   F   F
  0.5000000000021103  0.0000000000000000  0.4070133268666680   F   F   F
  0.5000000000021103  0.2500000000190425  0.4070133268666680   F   F   F
  0.5000000000021103  0.7500000000123208  0.4070133268666680   F   F   F
  0.9166666865332829  0.3124999999901945  0.3605200052333331   F   F   F
  0.3333333432766779  0.2500000000190425  0.4070133268666680   F   F   F
  0.7474445888964993  0.3127745844961964  0.4552474823445181   F   F   F
  0.0000000000000000  0.7500000000123208  0.4070133268666680   F   F   F
  0.4170171360814194  0.8104598410072512  0.4548157518259615   F   F   F
  0.7492788559459527  0.0625085836876806  0.4538174653637910   F   F   F
  0.8333332538436267  0.0000000000000000  0.4070133268666680   F   F   F
  0.5827211334168183  0.6859911539628314  0.4546484650192539   F   F   F
  0.2517905996847389  0.5647098409524673  0.4536342467443077   F   F   F
  0.1666666716383389  0.2500000000190425  0.4070133268666680   F   F   F
  0.2502537596649290  0.8107038805955753  0.4552925033022319   F   F   F
  0.6666666865533486  0.7500000000123208  0.4070133268666680   F   F   F
  0.5833333134730552  0.8124999999834799  0.3605200052333331   F   F   F
  0.2499999999799343  0.5625000000092442  0.3605200052333331   F   F   F
  0.5833333134730552  0.5625000000092442  0.3605200052333331   F   F   F
  0.2499999999799343  0.8124999999834799  0.3605200052333331   F   F   F
  0.2499999999799343  0.3124999999901945  0.3605200052333331   F   F   F
  0.2499999999799343  0.0625000000159659  0.3605200052333331   F   F   F
  0.7499999404149307  0.5625000000092442  0.3605200052333331   F   F   F
  0.7499999404149307  0.3124999999901945  0.3605200052333331   F   F   F
  0.7499999404149307  0.0625000000159659  0.3605200052333331   F   F   F
  0.4166666269218169  0.8124999999834799  0.3605200052333331   F   F   F
  0.4166666269218169  0.3124999999901945  0.3605200052333331   F   F   F
  0.7499999404149307  0.8124999999834799  0.3605200052333331   F   F   F
  0.0834340634240789  0.3119988653995165  0.4540271318663542   F   F   F
  0.4166666269218169  0.0625000000159659  0.3605200052333331   F   F   F
  0.4170995203514209  0.0619523786969154  0.4551741408496426   F   F   F
  0.0835376233153085  0.8120695140489431  0.4541597482718203   F   F   F
  0.4166666269218169  0.5625000000092442  0.3605200052333331   F   F   F
  0.4136413860655708  0.8113550464654296  0.5474285152401563   F   F   F
  0.5833333134730552  0.3124999999901945  0.3605200052333331   F   F   F
  0.0839525930243994  0.5624785315878853  0.4538836193219566   F   F   F
  0.2514400802706902  0.0623176513312700  0.5469902829997579   F   F   F
  0.8333332538436267  0.4999999999932783  0.4070133268666680   F   F   F
  0.4166666269218169  0.1875000000030838  0.3605200052333331   F   F   F
  0.0833333358191695  0.9375000000154046  0.3605200052333331   F   F   F
  0.0833333358191695  0.8124999999834799  0.3605200052333331   F   F   F
  0.0833333358191695  0.4374999701794380  0.3605200052333331   F   F   F
  0.8333332538436267  0.7500000000123208  0.4070133268666680   F   F   F
  0.4155627563047304  0.3114278704971554  0.4573244804607128   F   F   F
  0.0837991041718524  0.0619410466279930  0.4541528151969061   F   F   F
  0.4159019207140204  0.5595497890851178  0.4577282649025491   F   F   F
  0.0833333358191695  0.6874999999963620  0.3605200052333331   F   F   F
  0.2522137826885924  0.3144815582022247  0.4539068507059625   F   F   F
  0.1666666716383389  0.8749999404036828  0.4070133268666680   F   F   F
  0.5000000000021103  0.1249999999871179  0.4070133268666680   F   F   F
  0.8361573592233640  0.7514280624856866  0.5025377741643453   F   F   F
  0.8364878656224732  0.3713552612368076  0.6058665493623749   F   F   F
  0.8328134232339508  0.8758699250049276  0.6190153708577029   F   F   F
  0.1635384544944074  0.4997244456058354  0.5020521472750943   F   F   F
  0.5000000000021103  0.8749999404036828  0.4070133268666680   F   F   F
  0.3313083530892982  0.1197893662862697  0.6117533506753787   F   F   F
  0.8397546895596264  0.6264819363529028  0.6036587361048547   F   F   F
  0.5000000000021103  0.6249999999803961  0.4070133268666680   F   F   F
  0.6665924899942013  0.1219045828276890  0.6092060460805797   F   F   F
  0.8333332538436267  0.1249999999871179  0.4070133268666680   F   F   F
  0.8333332538436267  0.3750000000061604  0.4070133268666680   F   F   F
  0.9999011935687605  0.8742161969400115  0.6248055689215661   F   F   F
  0.0000000000000000  0.1249999999871179  0.4070133268666680   F   F   F
  0.9997097551430585  0.6234331434456237  0.6233901726045588   F   F   F
  0.1666666716383389  0.6249999999803961  0.4070133268666680   F   F   F
  0.3341481722242179  0.6244984657931241  0.5947057732089220   F   F   F
  0.5000958067233796  0.1216788671194919  0.6054266444357452   F   F   F
  0.8326925350167826  0.1217517663779830  0.6121517430101235   F   F   F
  0.9996708798266951  0.3747177991028536  0.6234711353931672   F   F   F
  0.6663437426442655  0.6262698814267225  0.5930547035820695   F   F   F
  0.6641578620639308  0.8799116575002728  0.6066159454363174   F   F   F
  0.1634990123699964  0.3711140970965516  0.6078852446687506   F   F   F
  0.1676341154759768  0.1228511516957127  0.6218403399629793   F   F   F
  0.1595963949160009  0.6270672286791950  0.6014586471316008   F   F   F
  0.5035729716173734  0.3711020477017755  0.5957291024193836   F   F   F
  0.1664120388557109  0.8737731337052423  0.6175875033028078   F   F   F
  0.3345630134740389  0.8789678894950868  0.6027497901432000   F   F   F
  0.6725440776714748  0.3726019524069528  0.5967887155789668   F   F   F
  0.6666666865533486  0.8749999404036828  0.4070133268666680   F   F   F
  0.5000000000021103  0.3750000000061604  0.4070133268666680   F   F   F
  0.5033819137640734  0.6246575909578667  0.5942569688555963   F   F   F
  0.0000000000000000  0.3750000000061604  0.4070133268666680   F   F   F
  0.1666666716383389  0.1249999999871179  0.4070133268666680   F   F   F
  0.5002812283115219  0.8767150769818812  0.6096612158616921   F   F   F
  0.8357926316019828  0.4994932279322768  0.5030451247251833   F   F   F
  0.9993675702047469  0.4997826332277384  0.5066321074242737   F   F   F
  0.5013024898801746  0.4996488842236815  0.5004464013663537   F   F   F
  0.6679135552359554  0.2479280935494259  0.5034464357295931   F   F   F
  0.3331873856798637  0.0009557873667276  0.5056257104065622   F   F   F
  0.3301945113116460  0.2480028526680940  0.5027829871398950   F   F   F
  0.6688070937682653  0.4994542084521854  0.5007121165606208   F   F   F
  0.8333332538436267  0.6249999999803961  0.4070133268666680   F   F   F
  0.1644724849831363  0.7512486405205436  0.5033853667256238   F   F   F
  0.6664889178108311  0.0005401987782605  0.5054873615762716   F   F   F
  0.5009853179440995  0.7527301411866745  0.5038414955945569   F   F   F
  0.6654379817902765  0.7516644064894109  0.5022061119896009   F   F   F
  0.1666666716383389  0.3750000000061604  0.4070133268666680   F   F   F
  0.3267065216671625  0.3730277799050512  0.5925283068361367   F   F   F
  0.9999455265581929  0.1231451785630853  0.6197387958837908   F   F   F
  0.8345878744103814  0.2484397144909707  0.5036585534562974   F   F   F
  0.6666666865533486  0.3750000000061604  0.4070133268666680   F   F   F
  0.3311667501889346  0.4991155968743186  0.5010120337073047   F   F   F
  0.0000000000000000  0.8749999404036828  0.4070133268666680   F   F   F
  0.1659823975456902  0.0010996268853916  0.5064598343262006   F   F   F
  0.3339817617181069  0.7510182778088108  0.5015203505661248   F   F   F
  0.5001675224250377  0.9991063074737383  0.5054467024058340   F   F   F
  0.1661779054682526  0.2483023213164373  0.5063316105325057   F   F   F
  0.0000000000000000  0.6249999999803961  0.4070133268666680   F   F   F
  0.6666666865533486  0.1249999999871179  0.4070133268666680   F   F   F
  0.8338505655357906  0.0001120082563233  0.5060797308667375   F   F   F
  0.3333333432766779  0.3750000000061604  0.4070133268666680   F   F   F
  0.3333333432766779  0.8749999404036828  0.4070133268666680   F   F   F
  0.3333333432766779  0.6249999999803961  0.4070133268666680   F   F   F
  0.8333332538436267  0.8749999404036828  0.4070133268666680   F   F   F
  0.6666666865533486  0.6249999999803961  0.4070133268666680   F   F   F
  0.0001523268525858  0.9997666798029172  0.5064229039619903   F   F   F
  0.0004040861811632  0.2495901215739664  0.5061194901445631   F   F   F
  0.0000401479307683  0.7509470727178709  0.5067284701921295   F   F   F
  0.5014584344466755  0.2480826277318968  0.5022778745054097   F   F   F
  0.3333333432766779  0.1249999999871179  0.4070133268666680   F   F   F
  0.0833333358191695  0.2500000000190425  0.4070133268666680   F   F   F
  0.7526356527540585  0.7523682414977984  0.5905485934304338   F   F   F
  0.2499999999799343  0.2500000000190425  0.4070133268666680   F   F   F
  0.0833333358191695  0.7500000000123208  0.4070133268666680   F   F   F
  0.0833333358191695  0.4999999999932783  0.4070133268666680   F   F   F
  0.0833333358191695  0.0000000000000000  0.4070133268666680   F   F   F
  0.9181297836222555  0.3740254705010386  0.5059925983100229   F   F   F
  0.9166666865332829  0.7500000000123208  0.4070133268666680   F   F   F
  0.5833311671170449  0.1232812512772625  0.5043633218182109   F   F   F
  0.7523684638809769  0.6243475409668449  0.5024359959220206   F   F   F
  0.5837775631548254  0.8758154523920680  0.5057415158032867   F   F   F
  0.9174871401175437  0.1244098463433403  0.5059215982169221   F   F   F
  0.4166666269218169  0.4999999999932783  0.4070133268666680   F   F   F