Au  C  H  O Sr Ti 
 1.0000000000000000
    23.6707801818999997    0.0000000000000000    0.0000000000000000
     0.0000000000000000   22.3170261383000010    0.0000000000000000
     0.0000000000000000    0.0000000000000000   30.0000000000000000
 Au  C   H   O   Sr  Ti 
  50   3   7 264  72  72
Selective dynamics
Cartesian
 16.8749915679120264 11.8522693373768249 22.6322860939803725   F   F   F
 15.6946142041349574  3.9929954194554442 22.2261532251849587   T   T   T
 11.1677354345721156 10.0310422939873938 26.3129714328585216   F   F   F
 12.3011015860366602  8.4559525533684941 21.9830559294631875   F   F   F
  6.6803048936663307  7.5851435594803283 21.0715766517512009   F   F   F
 15.8469599185670731 15.2320429597657938 22.4487164498669252   F   F   F
  9.4150812012065490  8.5213290439867500 20.7147985337017175   F   F   F
 10.6872934859689082 12.9525556141191007 21.0926488887891388   F   F   F
  8.8774393336382733 10.9951373298778297 24.9930332894375660   F   F   F
  6.8457932720688897 12.0082767261861587 23.3314466584268523   F   F   F
  8.7145741053195067 13.8169772588269453 24.6068100900235045   F   F   F
 16.4529270176510352  7.9749300469671232 22.9038501010099793   T   T   T
  7.6994169358679230  9.2570647736360812 23.0807847630287171   F   F   F
  6.0852323606193313 13.2418907277773723 20.8320988070229944   F   F   F
 15.2827931747890720  9.9465331492417590 20.8714236224246363   F   F   F
 13.2807076646446731 14.3510347300790446 25.9221985001387338   F   F   F
 12.7836905675712007 14.9049742036389290 21.0537960583353829   F   F   F
 10.4858030029774163 10.5696785013668251 22.6824620553753640   F   F   F
  8.8448767517327305 16.5284407898900589 23.3633158459497139   F   F   F
 10.9057539364191296 12.7953604616610814 25.9583037526779137   F   F   F
 15.5086428309185163 10.0852876894103396 24.4904053235582495   F   F   F
 16.7270588101665751 16.9120699916249713 20.6374968445006459   F   F   F
  9.8803440086411918 15.5549875270150331 20.9854557557444110   F   F   F
 18.3540465295301090  9.8364960319804418 23.8169277932960881   F   F   F
 14.1172141441166765 17.5078103399884135 21.3935384220743927   F   F   F
 13.4321051892710575 11.4768498029516177 25.7553211933053241   F   F   F
 10.9271907943967079 15.5693703650980453 24.9582414522166047   F   F   F
  6.9551116164406572 16.6637997200888712 20.9091897439769063   F   F   F
 12.0390750396294184 13.5346269032652060 23.3350914750853491   F   F   F
 13.6811434805204168 16.1815078234579737 23.8239820918105742   F   F   F
  5.6880703188015538 10.4784165391462452 21.2777073726836647   F   F   F
  6.7512540362218072 14.7830350676887594 22.9356459007493427   F   F   F
 14.2518100470175710  6.3204878123823010 23.5209208228726432   F   F   F
 12.1560487373070742 10.8294145289791999 20.3402378754774134   F   F   F
 13.2915779650342571 10.9254262392293242 22.8931387401852611   F   F   F
 11.5017583463826796  6.0437623295542524 23.2196767838440614   F   F   F
 14.6675491896109627  7.1472447405347452 20.9248927539474785   F   F   F
 13.1143548750194050  4.7795260295071689 21.2817692734854838   F   F   F
 13.0596996996945265  8.5771539781834356 24.8042653445700445   F   F   F
 10.3251752919412798  5.0746337965117734 20.9364554423788221   F   F   F
  8.7562286953845447  6.6705874412526569 22.6691426245021788   F   F   F
  8.2613262347927741 11.1615495732276901 20.9347140613348550   F   F   F
 10.1801114251186746  8.2780164261884543 24.4447335790664582   F   F   F
 14.9293761443339914 13.1577512095511491 24.0362491202578497   F   F   F
 17.3391819290075482 13.7638955590024707 20.7912352246367611   F   F   F
 11.4986695022654466 17.3303122377665595 22.6555067169262117   F   F   F
 18.0180604287177495  9.7860369117169199 21.1098551196142665   F   F   F
 17.4496640478009368  5.4621361168644560 20.8158308422950178   T   T   T
 14.6932352051626722 12.7672721302657894 21.1202038312993174   F   F   F
  9.2644757614849382 18.2514481779141384 21.1952799639578551   F   F   F
 16.4842591202632214  1.3923586472288858 23.3587506191412331   T   T   T
 17.1357031473386456  2.4913111526922691 22.5471802848408558   T   T   T
 17.8904844153210725  6.4734859697019900 22.5097843285341703   T   T   T
 17.8557832827234542  5.8630301434669212 23.4138544668846720   T   T   T
 15.6107034021707314  0.9660453077118721 22.8614313926098589   T   T   T
 18.8380797511584035  7.0064757056192359 22.4125377789014841   T   T   T
 16.2082368416157543  1.7136855008688507 24.3656709539940159   T   T   T
 17.9690138929025842  2.9769045655821937 23.0564299671070962   T   T   T
 17.2193211186437374  0.5809949848793805 23.4616005708352624   T   T   T
 17.4135906643187255  2.1840651283356851 21.5375636836736426   T   T   T
  5.9911780076077568 18.1329346549903043 16.5208462899900503   F   F   F
 13.8706982749607732 18.1780156235280081 16.5140456404736113   F   F   F
 17.7237475102046282  7.0143053841239613 16.5042958957215617   F   F   F
 13.7558050754733578 12.4973630684470738 16.4684211861460277   F   F   F
  9.8547630781235842  7.1299504419298456 16.5791945430493826   F   F   F
 13.6498097978222699  9.7260778012101756 16.5652535543183888   F   F   F
  9.8616358424837500  1.4595141067523665 16.4212309537425405   F   F   F
  2.0120997224564667 18.1384518000178829 16.4193831621425623   F   F   F
  1.9359949916757497 12.5941250820718924 16.3888154775509953   F   F   F
  5.9056483703337577  6.9983498250499956 16.3793411305559076   F   F   F
 11.8592269173172564 16.8777365284607725 17.7874323240822712   F   F   F
 21.6397846580115711 15.3739961380672749 16.3626704539586889   F   F   F
 21.7220924315651764  4.2120690882425835 16.3467900749534500   F   F   F
 21.6760669521497960  9.7650554543793504 16.3710923554180354   F   F   F
 13.7181910520264783 15.3116656803474296 16.4220555999022970   F   F   F
  5.9534784695160381 20.9173022562551942 16.3579077780040514   F   F   F
 11.7698713212303012 11.2650784870579663 18.2707369556922714   F   F   F
 21.7168220346016163 12.5808440601744174 16.4103677788776601   F   F   F
  9.9380016711320014 12.6061325092051977 16.6632481573543174   F   F   F
 21.6722865977920307 18.1400993277761948 16.4042995690237845   F   F   F
  1.9847441791789220 20.9473870280908478 16.3771544326926772   F   F   F
  5.8993784008620231 15.2467488676044578 16.5606184843067012   F   F   F
 17.7317361112297682 20.8504311027917950 16.4237859857115431   F   F   F
 17.7955439919397378 15.1866650082175365 16.5912470344824357   F   F   F
 21.6784693749737158 20.9459547761014839 16.3908611904137231   F   F   F
  9.8917505511546562  1.4553029763592829 19.2019438839577532   F   F   F
 13.8204335007527419 20.9307540118128408 16.3830402606745018   F   F   F
  1.9500945533220537  1.4096442855647817 16.4258803043962160   F   F   F
  9.8723076546881021 20.8898151607544698 13.6222011060995527   F   F   F
  9.8458390492479175 20.9127541163493262 16.3833628433533427   F   F   F
 13.8019612568371528  1.3956011455552730 16.3815468734083431   F   F   F
 11.8289000648495346  2.8059759418847783 14.9918473267626808   F   F   F
 23.6621776131400914 11.1463437975754420 17.8199292278940788   F   F   F
 13.7627970087824103  4.1405322954119761 16.5085023447435475   F   F   F
 23.6671642760386618 16.8085005233892701 17.7699817099333828   F   F   F
  7.9073919577178193 22.3142479318548368 17.7592885201265887   F   F   F
 23.6684448480527259 22.2911273359135720 17.7915845449765690   F   F   F
  0.0141675809246418  5.5347134861902862 17.7684025836066048   F   F   F
  7.8870568175647175 11.0662890578234894 17.7315937053301624   F   F   F
  7.9443571338892145 16.5413990438763641 17.7090298239381632   F   F   F
 15.7398946704648690  5.5620037815460490 17.6841877356108661   F   F   F
 15.7644361419824861  0.0039498488367739 17.7599327737177184   F   F   F
 15.7586084188179374 16.5512270950757312 17.7088196134857228   F   F   F
 15.7791551642427645 11.0345485033520099 17.7411519784080411   F   F   F
  3.9644819614337443 22.2805275452646470 17.7698055304848239   F   F   F
  9.7700278760405865 18.1404801163437703 19.1841399645936086   F   F   F
  3.9857508451401911  5.5439095379980925 17.7940676590208113   F   F   F
  5.8800195824898402  9.7233911968773921 16.4757218875118809   F   F   F
  3.9196632542895955 11.2184981566456798 17.6223486154609574   F   F   F
  7.9305850290128728  5.6770653038988517 17.7856198585270526   F   F   F
 11.8286937787076472 -0.0001805505041658 17.7312956505539390   F   F   F
 19.7122876095447808 19.5126744592974255 14.9600550663453511   F   F   F
 17.7188079568530625 20.8843940251527371 19.2123791693696546   F   F   F
 19.7018291105979095  0.0243681720257006 17.7601093969792565   F   F   F
 17.7197275928553140  4.1696008503446436 16.4106816244409721   F   F   F
 10.0185966391603767 15.3510758010157353 16.4020439935097500   F   F   F
 10.0177202604680247  9.9022816231240309 16.3737101157438723   F   F   F
 17.8102823960123295  9.7433570020024600 16.4506441322093373   F   F   F
  1.9725650740000149  6.9740706679999214 10.8156001569999933   F   F   F
 13.7930049371331531  6.9518059509164596 16.3672967650465537   F   F   F
 13.7941563478179319 20.9145675329355569 13.6294362875075077   F   F   F
  4.0415132080634804 16.7426494767982241 17.8489229016817355   F   F   F
  2.0360941707736089 15.3821274999745121 16.3603139903121715   F   F   F
 21.6407587880476200 18.1491073227592778 19.2482525992108187   F   F   F
 13.7920069748660783  1.4661092937838116 19.1798701686846620   F   F   F
  9.8791076424431026 20.8666015386444741 19.1949499001961925   F   F   F
 17.8397768022190064  6.8340213039864892 19.3471508623614170   F   F   F
 17.7201092396578233  1.4526231331870973 19.1998669705751794   F   F   F
  1.9774504411350615  6.9424875249957703 19.2134650297279244   F   F   F
 15.7780938278402640 19.5157654356451395 14.9661158457174324   F   F   F
  2.0534192543294729 12.5562461089055102 19.2042489864057977   F   F   F
  2.0541198691657603  9.7376141856887966 19.1849839988355626   F   F   F
  9.9013501010520120  4.1764404733160925 19.1864260457070692   F   F   F
  9.8382835558813824  9.3397771073859470 18.9017610429026988   F   F   F
  2.0013091879805285 20.8803837038884126 19.2252864427571168   F   F   F
  1.9680190655866947 15.3324665467997789 19.1691930193268298   F   F   F
  1.9898982598455437  1.3459194136291681 19.2661149315540214   F   F   F
 19.7231347296715356 11.2151124813342076 17.6790104854849197   F   F   F
  1.9873613982542637  4.1316181762359845 19.2442163329542772   F   F   F
  5.6894652747654231  9.8618672556363158 19.2532052672732341   F   F   F
 21.6039406905442739  9.7201374820962947 19.1930023101180147   F   F   F
  5.9660348320658789 20.7595217118543651 19.1218758311812849   F   F   F
 21.6913060664722188 15.3418993413226765 19.1696903671125476   F   F   F
 21.6478825865156317 20.9127478458754723 19.2401095206957891   F   F   F
  9.4012624007031178 12.2879592006069469 19.5602673182562405   F   F   F
  6.0277340721409347 15.1274588864221631 19.8851107788367756   F   F   F
  6.0025532695878212  4.1607313808336750 19.2359534676733617   F   F   F
 13.7332630945829379  4.2786804680207240 19.3396217222793183   F   F   F
 13.7746781439839872 20.8730937271148562 19.1835224683457604   F   F   F
 21.6982156369999721 18.1325837370000720 10.8156001569999933   F   F   F
 17.5795148806469328  4.2219772673013214 19.2159389476062437   F   F   F
 19.6961532453635009  5.4930355976601044 17.6856901081706717   F   F   F
 19.6618074022978462 16.7599485391242453 17.7778256006671214   F   F   F
  1.9957934750631694 18.1337551235369290 19.2680288310756325   F   F   F
 17.8338798110606440 12.6798070818682618 19.0761962064201462   F   F   F
  1.9784792637440478  4.2150320691112819 16.3678454190774829   F   F   F
 17.5468263304583623 18.0901493949730465 19.1867632719605972   F   F   F
 19.7207741948541795  2.7815728977080152 15.0026448980505087   F   F   F
 13.9303654806848538  7.1553723295054388 19.0290810280172877   F   F   F
 17.7637430040836399  4.1913154684307754 13.6170784730727004   F   F   F
  5.8619145909357391 12.8022084901657767 18.8627691038305123   F   F   F
  6.2044641658378801 17.8443368117407140 19.3897442316160742   F   F   F
  5.9423179940661806  1.3250469232588078 19.2697377618658372   F   F   F
 21.6982156369999721 12.5533272030000536 10.8156001569999933   F   F   F
 11.8273026333536109  8.3521405493083076 14.9938458670080870   F   F   F
 11.8427925882981899 13.8609561744765113 15.0023129761780272   F   F   F
 19.7037859870780920 13.9049632574973803 15.0004669827322434   F   F   F
  5.9656032674726136  4.2008979656589478 16.4174075594063780   F   F   F
 19.7098089126153901  8.3289610246329620 14.9849920462171831   F   F   F
 21.6563121696313985  6.9270150403844299 19.1885571661178567   F   F   F
  3.9449579631810119  8.3931718053843571 14.9364684763954738   F   F   F
 13.7120569625376714  9.7818199646871342 19.3769512913028166   F   F   F
 13.7013912185077285 15.3005013076241934 19.1904005031368392   F   F   F
 21.6553205490726413  4.1222768357083668 19.1943090264199334   F   F   F
  5.8991410891962905  7.0557734846884701 19.2376162378429036   F   F   F
  3.9706912495020585 19.4888955717040631 14.9962678854209006   F   F   F
 21.6773263195061894  9.7532737711444515 13.6091252728725145   F   F   F
  3.9556652041901956  2.7776089841410667 14.9846638904150034   F   F   F
 17.7212744884944975  1.3724040916082965 16.3663411078814001   F   F   F
 10.1123278096835811  6.7955807120843907 19.6688614559895818   F   F   F
 13.9914181754398506 18.0777317132055941 19.3833300438943681   F   F   F
  9.9520742407490168 15.0885559016890429 19.0093151071166453   F   F   F
 17.8433627301223048  9.6537728451815870 19.1144106210971323   F   F   F
  9.8553384763260077  4.2764266657838759 16.3968347086982149   F   F   F
 21.6207083289447297 12.5472058390325483 19.2348359500880051   F   F   F
  3.9699467478383417 13.9324047107549038 15.0035403655840121   F   F   F
 11.8358656991383686 19.4929949831757732 15.0269730019289476   F   F   F
 21.6698247176769065  1.3913769963536837 19.2367304837579809   F   F   F
  1.9583724533604818  9.7950369757166484 16.3450295697623815   F   F   F
 17.8509671924725524 15.4817207001429704 19.6705699918997929   F   F   F
 21.6873406123161701  6.9654833515579879 13.6161489693166917   F   F   F
 21.6982156369999721  9.7636982699999884 10.8156001569999933   F   F   F
 21.6982156369999721  4.1844424010000720 10.8156001569999933   F   F   F
  2.0259112434028910  6.9956203575525340 16.4131236264773719   F   F   F
 13.8079546360000549 15.3429554700000619 10.8156001569999933   F   F   F
 13.8079546360000549  9.7636982699999884 10.8156001569999933   F   F   F
 13.8079546360000549  4.1844424010000720 10.8156001569999933   F   F   F
  5.9176950450000287 20.9222120050000342 10.8156001569999933   F   F   F
 21.6982156369999721 20.9222120050000342 10.8156001569999933   F   F   F
  5.9176950450000287 15.3429554700000619 10.8156001569999933   F   F   F
  5.9176950450000287  4.1844424010000720 10.8156001569999933   F   F   F
 17.7530837259999217 20.9222120050000342 10.8156001569999933   F   F   F
 17.7530837259999217 15.3429554700000619 10.8156001569999933   F   F   F
 17.7530837259999217  9.7636982699999884 10.8156001569999933   F   F   F
  9.8744745067641571 15.2851410408564021 13.6433078010520479   F   F   F
 21.6982156369999721 15.3429554700000619 10.8156001569999933   F   F   F
 17.7530837259999217  4.1844424010000720 10.8156001569999933   F   F   F
  9.8628241350000643  9.7636982699999884 10.8156001569999933   F   F   F
  5.9176950450000287  9.7636982699999884 10.8156001569999933   F   F   F
  1.9725650740000149  1.3948141340000613 10.8156001569999933   F   F   F
 21.6673340141484445 15.3262501045991080 13.5961454083896900   F   F   F
 15.7547704242890028  8.4443428712931876 15.1049228899039907   F   F   F
  7.9159301721056430  8.4434568027353123 15.0945672726779208   F   F   F
  7.9450436857213047 13.9664030041418901 15.1133818039389087   F   F   F
 21.7202963661012802  1.4147682508596551 16.4219198029306916   F   F   F
 17.7431371123211399 20.9399520881880647 13.6585444416048567   F   F   F
 13.7953805189578915  9.8085876350909800 13.6941761680178082   F   F   F
 15.7494291787504075 13.9674173351851660 15.0891079946073070   F   F   F
  5.9191419325496843 20.8903554665844418 13.6214941595384538   F   F   F
  5.9174457686303752  4.2083676390997260 13.6269058033820407   F   F   F
  9.8628241350000643 20.9222120050000342 10.8156001569999933   F   F   F
  9.8628241350000643 15.3429554700000619 10.8156001569999933   F   F   F
  5.9176950450000287 18.1325837370000720 10.8156001569999933   F   F   F
 17.7307813501930980 15.3675794122230887 13.7198244885740159   F   F   F
  9.8617114066520664  9.7181579841954537 13.6188513300393677   F   F   F
  2.0018415100658014 15.3289480032720853 13.5919741050869654   F   F   F
 13.9823028165987182 12.6129727446240949 19.1706281601671087   F   F   F
  1.9897465142289392 20.9060797856272629 13.6070241401637855   F   F   F
  1.9600116746751703  9.7483295112498354 13.5850612643002098   F   F   F
  1.9889965740224649  4.1649157688089726 13.5893351510079938   F   F   F
 21.6963062570932550 18.1245240552992684 13.6221631156844545   F   F   F
 17.6705493738256116 12.4652810223489379 16.3472771687881071   F   F   F
  0.0094611068486718  2.7876433942188581 14.9380855608156402   F   F   F
 21.6850914753874484  1.3873298833977874 13.6225245230760983   F   F   F
 11.8224468199667072  5.6661560588277835 17.7447553797105932   F   F   F
  9.8755409759293524  4.1766523164189913 13.6083144610189226   F   F   F
  5.9668303810966057 15.3459061177438478 13.6843383340234919   F   F   F
 21.6731435527630723  6.9776422304533785 16.4060386998234904   F   F   F
 21.6915742219295389 20.9146095000004202 13.6085656407962556   F   F   F
 13.8079546360000549 20.9222120050000342 10.8156001569999933   F   F   F
 21.6868771241237503 12.5491668129155638 13.6190875770111273   F   F   F
 23.6670714691496933 13.9952432874971180 14.9310692033787085   F   F   F
  7.9002196080554654  2.8051374726844123 14.9631152158905536   F   F   F
  0.0022605925179385 19.5309848688568444 14.9850652471993584   F   F   F
  7.8933609926818340 19.5036139562560962 14.9795001301151274   F   F   F
 15.7653745971181305  2.8063281147800767 14.9774957708529008   F   F   F
  5.9453303280741130  9.8032235493077859 13.6486982802520682   F   F   F
  1.9725650740000149 12.5533272030000536 10.8156001569999933   F   F   F
 21.6982156369999721  1.3948141340000613 10.8156001569999933   F   F   F
 17.7389036142705869 18.1479349594748811 13.5917608527312570   F   F   F
 17.7389093909721396  9.7686003296012256 13.6625874484066987   F   F   F
  5.9296485343106546  1.3850891385903192 13.6283825719805058   F   F   F
 13.7988675516632799  4.2439324820970974 13.6691518099758529   F   F   F
  5.9622555304602018 12.6001913851825673 13.6153876082687155   F   F   F
 -0.0021845396553649  8.3403437477393183 14.9453893695931672   F   F   F
 13.8066267945130594 18.0878945096862971 13.6612813498168322   F   F   F
 19.7256482699999580  0.0000000000000000 12.2103998060000407   F   F   F
  5.9779749347256299 12.4753398388441195 16.3190622808676622   F   F   F
  5.9176950450000287 12.5533272030000536 10.8156001569999933   F   F   F
  0.0000000000000000  5.5792565349999723 12.2103998060000407   F   F   F
  0.0000000000000000 11.1585130689999925 12.2103998060000407   F   F   F
 17.7128735892240456 12.5851199127126705 13.6197551495761715   F   F   F
  7.8902602960000570  0.0000000000000000 12.2103998060000407   F   F   F
  7.8902602960000570 11.1585130689999925 12.2103998060000407   F   F   F
  7.8902602960000570 16.7377696039999648 12.2103998060000407   F   F   F
 15.7805205919999434  0.0000000000000000 12.2103998060000407   F   F   F
 15.7805205919999434  5.5792565349999723 12.2103998060000407   F   F   F
 15.7805205919999434 11.1585130689999925 12.2103998060000407   F   F   F
 15.7805205919999434 16.7377696039999648 12.2103998060000407   F   F   F
 13.8310160095909254  7.0356367178660726 13.6199808119266557   F   F   F
  3.9451301480000271  5.5792565349999723 12.2103998060000407   F   F   F
 17.7094330372353461 18.0342325792092524 16.3649971542774537   F   F   F
  3.9451301480000271 16.7377696039999648 12.2103998060000407   F   F   F
  0.0000000000000000  0.0000000000000000 12.2103998060000407   F   F   F
 11.8353900909999528 16.7377696039999648 12.2103998060000407   F   F   F
  7.8902602960000570  5.5792565349999723 12.2103998060000407   F   F   F
 17.6911904539963309  6.9800010759053235 13.6799964544695705   F   F   F
  0.0000000000000000 16.7377696039999648 12.2103998060000407   F   F   F
  9.8677101960268896 18.0850262867607761 13.6483389598806273   F   F   F
 17.7499743042389184  1.4112698606696350 13.6144408591043309   F   F   F
 21.6811017570048605  4.1649097642751078 13.5886656106589108   F   F   F
 13.8031231214528560  1.4195980172928693 13.6223705692204078   F   F   F
 13.7948914082426395 15.3120107543180257 13.6377957337232001   F   F   F
 13.8079546360000549  1.3948141340000613 10.8156001569999933   F   F   F
  3.9451301480000271 11.1585130689999925 12.2103998060000407   F   F   F
 19.7256482699999580  5.5792565349999723 12.2103998060000407   F   F   F
 13.8345288659751482 12.5599358911382737 13.6446265782878307   F   F   F
 11.8353900909999528  0.0000000000000000 12.2103998060000407   F   F   F
 11.8353900909999528 11.1585130689999925 12.2103998060000407   F   F   F
 21.6982156369999721  6.9740706679999214 10.8156001569999933   F   F   F
  1.9725650740000149  4.1844424010000720 10.8156001569999933   F   F   F
 11.8353900909999528  5.5792565349999723 12.2103998060000407   F   F   F
 13.8079546360000549 12.5533272030000536 10.8156001569999933   F   F   F
 17.7530837259999217 12.5533272030000536 10.8156001569999933   F   F   F
  3.9451301480000271  0.0000000000000000 12.2103998060000407   F   F   F
  5.9176950450000287  1.3948141340000613 10.8156001569999933   F   F   F
 17.7530837259999217  6.9740706679999214 10.8156001569999933   F   F   F
 17.7530837259999217  1.3948141340000613 10.8156001569999933   F   F   F
  9.8628241350000643 18.1325837370000720 10.8156001569999933   F   F   F
  9.8628241350000643 12.5533272030000536 10.8156001569999933   F   F   F
 17.7530837259999217 18.1325837370000720 10.8156001569999933   F   F   F
  1.9760439920159056  6.9626810723326553 13.6213442378608960   F   F   F
  9.8717177080061038  1.3762665410966883 13.6609727416600357   F   F   F
  1.9772797186992768 18.1226646969130059 13.6253345035045861   F   F   F
  1.9876903297012698 12.5529463798223873 13.6171355211050304   F   F   F
  9.8628241350000643  6.9740706679999214 10.8156001569999933   F   F   F
 13.8079546360000549  6.9740706679999214 10.8156001569999933   F   F   F
  5.9711053626781174  7.0106451575625703 13.6250893462273162   F   F   F
  9.8628241350000643  1.3948141340000613 10.8156001569999933   F   F   F
 13.8079546360000549 18.1325837370000720 10.8156001569999933   F   F   F
  5.9296141005931489 18.0946946712530305 13.6597684025741763   F   F   F
  9.8484191360585118 12.4868237346447515 13.7362182795624701   F   F   F
  1.9725650740000149 20.9222120050000342 10.8156001569999933   F   F   F
  1.9871919622688610  1.3830891095618945 13.6230885829806567   F   F   F
  5.9176950450000287  6.9740706679999214 10.8156001569999933   F   F   F
 19.7256482699999580 16.7377696039999648 12.2103998060000407   F   F   F
  1.9725650740000149  9.7636982699999884 10.8156001569999933   F   F   F
  9.8366244298960304  6.9487930851264030 13.7221293675976810   F   F   F
 19.7256482699999580 11.1585130689999925 12.2103998060000407   F   F   F
  9.8628241350000643  4.1844424010000720 10.8156001569999933   F   F   F
  1.9725650740000149 18.1325837370000720 10.8156001569999933   F   F   F
  5.9439237548040715  1.3956050401132851 16.4182927690112024   F   F   F
  9.8135137967424306 18.1136723686761130 16.4320962348622572   F   F   F
  1.9725650740000149 15.3429554700000619 10.8156001569999933   F   F   F
 11.8353900909999528  8.3688848019999824 12.2103998060000407   F   F   F
 23.6632592620899302 13.9017726311407266 18.7783166333497675   F   F   F
 19.7917753194127357 11.1555135358703303 15.0867180197193953   F   F   F
 19.7256482699999580  8.3688848019999824 12.2103998060000407   F   F   F
  3.8723164779864656 11.1529790356273040 15.0623389022531544   F   F   F
  3.9451301480000271 19.5273965409999306 12.2103998060000407   F   F   F
  3.9451301480000271  2.7896282670000101 12.2103998060000407   F   F   F
 19.8277705839306542  8.2930233528644663 18.1290647231256266   F   F   F
 19.7035239180463790 19.5513745437895032 18.5353783084715253   F   F   F
 19.7256482699999580  2.7896282670000101 12.2103998060000407   F   F   F
  7.8509242426635790  2.6736025266817771 18.3927799659812692   F   F   F
 11.8353900909999528 13.9481413360000008 12.2103998060000407   F   F   F
 23.6541790792516942 19.5281564179362768 18.6814803929581608   F   F   F
 19.7912814597934243 16.7747695311439173 15.0778978117074338   F   F   F
 11.8521246689590392  2.7276525002423146 18.1907057369131842   F   F   F
 23.6674400574988333  8.3527346761504262 18.6928035822457907   F   F   F
 15.7492072243387131  2.7239676882619723 18.2336630844719991   F   F   F
  0.0000000000000000  2.7896282670000101 12.2103998060000407   F   F   F
 11.9046346267135803  8.2735479478124070 17.8771999505948891   F   F   F
 19.7224439684224997  2.7367928770859913 18.3850550259461585   F   F   F
 15.7725032682451456 13.9735926947059657 17.7948804538118743   F   F   F
 15.7429916548141158 19.6568983475255408 18.2060131229542073   F   F   F
  3.9451301480000271 13.9481413360000008 12.2103998060000407   F   F   F
  3.8612429719884847  8.2795083032945715 18.2345483911882837   F   F   F
  3.7778234581268846 13.9976705843573068 18.0433558454712326   F   F   F
 15.9088550472937946  8.3135352173915429 17.8251405203272135   F   F   F
  3.9368442258011420 19.4946703262618968 18.5363911574020896   F   F   F
  7.9192842002937702 19.6094809503152483 18.0856918223195571   F   F   F
 11.8353900909999528 19.5273965409999306 12.2103998060000407   F   F   F
 15.7805205919999434 19.5273965409999306 12.2103998060000407   F   F   F
  3.9729926711434405  2.7339710005699067 18.6572606926394258   F   F   F
  7.9098640142632881 13.9356171311914565 17.8518553492452590   F   F   F
  7.7202092539320955  8.3313691245824124 17.7841389821140510   F   F   F
 11.8353900909999528  2.7896282670000101 12.2103998060000407   F   F   F
 19.8763205071851168 13.9889909455082577 18.1115984745836762   F   F   F
 19.7828621934956530  5.5387564961249183 15.0741157509240011   F   F   F
 11.8653765169827583  5.5364928641934217 15.0693389506428961   F   F   F
 11.8627570138237122 16.8008582303879770 15.1187895123232288   F   F   F
  7.8163494581340247  5.5367169986224756 15.0853459969394024   F   F   F
 15.7805205919999434  8.3688848019999824 12.2103998060000407   F   F   F
 15.8299093684433227 11.1548531428304525 15.0214429840878019   F   F   F
  3.8926750958343437 16.7696149899937303 15.1005054085779680   F   F   F
 15.7693592617888996  0.0000457404681122 15.1684916059091659   F   F   F
 15.7500933957640328 16.7792340289957487 15.0670865351206587   F   F   F
  0.0117635984345649  2.7365675136086187 18.6026457090065094   F   F   F
  3.9296943638856128  0.0246914675558287 15.1965859502759173   F   F   F
 19.7256482699999580 13.9481413360000008 12.2103998060000407   F   F   F
 15.7903035162003480  5.5353883026719473 15.0703971389461007   F   F   F
  3.9451301480000271  8.3688848019999824 12.2103998060000407   F   F   F
 11.9229442368414293 13.9487951331512772 17.8221052516008776   F   F   F
  0.0000000000000000  8.3688848019999824 12.2103998060000407   F   F   F
  0.0215305809151525  5.5745066854886911 15.1799891250691168   F   F   F
  7.9038749090345961 16.7634306206726507 15.0454496493864056   F   F   F
  7.8401514253841844 11.1389600931060286 15.0297551334768862   F   F   F
  7.8902602960000570  8.3688848019999824 12.2103998060000407   F   F   F
 11.8643630065303700 11.1542110465947175 15.0105593683301599   F   F   F
 23.6611266317730724 11.1613405857368448 15.2027784187200758   F   F   F
  7.8859242513020922  0.0230929743027782 15.1740211256180917   F   F   F
  0.0000000000000000 19.5273965409999306 12.2103998060000407   F   F   F
 11.8414554039244191 22.3004779381208138 15.1671699680834600   F   F   F
 11.8507591205481315 19.5633861810862086 18.2858527953169698   F   F   F
  0.0000000000000000 13.9481413360000008 12.2103998060000407   F   F   F
  7.8902602960000570 19.5273965409999306 12.2103998060000407   F   F   F
  3.9355344470827398  5.5402389811022461 15.1874284722712591   F   F   F
 15.7805205919999434  2.7896282670000101 12.2103998060000407   F   F   F
  7.8902602960000570  2.7896282670000101 12.2103998060000407   F   F   F
  7.8902602960000570 13.9481413360000008 12.2103998060000407   F   F   F
 19.7256482699999580 19.5273965409999306 12.2103998060000407   F   F   F
 15.7805205919999434 13.9481413360000008 12.2103998060000407   F   F   F
  0.0041788843885629 22.3139139513579146 15.1991837885229355   F   F   F
 23.6696601797851578 16.7588985874133201 15.1973017748538943   F   F   F
 19.7449757054116688  0.0040668054970426 15.1886106376357830   F   F   F
 17.7989616479993202 16.7937843137277021 17.7156051557057665   F   F   F
  5.8986710696144700 19.6100702737251744 15.0745735168470851   F   F   F
 21.7399801292155210  8.3511192399232179 15.1787166731285730   F   F   F
  1.9725650740000149 11.1585130689999925 12.2103998060000407   F   F   F
  9.8628241350000643 11.1585130689999925 12.2103998060000407   F   F   F
  5.9176950450000287  5.5792565349999723 12.2103998060000407   F   F   F
 17.8119570180104070 13.9425084196304105 15.0699004709861413   F   F   F
  1.9725650740000149  5.5792565349999723 12.2103998060000407   F   F   F
 21.6982156369999721 11.1585130689999925 12.2103998060000407   F   F   F
 21.7347174844063886 11.1519856612137698 18.1186439807171666   F   F   F