Au  C  H  O Sr Ti                       
   1.00000000000000     
    23.6707801818999997    0.0000000000000000    0.0000000000000000
     0.0000000000000000   27.8962826732999716    0.0000000000000000
     0.0000000000000000    0.0000000000000000   30.0000000000000000
   Au   C    H    O    Sr   Ti
    50     4     9   330    90    90
Selective dynamics
Direct
  0.7122676253145027  0.6255044523018921  0.7547804286291788   T   T   T
  0.6627884862163635  0.3431304666886785  0.7398601293102262   T   T   T
  0.4718306725910583  0.5597561164460351  0.8773879451763911   T   T   T
  0.2821521355927737  0.4716124305411586  0.7023879444746313   T   T   T
  0.6696070448185455  0.7462365209960713  0.7485223525920296   T   T   T
  0.3978360977381252  0.5058477400896085  0.6907723130703965   T   T   T
  0.4513567126539081  0.6642024346926167  0.7036529881518202   T   T   T
  0.3751158880473636  0.5940137909039052  0.8332561112030455   T   T   T
  0.2892373019727132  0.6301811100962130  0.7778286656383976   T   T   T
  0.3678341207283110  0.6952219765248336  0.8202283098383288   T   T   T
  0.5965216778307272  0.8274456502724321  0.7133961600606614   T   T   T
  0.7749826376317537  0.5529992215697972  0.7943176507003349   T   T   T
  0.6940780095242364  0.4864361348258301  0.7640355452478341   T   T   T
  0.6457237956125690  0.5568006491209314  0.6955850197787982   T   T   T
  0.5604586823093436  0.7145658101875154  0.8647014905148797   T   T   T
  0.5395299022867134  0.7349017840885302  0.7023926167203840   T   T   T
  0.4435418508075077  0.5786607266740732  0.7565795026742816   T   T   T
  0.3736427969538770  0.7930044544016407  0.7790543803080661   T   T   T
  0.4602421740875016  0.6589258775304003  0.8653858713621158   T   T   T
  0.6557842465692768  0.5625770060313907  0.8171450833649233   T   T   T
  0.7070481150365788  0.8059430280868397  0.6877926564824396   T   T   T
  0.4158263128466137  0.7571649579530161  0.6998127659094442   T   T   T
  0.3252704633627462  0.5317547895741573  0.7693786414231096   T   T   T
  0.2571753730516419  0.6745241176722041  0.6946506369625819   T   T   T
  0.3920189082826030  0.8544204052245156  0.7065336379911077   T   T   T
  0.5198826581704056  0.5031528142849291  0.7330541053335223   T   T   T
  0.5522157448614458  0.5081244358160626  0.8269009775615569   T   T   T
  0.2941237837508400  0.7976772407635017  0.6966654803022921   T   T   T
  0.5082636998126344  0.6854710638312040  0.7783785991623768   T   T   T
  0.5775130942899721  0.7790688985544291  0.7943501204841380   T   T   T
  0.2403607089420675  0.5752480598007128  0.7092530384336423   T   T   T
  0.2854433105635314  0.7298716907673231  0.7644202340217836   T   T   T
  0.6016864764303639  0.4265956890006062  0.7841140078963508   T   T   T
  0.5137275189419280  0.5881143212346145  0.6783030221599334   T   T   T
  0.5671038465018019  0.6116257801159206  0.8586135915321172   T   T   T
  0.4856023362056237  0.4167001076260116  0.7741581565421863   T   T   T
  0.6190873898984184  0.4564675989650745  0.6975308234706058   T   T   T
  0.4609250337761223  0.7584787853250521  0.8327808017414209   T   T   T
  0.5619246961376401  0.5918418158598387  0.7633440122708419   T   T   T
  0.4363743621823145  0.3813173508175160  0.6981986287695485   T   T   T
  0.5538377142881008  0.3713284359574898  0.7091676840898696   T   T   T
  0.7365340679004349  0.3964517090845947  0.6939032779749746   T   T   T
  0.7609486483578349  0.5513931259666445  0.7043733773202778   T   T   T
  0.4857806011619461  0.8209580435674025  0.7552594900376601   T   T   T
  0.6203395286239239  0.6579465996332668  0.7037661681766750   T   T   T
  0.6296095994905223  0.6723736047724567  0.8011592111619361   T   T   T
  0.4301991971959712  0.4967460155861603  0.8152556106161613   T   T   T
  0.3490017492886399  0.6000416354032727  0.6979234756139899   T   T   T
  0.3698479614698895  0.4391930109265796  0.7558547580518650   T   T   T
  0.7324056217847789  0.6934387217478678  0.6932345083796402   T   T   T
  0.6447427945334311  0.2403481330757682  0.7916065942289421   T   T   T
  0.7549177024228440  0.4330135301677174  0.7503465788440109   T   T   T
  0.6926153364718801  0.2415119804160596  0.7571815443287688   T   T   T
  0.7232218352350984  0.2889349343249570  0.7525370423245308   T   T   T
  0.7257997585771986  0.2159406349956611  0.7672256767321691   T   T   T
  0.7436504022885734  0.3012470130887400  0.7831350150946135   T   T   T
  0.6577655560896666  0.2566139788502066  0.8231691054257709   T   T   T
  0.6315866615531639  0.2035806758085055  0.7982946795323868   T   T   T
  0.6075718504401055  0.2596996089402578  0.7793928493115853   T   T   T
  0.6777352162560281  0.2290596856577338  0.7246685475707884   T   T   T
  0.7521724340885286  0.2895346747942809  0.7243240743819456   T   T   T
  0.7539934031802940  0.4109413386599241  0.7804249899630507   T   T   T
  0.7947762963120044  0.4523716588389129  0.7468811247748280   T   T   T
  0.1666666716383389  0.8000000000129006  0.4070133268666680   F   F   F
  0.5819424470456724  0.3478580283070185  0.5509124554248579   T   T   T
  0.0000768181180563  0.8020225692472683  0.5926726133837577   T   T   T
  0.3338482895858907  0.2000275831367548  0.5921169837444905   T   T   T
  0.9998211792067783  0.2000044146059073  0.5923568946509353   T   T   T
  0.0006732667007250  0.3984396871414821  0.5923912707581365   T   T   T
  0.0841532405784797  0.9502622893007108  0.5462335296032648   T   T   T
  0.4197478465073474  0.6517759246078714  0.5557277442331966   T   T   T
  0.0838578688558422  0.3481042895458847  0.6421332361401656   T   T   T
  0.9177362290313126  0.6509943218608827  0.5470117012369909   T   T   T
  0.2529488488101561  0.8499439484233892  0.5508158632521971   T   T   T
  0.5856312577219062  0.8518658321323159  0.5507791790015703   T   T   T
  0.7495833520929096  0.4519448752081143  0.5505730114335254   T   T   T
  0.5808861640557796  0.6475405353349835  0.5488860858294417   T   T   T
  0.4163208091856302  0.4551026701167629  0.5525609117948855   T   T   T
  0.5766579376023677  0.5482285006831762  0.5524657136407193   T   T   T
  0.4165446986470055  0.2524941425971364  0.5473010422281963   T   T   T
  0.0000000000000000  0.8000000000129006  0.4070133268666680   F   F   F
  0.4997979041315311  0.3014537350873630  0.5002860432838925   T   T   T
  0.4161181736791971  0.9484111948499929  0.5467161902790560   T   T   T
  0.0853594790946958  0.8495912001600650  0.5468353787126767   T   T   T
  0.5833333134730552  0.5499999761504029  0.3605200052333331   F   F   F
  0.5833333134730552  0.7500000000008953  0.3605200052333331   F   F   F
  0.0857954511723181  0.4507721092614170  0.5470767339798694   T   T   T
  0.9166666865332829  0.3500000000123720  0.3605200052333331   F   F   F
  0.9166666865332829  0.5499999761504029  0.3605200052333331   F   F   F
  0.2521842050723576  0.9454223989528546  0.6373210316724062   T   T   T
  0.2504395025967104  0.0485091005033815  0.6416609499525227   T   T   T
  0.2396067920617631  0.5534208607803114  0.6417092611040195   T   T   T
  0.9156757127824814  0.8497012503000798  0.5464015484188038   T   T   T
  0.2492259480475884  0.7463079074391167  0.5522155645034396   T   T   T
  0.7482043228372606  0.9478323451490824  0.5470811995365318   T   T   T
  0.7511086933996197  0.7448860481726250  0.5526241771771797   T   T   T
  0.9161982354539850  0.9504592009814371  0.5462663072047349   T   T   T
  0.4181570376992941  0.2520961335905368  0.6391959198889031   T   T   T
  0.5836967339410258  0.9507361713820791  0.5456214229333224   T   T   T
  0.0828658652097423  0.2500542227821094  0.5473546490307253   T   T   T
  0.4172829755107053  0.9479964829829535  0.4541555949287569   T   T   T
  0.5833836922761612  0.2496738158571892  0.5457947648757456   T   T   T
  0.0812830250114060  0.6516033623678731  0.5466463813714304   T   T   T
  0.2491663063288821  0.4509729180392960  0.5460506243236560   T   T   T
  0.5007746309820191  0.8049119383725589  0.5926686071617616   T   T   T
  0.4182793206021513  0.3495431030393832  0.6398070890080239   T   T   T
  0.4156942573037796  0.5344580619548289  0.6301599834793135   T   T   T
  0.0844617537143496  0.9493882763646869  0.6410517057859506   T   T   T
  0.0840883161441823  0.7496235620404013  0.6396396701528574   T   T   T
  0.0838989654502958  0.2484397821457341  0.6421913673851212   T   T   T
  0.8331704248669047  0.6021725528935308  0.5895644862441681   T   T   T
  0.1708646040964878  0.7996750655676472  0.5946526367362539   T   T   T
  0.0868223034622545  0.5489186154778183  0.6395760972751509   T   T   T
  0.5826432241501235  0.9485571747717196  0.4538358513366073   T   T   T
  0.3351904135177886  0.4041341107498872  0.5933423684777244   T   T   T
  0.6651727499960008  0.7932208965675396  0.5909549453263848   T   T   T
  0.6665115692978609  0.5956266296884788  0.5915284085736353   T   T   T
  0.1671960243580883  0.1998534604169366  0.5923691213394980   T   T   T
  0.4127460621728433  0.8501232918138729  0.6394728021137576   T   T   T
  0.1683030767040250  0.3979167534980277  0.5933288256854817   T   T   T
  0.2483591679237677  0.5486371172445764  0.5491195619892655   T   T   T
  0.5828688618289842  0.4485404167612316  0.5455338437141148   T   T   T
  0.0866894547253720  0.6500203575792588  0.6402410167088344   T   T   T
  0.6662521540359025  0.8991887510047429  0.4988224276332125   T   T   T
  0.0836269884103406  0.4487605312637222  0.6406272662188370   T   T   T
  0.9143361396394818  0.7506738852782456  0.5459671810005123   T   T   T
  0.9172575832131930  0.3508606620869776  0.5453485023157548   T   T   T
  0.9156788034215351  0.5499929002593091  0.5459055119849339   T   T   T
  0.5792853660908016  0.7483411024698671  0.5476934292386326   T   T   T
  0.2517507467136635  0.9499636975544300  0.5450286521830690   T   T   T
  0.4972053380002150  0.6035105900852351  0.6091162772820512   T   T   T
  0.3331057216054757  0.5967647265383724  0.5914291727528685   T   T   T
  0.3353711489659818  0.7927231738268461  0.5906168405242541   T   T   T
  0.6651230372066685  0.3997601166309847  0.5898313019197047   T   T   T
  0.6661434437819276  0.1998509598733184  0.5921197547245984   T   T   T
  0.0857482978520889  0.7508384098547884  0.5459348505982521   T   T   T
  0.9143534267750814  0.8505249820279347  0.6414257438036124   T   T   T
  0.7490548038673955  0.7505832821913082  0.4570411952903993   T   T   T
  0.5831325549234181  0.2524208720840516  0.6386076449599239   T   T   T
  0.4172722694436274  0.9474055760282191  0.6392000727760044   T   T   T
  0.7532714345954493  0.4458138707490472  0.6451759354488038   T   T   T
  0.7486460352001822  0.2519974743073709  0.6396055081326720   T   T   T
  0.5833333134730552  0.3500000000123720  0.3605200052333331   F   F   F
  0.2499999999799343  0.9500000000130839  0.3605200052333331   F   F   F
  0.9166666865332829  0.9500000000130839  0.3605200052333331   F   F   F
  0.2499999999799343  0.7500000000008953  0.3605200052333331   F   F   F
  0.2500201021526882  0.3511091771238306  0.4544510339240639   T   T   T
  0.4166666269218169  0.7500000000008953  0.3605200052333331   F   F   F
  0.9146453096768339  0.3479920587391608  0.6400004199224687   T   T   T
  0.5000315571421734  0.8981949148803208  0.5007573884916079   T   T   T
  0.1676879046187314  0.6995941121569736  0.5001938494263050   T   T   T
  0.9138369563083998  0.6498509896776853  0.6409377625475366   T   T   T
  0.4159543127419318  0.3528350392961465  0.5474612029426117   T   T   T
  0.9166666865332829  0.8499999999890662  0.3605200052333331   F   F   F
  0.7538304656503159  0.5466949047515048  0.6379674087903008   T   T   T
  0.9122383588624295  0.5482546461515644  0.6398866950140323   T   T   T
  0.5899220440377757  0.8478160966209785  0.6464994552658867   T   T   T
  0.4273650770945516  0.4436900563750326  0.6572063009643819   T   T   T
  0.7486522224050470  0.2505296776078124  0.5464453838474091   T   T   T
  0.1673213581104097  0.3004002657594874  0.4999824657267115   T   T   T
  0.9160150313996810  0.5497519154114869  0.4537289798995898   T   T   T
  0.1677808624789717  0.8990728085413956  0.4995298109664656   T   T   T
  0.4201991999031869  0.7408961892704979  0.6338824361589208   T   T   T
  0.8302789800646645  0.8006204510979059  0.5923745474158643   T   T   T
  0.8320797174774444  0.3971327736975569  0.5905866161654751   T   T   T
  0.7425631103275120  0.3513761995547445  0.6408178341469927   T   T   T
  0.5833333134730552  0.2500000000242011  0.3605200052333331   F   F   F
  0.5829340794927687  0.7485688563821130  0.4547748196368612   T   T   T
  0.5830506926081269  0.2521150332400709  0.4537959915250318   T   T   T
  0.9161313881121935  0.3497354744981844  0.4535120398996949   T   T   T
  0.7495121730347984  0.2506859383112568  0.4541798519100880   T   T   T
  0.4171650664964784  0.8471009205916830  0.4554284240267147   T   T   T
  0.7527826345353325  0.6549331499804574  0.6358489672019381   T   T   T
  0.0852808992185188  0.8500019128733803  0.6418888579886604   T   T   T
  0.7414720117447900  0.8484600951638461  0.6396766981774076   T   T   T
  0.9156780929484576  0.7500576411575278  0.6393901959735111   T   T   T
  0.9158735598595059  0.9497218747322439  0.6411337862013906   T   T   T
  0.3972960935532164  0.6404598501595459  0.6523912492462215   T   T   T
  0.2553712127814518  0.7420544701218722  0.6629952630432686   T   T   T
  0.2541311092101829  0.3490036943194009  0.6408565576495605   T   T   T
  0.5808669745409742  0.3531321071922999  0.6447668573479973   T   T   T
  0.5816607413220209  0.9477431606313756  0.6379522845804918   T   T   T
  0.0835796093162037  0.3506815560965648  0.5463374433426600   T   T   T
  0.2488220307944154  0.4527651684897108  0.6413848691351359   T   T   T
  0.1654465683564925  0.6023730298386027  0.5873170069940705   T   T   T
  0.5772776973785181  0.7485437746651846  0.6398641990518432   T   T   T
  0.5796373089168551  0.5505479924538543  0.6460015816650867   T   T   T
  0.7495056133733393  0.9497277878690812  0.4547328604572586   T   T   T
  0.9163607944463401  0.2506010952619888  0.5470212010907977   T   T   T
  0.3355067786195950  0.7004257760128010  0.5040024929180563   T   T   T
  0.3343479444626070  0.5023399692389003  0.5030823178680628   T   T   T
  0.6656891851923211  0.5023014775773877  0.5037014806538660   T   T   T
  0.9145748284643256  0.7498532442059095  0.4536851552318078   T   T   T
  0.0833333358191695  0.2500000000242011  0.3605200052333331   F   F   F
  0.5827998529258431  0.5514965447499330  0.4566797094801027   T   T   T
  0.2499999999799343  0.5499999761504029  0.3605200052333331   F   F   F
  0.7499999404149307  0.3500000000123720  0.3605200052333331   F   F   F
  0.7482753575627220  0.4501701020454509  0.4560345502196603   T   T   T
  0.4171096392987826  0.7470057787001545  0.4544709742405668   T   T   T
  0.7499999404149307  0.5499999761504029  0.3605200052333331   F   F   F
  0.7499999404149307  0.7500000000008953  0.3605200052333331   F   F   F
  0.7499999404149307  0.9500000000130839  0.3605200052333331   F   F   F
  0.2499999999799343  0.3500000000123720  0.3605200052333331   F   F   F
  0.4166666269218169  0.5499999761504029  0.3605200052333331   F   F   F
  0.6653493605120561  0.7001625836192799  0.5030097962082860   T   T   T
  0.2506681337038174  0.9482824170671078  0.4536023635036109   T   T   T
  0.4166666269218169  0.9500000000130839  0.3605200052333331   F   F   F
  0.1665060724069015  0.5008768704299019  0.4978454292504612   T   T   T
  0.9151129919020856  0.4484719295720262  0.6396524606655826   T   T   T
  0.8328011944642383  0.4992655435352497  0.4995312986381442   T   T   T
  0.2529602887346840  0.3509401500231731  0.5474930021269714   T   T   T
  0.8323685290849742  0.6985636704197022  0.5005189677918893   T   T   T
  0.5002862366529083  0.6963652797676437  0.5000772819450199   T   T   T
  0.4997428012882233  0.4985781060939887  0.5002349214176951   T   T   T
  0.9166666865332829  0.6500000000127244  0.3605200052333331   F   F   F
  0.2513681804028863  0.2486462818939795  0.6416360440716374   T   T   T
  0.2617450084268693  0.8402814762520400  0.6461430238753268   T   T   T
  0.2475104963310771  0.6587065568024784  0.6291146817449401   T   T   T
  0.7500717196399705  0.3506358219974515  0.4541613356387534   T   T   T
  0.5877506732256303  0.4562955705512239  0.6343424983331173   T   T   T
  0.9151900524319249  0.2499872166371744  0.6408391789425339   T   T   T
  0.0828508836604046  0.5509522090925449  0.5452144374551762   T   T   T
  0.7543052956952685  0.7545455929874402  0.6555085220118926   T   T   T
  0.9160739786946659  0.4496617023134243  0.4540840891072325   T   T   T
  0.8328514715560831  0.3000790404335835  0.4998904111189532   T   T   T
  0.5000316555760187  0.1999292133953964  0.5916417431392226   T   T   T
  0.9166666865332829  0.7500000000008953  0.3605200052333331   F   F   F
  0.8324222387835342  0.8996135166805024  0.4996553879647427   T   T   T
  0.0000000000000000  0.4000000000243773  0.4070133268666680   F   F   F
  0.0000000000000000  0.6000000000007191  0.4070133268666680   F   F   F
  0.7484075572572404  0.6509994922504483  0.4541236723594387   T   T   T
  0.3333333432766779  0.2000000000121887  0.4070133268666680   F   F   F
  0.3333333432766779  0.6000000000007191  0.4070133268666680   F   F   F
  0.2510873822554173  0.5517909352001448  0.4552767388668819   T   T   T
  0.3336095887573465  0.8982591220533763  0.4994907759922821   T   T   T
  0.6666666865533486  0.2000000000121887  0.4070133268666680   F   F   F
  0.0001246920827568  0.8999581944225840  0.4991230672186091   T   T   T
  0.5903658635737568  0.6524938891909281  0.6387820932836722   T   T   T
  0.0838467492738328  0.9495730592747240  0.4537014995894589   T   T   T
  0.0829671444365445  0.5498222580671599  0.4531759216292471   T   T   T
  0.0837464503312539  0.3498330639076642  0.4537098587311218   T   T   T
  0.9162094727756817  0.8496908424644216  0.4540846285513606   T   T   T
  0.7466441765241303  0.6468822287113604  0.5451348234016838   T   T   T
  0.0002365313101642  0.2996933974394578  0.4986494210331277   T   T   T
  0.9161875242238937  0.2498266193336893  0.4541781285936343   T   T   T
  0.2499999999799343  0.6500000000127244  0.3605200052333331   F   F   F
  0.4993800348850652  0.4027793814237633  0.5914466245513385   T   T   T
  0.2524680673120602  0.6471178735691508  0.5440736484408901   T   T   T
  0.5829281608385206  0.8475524208428609  0.4557084322962743   T   T   T
  0.7498469865485075  0.1499385945269297  0.5468589540134209   T   T   T
  0.2501395835042836  0.1502968932683426  0.5464738300078981   T   T   T
  0.5828746525128645  0.1497972804236422  0.5476083151455372   T   T   T
  0.9163351408631353  0.1506697188796213  0.5463524887643587   T   T   T
  0.0838283465374586  0.0497550321618318  0.5465585002837370   T   T   T
  0.4166666269218169  0.2500000000242011  0.3605200052333331   F   F   F
  0.0000000000000000  0.0000000000000000  0.4070133268666680   F   F   F
  0.5833333134730552  0.4500000000005357  0.3605200052333331   F   F   F
  0.6661733104032909  0.3016342045764600  0.4997653920878032   T   T   T
  0.0833333358191695  0.6500000000127244  0.3605200052333331   F   F   F
  0.9166666865332829  0.2500000000242011  0.3605200052333331   F   F   F
  0.7499547449277537  0.8499604583026573  0.4536732491909671   T   T   T
  0.7489878633175709  0.5502419430827143  0.4556222384236616   T   T   T
  0.2500891681768623  0.2503801974144117  0.4543533039200409   T   T   T
  0.5828368689305414  0.3530773449917620  0.4561557918459607   T   T   T
  0.2519585021923892  0.6518880158922686  0.4537870608104048   T   T   T
  0.9999074777095511  0.4992291047453200  0.4983957266373461   T   T   T
  0.8333332538436267  0.2000000000121887  0.4070133268666680   F   F   F
  0.4165706054266572  0.1511279784302114  0.5462921240484038   T   T   T
  0.4169695571335190  0.3505199669443356  0.4542903066936578   T   T   T
  0.9151320001535409  0.4498769392794411  0.5467100297205156   T   T   T
  0.7499999404149307  0.8499999999890662  0.3605200052333331   F   F   F
  0.0835142620194940  0.4496306980597490  0.4540965075791676   T   T   T
  0.0837961996977719  0.8495932378782063  0.4541686391800756   T   T   T
  0.0839836113596882  0.6499083591185679  0.4542358708562162   T   T   T
  0.6666666865533486  0.6000000000007191  0.4070133268666680   F   F   F
  0.5000000000021103  0.2000000000121887  0.4070133268666680   F   F   F
  0.4172764486142518  0.2505712899586280  0.4549697834406559   T   T   T
  0.8333332538436267  0.4000000000243773  0.4070133268666680   F   F   F
  0.0833333358191695  0.4500000000005357  0.3605200052333331   F   F   F
  0.3333333432766779  0.4000000000243773  0.4070133268666680   F   F   F
  0.5843581306156447  0.4525029822040229  0.4538395524294907   T   T   T
  0.1666666716383389  0.4000000000243773  0.4070133268666680   F   F   F
  0.6666666865533486  0.8000000000129006  0.4070133268666680   F   F   F
  0.7473056150947754  0.8468132480810940  0.5457678819499271   T   T   T
  0.5833205986904012  0.0504358917718300  0.6418569691923842   T   T   T
  0.0000000000000000  0.2000000000121887  0.4070133268666680   F   F   F
  0.5000000000021103  0.8000000000129006  0.4070133268666680   F   F   F
  0.4166666269218169  0.6500000000127244  0.3605200052333331   F   F   F
  0.4166666269218169  0.4500000000005357  0.3605200052333331   F   F   F
  0.4166666269218169  0.8499999999890662  0.3605200052333331   F   F   F
  0.7499999404149307  0.4500000000005357  0.3605200052333331   F   F   F
  0.9163301813946768  0.9496396221197247  0.4537907992001660   T   T   T
  0.5833333134730552  0.9500000000130839  0.3605200052333331   F   F   F
  0.9161157269235313  0.6497701770259070  0.4542405548095170   T   T   T
  0.9998058019781920  0.7019977288123899  0.4972145836748429   T   T   T
  0.3337685354513355  0.3009739784760334  0.4987788794643838   T   T   T
  0.3333333432766779  0.8000000000129006  0.4070133268666680   F   F   F
  0.2515981327500844  0.7500745294842012  0.4561070452327216   T   T   T
  0.6666666865533486  0.4000000000243773  0.4070133268666680   F   F   F
  0.5844193320778859  0.6499105712517107  0.4548919820864483   T   T   T
  0.5000000000021103  0.6000000000007191  0.4070133268666680   F   F   F
  0.9166666865332829  0.4500000000005357  0.3605200052333331   F   F   F
  0.0833333358191695  0.3500000000123720  0.3605200052333331   F   F   F
  0.5000000000021103  0.4000000000243773  0.4070133268666680   F   F   F
  0.5833333134730552  0.6500000000127244  0.3605200052333331   F   F   F
  0.7499999404149307  0.6500000000127244  0.3605200052333331   F   F   F
  0.1666666716383389  0.2000000000121887  0.4070133268666680   F   F   F
  0.2499999999799343  0.2500000000242011  0.3605200052333331   F   F   F
  0.7499999404149307  0.2500000000242011  0.3605200052333331   F   F   F
  0.0836718046293441  0.1505545954232843  0.5463110303712501   T   T   T
  0.9995425996946060  0.5990595378560379  0.5941722343746791   T   T   T
  0.4998946260872048  0.1001119451516554  0.4987944830710993   T   T   T
  0.8333332538436267  0.0000000000000000  0.4070133268666680   F   F   F
  0.0833156761536185  0.0497312230929157  0.4539040046290015   T   T   T
  0.4166347651085089  0.0489760996954309  0.4545083141355452   T   T   T
  0.7499267808902285  0.0499795064273780  0.4536789518232468   T   T   T
  0.2501881104108175  0.0491285461390234  0.4541935864819094   T   T   T
  0.5835594746492657  0.0495418980561413  0.4542983534410329   T   T   T
  0.9166666865332829  0.1500000000001833  0.3605200052333331   F   F   F
  0.2499999999799343  0.1500000000001833  0.3605200052333331   F   F   F
  0.2519459905636393  0.4517401206224354  0.4538539360004221   T   T   T
  0.7499999404149307  0.1500000000001833  0.3605200052333331   F   F   F
  0.5833333134730552  0.8499999999890662  0.3605200052333331   F   F   F
  0.2505243777364132  0.8483043664419424  0.4555128227188635   T   T   T
  0.4158689115066349  0.6470119466253759  0.4581986331180966   T   T   T
  0.0833333358191695  0.9500000000130839  0.3605200052333331   F   F   F
  0.0840572969024012  0.2498294936250987  0.4543079080858435   T   T   T
  0.2499999999799343  0.4500000000005357  0.3605200052333331   F   F   F
  0.8333332538436267  0.8000000000129006  0.4070133268666680   F   F   F
  0.1666666716383389  0.0000000000000000  0.4070133268666680   F   F   F
  0.0833333358191695  0.5499999761504029  0.3605200052333331   F   F   F
  0.6666666865533486  0.0000000000000000  0.4070133268666680   F   F   F
  0.0846426309760845  0.7499932692674878  0.4535972053084140   T   T   T
  0.4172519201340282  0.0504170431644814  0.5475343612133488   T   T   T
  0.4172312939032803  0.5480137455377486  0.4541100187303410   T   T   T
  0.1666666716383389  0.6000000000007191  0.4070133268666680   F   F   F
  0.2499999999799343  0.8499999999890662  0.3605200052333331   F   F   F
  0.7520769891584886  0.5493240866808305  0.5486793315502959   T   T   T
  0.4230985077381381  0.5546358264381720  0.5461422786184488   T   T   T
  0.4229420700719875  0.7501064205310402  0.5466540457279875   T   T   T
  0.7492110658857724  0.3502918739934912  0.5469541120667194   T   T   T
  0.8325690227052848  0.2007067560731481  0.5919077833873724   T   T   T
  0.7477496019181068  0.9479805143110046  0.6394060356912211   T   T   T
  0.5833333134730552  0.1500000000001833  0.3605200052333331   F   F   F
  0.0833333358191695  0.0500000000120124  0.3605200052333331   F   F   F
  0.4166666269218169  0.0500000000120124  0.3605200052333331   F   F   F
  0.7499999404149307  0.0500000000120124  0.3605200052333331   F   F   F
  0.2499999999799343  0.0500000000120124  0.3605200052333331   F   F   F
  0.5833333134730552  0.0500000000120124  0.3605200052333331   F   F   F
  0.9166666865332829  0.0500000000120124  0.3605200052333331   F   F   F
  0.3333333432766779  0.0000000000000000  0.4070133268666680   F   F   F
  0.4155448127629799  0.4490126447617838  0.4573134348280197   T   T   T
  0.5000000000021103  0.0000000000000000  0.4070133268666680   F   F   F
  0.4166666269218169  0.3500000000123720  0.3605200052333331   F   F   F
  0.4165959091942278  0.1499491226060615  0.6415082834155982   T   T   T
  0.5828865232032738  0.1503201099959553  0.6428097162864274   T   T   T
  0.9159773227393436  0.1497101189678078  0.6407516439072514   T   T   T
  0.2506495636318131  0.1484931911066530  0.6412173208417795   T   T   T
  0.7498334377345860  0.1501540997716369  0.6417951519275019   T   T   T
  0.5825671165145225  0.0502617194673032  0.5473315736183458   T   T   T
  0.2499929364572564  0.0499900377459521  0.5468827907163709   T   T   T
  0.7500202977172407  0.0492583028626550  0.5462143507070513   T   T   T
  0.8332256580200893  0.1001369263412727  0.4988357451826523   T   T   T
  0.2500806076230599  0.1498831979945522  0.4536993789783099   T   T   T
  0.5830556166941318  0.1513071362656183  0.4547894396027526   T   T   T
  0.9166050625575720  0.1499628364691504  0.4537370998477259   T   T   T
  0.0000090771404504  0.1000517410621828  0.4991114920435200   T   T   T
  0.3335133264535642  0.0999073232772032  0.4989602545864971   T   T   T
  0.8333332538436267  0.6000000000007191  0.4070133268666680   F   F   F
  0.1667645218978317  0.0998784487853233  0.4987493744837460   T   T   T
  0.6663301249090973  0.1001066572716886  0.4990090238944912   T   T   T
  0.0833531349680958  0.1486442040921029  0.6404310367680672   T   T   T
  0.0836043685062060  0.0497231353956383  0.6404510011111718   T   T   T
  0.9159418060702985  0.0499966530484203  0.6402957641088438   T   T   T
  0.4172794516643374  0.0494125410628968  0.6428788734270678   T   T   T
  0.0833333358191695  0.8499999999890662  0.3605200052333331   F   F   F
  0.2514581801998819  0.2508553294739116  0.5475011165976721   T   T   T
  0.7497672507634655  0.0501023355963002  0.6408531230053965   T   T   T
  0.0833333358191695  0.7500000000008953  0.3605200052333331   F   F   F
  0.0833333358191695  0.1500000000001833  0.3605200052333331   F   F   F
  0.4166666269218169  0.1500000000001833  0.3605200052333331   F   F   F
  0.9166320573722040  0.0497649716642590  0.4538803737937983   T   T   T
  0.0833553394267902  0.1499979063059338  0.4537625403918840   T   T   T
  0.4166062654216694  0.1502996303312283  0.4538803013311808   T   T   T
  0.4144592287778201  0.8487256809801258  0.5479435821410797   T   T   T
  0.9162899826844281  0.0498956144672695  0.5465135127331174   T   T   T
  0.7498410652766532  0.1505473109582679  0.4541728337701144   T   T   T
  0.4996970517145268  0.0001863351037102  0.5916194357047889   T   T   T
  0.1673971991137016  0.9983841428468486  0.5921961726308415   T   T   T
  0.8325884019458553  0.9983736526594732  0.5920332753343773   T   T   T
  0.0000032087393560  0.9992191650941364  0.5921942848763867   T   T   T
  0.3340767114863546  0.0000432472523906  0.5918123270505867   T   T   T
  0.6660015277996071  0.0001830009959795  0.5918916644289745   T   T   T
  0.1629761409164145  0.4966499907933092  0.6076352207343919   T   T   T
  0.1666666716383389  0.6999999999888900  0.4070133268666680   F   F   F
  0.6646841174066174  0.9035533373977408  0.6059837925987690   T   T   T
  0.0003459580131463  0.2983773338323744  0.6209291673919745   T   T   T
  0.8335375460747098  0.1994577917188904  0.5057951109852860   T   T   T
  0.8333332538436267  0.6999999999888900  0.4070133268666680   F   F   F
  0.3333333432766779  0.8999999523244711  0.4070133268666680   F   F   F
  0.3339060776052551  0.8007630342440907  0.5016398647853724   T   T   T
  0.3312013427387800  0.5991978011092751  0.5011946957693814   T   T   T
  0.3333333432766779  0.5000000000125482  0.4070133268666680   F   F   F
  0.9995944169609148  0.6000585741596278  0.5067700386845448   T   T   T
  0.3328437284336179  0.1992960628304332  0.5058915489227501   T   T   T