Au  C  H  O Sr Ti                       
   1.00000000000000     
    23.6707801818999997    0.0000000000000000    0.0000000000000000
     0.0000000000000000   27.8962826732999716    0.0000000000000000
     0.0000000000000000    0.0000000000000000   30.0000000000000000
   Au   C    H    O    Sr   Ti
    50     4     9   330    90    90
Selective dynamics
Direct
  0.7123813596587385  0.6254419306980055  0.7547176466277313   T   T   T
  0.6628118664400254  0.3431278029516406  0.7398443624637576   T   T   T
  0.4718424046740375  0.5597514844949032  0.8773848143071374   T   T   T
  0.2821560402677811  0.4716102589251264  0.7023846302880534   T   T   T
  0.6695906401965029  0.7462204609448483  0.7485232904588985   T   T   T
  0.3978342529012459  0.5058484141161530  0.6907814580096795   T   T   T
  0.4514256715194189  0.6642234049413512  0.7035807252189641   T   T   T
  0.3751212995333831  0.5940247113336745  0.8332627970085165   T   T   T
  0.2892468009052117  0.6301839358875928  0.7778318249790440   T   T   T
  0.3678493333495291  0.6952273008717756  0.8202334204951270   T   T   T
  0.5965124506287833  0.8274454863849543  0.7133994049749467   T   T   T
  0.7751784200908574  0.5529377597892227  0.7942172019134255   T   T   T
  0.6941857301519341  0.4863836166371318  0.7640568502274963   T   T   T
  0.6456878229435363  0.5567326134872150  0.6956159380507498   T   T   T
  0.5605212145056894  0.7145527582225600  0.8646626823578050   T   T   T
  0.5395772159673526  0.7349121728577345  0.7023800337672395   T   T   T
  0.4434912226037707  0.5786806542766511  0.7565418001660871   T   T   T
  0.3735949935833913  0.7929251928594201  0.7790472176152563   T   T   T
  0.4603122764379471  0.6589289713946485  0.8653604347974500   T   T   T
  0.6558314953287764  0.5625356750995932  0.8171005882229603   T   T   T
  0.7070494645812200  0.8059394044301762  0.6877974095874458   T   T   T
  0.4158705420116338  0.7571843575030686  0.6998036689275502   T   T   T
  0.3253057090448739  0.5317611548399158  0.7693910830928342   T   T   T
  0.2571530565946404  0.6745085460781147  0.6946441735776639   T   T   T
  0.3919351202225366  0.8544067822193191  0.7065700222120176   T   T   T
  0.5198779357436740  0.5031574911749389  0.7330492006352760   T   T   T
  0.5521828947699924  0.5080153498862570  0.8268998480643160   T   T   T
  0.2940333648352678  0.7976880820827149  0.6966914134362746   T   T   T
  0.5082861442960893  0.6854818133725007  0.7783290663873857   T   T   T
  0.5775428224744795  0.7791031609767334  0.7943384835537232   T   T   T
  0.2403522629362461  0.5752434294864788  0.7092504243128961   T   T   T
  0.2854031686442676  0.7298403197265806  0.7644116598145727   T   T   T
  0.6017613766386242  0.4265744859225240  0.7840880774798469   T   T   T
  0.5137250815265949  0.5881187101280977  0.6782729780014989   T   T   T
  0.5672088718999786  0.6115492468464455  0.8586221061491409   T   T   T
  0.4856121358473721  0.4167053100881630  0.7741641041217339   T   T   T
  0.6191020864179742  0.4564501854581258  0.6975349025590364   T   T   T
  0.4609664980685882  0.7585020209844519  0.8327452620058515   T   T   T
  0.5618537421847335  0.5918339090467019  0.7633443076572911   T   T   T
  0.4364300036942431  0.3813087221194176  0.6981844430730997   T   T   T
  0.5538492849064346  0.3713222871077609  0.7091892632938445   T   T   T
  0.7365894830670529  0.3964229498133450  0.6938805204430146   T   T   T
  0.7609757461236527  0.5513354355861989  0.7043450768772238   T   T   T
  0.4857583993493200  0.8209589172300076  0.7552730083782178   T   T   T
  0.6203578249735953  0.6579282292326677  0.7038154326156647   T   T   T
  0.6296927005923113  0.6723064490163858  0.8011404565363319   T   T   T
  0.4301927333267541  0.4967394078774198  0.8152539532059306   T   T   T
  0.3490062066646589  0.6000498639548265  0.6979254701256108   T   T   T
  0.3698817887869708  0.4391481249178501  0.7558010041410832   T   T   T
  0.7324124369723164  0.6934300203124464  0.6932329625359541   T   T   T
  0.6447519053520693  0.2404521835868242  0.7915789528760158   T   T   T
  0.7549599536695046  0.4329255702220050  0.7503738361601806   T   T   T
  0.6927243774218464  0.2414846791650368  0.7571840321220273   T   T   T
  0.7232974361850161  0.2889370205442220  0.7524739738365587   T   T   T
  0.7258700814215261  0.2160106940062364  0.7673451533985053   T   T   T
  0.7437681301369856  0.3012970405115410  0.7830242070804128   T   T   T
  0.6576945392418397  0.2568029969292697  0.8230948390228959   T   T   T
  0.6316595404644973  0.2036217156630949  0.7983417143843349   T   T   T
  0.6076238746148179  0.2596591916038483  0.7792716136669116   T   T   T
  0.6778726292942561  0.2289617792804014  0.7247014981891002   T   T   T
  0.7521894228262335  0.2894895795445245  0.7242281964255801   T   T   T
  0.7540464791744381  0.4108750540016010  0.7804489301086239   T   T   T
  0.7948263922380805  0.4522958354708524  0.7469448992423007   T   T   T
  0.1666666716383389  0.8000000000129006  0.4070133268666680   F   F   F
  0.5819831524590946  0.3478278315416985  0.5509333353753221   T   T   T
  0.0000678849634689  0.8020160577663508  0.5926808662677050   T   T   T
  0.3338519506112975  0.2000319940042453  0.5921306004073972   T   T   T
  0.9998188924129352  0.2000348325743286  0.5924037475835499   T   T   T
  0.0006753825307838  0.3984355562101414  0.5923803374274710   T   T   T
  0.0842545378871073  0.9502487519175485  0.5462032793131065   T   T   T
  0.4197423748745385  0.6518016708353260  0.5557356372489464   T   T   T
  0.0838689173806385  0.3480899482062281  0.6421255854790253   T   T   T
  0.9177529669436487  0.6510062218386574  0.5470173750421664   T   T   T
  0.2530040750308050  0.8499222544229428  0.5507845188843487   T   T   T
  0.5856657199467101  0.8519114906655045  0.5507939050791824   T   T   T
  0.7495980090772930  0.4519720794480113  0.5505557622631260   T   T   T
  0.5808480579787157  0.6475463266949393  0.5488879891835932   T   T   T
  0.4163636988370877  0.4551291295396214  0.5525602905548007   T   T   T
  0.5766685775026802  0.5482473917448843  0.5524277552746213   T   T   T
  0.4165645908818680  0.2525099522789440  0.5473165656235277   T   T   T
  0.0000000000000000  0.8000000000129006  0.4070133268666680   F   F   F
  0.4998352438723245  0.3014601346702836  0.5003072201854928   T   T   T
  0.4160861029015618  0.9484095869382770  0.5467478787639141   T   T   T
  0.0853371143600629  0.8496349421444072  0.5468371451239107   T   T   T
  0.5833333134730552  0.5499999761504029  0.3605200052333331   F   F   F
  0.5833333134730552  0.7500000000008953  0.3605200052333331   F   F   F
  0.0858134360258462  0.4507883911618937  0.5470994115410672   T   T   T
  0.9166666865332829  0.3500000000123720  0.3605200052333331   F   F   F
  0.9166666865332829  0.5499999761504029  0.3605200052333331   F   F   F
  0.2521353757823873  0.9453851622818494  0.6373834036765870   T   T   T
  0.2504624834964114  0.0484684512709010  0.6417104678543968   T   T   T
  0.2395280954431079  0.5534148859140537  0.6417050542558568   T   T   T
  0.9156486289785341  0.8497003543018915  0.5464280373453824   T   T   T
  0.2492293524465340  0.7463210155016100  0.5522396923662307   T   T   T
  0.7482059930593540  0.9478603794719953  0.5470630684005311   T   T   T
  0.7510878536578761  0.7448925791860144  0.5526228266468193   T   T   T
  0.9160622803602653  0.9504345565703589  0.5462727791258806   T   T   T
  0.4182058190596444  0.2521164991282863  0.6391849975852906   T   T   T
  0.5837267945046438  0.9507951216799593  0.5455894712771430   T   T   T
  0.0828457755846598  0.2501009151715333  0.5473978908516344   T   T   T
  0.4173062547695094  0.9479370818801653  0.4540951083113570   T   T   T
  0.5833168387150576  0.2496522785505098  0.5457475229511504   T   T   T
  0.0812799359618872  0.6515943274320392  0.5466516963632868   T   T   T
  0.2491567001094601  0.4509547034539789  0.5460265022733137   T   T   T
  0.5008295402072616  0.8049199594871776  0.5926899881836712   T   T   T
  0.4182561345594460  0.3495466971747044  0.6397990679251723   T   T   T
  0.4157053895794507  0.5344145532486675  0.6301615568521652   T   T   T
  0.0844157267217286  0.9494294940550563  0.6410273460556157   T   T   T
  0.0840128009857285  0.7496647289543537  0.6397078015262138   T   T   T
  0.0838964466934040  0.2484621115829727  0.6421771605653034   T   T   T
  0.8332042062722501  0.6021558503230017  0.5895540223071685   T   T   T
  0.1708073591815186  0.7997330197009305  0.5946135903399988   T   T   T
  0.0868120805474232  0.5489161250196171  0.6395625602544222   T   T   T
  0.5826349020853907  0.9486168624762469  0.4538146992953934   T   T   T
  0.3351944676131269  0.4041261232011805  0.5933232187531225   T   T   T
  0.6651833261294084  0.7932370136854091  0.5909739154793010   T   T   T
  0.6664898858479620  0.5956182852009226  0.5914963692032380   T   T   T
  0.1671569528232118  0.1998724600191736  0.5923653796845976   T   T   T
  0.4127358108338090  0.8501259650007736  0.6394906896525563   T   T   T
  0.1682869689342632  0.3979284872693136  0.5933643396835356   T   T   T
  0.2483424779950324  0.5486460438825888  0.5491362458560678   T   T   T
  0.5828897692815249  0.4485880528492980  0.5455418798883021   T   T   T
  0.0866932759735960  0.6500213615189798  0.6402405816324954   T   T   T
  0.6662698683178623  0.8991613920311126  0.4987740599054997   T   T   T
  0.0836245103438984  0.4487466482913318  0.6406085734181952   T   T   T
  0.9143779025708022  0.7507012210537729  0.5459474818032024   T   T   T
  0.9172574432149904  0.3508465633141808  0.5453374872817307   T   T   T
  0.9157317328903601  0.5500069723470217  0.5458903318553709   T   T   T
  0.5792975020607369  0.7483372863971570  0.5476980341891311   T   T   T
  0.2517215187822759  0.9499597194305532  0.5450606054366824   T   T   T
  0.4971872868848487  0.6035206129980949  0.6091065657667614   T   T   T
  0.3330957742861294  0.5967753878632793  0.5914410681314688   T   T   T
  0.3353405589849506  0.7927715246524514  0.5906144614834546   T   T   T
  0.6651037548059354  0.3997791015589358  0.5898103761863024   T   T   T
  0.6661499270253129  0.1998669585668867  0.5921195592573480   T   T   T
  0.0857786511861218  0.7508594114807656  0.5459553030463804   T   T   T
  0.9143489927470003  0.8505523434404000  0.6414124354964930   T   T   T
  0.7490608720215357  0.7505844917385218  0.4570518682104002   T   T   T
  0.5831108141134714  0.2524299999803918  0.6386019297819587   T   T   T
  0.4173368143511647  0.9474760763916852  0.6392646893727936   T   T   T
  0.7532801949792766  0.4458240847277779  0.6451970082458258   T   T   T
  0.7486774808799945  0.2519812866295618  0.6396108705024417   T   T   T
  0.5833333134730552  0.3500000000123720  0.3605200052333331   F   F   F
  0.2499999999799343  0.9500000000130839  0.3605200052333331   F   F   F
  0.9166666865332829  0.9500000000130839  0.3605200052333331   F   F   F
  0.2499999999799343  0.7500000000008953  0.3605200052333331   F   F   F
  0.2500492782954483  0.3511358247022696  0.4544855019974427   T   T   T
  0.4166666269218169  0.7500000000008953  0.3605200052333331   F   F   F
  0.9146382395106379  0.3479914945914119  0.6400167292649686   T   T   T
  0.5000466389345342  0.8982320349387142  0.5007773722417348   T   T   T
  0.1676789463549982  0.6996040658585295  0.5001891814244612   T   T   T
  0.9139113316289339  0.6498355219504128  0.6409203883730656   T   T   T
  0.4159474956480926  0.3528816055092717  0.5474410588356329   T   T   T
  0.9166666865332829  0.8499999999890662  0.3605200052333331   F   F   F
  0.7537554630058693  0.5467174259690409  0.6379652714447744   T   T   T
  0.9123129421976036  0.5482047816262272  0.6398611625038075   T   T   T
  0.5899202765118139  0.8478093352643585  0.6465053358606977   T   T   T
  0.4273472860137983  0.4436732950767827  0.6572238087895929   T   T   T
  0.7487063057977414  0.2505231547075530  0.5464480488326551   T   T   T
  0.1672983274576673  0.3004137051179779  0.4999671685239029   T   T   T
  0.9160159208797315  0.5497284261484326  0.4537077294895900   T   T   T
  0.1678420996229799  0.8990441525952539  0.4995538601999015   T   T   T
  0.4201794296948708  0.7408832111305041  0.6338613359984064   T   T   T
  0.8302746893263133  0.8006116603072699  0.5923722977579100   T   T   T
  0.8320790373923910  0.3971314437199726  0.5905507592494817   T   T   T
  0.7426247071972905  0.3513138593838918  0.6407851640752243   T   T   T
  0.5833333134730552  0.2500000000242011  0.3605200052333331   F   F   F
  0.5829476021882870  0.7485981646532071  0.4547823246486997   T   T   T
  0.5830590203762035  0.2521822309306253  0.4537032830051494   T   T   T
  0.9161030556789335  0.3497384733158570  0.4535005371729361   T   T   T
  0.7494893264143154  0.2507309561806920  0.4541587934778470   T   T   T
  0.4171959966838661  0.8470913455266708  0.4554155456379749   T   T   T
  0.7527737046502970  0.6549262333662399  0.6358532474825591   T   T   T
  0.0852873508993018  0.8499957162840625  0.6418997247088767   T   T   T
  0.7414718173697763  0.8484753289244925  0.6396831073986694   T   T   T
  0.9156520184612585  0.7500610583283202  0.6393690060880596   T   T   T
  0.9158437808180113  0.9497341509192689  0.6410452297521972   T   T   T
  0.3973088877465169  0.6404382151594582  0.6523729179331401   T   T   T
  0.2553388070695677  0.7420346357742491  0.6629858778383519   T   T   T
  0.2540776100236220  0.3489788544319956  0.6408118765852220   T   T   T
  0.5808626679404382  0.3531617880014376  0.6447799570633168   T   T   T
  0.5817320178023697  0.9477852305091918  0.6379526622019926   T   T   T
  0.0836211185199226  0.3507300760206789  0.5463147613119157   T   T   T
  0.2488556497617019  0.4527893892903929  0.6413564580551686   T   T   T
  0.1654400980416324  0.6023811714504492  0.5873417204368091   T   T   T
  0.5772796655144902  0.7485092749979958  0.6398434029289749   T   T   T
  0.5796229284069860  0.5505470945981065  0.6459856233256559   T   T   T
  0.7494830732238974  0.9497373973330806  0.4547373343648036   T   T   T
  0.9163438211792942  0.2505848805164114  0.5470187405518894   T   T   T
  0.3355036402395433  0.7004266914532924  0.5040001674909496   T   T   T
  0.3343475679444659  0.5023400946915688  0.5030948002411588   T   T   T
  0.6656930117241705  0.5023755548096268  0.5036829301722392   T   T   T
  0.9145779135691814  0.7498179487439063  0.4536466509112732   T   T   T
  0.0833333358191695  0.2500000000242011  0.3605200052333331   F   F   F
  0.5828202871874963  0.5514716371390482  0.4566765435381688   T   T   T
  0.2499999999799343  0.5499999761504029  0.3605200052333331   F   F   F
  0.7499999404149307  0.3500000000123720  0.3605200052333331   F   F   F
  0.7482629307690460  0.4502030739760491  0.4560197673880142   T   T   T
  0.4171140514463312  0.7470256493439441  0.4544761372694062   T   T   T
  0.7499999404149307  0.5499999761504029  0.3605200052333331   F   F   F
  0.7499999404149307  0.7500000000008953  0.3605200052333331   F   F   F
  0.7499999404149307  0.9500000000130839  0.3605200052333331   F   F   F
  0.2499999999799343  0.3500000000123720  0.3605200052333331   F   F   F
  0.4166666269218169  0.5499999761504029  0.3605200052333331   F   F   F
  0.6653652559620575  0.7001495324328817  0.5030326644446680   T   T   T
  0.2506972900294682  0.9482813709833599  0.4536448078313817   T   T   T
  0.4166666269218169  0.9500000000130839  0.3605200052333331   F   F   F
  0.1665387202469867  0.5008538745764547  0.4978172983113324   T   T   T
  0.9151113172554903  0.4484534016878075  0.6396622888167885   T   T   T
  0.8327984132732674  0.4993216793037025  0.4995295071254692   T   T   T
  0.2529189871556377  0.3509473897032834  0.5474468023976491   T   T   T
  0.8323505595717493  0.6986323360676338  0.5005315506546747   T   T   T
  0.5002598132212421  0.6963870692720970  0.5000551533568569   T   T   T
  0.4997630840831405  0.4986356336049476  0.5002565619795154   T   T   T
  0.9166666865332829  0.6500000000127244  0.3605200052333331   F   F   F
  0.2512474709091199  0.2486277356393633  0.6416303848610941   T   T   T
  0.2617469045809216  0.8403088310254591  0.6461211921592904   T   T   T
  0.2474280885150505  0.6587346144550670  0.6291021841707204   T   T   T
  0.7500535182895852  0.3506241181568858  0.4541313688143750   T   T   T
  0.5877745951283826  0.4563043512825770  0.6343517826012790   T   T   T
  0.9152342259223433  0.2500077253151707  0.6408309886964894   T   T   T
  0.0828781323973656  0.5509440396772675  0.5452116844836697   T   T   T
  0.7543355612805307  0.7545071777624508  0.6555381154329689   T   T   T
  0.9160132546692314  0.4496219226764934  0.4540880995397442   T   T   T
  0.8328745961466038  0.3000651812528553  0.4998948326210045   T   T   T
  0.4999983512220683  0.1999631381300618  0.5916283546833470   T   T   T
  0.9166666865332829  0.7500000000008953  0.3605200052333331   F   F   F
  0.8324214178789326  0.8996118983193683  0.4996504526466161   T   T   T
  0.0000000000000000  0.4000000000243773  0.4070133268666680   F   F   F
  0.0000000000000000  0.6000000000007191  0.4070133268666680   F   F   F
  0.7484340467927704  0.6509853905634679  0.4541240554789958   T   T   T
  0.3333333432766779  0.2000000000121887  0.4070133268666680   F   F   F
  0.3333333432766779  0.6000000000007191  0.4070133268666680   F   F   F
  0.2510664148753166  0.5517866301127057  0.4552653828354865   T   T   T
  0.3336341335733422  0.8982706269314149  0.4995122948768319   T   T   T
  0.6666666865533486  0.2000000000121887  0.4070133268666680   F   F   F
  0.0001097291544452  0.8999408518226996  0.4991750921645398   T   T   T
  0.5903978261095298  0.6524326910135336  0.6388251261645306   T   T   T
  0.0838427567756718  0.9495306606497638  0.4536857750795177   T   T   T
  0.0829650502165873  0.5498133862736567  0.4531756225892201   T   T   T
  0.0837298390289850  0.3498281678757083  0.4536693708148716   T   T   T
  0.9162091397278053  0.8496907184406484  0.4540770842800397   T   T   T
  0.7466485210985939  0.6468689406486869  0.5451543201580006   T   T   T
  0.0002654581343161  0.2996643031440602  0.4985360970252323   T   T   T
  0.9161720376728362  0.2498595172297383  0.4541451911188568   T   T   T
  0.2499999999799343  0.6500000000127244  0.3605200052333331   F   F   F
  0.4994253744623056  0.4028056975001469  0.5913952021036013   T   T   T
  0.2524604177602311  0.6471160757562443  0.5440651714876071   T   T   T
  0.5829283246030645  0.8475844799263368  0.4557253639109138   T   T   T
  0.7498417675199124  0.1499171008125345  0.5468719429544777   T   T   T
  0.2501366574920563  0.1502911956222949  0.5464680838414062   T   T   T
  0.5827762255591424  0.1497593940967877  0.5476378634582886   T   T   T
  0.9163424869062137  0.1506817303624650  0.5463525171695739   T   T   T
  0.0837249254120946  0.0497829799337295  0.5465790482821113   T   T   T
  0.4166666269218169  0.2500000000242011  0.3605200052333331   F   F   F
  0.0000000000000000  0.0000000000000000  0.4070133268666680   F   F   F
  0.5833333134730552  0.4500000000005357  0.3605200052333331   F   F   F
  0.6661914154731428  0.3016443469507105  0.4998314603736468   T   T   T
  0.0833333358191695  0.6500000000127244  0.3605200052333331   F   F   F
  0.9166666865332829  0.2500000000242011  0.3605200052333331   F   F   F
  0.7499539482287115  0.8499347162713373  0.4536918537360057   T   T   T
  0.7489860783187172  0.5503054754987278  0.4556291648900585   T   T   T
  0.2500852262699640  0.2503842243219391  0.4543446518865332   T   T   T
  0.5828906305096457  0.3530495146804086  0.4561802564367274   T   T   T
  0.2519368575123139  0.6518837886637858  0.4537909888487325   T   T   T
  0.9999375450415664  0.4992167130296253  0.4984045330501725   T   T   T
  0.8333332538436267  0.2000000000121887  0.4070133268666680   F   F   F
  0.4165213317162250  0.1510450762397565  0.5463115335497654   T   T   T
  0.4169453707386898  0.3505218545063891  0.4542499486965785   T   T   T
  0.9150732352638569  0.4498923131505818  0.5466967899289461   T   T   T
  0.7499999404149307  0.8499999999890662  0.3605200052333331   F   F   F
  0.0834968998526948  0.4496057496324851  0.4541036204030156   T   T   T
  0.0838100877657814  0.8496085984370195  0.4541786869994917   T   T   T
  0.0840313433925069  0.6498934070755155  0.4542711855499345   T   T   T
  0.6666666865533486  0.6000000000007191  0.4070133268666680   F   F   F
  0.5000000000021103  0.2000000000121887  0.4070133268666680   F   F   F
  0.4172199258105959  0.2505592871562833  0.4550336198007500   T   T   T
  0.8333332538436267  0.4000000000243773  0.4070133268666680   F   F   F
  0.0833333358191695  0.4500000000005357  0.3605200052333331   F   F   F
  0.3333333432766779  0.4000000000243773  0.4070133268666680   F   F   F
  0.5843658841331429  0.4525090538934006  0.4538642431775533   T   T   T
  0.1666666716383389  0.4000000000243773  0.4070133268666680   F   F   F
  0.6666666865533486  0.8000000000129006  0.4070133268666680   F   F   F
  0.7473354268363236  0.8468367439112030  0.5457466087477337   T   T   T
  0.5834335386135363  0.0504475152118617  0.6417918593858077   T   T   T
  0.0000000000000000  0.2000000000121887  0.4070133268666680   F   F   F
  0.5000000000021103  0.8000000000129006  0.4070133268666680   F   F   F
  0.4166666269218169  0.6500000000127244  0.3605200052333331   F   F   F
  0.4166666269218169  0.4500000000005357  0.3605200052333331   F   F   F
  0.4166666269218169  0.8499999999890662  0.3605200052333331   F   F   F
  0.7499999404149307  0.4500000000005357  0.3605200052333331   F   F   F
  0.9163278078686911  0.9496162568873822  0.4537554174674130   T   T   T
  0.5833333134730552  0.9500000000130839  0.3605200052333331   F   F   F
  0.9160687210814416  0.6497932528236904  0.4542614919573119   T   T   T
  0.9998157946654556  0.7019949522294203  0.4972487086188960   T   T   T
  0.3337991788978202  0.3009529108745204  0.4987403385820097   T   T   T
  0.3333333432766779  0.8000000000129006  0.4070133268666680   F   F   F
  0.2515901977834727  0.7501000958978972  0.4561354858526357   T   T   T
  0.6666666865533486  0.4000000000243773  0.4070133268666680   F   F   F
  0.5844350680142488  0.6499030318665727  0.4549029275131400   T   T   T
  0.5000000000021103  0.6000000000007191  0.4070133268666680   F   F   F
  0.9166666865332829  0.4500000000005357  0.3605200052333331   F   F   F
  0.0833333358191695  0.3500000000123720  0.3605200052333331   F   F   F
  0.5000000000021103  0.4000000000243773  0.4070133268666680   F   F   F
  0.5833333134730552  0.6500000000127244  0.3605200052333331   F   F   F
  0.7499999404149307  0.6500000000127244  0.3605200052333331   F   F   F
  0.1666666716383389  0.2000000000121887  0.4070133268666680   F   F   F
  0.2499999999799343  0.2500000000242011  0.3605200052333331   F   F   F
  0.7499999404149307  0.2500000000242011  0.3605200052333331   F   F   F
  0.0836477418393545  0.1505370470709818  0.5463016862748601   T   T   T
  0.9995568918691312  0.5990261440923000  0.5941781857038441   T   T   T
  0.4999297579210318  0.1001615691327579  0.4987749104668706   T   T   T
  0.8333332538436267  0.0000000000000000  0.4070133268666680   F   F   F
  0.0832858041193742  0.0497102803046031  0.4539216245042803   T   T   T
  0.4164260338956539  0.0490501106453239  0.4544819709249936   T   T   T
  0.7499424435119660  0.0500118509616551  0.4536731912587270   T   T   T
  0.2502045526383692  0.0490962440958032  0.4542537806548216   T   T   T
  0.5835701559742649  0.0495581939459987  0.4542966420684732   T   T   T
  0.9166666865332829  0.1500000000001833  0.3605200052333331   F   F   F
  0.2499999999799343  0.1500000000001833  0.3605200052333331   F   F   F
  0.2519480800865682  0.4517584883910930  0.4538302793167299   T   T   T
  0.7499999404149307  0.1500000000001833  0.3605200052333331   F   F   F
  0.5833333134730552  0.8499999999890662  0.3605200052333331   F   F   F
  0.2505597669949555  0.8483457896174533  0.4555353022238978   T   T   T
  0.4159161812927244  0.6470397234910885  0.4582013986567497   T   T   T
  0.0833333358191695  0.9500000000130839  0.3605200052333331   F   F   F
  0.0841310911641927  0.2498276319313524  0.4543098381803054   T   T   T
  0.2499999999799343  0.4500000000005357  0.3605200052333331   F   F   F
  0.8333332538436267  0.8000000000129006  0.4070133268666680   F   F   F
  0.1666666716383389  0.0000000000000000  0.4070133268666680   F   F   F
  0.0833333358191695  0.5499999761504029  0.3605200052333331   F   F   F
  0.6666666865533486  0.0000000000000000  0.4070133268666680   F   F   F
  0.0846892553442006  0.7499766822988477  0.4535732200634900   T   T   T
  0.4171802154779007  0.0503700122000780  0.5474458390073871   T   T   T
  0.4172576321684620  0.5480038263683429  0.4541052545248711   T   T   T
  0.1666666716383389  0.6000000000007191  0.4070133268666680   F   F   F
  0.2499999999799343  0.8499999999890662  0.3605200052333331   F   F   F
  0.7521180446596365  0.5493485174161328  0.5486932475385183   T   T   T
  0.4230186373421155  0.5546707790492401  0.5461461223283597   T   T   T
  0.4229381530813482  0.7501370165612723  0.5466393581722943   T   T   T
  0.7491782641988713  0.3502749028509880  0.5469855717080041   T   T   T
  0.8325644661426929  0.2006715639711116  0.5919045282678779   T   T   T
  0.7477238116248743  0.9479266102311287  0.6393303008971999   T   T   T
  0.5833333134730552  0.1500000000001833  0.3605200052333331   F   F   F
  0.0833333358191695  0.0500000000120124  0.3605200052333331   F   F   F
  0.4166666269218169  0.0500000000120124  0.3605200052333331   F   F   F
  0.7499999404149307  0.0500000000120124  0.3605200052333331   F   F   F
  0.2499999999799343  0.0500000000120124  0.3605200052333331   F   F   F
  0.5833333134730552  0.0500000000120124  0.3605200052333331   F   F   F
  0.9166666865332829  0.0500000000120124  0.3605200052333331   F   F   F
  0.3333333432766779  0.0000000000000000  0.4070133268666680   F   F   F
  0.4155437295384776  0.4490024522669713  0.4573207677177580   T   T   T
  0.5000000000021103  0.0000000000000000  0.4070133268666680   F   F   F
  0.4166666269218169  0.3500000000123720  0.3605200052333331   F   F   F
  0.4165582557856723  0.1499438081931783  0.6415335796234067   T   T   T
  0.5828667382355005  0.1502701125168615  0.6427623004652960   T   T   T
  0.9159480834281118  0.1497132614397374  0.6407622722380877   T   T   T
  0.2505653059742060  0.1485465437877864  0.6412907100986472   T   T   T
  0.7497391179479593  0.1501426070657326  0.6417926871733447   T   T   T
  0.5826004569690826  0.0502834301025400  0.5472922651079636   T   T   T
  0.2500759773128320  0.0499323092603688  0.5468456671421946   T   T   T
  0.7500250823128750  0.0492727650565992  0.5462480221895225   T   T   T
  0.8332405746672021  0.1001343576924262  0.4988697818447003   T   T   T
  0.2500642012811948  0.1498992571761077  0.4536964258940581   T   T   T
  0.5831090570109432  0.1512468131850388  0.4546981702695850   T   T   T
  0.9166080083831551  0.1499949740921190  0.4537435520275532   T   T   T
  0.0000557826947938  0.0999968226806229  0.4991566641860336   T   T   T
  0.3334661131446605  0.0999432203596074  0.4990766270083269   T   T   T
  0.8333332538436267  0.6000000000007191  0.4070133268666680   F   F   F
  0.1667754164951015  0.0998841665207919  0.4987250752279008   T   T   T
  0.6663578084308566  0.1000923704628301  0.4990808580724250   T   T   T
  0.0833304130064703  0.1486684478258399  0.6404644893384275   T   T   T
  0.0835621048429865  0.0497131905589893  0.6404903813651373   T   T   T
  0.9159343286009139  0.0500102117265226  0.6403314571233131   T   T   T
  0.4171825223196264  0.0495358324491697  0.6427822331205448   T   T   T
  0.0833333358191695  0.8499999999890662  0.3605200052333331   F   F   F
  0.2515355355180035  0.2508511775150087  0.5474977594632305   T   T   T
  0.7497997244903868  0.0501326742624610  0.6408909823223699   T   T   T
  0.0833333358191695  0.7500000000008953  0.3605200052333331   F   F   F
  0.0833333358191695  0.1500000000001833  0.3605200052333331   F   F   F
  0.4166666269218169  0.1500000000001833  0.3605200052333331   F   F   F
  0.9166613522506571  0.0497649182219162  0.4539029967107877   T   T   T
  0.0833949073815954  0.1499971591511697  0.4537882732945373   T   T   T
  0.4166274168947017  0.1502892720585185  0.4538517798231935   T   T   T
  0.4144675722400434  0.8487301979324158  0.5479573445027458   T   T   T
  0.9163819475243709  0.0499440004421604  0.5465356579944750   T   T   T
  0.7499093255432251  0.1505532013513167  0.4541761363330215   T   T   T
  0.4996622074142674  0.0002577618438988  0.5916643794192946   T   T   T
  0.1674153541237079 -0.0014566751367941  0.5922644071544489   T   T   T
  0.8325842241701811 -0.0014604562862148  0.5919918399836862   T   T   T
  0.0000022115993117 -0.0008285446762660  0.5921251355185954   T   T   T
  0.3340239580394562 -0.0000402572128828  0.5918903076797382   T   T   T
  0.6660355933276697  0.0001766219050082  0.5918612767108905   T   T   T
  0.1629537879567407  0.4966590043053523  0.6076039476715103   T   T   T
  0.1666666716383389  0.6999999999888900  0.4070133268666680   F   F   F
  0.6647756849849779  0.9035647542935026  0.6059787113526742   T   T   T
  0.0003323076743440  0.2983371154370774  0.6208469978983286   T   T   T
  0.8335256881536546  0.1994546070814379  0.5058098913081004   T   T   T
  0.8333332538436267  0.6999999999888900  0.4070133268666680   F   F   F
  0.3333333432766779  0.8999999523244711  0.4070133268666680   F   F   F
  0.3339000259514716  0.8007771874414408  0.5016430447804543   T   T   T
  0.3311928942819414  0.5992210471098103  0.5011782623453021   T   T   T
  0.3333333432766779  0.5000000000125482  0.4070133268666680   F   F   F
  0.9995997102852396  0.6000514920153598  0.5067716935761775   T   T   T
  0.3328025817657416  0.1993631684726152  0.5058979499199276   T   T   T