Au  C  H  O Sr Ti                       
   1.00000000000000     
    23.6707801818999997    0.0000000000000000    0.0000000000000000
     0.0000000000000000   22.3170261383000010    0.0000000000000000
     0.0000000000000000    0.0000000000000000   30.0000000000000000
   Au   C    H    O    Sr   Ti
    50     2     3   265    72    72
Selective dynamics
Direct
  0.7128183914722570  0.5253672363023352  0.7540796680754059   T   T   T
  0.2881745110821581  0.5396410069468595  0.7773979835996316   T   T   T
  0.5675057644749790  0.5117502603845544  0.8570752035177979   T   T   T
  0.6599945335410585  0.1968348581676096  0.7485371090126400   T   T   T
  0.4680126183688666  0.4538444283021164  0.8810229666666419   T   T   T
  0.2808087366901117  0.3416072058848124  0.7025997500378243   T   T   T
  0.6685997532362583  0.6819497225826162  0.7487653419017113   T   T   T
  0.3965288580489547  0.3829674249142818  0.6909224696381504   T   T   T
  0.4508341817420429  0.5803678904215726  0.7035476440628711   T   T   T
  0.3735948453563601  0.4955264401278237  0.8334108220176228   T   T   T
  0.3228442923595087  0.4167972411589309  0.7703213135087875   T   T   T
  0.6987235210769958  0.3448711796208069  0.7572980202405846   T   T   T
  0.3679989216525835  0.6208128311973802  0.8199411016421806   T   T   T
  0.7700120382025818  0.4295787109546212  0.7958173450080887   T   T   T
  0.2559236378367113  0.5942061596230636  0.6945120245358927   T   T   T
  0.6473278944567000  0.4458826364464135  0.6950661386624575   T   T   T
  0.5396924145904656  0.6679406640952688  0.7020927850344101   T   T   T
  0.4408732368369557  0.4735086989520201  0.7563984840813636   T   T   T
  0.7062949098526617  0.7572464703294347  0.6883571564118990   T   T   T
  0.3736220055752943  0.7413637482780772  0.7788736672612898   T   T   T
  0.4610747574059335  0.5762023584867918  0.8654240146088571   T   T   T
  0.6512515995274132  0.4404145879492646  0.8125210889209775   T   T   T
  0.4167241252667814  0.6973406126187630  0.6995598912693254   T   T   T
  0.5166293962949325  0.3787944278528312  0.7330399520800198   T   T   T
  0.3474765422335678  0.5006722076289383  0.6969678162660927   T   T   T
  0.5631777250187668  0.6416933071913933  0.8622092362364404   T   T   T
  0.4626910809865312  0.6984935518868327  0.8314462658045387   T   T   T
  0.6156345549033332  0.3215711549827825  0.6960433209456349   T   T   T
  0.2938761912769784  0.7474466525742364  0.6965924121074608   T   T   T
  0.5089662212823904  0.6061319877794011  0.7778971213819609   T   T   T
  0.5778689041699061  0.7265376712646000  0.7941547612360635   T   T   T
  0.2848100491710597  0.6634692821952035  0.7643915891561606   T   T   T
  0.5965411315357437  0.2935545272912712  0.7848093221952303   T   T   T
  0.5125454598877348  0.4849383937100930  0.6781175751665547   T   T   T
  0.5600186048377863  0.4882618599240479  0.7625445657236780   T   T   T
  0.4814488854542944  0.2725450809907923  0.7754072899189242   T   T   T
  0.5436094930916830  0.3871850829429726  0.8299629599971988   T   T   T
  0.5493634000733295  0.2169747635723018  0.7100149033074352   T   T   T
  0.2391578250498185  0.4701162513758867  0.7093156792750230   T   T   T
  0.4322219735837968  0.2283764194928670  0.6986719110315793   T   T   T
  0.3673708599632974  0.3010636749085680  0.7569002971975325   T   T   T
  0.4248052818348610  0.3738014781072329  0.8180545224301559   T   T   T
  0.6198283896617026  0.5710334774996044  0.7040759493350175   T   T   T
  0.5960484366795858  0.7849998441685089  0.7128269256992682   T   T   T
  0.6315903495288258  0.5861716242420046  0.7998454272523985   T   T   T
  0.7311889077878859  0.6148029828369470  0.6941151287157294   T   T   T
  0.3914237198686265  0.8186081604456238  0.7064881796012914   T   T   T
  0.4854791452593148  0.7770710752779271  0.7547981745690485   T   T   T
  0.7625066256248570  0.4323025429332081  0.7052871473279929   T   T   T
  0.7197138756053705  0.2591074157126474  0.6901205752787495   T   T   T
  0.7732002349717728  0.1548303535665267  0.7829415224994332   T   T   T
  0.7258776818819560  0.1347378226770245  0.7531831786939504   T   T   T
  0.7413551295691072  0.1233228204241353  0.7198399594004139   T   T   T
  0.7059530401651942  0.0944063943112647  0.7670867169554415   T   T   T
  0.8098195688812095  0.1234718802832568  0.7824650047423692   T   T   T
  0.7477367705147501  0.3114697722134672  0.5479383314779122   T   T   T
  0.5859782457945690  0.8142799008045613  0.5503847898778499   T   T   T
  0.5812372286805679  0.5598968951142042  0.5489565600257110   T   T   T
  0.2525991572538982  0.5591307792906132  0.5438845304198789   T   T   T
  0.4158976135206631  0.3193169176660637  0.5526071629304254   T   T   T
  0.5764649726510583  0.4357047368557512  0.5523237770689471   T   T   T
  0.4165756751338135  0.0652993484939579  0.5472902955848009   T   T   T
  0.0851543511713407  0.8125862782559766  0.5473403842722662   T   T   T
  0.0866449549927855  0.3135228130697996  0.5470698965595271   T   T   T
  0.5005159755403058  0.7565632091959233  0.5925194145270049   T   T   T
  0.0823984494877389  0.0631067796290505  0.5475597273768893   T   T   T
  0.0833333358191695  0.3124999999901945  0.3605200052333331   F   F   F
  0.9167945029701120  0.1887743436614369  0.5454133619103529   T   T   T
  0.5838602586138615  0.9375979769252234  0.5462530410674825   T   T   T
  0.5794387169555020  0.6860816581773637  0.5475318031818719   T   T   T
  0.2515212364410785  0.9372902583234496  0.5452050762516664   T   T   T
  0.4972026256675390  0.5044362154472072  0.6090181206709774   T   T   T
  0.9179139795715577  0.5637782580824369  0.5470903596778072   T   T   T
  0.4197837208181541  0.5649474731003075  0.5553746793796067   T   T   T
  0.9154245805804864  0.8126348654778928  0.5468016595650044   T   T   T
  0.0841073021912049  0.9383762499657115  0.5461263637046018   T   T   T
  0.2489693553168726  0.6833693959767486  0.5518182976950046   T   T   T
  0.7493281912808372  0.9339295742103511  0.5476553004318787   T   T   T
  0.7516871631548985  0.6801223560257297  0.5533843936704711   T   T   T
  0.9156316056903377  0.9384764506759521  0.5463765745506725   T   T   T
  0.4176641580905626  0.0651799750053147  0.6400661266895985   T   T   T
  0.4123883607068833  0.8128588390104188  0.6394123940922463   T   T   T
  0.5824537591909337  0.0616358449712232  0.5453096585851408   T   T   T
  0.9154401760308427  0.4374720974185072  0.5457565758311916   T   T   T
  0.7501169387186729  0.1897080065218505  0.4556066039147942   T   T   T
  0.3340676253572811  0.9999104036399135  0.5919468537382196   T   T   T
  0.5825677897345313  0.9372451682180150  0.4544268897114343   T   T   T
  0.4993790050764585  0.1256301655698533  0.4989820080523517   T   T   T
  0.9996130937928330  0.4987339501523678  0.5941311728557149   T   T   T
  0.5793509802724537  0.1846581015781188  0.5505096194216432   T   T   T
  0.9996782072415402  0.7536949204015503  0.5928026067189509   T   T   T
  0.9140568127495738  0.5627680225151652  0.6408409889647342   T   T   T
  0.9998935840892239  0.9988494999571116  0.5930651109432667   T   T   T
  0.0011978094076212  0.2497659792859511  0.5920514951233566   T   T   T
  0.3330548571614401  0.4961606374551635  0.5911006271313609   T   T   T
  0.3353795632315895  0.7409415721464089  0.5903377661609674   T   T   T
  0.6634958030155327  0.2467743662807255  0.5902942101456248   T   T   T
  0.6661239430333874  0.0010750197201086  0.5918720713453856   T   T   T
  0.6655538899538388  0.7412459952566638  0.5908667954154445   T   T   T
  0.6664923334783593  0.4937859557628979  0.5915503690820382   T   T   T
  0.1675022194492273  0.9983269496296591  0.5923024971393918   T   T   T
  0.1685576403550752  0.2482868792772606  0.5931639525283827   T   T   T
  0.1709334844380098  0.7504538858621297  0.5950938375527158   T   T   T
  0.2482710747522613  0.4359152326576931  0.5491612895959177   T   T   T
  0.1654537415995844  0.5034184370298987  0.5872186872623296   T   T   T
  0.3346891014351748  0.2544826052502052  0.5925894506487347   T   T   T
  0.4996958547078026  0.0001189224407246  0.5910885071578933   T   T   T
  0.8326851005430975  0.8741898220102153  0.4986289873760575   T   T   T
  0.7484469798485630  0.9374191488678352  0.6402174227183767   T   T   T
  0.8323568963831013  0.0016785468906466  0.5920736326849868   T   T   T
  0.7490704270640710  0.1836642533463791  0.5506291860425016   T   T   T
  0.4229348184263730  0.6878140530762368  0.5467233522755466   T   T   T
  0.4230359256383350  0.4436509636019082  0.5459959588492092   T   T   T
  0.7524956727391792  0.4350300557428557  0.5492590021022959   T   T   T
  0.5831184460053669  0.3105790038062792  0.5447777429667841   T   T   T
  0.2532314628556698  0.8125821169494216  0.5506316554264139   T   T   T
  0.9157852002304995  0.1869196767943730  0.4531617201018683   T   T   T
  0.9132115340838384  0.8133958204217425  0.6419323515520721   T   T   T
  0.7550345182121844  0.4341074624940749  0.6384759269998275   T   T   T
  0.2492624903604108  0.3137830420075809  0.5459807637863425   T   T   T
  0.4175757137678525  0.9349237169180863  0.6397326486002819   T   T   T
  0.7465827216309311  0.3124940520606946  0.6404054591877510   T   T   T
  0.7489843830025691  0.0683612051655272  0.6386947997308809   T   T   T
  0.0843581783287299  0.3114175238954290  0.6407392593548902   T   T   T
  0.6664820142101759  0.8743242103331653  0.4987786955662652   T   T   T
  0.0865010318222404  0.5629092907358966  0.6400931190564674   T   T   T
  0.0874079943728797  0.4366899229722407  0.6397426454005748   T   T   T
  0.4173078839139510  0.1874590917674456  0.6399962773477226   T   T   T
  0.4151032090796573  0.4187149505216705  0.6302993703807420   T   T   T
  0.0844643306145258  0.9356496863017996  0.6409977657283621   T   T   T
  0.0833832323151547  0.6871266771755224  0.6387984307036584   T   T   T
  0.0841302516449079  0.0603392376352142  0.6421299267301347   T   T   T
  0.8331947117472246  0.5034275108618789  0.5892885415357725   T   T   T
  0.0837332092982755  0.1854456106063185  0.6412157701297543   T   T   T
  0.2400594172058077  0.4423639060102621  0.6416560107213767   T   T   T
  0.9124319201741877  0.4361657791985832  0.6399993709958651   T   T   T
  0.2520719683813180  0.9303058138419751  0.6373212352462976   T   T   T
  0.9163083541613403  0.6876564793049372  0.6390338161627518   T   T   T
  0.9143912883257580  0.9371377541221917  0.6413789197042057   T   T   T
  0.3971816693311532  0.5506359308809974  0.6519722709159892   T   T   T
  0.2544678743527541  0.6786146686709889  0.6626234985711138   T   T   T
  0.2535993744480869  0.1864952651201416  0.6412741611034639   T   T   T
  0.5789859491475819  0.1930722679239735  0.6459187865996765   T   T   T
  0.5821467469124477  0.9361870920133973  0.6393588004572773   T   T   T
  0.9166666865332829  0.8124999999834799  0.3605200052333331   F   F   F
  0.7462845557137184  0.1950145748873187  0.6461675372933204   T   T   T
  0.8320259454961446  0.2492970809524522  0.5905570743015570   T   T   T
  0.8303320361748608  0.7507613164786772  0.5927113719257144   T   T   T
  0.0846410006135741  0.8126647807797027  0.6424592551052639   T   T   T
  0.7524595939938953  0.5687470164430800  0.6357347704653137   T   T   T
  0.5827927179341386  0.0668480696558756  0.6387981507320633   T   T   T
  0.7411336662397879  0.8098648943616928  0.6399364520319328   T   T   T
  0.8328670659563150  0.1245267248462618  0.4998338473776787   T   T   T
  0.5906643339719945  0.5661068231232720  0.6385985987971171   T   T   T
  0.2476055928373231  0.5740741255931819  0.6287465433538402   T   T   T
  0.7535395976521694  0.6920514458365427  0.6574811788962616   T   T   T
  0.2627008233169836  0.8006304486484336  0.6460281714787268   T   T   T
  0.2510226864547758  0.0594364328802972  0.6423001601160343   T   T   T
  0.9166666865332829  0.5625000000092442  0.3605200052333331   F   F   F
  0.4994720888392983  0.3740325867629001  0.5004120759883002   T   T   T
  0.5002943878024317  0.6210340225086373  0.5001373609577306   T   T   T
  0.8323574904702161  0.6230616692018563  0.5001440690781652   T   T   T
  0.2519785208035505  0.1882879357335081  0.5471749521385687   T   T   T
  0.8325586929431734  0.3731002776504795  0.4995859785504653   T   T   T
  0.9152089218857773  0.3119020231781803  0.6397783117814176   T   T   T
  0.1667328698746733  0.3762211135818215  0.4976964985345829   T   T   T
  0.5801536165641208  0.4393852440268964  0.6469777143743869   T   T   T
  0.5768604016571265  0.6863864396826476  0.6397865726978523   T   T   T
  0.9160330924694372  0.1862496112825653  0.6396880478985097   T   T   T
  0.2492043713445181  0.3164600177721587  0.6412998683908889   T   T   T
  0.1677602095219869  0.8732358415440202  0.4998865474856861   T   T   T
  0.9158895138798683  0.4369670002315071  0.4535849686269023   T   T   T
  0.1670910073990025  0.1244042715947728  0.4993585488415950   T   T   T
  0.7485347894245726  0.0598660395667767  0.5444159229954418   T   T   T
  0.4255622933855450  0.3052312953328765  0.6567201703849268   T   T   T
  0.5906636546855947  0.8106177272245961  0.6459065034382930   T   T   T
  0.4203779555580222  0.6762189715788322  0.6337263534944217   T   T   T
  0.0835998853811215  0.1888525770391418  0.5456271630003486   T   T   T
  0.4983412569314660  0.2539387322472815  0.5917737110842917   T   T   T
  0.9158556652414657  0.0626548377550828  0.6411589354834220   T   T   T
  0.1675378879704114  0.6242759757546463  0.5002437218486094   T   T   T
  0.4999998724439297  0.8731891778672229  0.5008803152555925   T   T   T
  0.4165227528376336  0.1911273880081710  0.5468628612693125   T   T   T
  0.0829212180520091  0.4389525311067453  0.5448186943549594   T   T   T
  0.9143085612189790  0.6887476367922127  0.5456671871045464   T   T   T
  0.5850821428040999  0.3217442870514926  0.6325553627072890   T   T   T
  0.9166666865332829  0.6874999999963620  0.3605200052333331   F   F   F
  0.9166666865332829  0.4374999701794380  0.3605200052333331   F   F   F
  0.9166666865332829  0.1875000000030838  0.3605200052333331   F   F   F
  0.5833333134730552  0.9375000000154046  0.3605200052333331   F   F   F
  0.0809409124707695  0.5645258514672327  0.5464472320099276   T   T   T
  0.5833333134730552  0.4374999701794380  0.3605200052333331   F   F   F
  0.5833333134730552  0.1875000000030838  0.3605200052333331   F   F   F
  0.2499999999799343  0.9375000000154046  0.3605200052333331   F   F   F
  0.9166666865332829  0.9375000000154046  0.3605200052333331   F   F   F
  0.2499999999799343  0.6874999999963620  0.3605200052333331   F   F   F
  0.2499999999799343  0.1875000000030838  0.3605200052333331   F   F   F
  0.7499999404149307  0.9375000000154046  0.3605200052333331   F   F   F
  0.7499999404149307  0.6874999999963620  0.3605200052333331   F   F   F
  0.4174310120232601  0.9357702054534718  0.4539194846111347   T   T   T
  0.5833117258607254  0.0639127080527240  0.4537527760369598   T   T   T
  0.7499999404149307  0.4374999701794380  0.3605200052333331   F   F   F
  0.4166666269218169  0.6874999999963620  0.3605200052333331   F   F   F
  0.4166666269218169  0.4374999701794380  0.3605200052333331   F   F   F
  0.2499999999799343  0.4374999701794380  0.3605200052333331   F   F   F
  0.0833333358191695  0.0625000000159659  0.3605200052333331   F   F   F
  0.9153129725316504  0.6868416884232863  0.4533237089801423   T   T   T
  0.6653909885278512  0.3790595160978850  0.5031340634232635   T   T   T
  0.3343487996390498  0.3784826490252328  0.5030069683781829   T   T   T
  0.3355866839283091  0.6257868106814209  0.5037393110094386   T   T   T
  0.9174443970488475  0.0634033022742686  0.5473888190880181   T   T   T
  0.7495218219089337  0.9384067723455095  0.4553567472583435   T   T   T
  0.2500192639772391  0.9360773123386391  0.4539874013165335   T   T   T
  0.2500996194937965  0.1884848246466380  0.4541035649661927   T   T   T
  0.7490755851116704  0.6886699496199410  0.4574681142579358   T   T   T
  0.7499999404149307  0.1875000000030838  0.3605200052333331   F   F   F
  0.4166666269218169  0.9375000000154046  0.3605200052333331   F   F   F
  0.5833333134730552  0.0625000000159659  0.3605200052333331   F   F   F
  0.2505347875051339  0.0620522091600964  0.4542556007213917   T   T   T
  0.4159982966197525  0.9369991454511719  0.5460488895763086   T   T   T
  0.0843765273432134  0.6869566274317049  0.4531658468256655   T   T   T
  0.2520839962489417  0.6875583027492467  0.4559921382047569   T   T   T
  0.0840604616052201  0.9368600913953236  0.4536835336189965   T   T   T
  0.0827645348757799  0.4368204074968695  0.4528178574911412   T   T   T
  0.0856756255739520  0.6893300384803448  0.5454353990250271   T   T   T
  0.0838361593301381  0.1865810737664292  0.4529957709969745   T   T   T
  0.9165889262574765  0.8121353164866328  0.4540692259741284   T   T   T
  0.7463859788640935  0.5577138347772118  0.5446719248075595   T   T   T
  0.9161036882139000  0.5622321766470707  0.4540460012877950   T   T   T
  0.9161063535672084  0.0622368525408812  0.4540484214064914   T   T   T
  0.9162348377675682  0.3122012763501673  0.4538173647802403   T   T   T
  0.4169438047267620  0.4355624068471868  0.4540709195423629   T   T   T
  0.5822439846036331  0.4395756769203828  0.4564363792355406   T   T   T
  0.5829959175634598  0.1904270973150382  0.4556779636076380   T   T   T
  0.5833333134730552  0.6874999999963620  0.3605200052333331   F   F   F
  0.9164603572671720  0.9371215993334464  0.4536676921976279   T   T   T
  0.0000963269017419  0.3737324288896607  0.4981782546692242   T   T   T
  0.9996853543690195  0.6271546431388453  0.4976342885958049   T   T   T
  0.3337383274852430  0.1257461911822499  0.4987502835326509   T   T   T
  0.0000892440011846  0.8751686377348732  0.4996137329523674   T   T   T
  0.3335071500842829  0.8741557337826990  0.4991147109391901   T   T   T
  0.6658649439494266  0.1263111929666766  0.4998762433272929   T   T   T
  0.2511589132261404  0.4392836684879359  0.4549282201761979   T   T   T
  0.0833333358191695  0.5625000000092442  0.3605200052333331   F   F   F
  0.9166666865332829  0.0625000000159659  0.3605200052333331   F   F   F
  0.7494214209577104  0.8131718081932989  0.4530326260246095   T   T   T
  0.7496442930577129  0.4384190149334953  0.4558054614508868   T   T   T
  0.9157750910429850  0.3126583809070156  0.5465152316646649   T   T   T
  0.4171796686588803  0.6847712271621154  0.4547368945331710   T   T   T
  0.0001200191269610  0.1250702331919654  0.4983424194999558   T   T   T
  0.5832671079666440  0.8104950785728230  0.4553293625536701   T   T   T
  0.4165956772777413  0.8099789147667956  0.4550374602828809   T   T   T
  0.7744011172873650  0.1993740228313854  0.8064748170093338   T   T   T
  0.2499999999799343  0.8124999999834799  0.3605200052333331   F   F   F
  0.0000000000000000  0.2500000000190425  0.4070133268666680   F   F   F
  0.0000000000000000  0.4999999999932783  0.4070133268666680   F   F   F
  0.7482140541434701  0.5642704003894954  0.4537914657958699   T   T   T
  0.3333333432766779  0.0000000000000000  0.4070133268666680   F   F   F
  0.3333333432766779  0.4999999999932783  0.4070133268666680   F   F   F
  0.3333333432766779  0.7500000000123208  0.4070133268666680   F   F   F
  0.6666666865533486  0.0000000000000000  0.4070133268666680   F   F   F
  0.6666666865533486  0.2500000000190425  0.4070133268666680   F   F   F
  0.6666666865533486  0.4999999999932783  0.4070133268666680   F   F   F
  0.8333332538436267  0.2500000000190425  0.4070133268666680   F   F   F
  0.1666666716383389  0.0000000000000000  0.4070133268666680   F   F   F
  0.5842993084152238  0.3155107716791129  0.4536168299039673   T   T   T
  0.1666666716383389  0.4999999999932783  0.4070133268666680   F   F   F
  0.5000000000021103  0.2500000000190425  0.4070133268666680   F   F   F
  0.0000000000000000  0.0000000000000000  0.4070133268666680   F   F   F
  0.5000000000021103  0.7500000000123208  0.4070133268666680   F   F   F
  0.3333333432766779  0.2500000000190425  0.4070133268666680   F   F   F
  0.7473209764653412  0.3141634147050290  0.4547679656270222   T   T   T
  0.0000000000000000  0.7500000000123208  0.4070133268666680   F   F   F
  0.5844886616844351  0.5628059398684887  0.4548622970895092   T   T   T
  0.7492931737030324  0.0642618938767008  0.4533365787851779   T   T   T
  0.8333332538436267  0.0000000000000000  0.4070133268666680   F   F   F
  0.5827662982619750  0.6861255835135652  0.4546387671488364   T   T   T
  0.2517817948385651  0.5646100124838471  0.4537803292316014   T   T   T
  0.4169027066101845  0.1872704571639768  0.4536987354681546   T   T   T
  0.6653478735850459  0.6259975549059997  0.5029913001024470   T   T   T
  0.1666666716383389  0.7500000000123208  0.4070133268666680   F   F   F
  0.2505015705766813  0.8108192941830075  0.4553135538581255   T   T   T
  0.1666666716383389  0.2500000000190425  0.4070133268666680   F   F   F
  0.7478356753529891  0.8078244113632419  0.5455642915863528   T   T   T
  0.9166666865332829  0.3124999999901945  0.3605200052333331   F   F   F
  0.0833333358191695  0.1875000000030838  0.3605200052333331   F   F   F
  0.5000000000021103  0.0000000000000000  0.4070133268666680   F   F   F
  0.6666666865533486  0.7500000000123208  0.4070133268666680   F   F   F
  0.4141076037747302  0.8116490004526751  0.5476653829131474   T   T   T
  0.4166666269218169  0.5625000000092442  0.3605200052333331   F   F   F
  0.0834366094691696  0.8121725574673538  0.4541670701513371   T   T   T
  0.4168366847489293  0.0615581124300806  0.4553326850816161   T   T   T
  0.0835014642091490  0.3119601711536100  0.4540302196093798   T   T   T
  0.7499999404149307  0.8124999999834799  0.3605200052333331   F   F   F
  0.5833333134730552  0.3124999999901945  0.3605200052333331   F   F   F
  0.4166666269218169  0.3124999999901945  0.3605200052333331   F   F   F
  0.7499999404149307  0.0625000000159659  0.3605200052333331   F   F   F
  0.7499999404149307  0.3124999999901945  0.3605200052333331   F   F   F
  0.7499999404149307  0.5625000000092442  0.3605200052333331   F   F   F
  0.5000000000021103  0.4999999999932783  0.4070133268666680   F   F   F
  0.2499999999799343  0.3124999999901945  0.3605200052333331   F   F   F
  0.2499999999799343  0.0625000000159659  0.3605200052333331   F   F   F
  0.4166666269218169  0.8124999999834799  0.3605200052333331   F   F   F
  0.0839725905929366  0.5625138407517319  0.4539840970458386   T   T   T
  0.4166666269218169  0.0625000000159659  0.3605200052333331   F   F   F
  0.5833333134730552  0.5625000000092442  0.3605200052333331   F   F   F
  0.2499999999799343  0.5625000000092442  0.3605200052333331   F   F   F
  0.2511146985657884  0.0626338995269076  0.5472472945645063   T   T   T
  0.2522559547570432  0.3141253216058761  0.4541659663754850   T   T   T
  0.0833333358191695  0.6874999999963620  0.3605200052333331   F   F   F
  0.5833333134730552  0.8124999999834799  0.3605200052333331   F   F   F
  0.0837396271039162  0.0619020423118281  0.4541877123877501   T   T   T
  0.4155643976741323  0.3114517467364377  0.4573746313638763   T   T   T
  0.4160537640104653  0.5595538826347087  0.4578705242603306   T   T   T
  0.0833333358191695  0.4374999701794380  0.3605200052333331   F   F   F
  0.0833333358191695  0.8124999999834799  0.3605200052333331   F   F   F
  0.0833333358191695  0.9375000000154046  0.3605200052333331   F   F   F
  0.4166666269218169  0.1875000000030838  0.3605200052333331   F   F   F
  0.8333332538436267  0.4999999999932783  0.4070133268666680   F   F   F
  0.8333332538436267  0.7500000000123208  0.4070133268666680   F   F   F
  0.3315711227657328  0.1197817574104071  0.6127436293201772   T   T   T
  0.1666666716383389  0.6249999999803961  0.4070133268666680   F   F   F
  0.9997890522029481  0.6235956878455758  0.6243254701922946   T   T   T
  0.8360596091458605  0.5000627979406650  0.5030072612624668   T   T   T
  0.1666666716383389  0.8749999404036828  0.4070133268666680   F   F   F
  0.5000000000021103  0.1249999999871179  0.4070133268666680   F   F   F
  0.5000000000021103  0.6249999999803961  0.4070133268666680   F   F   F
  0.8377809508726350  0.3727826583138230  0.6039517500637199   T   T   T
  0.8317668382659679  0.8767044661142879  0.6180299903951378   T   T   T
  0.5000000000021103  0.8749999404036828  0.4070133268666680   F   F   F
  0.8393180038794854  0.6270460110903030  0.6043343068792871   T   T   T
  0.5003612724622706  0.1226200584711200  0.6070956162967258   T   T   T
  0.8360259567052725  0.7515907126624322  0.5026322162338592   T   T   T
  0.1666666716383389  0.1249999999871179  0.4070133268666680   F   F   F
  0.8349188484546880  0.1240509463679203  0.6134299640126555   T   T   T
  0.5035729222619922  0.6249692192612081  0.5941079172500291   T   T   T
  0.6656549479919251  0.1247121042010947  0.6101826448897513   T   T   T
  0.5017195092749398  0.3714139576266294  0.5950416498665216   T   T   T
  0.0003708855303034  0.3751970207226569  0.6252391022496129   T   T   T
  0.6663567184432498  0.6260627047253574  0.5932864874198297   T   T   T
  0.6653331827522514  0.8814521300310358  0.6073045436254424   T   T   T
  0.1634099261962655  0.3713098552507151  0.6074559522383564   T   T   T
  0.0000000000000000  0.3750000000061604  0.4070133268666680   F   F   F
  0.1678288587638681  0.1227638518554429  0.6220732605540356   T   T   T
  0.6712897718024647  0.3728211280817393  0.5932274924878170   T   T   T
  0.1663415319775500  0.8737783491021475  0.6176313939359878   T   T   T
  0.3346389199952600  0.8788547036327049  0.6026120021966832   T   T   T
  0.3340576640385841  0.6246803422478654  0.5950603775595812   T   T   T
  0.6666666865533486  0.8749999404036828  0.4070133268666680   F   F   F
  0.5000000000021103  0.3750000000061604  0.4070133268666680   F   F   F
  0.1596075392589885  0.6274763397675497  0.6013180753040693   T   T   T
  0.8333332538436267  0.1249999999871179  0.4070133268666680   F   F   F
  0.1635447162309084  0.4998874205583458  0.5019786063225182   T   T   T
  0.9990894951840190  0.8748456192235754  0.6239402158663290   T   T   T
  0.9998490077796043  0.7511003277250042  0.5067568875177108   T   T   T
  0.0000000000000000  0.8749999404036828  0.4070133268666680   F   F   F
  0.5010771979917944  0.7527895866987790  0.5038438299960075   T   T   T
  0.3311746215010257  0.4991990315409265  0.5009623689009365   T   T   T
  0.6684495908192626  0.4998638834105105  0.5006823041454045   T   T   T
  0.1644266714220992  0.7514187961830416  0.5034360227706478   T   T   T
  0.6659597116144462 -0.0000292794675662  0.5055737310463727   T   T   T
  0.3338681216382811  0.7510932741021332  0.5014869718747771   T   T   T
  0.3302771649801092  0.2480652261611687  0.5028823969297891   T   T   T
  0.0007219631956517  0.1227855504348560  0.6198285780975749   T   T   T
  0.6666666865533486  0.3750000000061604  0.4070133268666680   F   F   F
  0.8333332538436267  0.3750000000061604  0.4070133268666680   F   F   F
  0.8359921847796759  0.2486635195672745  0.5024971877313683   T   T   T
  0.6670094451636392  0.2480402056395396  0.5025059482273259   T   T   T
  0.3261133264298609  0.3733365035096262  0.5927282234608143   T   T   T
  0.1666666716383389  0.3750000000061604  0.4070133268666680   F   F   F
  0.6653080422429853  0.7518001001790063  0.5022137803503858   T   T   T
  0.5011723367908133  0.4997456644750236  0.5002593556448186   T   T   T
  0.8333332538436267  0.6249999999803961  0.4070133268666680   F   F   F
  0.5012024127600769  0.2479306739325006  0.5022110069543229   T   T   T
  0.3333333432766779  0.1249999999871179  0.4070133268666680   F   F   F
  0.1660091354739842  0.0011704223630405  0.5065348555383204   T   T   T
  0.3331353626760670  0.0011190510398787  0.5057342560224136   T   T   T
  0.5009039217765771  0.8769656169362892  0.6095452080628607   T   T   T
  0.0000000000000000  0.1249999999871179  0.4070133268666680   F   F   F
  0.5002303242272915  0.9991429261320088  0.5055254763131145   T   T   T
  0.1664220444546454  0.2482001695853133  0.5062545955790152   T   T   T
  0.0000000000000000  0.6249999999803961  0.4070133268666680   F   F   F
  0.9996178971749949  0.5000362628748831  0.5067585891662981   T   T   T
  0.8343317670238752  0.0001072040139066  0.5062799813247106   T   T   T
  0.6666666865533486  0.1249999999871179  0.4070133268666680   F   F   F
  0.0001283651139917  0.9999170081745907  0.5066936075498992   T   T   T
  0.6666666865533486  0.6249999999803961  0.4070133268666680   F   F   F
  0.0010108825770671  0.2498804333583926  0.5060017061220022   T   T   T
  0.3333333432766779  0.6249999999803961  0.4070133268666680   F   F   F
  0.3333333432766779  0.8749999404036828  0.4070133268666680   F   F   F
  0.3333333432766779  0.3750000000061604  0.4070133268666680   F   F   F
  0.8333332538436267  0.8749999404036828  0.4070133268666680   F   F   F
  0.4165862473015017  0.8767645142318752  0.5038627653595622   T   T   T
  0.2491955529373287  0.8787201898215717  0.5024115711843551   T   T   T
  0.9188717922719216  0.3745124396106356  0.5059009959388771   T   T   T
  0.0833333358191695  0.2500000000190425  0.4070133268666680   F   F   F
  0.7517840790971170  0.7525404617653330  0.5905322036754447   T   T   T
  0.2499999999799343  0.2500000000190425  0.4070133268666680   F   F   F
  0.0833333358191695  0.4999999999932783  0.4070133268666680   F   F   F
  0.0833333358191695  0.0000000000000000  0.4070133268666680   F   F   F
  0.9166666865332829  0.7500000000123208  0.4070133268666680   F   F   F
  0.9182990584903478  0.4999401382451495  0.6038629805808283   T   T   T
  0.5831647687332143  0.1234467573484217  0.5046103456888222   T   T   T
  0.7523002423790472  0.6244750667769459  0.5024632977501594   T   T   T
  0.0833333358191695  0.7500000000123208  0.4070133268666680   F   F   F