Au  C  H  O Sr Ti                       
   1.00000000000000     
    23.6707801818999997    0.0000000000000000    0.0000000000000000
     0.0000000000000000   22.3170261383000010    0.0000000000000000
     0.0000000000000000    0.0000000000000000   30.0000000000000000
   Au   C    H    O    Sr   Ti
    50     2     5   265    72    72
Selective dynamics
Direct
  0.7135033539585313  0.5271187372592973  0.7532736794444717   T   T   T
  0.2809629641942415  0.3414552049844580  0.7025720762285605   T   T   T
  0.6685117390627946  0.6826182901895915  0.7487094748153009   T   T   T
  0.3969783192783579  0.3823358423301925  0.6907906354243750   T   T   T
  0.4508768727536114  0.5803123748319330  0.7034471477457555   T   T   T
  0.3739644142710628  0.4954015149163359  0.8331317331879918   T   T   T
  0.3234065529774619  0.4164765075461238  0.7699203459373744   T   T   T
  0.3685981955313966  0.6207229694533654  0.8201426889664746   T   T   T
  0.3477048970957454  0.5003755580140661  0.6968899842979330   T   T   T
  0.5169309699372970  0.3789358223798852  0.7328982189665231   T   T   T
  0.2560746047798539  0.5942911793629393  0.6944947022176644   T   T   T
  0.4692115433315235  0.4525308869520466  0.8789947457345189   T   T   T
  0.6484803625967065  0.4477209506835622  0.6942452537771218   T   T   T
  0.5383915395466383  0.6690434515148522  0.7022100308568052   T   T   T
  0.4413487330677016  0.4736730920312827  0.7560582101535105   T   T   T
  0.7063300108308874  0.7576364747901153  0.6880999724919198   T   T   T
  0.3743241602579725  0.7419923027107013  0.7794245529787560   T   T   T
  0.4617565041283860  0.5753769428808133  0.8653409381916520   T   T   T
  0.6531397790727802  0.4423101320385368  0.8125792161982158   T   T   T
  0.4141386185330508  0.6961300033871917  0.6999307680743134   T   T   T
  0.7714447957250011  0.4318561487384623  0.7952262248076540   T   T   T
  0.6641606829123875  0.1930652300038543  0.7495234102729237   T   T   T
  0.5683635250569509  0.5116364817374314  0.8570074190553670   T   T   T
  0.5633743023743758  0.6416378815284733  0.8621768101450560   T   T   T
  0.5524861918014553  0.2154714346071682  0.7105211495160845   T   T   T
  0.2886277581398076  0.5397295509328969  0.7770670251103585   T   T   T
  0.5776981045928054  0.7265527219649919  0.7941272651321684   T   T   T
  0.2392681649966044  0.4702638058470942  0.7091474994378351   T   T   T
  0.2861345423414472  0.6637309608206432  0.7639517036686065   T   T   T
  0.5987057666363876  0.2911763156452372  0.7844696266874299   T   T   T
  0.5134002388273254  0.4855851342090227  0.6780861883523069   T   T   T
  0.5607660361114276  0.4884797038954054  0.7624285272802486   T   T   T
  0.4830778680339907  0.2717358498078112  0.7749880300734933   T   T   T
  0.5457553860644607  0.3864311033781734  0.8283087548137341   T   T   T
  0.6156657644687554  0.3230653906312191  0.6957642685178747   T   T   T
  0.3914618573202183  0.8184252133269661  0.7065046777177534   T   T   T
  0.4355334024888431  0.2279302255825237  0.6980875135561861   T   T   T
  0.6986502676357859  0.3471295101668350  0.7567477138007188   T   T   T
  0.3682534317524055  0.3000904414769001  0.7561180204422174   T   T   T
  0.5962425634102633  0.7850722758970741  0.7126148233349416   T   T   T
  0.6321286474497739  0.5864973291822541  0.7998936164144521   T   T   T
  0.7310708284263800  0.6160662822055100  0.6934388306906014   T   T   T
  0.4857009375580865  0.7772750473498579  0.7544639274010320   T   T   T
  0.7633543035046393  0.4330801128167973  0.7049435810880863   T   T   T
  0.7193866165625141  0.2596507289475694  0.6909562651866705   T   T   T
  0.6194275709324626  0.5727081240926222  0.7038744743353548   T   T   T
  0.4630641755706457  0.6982685742125935  0.8316697665766641   T   T   T
  0.5093325685360864  0.6058665993990686  0.7777590261763578   T   T   T
  0.2942068232863977  0.7474938966795340  0.6959377657044480   T   T   T
  0.4256967695096909  0.3730255812475061  0.8166220478950026   T   T   T
  0.7338978960759395  0.1309364925550791  0.7588030637172056   T   T   T
  0.7088124589066793  0.0756766853193750  0.7801117975938939   T   T   T
  0.7421672793048064  0.0415971870436002  0.7822602631913135   T   T   T
  0.6929911141182962  0.0842263699848405  0.8137816158776018   T   T   T
  0.7473052981116811  0.1250216639084651  0.7243188135784134   T   T   T
  0.6747151043361087  0.0572871794210994  0.7598752409499144   T   T   T
  0.7707442812196220  0.1551888924401191  0.8138828296474344   T   T   T
  0.0843436434042408  0.6869758362374694  0.4531505851374469   T   T   T
  0.5855689249886390  0.8141593253414753  0.5503904882219444   T   T   T
  0.7479652469192790  0.3115141543740155  0.5480433654303493   T   T   T
  0.5811237258653407  0.5599546733987352  0.5487769102956236   T   T   T
  0.2525648407068378  0.5591039283845863  0.5438438723566688   T   T   T
  0.4158100836960504  0.3194619172122093  0.5524368657255762   T   T   T
  0.5765248884274988  0.4358838346044916  0.5523172675426188   T   T   T
  0.4166592371803567  0.0654366322483642  0.5473339134720463   T   T   T
  0.4996023655820088  0.7569843650635953  0.5925288644982029   T   T   T
  0.0824448733963728  0.0630968850053993  0.5475787755104866   T   T   T
  0.0833333358191695  0.3124999999901945  0.3605200052333331   F   F   F
  0.9145187003536381  0.6885848600193849  0.5459321530814383   T   T   T
  0.7501170627705278  0.1898172343929103  0.4558438287654752   T   T   T
  0.9169346345930143  0.1888771602195280  0.5454312400317665   T   T   T
  0.5790654405237711  0.6860451734920388  0.5476161946646384   T   T   T
  0.2515241975270768  0.9372800817825067  0.5452224161650022   T   T   T
  0.4973731049826732  0.5044311895480070  0.6089104245439666   T   T   T
  0.9181632828301607  0.5636880020603435  0.5469874605095439   T   T   T
  0.4199008571682843  0.5649136271397766  0.5553543161845405   T   T   T
  0.9155594052955796  0.8126645505675157  0.5468494261227898   T   T   T
  0.0841029445706016  0.9383710749032584  0.5461322974736215   T   T   T
  0.2488133563271563  0.6833085278284221  0.5516167511240270   T   T   T
  0.7493427600483080  0.9338758939573975  0.5476803561594847   T   T   T
  0.7516086266592045  0.6805322508950091  0.5532570871214398   T   T   T
  0.9155617513769883  0.9384934373974975  0.5463616448842071   T   T   T
  0.4177895185191156  0.0651977714872028  0.6400525394130701   T   T   T
  0.5839056043287246  0.9375317478356007  0.5463874376679739   T   T   T
  0.4117917755700152  0.8128852851509483  0.6393630839056270   T   T   T
  0.2475828616666261  0.5740439161433920  0.6287387532998804   T   T   T
  0.5825054018313154  0.0617756804426595  0.5454339954643935   T   T   T
  0.9157859720849341  0.1868168335118624  0.4531974414691370   T   T   T
  0.1685862043103133  0.2482732048585904  0.5931783765520816   T   T   T
  0.4993924919669929  0.1256755294476053  0.4990191276646367   T   T   T
  0.9996165867568328  0.4983620119635841  0.5940984393513635   T   T   T
  0.5795900451194745  0.1849107886110579  0.5504449024900067   T   T   T
  0.9998413457676547  0.7537086726107942  0.5928676714313874   T   T   T
  0.3340701569297655  0.9998964815843681  0.5919771562314049   T   T   T
  0.9999327492480586  0.9988923390580088  0.5930432868181320   T   T   T
  0.0012034219253908  0.2497968265777207  0.5921756640674085   T   T   T
  0.3331488459371038  0.4962994416488237  0.5909947463314121   T   T   T
  0.3346892547515431  0.7408800080217055  0.5901353938829547   T   T   T
  0.6631598999381311  0.2477087127034382  0.5903388960713108   T   T   T
  0.6661906544765035  0.0011766139336976  0.5919243810126089   T   T   T
  0.6651863022416494  0.7413834678857508  0.5909788783160963   T   T   T
  0.6665922027735028  0.4946562239768942  0.5914878731554453   T   T   T
  0.5825015958761011  0.9372044606431484  0.4545063632520189   T   T   T
  0.9153613762020401  0.4373942743363859  0.5457387961351391   T   T   T
  0.7768622084754001  0.1587296148115213  0.7820382452249851   T   T   T
  0.2482646041160909  0.4359176728415263  0.5491463058720126   T   T   T
  0.1654461590037490  0.5033973546284592  0.5872445440362706   T   T   T
  0.3345444074032842  0.2545724404257420  0.5926603358605205   T   T   T
  0.4997792137493376  0.0001269599090694  0.5911171895373191   T   T   T
  0.8326421030018308  0.8740648378401572  0.4987086776532239   T   T   T
  0.7485048586903776  0.9373446141272332  0.6403468554841524   T   T   T
  0.8322070108741384  0.0021235067118638  0.5922676600087274   T   T   T
  0.7484512238873954  0.1836735098987797  0.5509619467016266   T   T   T
  0.4227450229736895  0.6877527349179205  0.5468756103675112   T   T   T
  0.4230977598095746  0.4435828397157259  0.5459523472991077   T   T   T
  0.7521439345369082  0.4353643516686942  0.5490742897155056   T   T   T
  0.5824832528907897  0.3110816318758330  0.5448690204076188   T   T   T
  0.2530724099259611  0.8126715403625057  0.5504733075704358   T   T   T
  0.1675072176243554  0.9983021187423964  0.5923155874634265   T   T   T
  0.1708302121431537  0.7503034501040962  0.5948864901435457   T   T   T
  0.9142426006543243  0.5627135512166757  0.6408556272322763   T   T   T
  0.4164282232391971  0.4355114565124492  0.4539111797745806   T   T   T
  0.5827933564319168  0.0669468117061967  0.6389878063593982   T   T   T
  0.0829401231735911  0.4388841360576389  0.5448579512882140   T   T   T
  0.4176534726509688  0.9349595263854426  0.6397829337963005   T   T   T
  0.7482814756524095  0.0681010641120217  0.6397284301345454   T   T   T
  0.0843590672824380  0.3112186077421588  0.6409185167521037   T   T   T
  0.6664521851738778  0.8743173614265937  0.4988583260591122   T   T   T
  0.0863964816615025  0.5630122553050187  0.6398841085583574   T   T   T
  0.0874283776402218  0.4366502477000173  0.6397401829336720   T   T   T
  0.4176262415057463  0.1874289350660662  0.6397825476097440   T   T   T
  0.0844791892839424  0.9356225761645657  0.6410366629396161   T   T   T
  0.0833900076868292  0.6871302182850337  0.6388553073893966   T   T   T
  0.0841817628686360  0.0602537082200630  0.6421704543318766   T   T   T
  0.8332619108109136  0.5038022894988596  0.5890063057923192   T   T   T
  0.0839053582880125  0.1852431170741635  0.6412449455751037   T   T   T
  0.2400946822560813  0.4423111061360499  0.6416018860935762   T   T   T
  0.4148429368639324  0.4188779255668180  0.6303423390212668   T   T   T
  0.5823898117265736  0.9365692014032037  0.6396418067997359   T   T   T
  0.2521183783784672  0.9303742298851438  0.6374324324579591   T   T   T
  0.9163324725650894  0.6876464357399713  0.6390601061808653   T   T   T
  0.9143593827233918  0.9371428475865593  0.6411015519592598   T   T   T
  0.3971761651753731  0.5506386114742211  0.6519518477367272   T   T   T
  0.2544239806606142  0.6785589007650689  0.6625634587006901   T   T   T
  0.2535897747469001  0.1863825494240450  0.6412865955874218   T   T   T
  0.5793423127863403  0.1928624680697405  0.6455719848496820   T   T   T
  0.0847500788497158  0.8126947498732516  0.6424966067817105   T   T   T
  0.9166666865332829  0.8124999999834799  0.3605200052333331   F   F   F
  0.7455169760611321  0.1949552870892672  0.6468610811026234   T   T   T
  0.8314950554950167  0.2486188752531171  0.5912330140594363   T   T   T
  0.9124143173176414  0.4360919902595881  0.6399724114330714   T   T   T
  0.8304930928202103  0.7510011375520509  0.5927271077676008   T   T   T
  0.7460940570101247  0.3127572090316030  0.6404749944003634   T   T   T
  0.7525026751390151  0.5689185711851260  0.6356613811253711   T   T   T
  0.5759196522377433  0.6871149889809173  0.6398974354492712   T   T   T
  0.7412546850873636  0.8103760275862562  0.6397739883094279   T   T   T
  0.2492632803337861  0.3137827913119738  0.5459394982512430   T   T   T
  0.5903510813324199  0.5668742800003473  0.6383806113066042   T   T   T
  0.7540260251850487  0.6930501724413247  0.6566437459884877   T   T   T
  0.2510201320696284  0.0594075661890137  0.6423323442315001   T   T   T
  0.9166666865332829  0.5625000000092442  0.3605200052333331   F   F   F
  0.4994875380600066  0.3743025755055612  0.4997919649839737   T   T   T
  0.5001526542582890  0.6210954144774011  0.5000260162827181   T   T   T
  0.8325113103167253  0.6231143267689224  0.5002384992212352   T   T   T
  0.2519893946787545  0.1881937837843610  0.5472185587620376   T   T   T
  0.8324336403217043  0.3730785831936921  0.4997198281812100   T   T   T
  0.9151584590591658  0.3118345825752933  0.6397784157541787   T   T   T
  0.1667215655681659  0.3761876510997466  0.4977068432556362   T   T   T
  0.5808714395405011  0.4399695184061673  0.6468824786332960   T   T   T
  0.8328427743461594  0.1245761836352667  0.5001660957007833   T   T   T
  0.0836886873298911  0.1888238313121812  0.5456898498139524   T   T   T
  0.9167548002426806  0.1860745990933280  0.6398126967802336   T   T   T
  0.9159071411867290  0.4368975784250574  0.4536366511177453   T   T   T
  0.1671087193680403  0.1243311519310242  0.4993386641126172   T   T   T
  0.7484248581660629  0.0598399642089933  0.5446376229526679   T   T   T
  0.4259573130931041  0.3047989844965463  0.6561445170291211   T   T   T
  0.5900729830862218  0.8111757468326583  0.6457194915871013   T   T   T
  0.4201803165081652  0.6762999379717437  0.6339030587037738   T   T   T
  0.7554579619148991  0.4346476661567999  0.6382189480936148   T   T   T
  0.4982012988452137  0.2536127555672798  0.5911957442532486   T   T   T
  0.9159548135704337  0.0626576639818670  0.6413604676363879   T   T   T
  0.1674925831419667  0.6242074289886690  0.5001749152524403   T   T   T
  0.4999277031504994  0.8733359984284536  0.5010098799793167   T   T   T
  0.4159990612981831  0.1913861928132544  0.5466172366424283   T   T   T
  0.9133262565197379  0.8133676743174856  0.6420146869074081   T   T   T
  0.2491777525289904  0.3163840627118052  0.6413366306340783   T   T   T
  0.1677351124506528  0.8732757485683028  0.4998534834113989   T   T   T
  0.0855646679511109  0.6892223615069896  0.5454351515645364   T   T   T
  0.2624660548431052  0.8010848098666521  0.6458327927251279   T   T   T
  0.4169217961781939  0.1872756648968268  0.4536388375489629   T   T   T
  0.5833333134730552  0.9375000000154046  0.3605200052333331   F   F   F
  0.0807903991398721  0.5644295567975249  0.5463631768079867   T   T   T
  0.5833333134730552  0.4374999701794380  0.3605200052333331   F   F   F
  0.5833333134730552  0.1875000000030838  0.3605200052333331   F   F   F
  0.2499999999799343  0.9375000000154046  0.3605200052333331   F   F   F
  0.9166666865332829  0.9375000000154046  0.3605200052333331   F   F   F
  0.2499999999799343  0.6874999999963620  0.3605200052333331   F   F   F
  0.2499999999799343  0.1875000000030838  0.3605200052333331   F   F   F
  0.7499999404149307  0.9375000000154046  0.3605200052333331   F   F   F
  0.7499999404149307  0.6874999999963620  0.3605200052333331   F   F   F
  0.4172328345339206  0.9360472492459613  0.4539990025667442   T   T   T
  0.7499999404149307  0.4374999701794380  0.3605200052333331   F   F   F
  0.9166666865332829  0.6874999999963620  0.3605200052333331   F   F   F
 -0.0000059945495867  0.3734085967395152  0.4984383534026632   T   T   T
  0.9166666865332829  0.1875000000030838  0.3605200052333331   F   F   F
  0.4166666269218169  0.9375000000154046  0.3605200052333331   F   F   F
  0.0833333358191695  0.0625000000159659  0.3605200052333331   F   F   F
  0.9152932624292149  0.6868611727656271  0.4533423527547852   T   T   T
  0.6653910047027860  0.3786916617687093  0.5032579665928136   T   T   T
  0.3342799438586306  0.3785638446554832  0.5029895877568651   T   T   T
  0.3354850756706081  0.6256856361296306  0.5036396999921708   T   T   T
  0.9176097106203187  0.0633596876902305  0.5474477323333603   T   T   T
  0.7495032514145987  0.9384222880609194  0.4553479573119721   T   T   T
  0.2499603649763622  0.9361143421548060  0.4539854939312273   T   T   T
  0.2498826887730223  0.1885058784461490  0.4541018351297745   T   T   T
  0.7491213679196623  0.6886507450892080  0.4574081130848108   T   T   T
  0.7499999404149307  0.1875000000030838  0.3605200052333331   F   F   F
  0.5833333134730552  0.0625000000159659  0.3605200052333331   F   F   F
  0.4166666269218169  0.6874999999963620  0.3605200052333331   F   F   F
  0.4166666269218169  0.4374999701794380  0.3605200052333331   F   F   F
  0.2499999999799343  0.4374999701794380  0.3605200052333331   F   F   F
  0.7478384915387573  0.8078638436707323  0.5456055430164716   T   T   T
  0.4169089755224665  0.8104336819199651  0.4549045951542052   T   T   T
  0.5833333134730552  0.6874999999963620  0.3605200052333331   F   F   F
  0.7482828146268474  0.5643202798972355  0.4538422239819125   T   T   T
  0.2520328659404448  0.6875654896054344  0.4559613816833868   T   T   T
  0.0840625849921834  0.9368602107337139  0.4536968171691435   T   T   T
  0.0827246503771110  0.4368056094126783  0.4528243473668653   T   T   T
  0.0839029916874382  0.1865615744290196  0.4529941970600290   T   T   T
  0.9166207060506307  0.8121524601559478  0.4540865341024761   T   T   T
  0.7463212946996155  0.5582144089557565  0.5446688539001109   T   T   T
  0.9161037401386384  0.5622232595016871  0.4540594486508229   T   T   T
  0.9161114727387851  0.0622885608094125  0.4541009649514655   T   T   T
  0.9161605872433479  0.3121487235302575  0.4538701739193348   T   T   T
  0.5827641359196637  0.4396712508481896  0.4564054021142296   T   T   T
  0.5831141040967752  0.1903359776827821  0.4556825433888020   T   T   T
  0.9164527133193883  0.9371208496871605  0.4536608012232049   T   T   T
  0.2505287787839630  0.0620257060254808  0.4542541665798736   T   T   T
  0.5832570237906357  0.0637275074700085  0.4538547412327363   T   T   T
  0.5832391987648422  0.8104808638602730  0.4553493011071039   T   T   T
  0.3336352174606473  0.1256229505487977  0.4985674336688894   T   T   T
  0.0000977118947113  0.8751860597986775  0.4995998026388393   T   T   T
  0.3334513943966784  0.8742377599494544  0.4989248468194828   T   T   T
  0.6658331399959347  0.1262027075865544  0.4999570763275714   T   T   T
  0.2511746785363570  0.4392864700987928  0.4548979661094561   T   T   T
  0.0833333358191695  0.5625000000092442  0.3605200052333331   F   F   F
  0.9166666865332829  0.0625000000159659  0.3605200052333331   F   F   F
  0.7492933604158721  0.8131864874174376  0.4530175078088650   T   T   T
  0.7496557256026004  0.4383832799716351  0.4557834556889395   T   T   T
  0.9154558271830190  0.3123826154013715  0.5466944371541650   T   T   T
  0.4171923469397659  0.6851729127140440  0.4550113495051034   T   T   T
  0.0001561984042068  0.1250961078296184  0.4984507602426598   T   T   T
  0.4158687420263597  0.9372822946918160  0.5459859278700867   T   T   T
  0.5834251509488763  0.3218879344368513  0.6328985034942688   T   T   T
  0.9997206541584506  0.6272540773008033  0.4975844548649132   T   T   T
  0.0866970250336216  0.3135008896938359  0.5471442497483270   T   T   T
  0.0851049060019155  0.8126088101601795  0.5473354613553199   T   T   T
  0.6666666865533486  0.7500000000123208  0.4070133268666680   F   F   F
  0.0000000000000000  0.2500000000190425  0.4070133268666680   F   F   F
  0.0000000000000000  0.4999999999932783  0.4070133268666680   F   F   F
  0.3333333432766779  0.0000000000000000  0.4070133268666680   F   F   F
  0.3333333432766779  0.4999999999932783  0.4070133268666680   F   F   F
  0.3333333432766779  0.7500000000123208  0.4070133268666680   F   F   F
  0.6666666865533486  0.0000000000000000  0.4070133268666680   F   F   F
  0.6666666865533486  0.2500000000190425  0.4070133268666680   F   F   F
  0.6666666865533486  0.4999999999932783  0.4070133268666680   F   F   F
  0.8333332538436267  0.2500000000190425  0.4070133268666680   F   F   F
  0.1666666716383389  0.0000000000000000  0.4070133268666680   F   F   F
  0.5843748747267875  0.3155105590811269  0.4536132517543401   T   T   T
  0.1666666716383389  0.4999999999932783  0.4070133268666680   F   F   F
  0.0833333358191695  0.1875000000030838  0.3605200052333331   F   F   F
  0.9166666865332829  0.4374999701794380  0.3605200052333331   F   F   F
  0.0000000000000000  0.0000000000000000  0.4070133268666680   F   F   F
  0.3333333432766779  0.2500000000190425  0.4070133268666680   F   F   F
  0.0000000000000000  0.7500000000123208  0.4070133268666680   F   F   F
  0.5844679564533695  0.5628802889128165  0.4548408185948306   T   T   T
  0.7492681815639943  0.0642980376544150  0.4533660851800334   T   T   T
  0.8333332538436267  0.0000000000000000  0.4070133268666680   F   F   F
  0.5827548006113127  0.6861701891478545  0.4546490816532568   T   T   T
  0.2517721705663151  0.5646433624063880  0.4536539497659736   T   T   T
  0.1666666716383389  0.2500000000190425  0.4070133268666680   F   F   F
  0.2504486146600404  0.8108235612374838  0.4552959136666690   T   T   T
  0.1666666716383389  0.7500000000123208  0.4070133268666680   F   F   F
  0.6652805621510498  0.6261326365859220  0.5029786967301796   T   T   T
  0.2499999999799343  0.8124999999834799  0.3605200052333331   F   F   F
  0.5000000000021103  0.7500000000123208  0.4070133268666680   F   F   F
  0.9166666865332829  0.3124999999901945  0.3605200052333331   F   F   F
  0.2499999999799343  0.3124999999901945  0.3605200052333331   F   F   F
  0.7473116747254114  0.3141799544080359  0.4547069682355284   T   T   T
  0.5000000000021103  0.4999999999932783  0.4070133268666680   F   F   F
  0.5000000000021103  0.2500000000190425  0.4070133268666680   F   F   F
  0.5833333134730552  0.8124999999834799  0.3605200052333331   F   F   F
  0.7499999404149307  0.3124999999901945  0.3605200052333331   F   F   F
  0.5000000000021103  0.0000000000000000  0.4070133268666680   F   F   F
  0.2499999999799343  0.0625000000159659  0.3605200052333331   F   F   F
  0.7499999404149307  0.0625000000159659  0.3605200052333331   F   F   F
  0.4166666269218169  0.8124999999834799  0.3605200052333331   F   F   F
  0.4166666269218169  0.3124999999901945  0.3605200052333331   F   F   F
  0.7499999404149307  0.8124999999834799  0.3605200052333331   F   F   F
  0.0834875802260696  0.3119348661638498  0.4540463581670613   T   T   T
  0.4168251595711359  0.0615877816539276  0.4553232948911070   T   T   T
  0.4166666269218169  0.5625000000092442  0.3605200052333331   F   F   F
  0.4136931493396408  0.8118615897152767  0.5476494205237823   T   T   T
  0.5833333134730552  0.3124999999901945  0.3605200052333331   F   F   F
  0.0839592409465221  0.5625148032326662  0.4539371627121242   T   T   T
  0.4166666269218169  0.0625000000159659  0.3605200052333331   F   F   F
  0.0837211762950461  0.0618876883767118  0.4542019119833255   T   T   T
  0.0834654213984090  0.8121638944169729  0.4541536024803117   T   T   T
  0.4159132529511032  0.5596147943498546  0.4578089616280001   T   T   T
  0.4166666269218169  0.1875000000030838  0.3605200052333331   F   F   F
  0.0833333358191695  0.9375000000154046  0.3605200052333331   F   F   F
  0.0833333358191695  0.8124999999834799  0.3605200052333331   F   F   F
  0.0833333358191695  0.4374999701794380  0.3605200052333331   F   F   F
  0.8333332538436267  0.7500000000123208  0.4070133268666680   F   F   F
  0.4155103680773057  0.3114072015535942  0.4573636810968448   T   T   T
  0.2499999999799343  0.5625000000092442  0.3605200052333331   F   F   F
  0.7499999404149307  0.5625000000092442  0.3605200052333331   F   F   F
  0.0833333358191695  0.6874999999963620  0.3605200052333331   F   F   F
  0.2522643270147163  0.3141797835212463  0.4541603613508077   T   T   T
  0.2510818352884063  0.0625437478081418  0.5472681312379647   T   T   T
  0.8333332538436267  0.4999999999932783  0.4070133268666680   F   F   F
  0.5833333134730552  0.5625000000092442  0.3605200052333331   F   F   F
  0.8333332538436267  0.1249999999871179  0.4070133268666680   F   F   F
  0.1666666716383389  0.8749999404036828  0.4070133268666680   F   F   F
  0.3316438681560052  0.1197109092049957  0.6129249813322373   T   T   T
  0.6656060647982616  0.1250674100126271  0.6100360315054180   T   T   T
  0.5004311493492295  0.1226770856217374  0.6068560515706589   T   T   T
  0.5000000000021103  0.1249999999871179  0.4070133268666680   F   F   F
  0.9998205251903254  0.6237481063598629  0.6236589271676026   T   T   T
  0.5000000000021103  0.8749999404036828  0.4070133268666680   F   F   F
  0.8361037295037718  0.5000072095865942  0.5028943469908571   T   T   T
  0.5000000000021103  0.6249999999803961  0.4070133268666680   F   F   F
  0.8319305181185132  0.8768659812039807  0.6175065071900937   T   T   T
  0.1634746140899291  0.4998483479079430  0.5019895185860933   T   T   T
  0.8333332538436267  0.3750000000061604  0.4070133268666680   F   F   F
  0.6664149076266064  0.6260115352337319  0.5929062905165301   T   T   T
  0.1666666716383389  0.6249999999803961  0.4070133268666680   F   F   F
  0.8361571227375200  0.7516338467042013  0.5026408243653990   T   T   T
  0.0003560464966489  0.3750842682401397  0.6248945782937807   T   T   T
  0.0000000000000000  0.3750000000061604  0.4070133268666680   F   F   F
  0.6709955874542949  0.3727690017824398  0.5932220373971440   T   T   T
  0.8375106515141320  0.3723893260027026  0.6039830877093519   T   T   T
  0.9991444700114579  0.8748447296061170  0.6236019026677853   T   T   T
  0.8345378657008301  0.1243749873853576  0.6151352389673852   T   T   T
  0.6654193904043104  0.8816004676999144  0.6071378143277361   T   T   T
  0.1633227105140443  0.3712372328766511  0.6074953387174775   T   T   T
  0.1678650336421101  0.1226284540088423  0.6217679908656027   T   T   T
  0.1596602110260105  0.6275245516098154  0.6013660511398371   T   T   T
  0.3340611918780437  0.6247595380677109  0.5949840943406515   T   T   T
  0.1664941738809347  0.8738027278319599  0.6176626449985170   T   T   T
  0.3347046274224971  0.8789839278236167  0.6025626625956370   T   T   T
  0.6666666865533486  0.8749999404036828  0.4070133268666680   F   F   F
  0.5000000000021103  0.3750000000061604  0.4070133268666680   F   F   F
  0.5035264713489453  0.6249331182194713  0.5942045231295557   T   T   T
  0.1666666716383389  0.1249999999871179  0.4070133268666680   F   F   F
  0.5012454177770209  0.3717516085874665  0.5947993542113084   T   T   T
  0.0000000000000000  0.1249999999871179  0.4070133268666680   F   F   F
  0.8395195044379979  0.6269658570931724  0.6042665724549344   T   T   T
  0.3331727330672432  0.0011453615884921  0.5057297163399663   T   T   T
  0.6666666865533486  0.3750000000061604  0.4070133268666680   F   F   F
  0.5010402606327863  0.7528742375894986  0.5038181553982406   T   T   T
  0.3339734927390911  0.7511662066268925  0.5015186210663171   T   T   T
  0.1644644460496075  0.7514085130375519  0.5034685988477535   T   T   T
  0.6660170815873235  0.0000765058565920  0.5056367155909732   T   T   T
  0.3301427388490707  0.2480219979323017  0.5028649388851155   T   T   T
  0.0008834644447472  0.1226297185814526  0.6196728991559843   T   T   T
  0.8333332538436267  0.6249999999803961  0.4070133268666680   F   F   F
  0.1666666716383389  0.3750000000061604  0.4070133268666680   F   F   F
  0.9999730292821911  0.7511044550304969  0.5067760936054583   T   T   T
  0.5011437375325054  0.8771630441288212  0.6097274047106489   T   T   T
  0.3310924903343087  0.4992778657483251  0.5009309548192566   T   T   T
  0.3259438806052940  0.3735135534440269  0.5927696595397018   T   T   T
  0.6669757559095085  0.2481218935827831  0.5026558167120527   T   T   T
  0.6685906617120488  0.4998995836631158  0.5006427345983098   T   T   T
  0.6654392412201635  0.7518705105389549  0.5022158330585698   T   T   T
  0.0001613310702891  0.9998647059026492  0.5066936135310161   T   T   T
  0.8357101152096919  0.2485447932280341  0.5029146603636521   T   T   T
  0.3333333432766779  0.3750000000061604  0.4070133268666680   F   F   F
  0.5011264338646056  0.4997741618850501  0.5002384546742483   T   T   T
  0.3333333432766779  0.1249999999871179  0.4070133268666680   F   F   F
  0.9995542068431985  0.4998556027816581  0.5067270124376539   T   T   T
  0.1660460500090278  0.0011110352134388  0.5065508842162961   T   T   T
  0.5003025813123376  0.9992730370293207  0.5055457920370073   T   T   T
  0.6666666865533486  0.1249999999871179  0.4070133268666680   F   F   F
  0.8342037816043268  0.0001636027224847  0.5065061718845998   T   T   T
  0.1664337308151541  0.2482158722351449  0.5062755054955851   T   T   T
  0.3333333432766779  0.8749999404036828  0.4070133268666680   F   F   F
  0.3333333432766779  0.6249999999803961  0.4070133268666680   F   F   F
  0.8333332538436267  0.8749999404036828  0.4070133268666680   F   F   F
  0.6666666865533486  0.6249999999803961  0.4070133268666680   F   F   F
  0.0010198755515017  0.2498476934261665  0.5060735227903369   T   T   T
  0.5010334141566167  0.2480037055148319  0.5021770836250967   T   T   T
  0.0000000000000000  0.8749999404036828  0.4070133268666680   F   F   F
  0.0000000000000000  0.6249999999803961  0.4070133268666680   F   F   F
  0.0833333358191695  0.2500000000190425  0.4070133268666680   F   F   F
  0.0833333358191695  0.4999999999932783  0.4070133268666680   F   F   F
  0.0836132979797091  0.9985167819686716  0.6036734811456788   T   T   T
  0.0833333358191695  0.7500000000123208  0.4070133268666680   F   F   F
  0.9185084494097314  0.3742040123668179  0.5059514287668188   T   T   T
  0.7522430129307446  0.7525578571237452  0.5906276134042266   T   T   T
  0.5838431942947786  0.8758777797712657  0.5057630868231371   T   T   T
  0.4166666269218169  0.4999999999932783  0.4070133268666680   F   F   F
  0.0833333358191695  0.0000000000000000  0.4070133268666680   F   F   F
  0.9166666865332829  0.7500000000123208  0.4070133268666680   F   F   F
  0.9182746186693274  0.4999167471525606  0.6038492899276404   T   T   T