Au  C  H  O Sr Ti                       
   1.00000000000000     
    23.6707801818999997    0.0000000000000000    0.0000000000000000
     0.0000000000000000   22.3170261383000010    0.0000000000000000
     0.0000000000000000    0.0000000000000000   30.0000000000000000
   Au   C    H    O    Sr   Ti
    50     2     4   265    72    72
Selective dynamics
Direct
  0.7160925606641939  0.5257068493746004  0.7532281821842020   F   F   F
  0.2935097370623581  0.7467035090600618  0.6971205497909949   F   F   F
  0.5782629086196209  0.7257684770117621  0.7938280427736615   F   F   F
  0.2404287403101506  0.4690511038549587  0.7087222763506915   F   F   F
  0.2848817001769106  0.6623129248902018  0.7646190775068433   F   F   F
  0.6020284902249315  0.2886560559066567  0.7858100963841110   F   F   F
  0.5138810437127077  0.4847989890442861  0.6779962116132836   F   F   F
  0.2891666751151405  0.5379657950929797  0.7771554703823682   F   F   F
  0.5485372200013217  0.3836897102056867  0.8278584578648420   F   F   F
  0.5118417606482808  0.6034948884794247  0.7768059112085695   F   F   F
  0.7328968724978679  0.6151918339574109  0.6938907012305862   F   F   F
  0.7165051805155684  0.2590397122978061  0.6909107524961016   F   F   F
  0.5627785223354422  0.4861502955957988  0.7621598296611936   F   F   F
  0.4284566377286652  0.3721053207099274  0.8150496235633256   F   F   F
  0.3491315653059388  0.5002550589542736  0.6976514972242001   F   F   F
  0.5964353990619884  0.7845938660498888  0.7130409916481568   F   F   F
  0.3718617795347612  0.2982968790897118  0.7547529437857818   F   F   F
  0.4436873421429297  0.2283905684878320  0.6968820642340390   F   F   F
  0.4639175573566092  0.6955748347833790  0.8299176205604795   F   F   F
  0.3913480995556071  0.8178755230353829  0.7064507474152322   F   F   F
  0.7648955450619113  0.4324986665969917  0.7047678650339790   F   F   F
  0.6214308262577148  0.5711421450295262  0.7039331901367305   F   F   F
  0.5587715975438954  0.2100397540674592  0.7119512729842867   F   F   F
  0.6347156371240246  0.5839746436289417  0.8001665241938554   F   F   F
  0.4868624175371181  0.2698839292955029  0.7752683682370431   F   F   F
  0.4855780682849229  0.7767742610564028  0.7550618818582677   F   F   F
  0.7064609969029121  0.7569824342056606  0.6884200585994620   F   F   F
  0.5695400928596754  0.5098051404384805  0.8565659193834634   F   F   F
  0.6630713585643448  0.1915118378681626  0.7518909031830390   T   T   T
  0.4708917716795114  0.4501210573576486  0.8783815641560437   F   F   F
  0.5155327844943116  0.3781307368812250  0.7327666679198401   F   F   F
  0.2828482034481965  0.3381140516672758  0.7024196300521197   F   F   F
  0.6694328982229152  0.6812311612167647  0.7489271622573028   F   F   F
  0.3971998987465213  0.3821819345641231  0.6899915708808990   F   F   F
  0.4625040062768235  0.5733032641861726  0.8638762087849159   F   F   F
  0.6999219181727483  0.3471478763971660  0.7559496349100172   F   F   F
  0.4520518872489490  0.5802849922163489  0.7027007168776223   F   F   F
  0.4176715731210265  0.6969228704729105  0.6994062192129888   F   F   F
  0.7736709056101319  0.4302954950264848  0.7952196575824004   F   F   F
  0.2568264408801824  0.5933033093897180  0.6944828724167209   F   F   F
  0.6489675017865366  0.4461251830359814  0.6950813590559903   F   F   F
  0.5644933611542413  0.6396780620192075  0.8611694627491673   F   F   F
  0.5405782653307938  0.6677639481151587  0.7017977632784351   F   F   F
  0.4431701373140982  0.4753498387712227  0.7566656532588070   F   F   F
  0.3740202271598250  0.7397354012680424  0.7787191251187764   F   F   F
  0.3744980604907724  0.4930761205460286  0.8328906325517877   F   F   F
  0.6144127953932710  0.3232014458092038  0.6964840007422666   F   F   F
  0.3252965499988534  0.4142291187821812  0.7689949490056804   F   F   F
  0.3683244118755056  0.6190520946435072  0.8202206850481275   F   F   F
  0.6554226246246273  0.4414590149161839  0.8126729565511042   F   F   F
  0.7690392139934445  0.0772440101650744  0.8188993893791618   T   T   T
  0.7784016956611026  0.1433902161553746  0.8220887014226719   T   T   T
  0.8101364020033301  0.1585063073798381  0.8467942769350572   T   T   T
  0.8083831274276250  0.0530869408446151  0.8251157954563269   T   T   T
  0.7396358901600664  0.0645965130757844  0.8455595810847569   T   T   T
  0.7509110222927688  0.0644855100277582  0.7868914739763184   T   T   T
  0.7506529146390335  0.1898958338520984  0.4557408472670943   F   F   F
  0.4172159041022496  0.9359737970471542  0.4540437838012821   F   F   F
  0.4171050503745519  0.6848048702730338  0.4546882946663828   F   F   F
  0.4164270413062496  0.4354588691188326  0.4538020824150166   F   F   F
  0.0844245944740152  0.6869455348339386  0.4531440879099335   F   F   F
  0.0839454658372887  0.9366679926886974  0.4534929427722432   F   F   F
  0.0827009093145108  0.4368440135479261  0.4528260276683369   F   F   F
  0.0838614527560111  0.1865714009228867  0.4529807782395352   F   F   F
  0.9165831456097138  0.8121241918641147  0.4540356895240336   F   F   F
  0.7489838717097257  0.8132332237458826  0.4531088111036965   F   F   F
  0.9162295526910285  0.3122040220851900  0.4538725452431223   F   F   F
  0.2520387772700374  0.6876369227005412  0.4561778506778467   F   F   F
  0.7464303593818826  0.5580435163575004  0.5445510718858557   F   F   F
  0.9164588124871358  0.9371200852606876  0.4536702100703778   F   F   F
  0.0000769171646908  0.1250953050298165  0.4984170144205819   F   F   F
  0.5833729912440404  0.8104403228703276  0.4553869258383614   F   F   F
  0.9999565055563195  0.3734314036695849  0.4985913490042222   F   F   F
  0.9997466375126578  0.6272118628477443  0.4976235632289203   F   F   F
  0.3335563502874308  0.1255862395875980  0.4985089929446502   F   F   F
  0.0000360266412471  0.8751408775933456  0.4995265385488636   F   F   F
  0.3335483343547807  0.8741444834292196  0.4992330363100947   F   F   F
  0.6660937359268999  0.1263761455711645  0.4990234995930365   F   F   F
  0.2511707372241645  0.4392886610934141  0.4548653679232189   F   F   F
  0.0833333358191695  0.5625000000092442  0.3605200052333331   F   F   F
  0.9166666865332829  0.0625000000159659  0.3605200052333331   F   F   F
  0.4171049603856005  0.1871306731336873  0.4535690482668713   F   F   F
  0.9153124600430473  0.3123748826764512  0.5467386516427126   F   F   F
  0.4231134672648551  0.6881554078684786  0.5466044354026280   F   F   F
  0.9159648243374292  0.4369231135835889  0.4536627925454795   F   F   F
  0.7494865228996588  0.4382911336031086  0.4558053633269168   F   F   F
  0.7491398450570372  0.6886501351939671  0.4573383185086541   F   F   F
  0.5833333134730552  0.0625000000159659  0.3605200052333331   F   F   F
  0.9166666865332829  0.6874999999963620  0.3605200052333331   F   F   F
  0.9166666865332829  0.4374999701794380  0.3605200052333331   F   F   F
  0.9166666865332829  0.1875000000030838  0.3605200052333331   F   F   F
  0.5833333134730552  0.9375000000154046  0.3605200052333331   F   F   F
  0.5833333134730552  0.6874999999963620  0.3605200052333331   F   F   F
  0.5833333134730552  0.4374999701794380  0.3605200052333331   F   F   F
  0.5833333134730552  0.1875000000030838  0.3605200052333331   F   F   F
  0.2499999999799343  0.9375000000154046  0.3605200052333331   F   F   F
  0.9166666865332829  0.9375000000154046  0.3605200052333331   F   F   F
  0.9176456082770699  0.0633066761888870  0.5474544414612552   F   F   F
  0.2499999999799343  0.6874999999963620  0.3605200052333331   F   F   F
  0.7499999404149307  0.9375000000154046  0.3605200052333331   F   F   F
  0.7533593906792291  0.1817704452329707  0.7999630013791923   T   T   T
  0.5844716082658650  0.5628150538045631  0.4548311544012975   F   F   F
  0.5826323431730813  0.1902694838210266  0.4554746544827140   F   F   F
  0.7499999404149307  0.6874999999963620  0.3605200052333331   F   F   F
  0.4166666269218169  0.6874999999963620  0.3605200052333331   F   F   F
  0.4166666269218169  0.4374999701794380  0.3605200052333331   F   F   F
  0.2499999999799343  0.4374999701794380  0.3605200052333331   F   F   F
  0.0833333358191695  0.0625000000159659  0.3605200052333331   F   F   F
  0.9153169098368608  0.6867520063057384  0.4531819058952422   F   F   F
  0.6654364609708239  0.3784901627749235  0.5033519919201979   F   F   F
  0.3343115602699953  0.3784458395132404  0.5030154821530317   F   F   F
  0.3356129638492718  0.6258536896854423  0.5037688002991700   F   F   F
  0.2498714353168410  0.1884891354975977  0.4540994596909513   F   F   F
  0.2499999999799343  0.1875000000030838  0.3605200052333331   F   F   F
  0.2504072497639740  0.0619707548785726  0.4542379500510805   F   F   F
  0.7494732691269448  0.9384161233523756  0.4553604434949321   F   F   F
  0.7499999404149307  0.4374999701794380  0.3605200052333331   F   F   F
  0.7499999404149307  0.1875000000030838  0.3605200052333331   F   F   F
  0.4166666269218169  0.9375000000154046  0.3605200052333331   F   F   F
  0.2510628822388625  0.0625261247894500  0.5472669593774597   F   F   F
  0.5824894622887058  0.3111165842400183  0.5448561064955513   F   F   F
  0.2499999999799343  0.8124999999834799  0.3605200052333331   F   F   F
  0.2499999999799343  0.5625000000092442  0.3605200052333331   F   F   F
  0.2499999999799343  0.3124999999901945  0.3605200052333331   F   F   F
  0.7499999404149307  0.5625000000092442  0.3605200052333331   F   F   F
  0.7499999404149307  0.3124999999901945  0.3605200052333331   F   F   F
  0.7499999404149307  0.0625000000159659  0.3605200052333331   F   F   F
  0.4166666269218169  0.8124999999834799  0.3605200052333331   F   F   F
  0.4166666269218169  0.3124999999901945  0.3605200052333331   F   F   F
  0.7499999404149307  0.8124999999834799  0.3605200052333331   F   F   F
  0.4166666269218169  0.0625000000159659  0.3605200052333331   F   F   F
  0.4168929529881495  0.0616065546775388  0.4553396279263495   F   F   F
  0.0835134814897671  0.8120940603953670  0.4541887698259117   F   F   F
  0.4166666269218169  0.5625000000092442  0.3605200052333331   F   F   F
  0.5833333134730552  0.3124999999901945  0.3605200052333331   F   F   F
  0.5833333134730552  0.8124999999834799  0.3605200052333331   F   F   F
  0.0834303995218590  0.3120161095955041  0.4540265232826073   F   F   F
  0.8333332538436267  0.7500000000123208  0.4070133268666680   F   F   F
  0.4145022713100133  0.8118951481806249  0.5478888613453279   F   F   F
  0.8333332538436267  0.4999999999932783  0.4070133268666680   F   F   F
  0.7495913902628430  0.0641087589136475  0.4533800205882059   F   F   F
  0.4166666269218169  0.1875000000030838  0.3605200052333331   F   F   F
  0.0833333358191695  0.9375000000154046  0.3605200052333331   F   F   F
  0.0833333358191695  0.8124999999834799  0.3605200052333331   F   F   F
  0.0833333358191695  0.4374999701794380  0.3605200052333331   F   F   F
  0.2518010376663895  0.5646299984374252  0.4538393015731756   F   F   F
  0.4154882857904170  0.3113682082427189  0.4573810296978067   F   F   F
  0.0837135872094237  0.0618703124255475  0.4542028670658667   F   F   F
  0.4160537023729489  0.5595242544355443  0.4578655421145044   F   F   F
  0.0839647289027425  0.5625154140962820  0.4539869208910829   F   F   F
  0.0833333358191695  0.6874999999963620  0.3605200052333331   F   F   F
  0.2499999999799343  0.0625000000159659  0.3605200052333331   F   F   F
  0.6653625687310054  0.6260507045930694  0.5029486595093928   F   F   F
  0.5000000000021103  0.0000000000000000  0.4070133268666680   F   F   F
  0.6666666865533486  0.7500000000123208  0.4070133268666680   F   F   F
  0.0833333358191695  0.1875000000030838  0.3605200052333331   F   F   F
  0.0000000000000000  0.2500000000190425  0.4070133268666680   F   F   F
  0.0000000000000000  0.4999999999932783  0.4070133268666680   F   F   F
  0.3333333432766779  0.0000000000000000  0.4070133268666680   F   F   F
  0.3333333432766779  0.4999999999932783  0.4070133268666680   F   F   F
  0.3333333432766779  0.7500000000123208  0.4070133268666680   F   F   F
  0.5827716338848816  0.6861223722808774  0.4545803203451868   F   F   F
  0.6666666865533486  0.0000000000000000  0.4070133268666680   F   F   F
  0.6666666865533486  0.4999999999932783  0.4070133268666680   F   F   F
  0.8333332538436267  0.2500000000190425  0.4070133268666680   F   F   F
  0.1666666716383389  0.0000000000000000  0.4070133268666680   F   F   F
  0.1666666716383389  0.4999999999932783  0.4070133268666680   F   F   F
  0.1666666716383389  0.7500000000123208  0.4070133268666680   F   F   F
  0.5000000000021103  0.4999999999932783  0.4070133268666680   F   F   F
  0.5832187046035529  0.0636085699190261  0.4538796404698644   F   F   F
  0.5000000000021103  0.2500000000190425  0.4070133268666680   F   F   F
  0.3333333432766779  0.2500000000190425  0.4070133268666680   F   F   F
  0.7473255950125690  0.3141386332840170  0.4547970698844992   F   F   F
  0.0000000000000000  0.7500000000123208  0.4070133268666680   F   F   F
  0.4167184554233287  0.8100982985817708  0.4550862775498814   F   F   F
  0.5843691405179854  0.3154603296995546  0.4535766366386227   F   F   F
  0.5827636876852935  0.9370994619034363  0.4543167642613142   F   F   F
  0.6666666865533486  0.2500000000190425  0.4070133268666680   F   F   F
  0.2522683481514676  0.3141113167196607  0.4541555922736862   F   F   F
  0.1666666716383389  0.2500000000190425  0.4070133268666680   F   F   F
  0.2505496046068174  0.8107792356038104  0.4553378202707492   F   F   F
  0.5833333134730552  0.5625000000092442  0.3605200052333331   F   F   F
  0.2500038528067421  0.9360266708668377  0.4540273699822777   F   F   F
  0.8333332538436267  0.0000000000000000  0.4070133268666680   F   F   F
  0.5000000000021103  0.7500000000123208  0.4070133268666680   F   F   F
  0.9166666865332829  0.3124999999901945  0.3605200052333331   F   F   F
  0.0000000000000000  0.0000000000000000  0.4070133268666680   F   F   F
  0.7482094319622306  0.5642814438003327  0.4537567759165029   F   F   F
  0.0857249982087396  0.6893214046838949  0.5454042188508197   F   F   F
  0.0835776106984838  0.1888638796984736  0.5456114734516078   F   F   F
  0.0833333358191695  0.3124999999901945  0.3605200052333331   F   F   F
  0.9994765953351035  0.4983979328665384  0.5941919951489893   F   F   F
  0.5807681219375311  0.1854693574993789  0.5495678049786932   F   F   F
  0.9997716892116628  0.7532582649111887  0.5923148286546365   F   F   F
  0.3340255563377426  0.9998229926652300  0.5920228319816800   F   F   F
  0.9997354664798195  0.9993438430871322  0.5931712862814322   F   F   F
  0.0011773724770450  0.2496210574120212  0.5921443229132635   F   F   F
  0.3331587334646997  0.4964974401761637  0.5906186826712485   F   F   F
  0.3356036195040133  0.7412736860950773  0.5903540737797712   F   F   F
  0.6631049638129412  0.2476127513312889  0.5906300799723567   F   F   F
  0.6659632696583202  0.0003284230028768  0.5918690293559123   F   F   F
  0.4156903138253796  0.1914974099769964  0.5465305477901552   F   F   F
  0.6658119253391135  0.7414612719637574  0.5904621754669748   F   F   F
  0.4985407575794625  0.2533882133793242  0.5901743744635155   F   F   F
  0.4273812322115162  0.3053527214277594  0.6551202554172306   F   F   F
  0.1706023856081913  0.7503776302789120  0.5948549118534885   F   F   F
  0.2481202813022563  0.4360598066832040  0.5489116114852024   F   F   F
  0.1654247915967559  0.5034211882182831  0.5873127542271348   F   F   F
  0.3346804424736547  0.2544739797897790  0.5927426417173720   F   F   F
  0.4996909375887810  0.0000492611019780  0.5910235607157475   F   F   F
  0.8326705393082889  0.8742110231567253  0.4985976300266657   F   F   F
  0.4230993312601825  0.4440404810555165  0.5454771227455524   F   F   F
  0.7521089797603580  0.4353155703005029  0.5490400271587745   F   F   F
  0.7517429300082838  0.6804440312811195  0.5530521884406028   F   F   F
  0.7482794814854685  0.8081246743710864  0.5457209762442119   F   F   F
  0.4177722364165675  0.0651892555954774  0.6400003624758881   F   F   F
  0.2490720016596342  0.3161918736784912  0.6412785403616539   F   F   F
  0.6666462326361042  0.4945404667695357  0.5913005987839952   F   F   F
  0.5911451552262150  0.8101124279499032  0.6460536029896105   F   F   F
  0.1674499083836736  0.9983802892766178  0.5923011864117598   F   F   F
  0.1684847714538549  0.2482004517242231  0.5931427468689492   F   F   F
  0.4994509349801817  0.1255747353768015  0.4996041602973591   F   F   F
  0.7486100223410830  0.9371972878374351  0.6402392288684950   F   F   F
  0.5906725135507784  0.5661094644964564  0.6388105686161936   F   F   F
  0.5766404685363327  0.4358594631937294  0.5521497727990550   F   F   F
  0.0848855425747956  0.8129288042967815  0.5473162635346682   F   F   F
  0.4164935641879595  0.0652867455491872  0.5472841277394238   F   F   F
  0.4159890633804082  0.3197493294635549  0.5525638296623683   F   F   F
  0.2532762199641994  0.8125432337648419  0.5507071926925349   F   F   F
  0.5811672327193023  0.5601035639487648  0.5489017060258163   F   F   F
  0.7480930471243923  0.3116282795559542  0.5483476770285804   F   F   F
  0.5859342101409908  0.8143606467803437  0.5503939724076403   F   F   F
  0.5830445663443626  0.0622790344690856  0.5457275040757708   F   F   F
  0.2525516059004573  0.5591548506386417  0.5438573207270494   F   F   F
  0.0823094174441863  0.0632295946925225  0.5475752059467993   F   F   F
  0.2490896060316388  0.6832022660557442  0.5521098434866403   F   F   F
  0.7494900562412639  0.9340421972797870  0.5477467640095526   F   F   F
  0.5827996604489911  0.4396621217893397  0.4564012775315902   F   F   F
  0.9142821603802744  0.6889655898058749  0.5453900574747053   F   F   F
  0.9153971432852757  0.4373519630603511  0.5457502499181359   F   F   F
  0.5795845026024082  0.6861413123255744  0.5473867714203493   F   F   F
  0.2515134511008057  0.9372837934948492  0.5452584791655894   F   F   F
  0.4974948830876826  0.5044037661011060  0.6088488950498956   F   F   F
  0.9180058414566190  0.5638717459709639  0.5471557350475038   F   F   F
  0.4200150016788484  0.5652359544855727  0.5553366365642773   F   F   F
  0.9154710339417065  0.8128424206953966  0.5467822066462773   F   F   F
  0.0836617707412159  0.9388553903857328  0.5458412537643085   F   F   F
  0.0866990345295306  0.3135178523294755  0.5471451256542608   F   F   F
  0.8321647656276099  0.0021151335712517  0.5922492083043238   F   F   F
  0.9158019921148153  0.1869294882430097  0.4532280825794004   F   F   F
  0.9156202426299913  0.9385129979080205  0.5464257964511958   F   F   F
  0.2492523636324577  0.3137978436812148  0.5459523917081910   F   F   F
  0.5836373384600719  0.9377751429803567  0.5462010142871918   F   F   F
  0.9169305771124243  0.1888840535190184  0.5455158749575091   F   F   F
  0.9161048908776834  0.5621758209882941  0.4540893374479040   F   F   F
  0.9161138605503112  0.0622502718115783  0.4540713795493900   F   F   F
  0.9140049821125729  0.8132926946053232  0.6415534926151523   F   F   F
  0.5826255526919510  0.0662375719247308  0.6390333854216053   F   F   F
  0.5828933519125457  0.3207667160644760  0.6334166460387962   F   F   F
  0.2475868585288268  0.5739486642088210  0.6287443067317326   F   F   F
  0.7540518425897744  0.6923790546130490  0.6570450089018038   F   F   F
  0.2620636511088108  0.7994242957585485  0.6463903349182658   F   F   F
  0.2510283205968804  0.0594095968577903  0.6423224975766928   F   F   F
  0.9166666865332829  0.5625000000092442  0.3605200052333331   F   F   F
  0.4174828552750256  0.9348680111589474  0.6398009198399848   F   F   F
  0.5000247433353664  0.8733865262275700  0.5008365757761126   F   F   F
  0.4205185686493920  0.6761690024401190  0.6335583913858684   F   F   F
  0.8324535844507679  0.6230495256856372  0.5001920233630059   F   F   F
  0.8324122111656820  0.3731383777456259  0.4997214803233234   F   F   F
  0.9151666970281767  0.3117477801951694  0.6396247071135832   F   F   F
  0.1666800476335908  0.3761365091574689  0.4975852266434089   F   F   F
  0.9134859515886475  0.5622122762219135  0.6411266503626436   F   F   F
  0.5782442019462479  0.6858847436071471  0.6395128881396133   F   F   F
  0.4159928469244818  0.9371434204042757  0.5461075418960277   F   F   F
  0.1670570215336582  0.1243472245433068  0.4993726648964554   F   F   F
  0.7481930394060541  0.0598549098276848  0.5444777943730799   F   F   F
  0.1677584266475236  0.8732634144503635  0.4998841607852995   F   F   F
  0.5009836854114766  0.7564531832104748  0.5927481804309451   F   F   F
  0.5003240908836304  0.6211730323443732  0.5000254208490986   F   F   F
  0.7554147443032235  0.4347463666777571  0.6380960763665087   F   F   F
  0.2520109978262326  0.1882225012986254  0.5471964826349733   F   F   F
  0.7484004751596913  0.1836992590473798  0.5508812635791571   F   F   F
  0.0808702754342505  0.5644467617245539  0.5464486520460525   F   F   F
  0.3972100292707879  0.5507953292885759  0.6518498824875749   F   F   F
  0.1675468312425252  0.6242886679160407  0.5002605974086194   F   F   F
  0.8328986677527297  0.1245753308562811  0.4999139469849041   F   F   F
  0.7526941282493311  0.5692803349423485  0.6351190001187845   F   F   F
  0.9169849180400860  0.1862521748292778  0.6405354357909161   F   F   F
  0.4995127787562552  0.3743026167408914  0.4996914111049904   F   F   F
  0.5812673561624990  0.4397098986100403  0.6465240500838689   F   F   F
  0.7460188190987580  0.3126225439901518  0.6404872910563384   F   F   F
  0.7410974249686930  0.8099021973207456  0.6399966858263397   F   F   F
  0.0829012299958407  0.4388986813673199  0.5448493505576408   F   F   F
  0.9156544933868744  0.0627440713973755  0.6417110049445824   F   F   F
  0.7475899219393511  0.0676949321416558  0.6389628517750268   F   F   F
  0.0842382541833828  0.3112484017008512  0.6408703104961546   F   F   F
  0.0859841518113384  0.5627187305329997  0.6400970799866315   F   F   F
  0.0842624499738065  0.0605594929632574  0.6421508182166917   F   F   F
  0.0873844449436376  0.4365071265631073  0.6397089519477177   F   F   F
  0.0837332890235842  0.1853058665139997  0.6413278388769115   F   F   F
  0.6665085077644051  0.8747694620524129  0.4993339963517229   F   F   F
  0.8314691178868188  0.2479175172849679  0.5916190706137456   F   F   F
  0.8304760069560189  0.7506917050385979  0.5927666412094652   F   F   F
  0.0842097957635133  0.9356749415717616  0.6406695294329268   F   F   F
  0.8332819064793071  0.5034569574372583  0.5888169500892815   F   F   F
  0.4189197642545395  0.1884806104932863  0.6399351338389039   F   F   F
  0.4147678525568139  0.4193512888518356  0.6298332022891557   F   F   F
  0.2535718987210771  0.1863847416903610  0.6412658602100691   F   F   F
  0.2519652106088017  0.9301793042329791  0.6373741629879035   F   F   F
  0.5769694962918095  0.1915284825997645  0.6440620899972131   F   F   F
  0.0842622132933002  0.8126239960241648  0.6423058685686911   F   F   F
  0.2406290027673421  0.4420393480252613  0.6411965641487782   F   F   F
  0.9142991811994747  0.9372276176386265  0.6410211924162397   F   F   F
  0.9164448346741523  0.6872914094808706  0.6388257821058119   F   F   F
  0.9121093516141343  0.4357377388615902  0.6399495369500059   F   F   F
  0.4128087755816594  0.8128589667959503  0.6395620858960527   F   F   F
  0.2546560683893873  0.6778534046993485  0.6628104472415757   F   F   F
  0.5821164466812334  0.9356932128091628  0.6393820687091605   F   F   F
  0.7452836225433117  0.1945644707783316  0.6468627827468509   F   F   F
  0.0831086984696867  0.6870226856660508  0.6388990922644027   F   F   F
  0.9166666865332829  0.8124999999834799  0.3605200052333331   F   F   F
  0.6668610709263376  0.2479337637291437  0.5028372722602299   F   F   F
  0.8333332538436267  0.6249999999803961  0.4070133268666680   F   F   F
  0.3300371685468804  0.2480722339986201  0.5027622095969804   F   F   F
  0.3338676976096764  0.7511556635733143  0.5014720046979662   F   F   F
  0.5009469139345057  0.2479452153610140  0.5019466922818836   F   F   F
  0.0000000000000000  0.3750000000061604  0.4070133268666680   F   F   F
  0.6654664392404328  0.7518856275390888  0.5022083941327509   F   F   F
  0.3311361029629509  0.4992732441260372  0.5008270292102566   F   F   F
  0.6658706062498041  0.0001415710680277  0.5055104497650333   F   F   F
  0.3331248931573043  0.0010959963123298  0.5058081194682131   F   F   F
  0.1666666716383389  0.3750000000061604  0.4070133268666680   F   F   F
  0.0007425229298974  0.1225453455710621  0.6193416427890668   F   F   F
  0.9999737682466474  0.9999963938438654  0.5066489127815856   F   F   F
  0.5011472353288937  0.4999358775514224  0.5002643080544402   F   F   F
  0.1659710604610893  0.0011383529021600  0.5065513763113501   F   F   F
  0.5011380327972006  0.7528657971475425  0.5038324191712675   F   F   F
  0.0008853533764892  0.2498077655778204  0.5060720557513179   F   F   F
  0.6685078682753982  0.4998497064090515  0.5006698388144457   F   F   F
  0.6666666865533486  0.1249999999871179  0.4070133268666680   F   F   F
  0.1642787564852597  0.7514904671649134  0.5033798454356386   F   F   F
  0.9995229183097081  0.4998713455620987  0.5067955891982905   F   F   F
  0.9998650602486592  0.7511021391850576  0.5065045287918295   F   F   F
  0.6666666865533486  0.6249999999803961  0.4070133268666680   F   F   F
  0.8333332538436267  0.8749999404036828  0.4070133268666680   F   F   F
  0.3333333432766779  0.6249999999803961  0.4070133268666680   F   F   F
  0.3333333432766779  0.1249999999871179  0.4070133268666680   F   F   F
  0.0000000000000000  0.6249999999803961  0.4070133268666680   F   F   F
  0.8342243793713706  0.0004606646751100  0.5064692923681307   F   F   F
  0.3333333432766779  0.8749999404036828  0.4070133268666680   F   F   F
  0.1663131110901048  0.2481975235984990  0.5062193391014844   F   F   F
  0.5008031525224226  0.8768621837361152  0.6094113701679618   F   F   F
  0.5002271723250260  0.9994389148190663  0.5055060913443867   F   F   F
  0.0000000000000000  0.8749999404036828  0.4070133268666680   F   F   F
  0.3333333432766779  0.3750000000061604  0.4070133268666680   F   F   F
  0.8361462818005094  0.4999010775946147  0.5028319296110197   F   F   F
  0.6666666865533486  0.3750000000061604  0.4070133268666680   F   F   F
  0.3256298390979637  0.3737574476651915  0.5927359236324818   F   F   F
  0.8321177356695202  0.8764536827618770  0.6175371290042619   F   F   F
  0.5000000000021103  0.1249999999871179  0.4070133268666680   F   F   F
  0.5000000000021103  0.3750000000061604  0.4070133268666680   F   F   F
  0.8395580683477704  0.6269180801188199  0.6038093542123235   F   F   F
  0.3317517714629403  0.1198879435850415  0.6134866793828522   F   F   F
  0.9990253449084889  0.8751136507840798  0.6220465677820215   F   F   F
  0.1634266899775625  0.4998333676729274  0.5019641227258731   F   F   F
  0.5000000000021103  0.6249999999803961  0.4070133268666680   F   F   F
  0.8333332538436267  0.3750000000061604  0.4070133268666680   F   F   F
  0.9995559518508941  0.6231601496990606  0.6242547630159834   F   F   F
  0.8355859187033516  0.2483502248302969  0.5031949227173200   F   F   F
  0.0000000000000000  0.1249999999871179  0.4070133268666680   F   F   F
  0.1666666716383389  0.8749999404036828  0.4070133268666680   F   F   F
  0.8360855591826564  0.7516682036624900  0.5026257320932217   F   F   F
  0.1666666716383389  0.1249999999871179  0.4070133268666680   F   F   F
  0.8333332538436267  0.1249999999871179  0.4070133268666680   F   F   F
  0.6664869505279398  0.6261601640129584  0.5932967061944865   F   F   F
  0.8373472704658624  0.3720669686058713  0.6039013186494060   F   F   F
  0.5012575364065057  0.3718558664953164  0.5949804247332438   F   F   F
  0.5000000000021103  0.8749999404036828  0.4070133268666680   F   F   F
  0.5001987691160537  0.1219550607317572  0.6059312066105633   F   F   F
  0.6651335400498652  0.1249409124686949  0.6104537382750905   F   F   F
  0.3340658058694501  0.6245933776921930  0.5950572851482363   F   F   F
  0.1678419509691551  0.1227012638354594  0.6217298281913415   F   F   F
  0.3344775851691821  0.8786700766503728  0.6028762145338007   F   F   F
  0.1661400007611249  0.8737053083912940  0.6177400360055429   F   F   F
  0.6666666865533486  0.8749999404036828  0.4070133268666680   F   F   F
  0.1594127078882579  0.6272631776275901  0.6015746246769282   F   F   F
  0.1633251493351580  0.3711802426477888  0.6076206022153556   F   F   F
  0.1666666716383389  0.6249999999803961  0.4070133268666680   F   F   F
  0.6654358111771046  0.8810787301640772  0.6070992890132771   F   F   F
  0.0002718076846193  0.3749803649104990  0.6243362294861328   F   F   F
  0.8337127552502039  0.1249805454613124  0.6175940749499986   F   F   F
  0.5037004971210663  0.6250972211589740  0.5940082648060852   F   F   F
  0.6707529043498823  0.3724854826312693  0.5936342884572312   F   F   F
  0.5847062522814355  0.7500196769118688  0.5997258595561092   F   F   F
  0.9162650735358326  0.0003739333611961  0.6038647186219919   F   F   F
  0.7499999404149307  0.4999999999932783  0.4070133268666680   F   F   F
  0.5826949925361475  0.0009310212290501  0.6042706741325361   F   F   F
  0.0810050642141817  0.6258476222183305  0.5054595398838018   F   F   F
  0.0839068199881012  0.2477301891521151  0.6039253775137965   F   F   F
  0.7538268736877498  0.2480578325204021  0.5939202775232388   F   F   F
  0.4170822549187250  0.0000258649533933  0.6046939420156363   F   F   F
  0.5902857026088952  0.5013959799182288  0.5936113289157205   F   F   F
  0.4146092008082647  0.2489139587932883  0.5911720997105618   F   F   F
  0.2494203433365456  0.7527111344153354  0.5919913168893984   F   F   F
  0.5839680451852942  0.2481744153371679  0.5967089518773392   F   F   F