Au  C  H  O Sr Ti 
 1.0000000000000000
    23.6707801818999997    0.0000000000000000    0.0000000000000000
     0.0000000000000000   22.3170261383000010    0.0000000000000000
     0.0000000000000000    0.0000000000000000   30.0000000000000000
 Au  C   H   O   Sr  Ti 
  50   2   4 265  72  72
Selective dynamics
Cartesian
 16.9504695933760310 11.7322134985763391 22.5968454655261191   F   F   F
  6.9476044672502990 16.6642017292537759 20.9136164937299291   F   F   F
 13.6879341972812476 16.1969940718256566 23.8148412832097627   F   F   F
  5.6911358612926115 10.4678257449295931 21.2616682905206957   F   F   F
  6.7433721027336171 14.7808548565084941 22.9385723252053744   F   F   F
 14.2504840553554448  6.4419447446474889 23.5743028915233914   F   F   F
 12.1639652253688073 10.8192717103227682 20.3398863483985757   F   F   F
  6.8448008025813571 12.0057967106013308 23.3146641114710462   F   F   F
 12.9843039562417442  8.5628132916569957 24.8357537359452181   F   F   F
 12.1156938042220439 13.4682112005257579 23.3041773362571085   F   F   F
 17.3482407648989820 13.7292522384963220 20.8167210369176203   F   F   F
 16.9602366271766201  5.7809960302078371 20.7273225748830754   F   F   F
 13.3214066932967974 10.8494288539537536 22.8647948898357569   F   F   F
 10.1419028891511882  8.3042841684839299 24.4514887068997808   F   F   F
  8.2642165369195659 11.1642052264992593 20.9295449167259839   F   F   F
 14.1180912239001248 17.5098018165851457 21.3912297494446157   F   F   F
  8.8022584414175533  6.6570992476184552 22.6425883135733912   F   F   F
 10.5024255453567363  5.0969982866841343 20.9064619270211978   F   F   F
 10.9812905227122322 15.5231617690043251 24.8975286168144301   F   F   F
  9.2635148391851736 18.2525494254563867 21.1935224224570469   F   F   F
 18.1056743092751447  9.6520840472249727 21.1430359510194279   F   F   F
 14.7097524866028024 12.7461941793087448 21.1179957041018369   F   F   F
 13.2265596573506627  4.6874626816055658 21.3585381895286766   F   F   F
 15.0242143243774287 13.0325773859715390 24.0049957258155864   F   F   F
 11.5244132643496133  6.0230067043948683 23.2580510471112163   F   F   F
 11.4940117155240973 17.3352914875544677 22.6518564557481419   F   F   F
 16.7224829647747590 16.8935967704016825 20.6526017579837742   F   F   F
 13.4814583428603640 11.3773346446052521 25.6969775815038304   F   F   F
 15.6954163734904313  4.2739746914975960 22.5567270954911550   T   T   T
 11.1463756168910919 10.0453634024498530 26.3514469246813263   F   F   F
 12.2030632183277401  8.4387535386729891 21.9830000375952892   F   F   F
  6.6952376486675504  7.5457001287850529 21.0725889015634884   F   F   F
 15.8459989803668737 15.2030536310989817 22.4678148677191629   F   F   F
  9.4020314915018837  8.5291642232536056 20.6997471264270736   F   F   F
 10.9478306658267801 12.7944239320154924 25.9162862635474838   F   F   F
 16.5676978695609876  7.7473082314109112 22.6784890473005447   F   F   F
 10.7004208538829921 12.9502353389554585 21.0810215063286570   F   F   F
  9.8866119955762226 15.5532459167230392 20.9821865763895765   F   F   F
 18.3133939398288881  9.6029158096988319 23.8565897274721159   F   F   F
  6.0792822269746072 13.2407654635902237 20.8344861725016592   F   F   F
 15.3615670799858925  9.9561873707679247 20.8524407716797349   F   F   F
 13.3619982660239582 14.2757120301797578 25.8350838824749580   F   F   F
 12.7959092897579705 14.9025054843003772 21.0539328983530112   F   F   F
 10.4901829035445040 10.6083947766940057 22.6999695977642304   F   F   F
  8.8533505806844648 16.5086942855246726 23.3615737535633023   F   F   F
  8.8646612684250190 11.0039926703972775 24.9867189765536111   F   F   F
 14.5436302207008890  7.2128951140603155 20.8945200222679155   F   F   F
  7.7000231289533154  9.2443620711069148 23.0698484701704061   F   F   F
  8.7185261891327368 13.8154017771285158 24.6066205514438145   F   F   F
 15.5143648737334345  9.8520523748726401 24.3801886965330645   F   F   F
 18.2037581857000603  1.7238565938810742 24.5669816813749371   T   T   T
 18.4253754312122240  3.2000432019159128 24.6626610426801598   T   T   T
 19.1765606891762808  3.5373894048812611 25.4038283080517893   T   T   T
 19.1350593120961534  1.1847426464315831 24.7534738636897380   T   T   T
 17.5077585706227943  1.4416020707553474 25.3667874325428215   T   T   T
 17.7746497448579710  1.4391248128310241 23.6067442192896060   T   T   T
 17.7685401353231178  4.2379102876316148 13.6722254180128431   F   F   F
  9.8758259543969480 20.8881516934651756 13.6213135140384267   F   F   F
  9.8732019601764005 15.2828081895184109 13.6406488399915009   F   F   F
  9.8571529565591831  9.7181469642794678 13.6140624724504296   F   F   F
  1.9983960177404325 15.3305814564775265 13.5943226372980597   F   F   F
  1.9870546691015789 20.9036440757425837 13.6047882831672933   F   F   F
  1.9575950452270574  9.7490592687089404 13.5847808300500521   F   F   F
  1.9850660139223826  4.1637188310553901 13.5894233471861341   F   F   F
 21.6962381581619397 18.1241968173771966 13.6210706857210475   F   F   F
 17.7290325870293444 18.1489471108709175 13.5932643331108132   F   F   F
 21.6878683379099151  6.9674653213576336 13.6161763572937602   F   F   F
  5.9659544940738458 15.3460111775682222 13.6853355203354514   F   F   F
 17.6685889580250972 12.4538717408592525 16.3365321565757711   F   F   F
 21.6932950961481836 20.9137334374886805 13.6101063021113919   F   F   F
  0.0018206892976867  2.7917551921289618 14.9525104326174159   F   F   F
 13.8088938397952194 18.0866178690293644 13.6616077751508929   F   F   F
 -0.0010295474154194  8.3338783965562087 14.9577404701265948   F   F   F
 23.6647828941558025 13.9975035374250076 14.9287068968675456   F   F   F
  7.8955390459305610  2.8027113914872510 14.9552697883394146   F   F   F
  0.0008527787055907 19.5305418399454602 14.9857961564660123   F   F   F
  7.8953493025509305 19.5083052853406791 14.9769910893028033   F   F   F
 15.7669584036661128  2.8203397439692952 14.9707049877910823   F   F   F
  5.9454073089589592  9.8036165318804844 13.6459610376965870   F   F   F
  1.9725650740000149 12.5533272030000536 10.8156001569999933   F   F   F
 21.6982156369999721  1.3948141340000613 10.8156001569999933   F   F   F
  9.8731998300677315  4.1762001236022002 13.6070714480062431   F   F   F
 21.6661600394331515  6.9712784216387131 16.4021595492812828   F   F   F
 10.0154258756279262 15.3575822246133473 16.3981330620787915   F   F   F
 21.6816020112439709  9.7508245462724492 13.6098837763642901   F   F   F
 17.7409307328543058  9.7813546848057769 13.6741608998075410   F   F   F
 17.7327245978477990 15.3686230672675173 13.7201495552595816   F   F   F
 13.8079546360000549  1.3948141340000613 10.8156001569999933   F   F   F
 21.6982156369999721 15.3429554700000619 10.8156001569999933   F   F   F
 21.6982156369999721  9.7636982699999884 10.8156001569999933   F   F   F
 21.6982156369999721  4.1844424010000720 10.8156001569999933   F   F   F
 13.8079546360000549 20.9222120050000342 10.8156001569999933   F   F   F
 13.8079546360000549 15.3429554700000619 10.8156001569999933   F   F   F
 13.8079546360000549  9.7636982699999884 10.8156001569999933   F   F   F
 13.8079546360000549  4.1844424010000720 10.8156001569999933   F   F   F
  5.9176950450000287 20.9222120050000342 10.8156001569999933   F   F   F
 21.6982156369999721 20.9222120050000342 10.8156001569999933   F   F   F
 21.7213874784123782  1.4128167472362942 16.4236332438377524   F   F   F
  5.9176950450000287 15.3429554700000619 10.8156001569999933   F   F   F
 17.7530837259999217 20.9222120050000342 10.8156001569999933   F   F   F
 17.8326045347380742  4.0565757774345670 24.0138900413758378   T   T   T
 13.8348989618229137 12.5603582667851565 13.6449346320389644   F   F   F
 13.7913621221153146  4.2462490437547666 13.6642396344814401   F   F   F
 17.7530837259999217 15.3429554700000619 10.8156001569999933   F   F   F
  9.8628241350000643 15.3429554700000619 10.8156001569999933   F   F   F
  9.8628241350000643  9.7636982699999884 10.8156001569999933   F   F   F
  5.9176950450000287  9.7636982699999884 10.8156001569999933   F   F   F
  1.9725650740000149  1.3948141340000613 10.8156001569999933   F   F   F
 21.6662653695243215 15.3262624752551311 13.5954571768571988   F   F   F
 15.7514001926617766  8.4467748557373472 15.1005597576059163   F   F   F
  7.9134154554190399  8.4457856923479344 15.0904644645910615   F   F   F
  7.9442206934721407 13.9671931514615402 15.1130640089751580   F   F   F
  5.9146518191207544  4.2065169636854920 13.6229837907285010   F   F   F
  5.9176950450000287  4.1844424010000720 10.8156001569999933   F   F   F
  5.9273349651171028  1.3830029564352693 13.6271385015324249   F   F   F
 17.7406170057139150 20.9426571534571337 13.6608133048479701   F   F   F
 17.7530837259999217  9.7636982699999884 10.8156001569999933   F   F   F
 17.7530837259999217  4.1844424010000720 10.8156001569999933   F   F   F
  9.8628241350000643 20.9222120050000342 10.8156001569999933   F   F   F
  5.9428542973103360  1.3953971612528080 16.4180087813238451   F   F   F
 13.7879800201090337  6.9431969425431648 16.3456831948665204   F   F   F
  5.9176950450000287 18.1325837370000720 10.8156001569999933   F   F   F
  5.9176950450000287 12.5533272030000536 10.8156001569999933   F   F   F
  5.9176950450000287  6.9740706679999214 10.8156001569999933   F   F   F
 17.7530837259999217 12.5533272030000536 10.8156001569999933   F   F   F
 17.7530837259999217  6.9740706679999214 10.8156001569999933   F   F   F
 17.7530837259999217  1.3948141340000613 10.8156001569999933   F   F   F
  9.8628241350000643 18.1325837370000720 10.8156001569999933   F   F   F
  9.8628241350000643  6.9740706679999214 10.8156001569999933   F   F   F
 17.7530837259999217 18.1325837370000720 10.8156001569999933   F   F   F
  9.8628241350000643  1.3948141340000613 10.8156001569999933   F   F   F
  9.8681814495656095  1.3748750910292058 13.6601888377904821   F   F   F
  1.9768292625694586 18.1235243726015369 13.6256630947774173   F   F   F
  9.8628241350000643 12.5533272030000536 10.8156001569999933   F   F   F
 13.8079546360000549  6.9740706679999214 10.8156001569999933   F   F   F
 13.8079546360000549 18.1325837370000720 10.8156001569999933   F   F   F
  1.9748626475700499  6.9632716734135558 13.6207956984781546   F   F   F
 19.7256482699999580 16.7377696039999648 12.2103998060000407   F   F   F
  9.8115921490775353 18.1190852435060243 16.4366658403598045   F   F   F
 19.7256482699999580 11.1585130689999925 12.2103998060000407   F   F   F
 17.7434130251566096  1.4307168483698065 13.6014006176462541   F   F   F
  9.8628241350000643  4.1844424010000720 10.8156001569999933   F   F   F
  1.9725650740000149 20.9222120050000342 10.8156001569999933   F   F   F
  1.9725650740000149 18.1325837370000720 10.8156001569999933   F   F   F
  1.9725650740000149  9.7636982699999884 10.8156001569999933   F   F   F
  5.9603270121754921 12.6008624335962356 13.6151790471952339   F   F   F
  9.8349318810993243  6.9488124419884363 13.7214308909342488   F   F   F
  1.9815659210725745  1.3807613795857174 13.6260860119760157   F   F   F
  9.8483157327357649 12.4869174112508183 13.7359662634352038   F   F   F
  1.9875106408897236 12.5536711995834018 13.6196076267325470   F   F   F
  1.9725650740000149 15.3429554700000619 10.8156001569999933   F   F   F
  5.9176950450000287  1.3948141340000613 10.8156001569999933   F   F   F
 15.7496511056960085 13.9715899383047173 15.0884597852818843   F   F   F
 11.8353900909999528  0.0000000000000000 12.2103998060000407   F   F   F
 15.7805205919999434 16.7377696039999648 12.2103998060000407   F   F   F
  1.9725650740000149  4.1844424010000720 10.8156001569999933   F   F   F
  0.0000000000000000  5.5792565349999723 12.2103998060000407   F   F   F
  0.0000000000000000 11.1585130689999925 12.2103998060000407   F   F   F
  7.8902602960000570  0.0000000000000000 12.2103998060000407   F   F   F
  7.8902602960000570 11.1585130689999925 12.2103998060000407   F   F   F
  7.8902602960000570 16.7377696039999648 12.2103998060000407   F   F   F
 13.7946592419356566 15.3122109162648012 13.6374096103555029   F   F   F
 15.7805205919999434  0.0000000000000000 12.2103998060000407   F   F   F
 15.7805205919999434 11.1585130689999925 12.2103998060000407   F   F   F
 19.7256482699999580  5.5792565349999723 12.2103998060000407   F   F   F
  3.9451301480000271  0.0000000000000000 12.2103998060000407   F   F   F
  3.9451301480000271 11.1585130689999925 12.2103998060000407   F   F   F
  3.9451301480000271 16.7377696039999648 12.2103998060000407   F   F   F
 11.8353900909999528 11.1585130689999925 12.2103998060000407   F   F   F
 13.8052417546431272  1.4195541175027551 13.6163892140959888   F   F   F
 11.8353900909999528  5.5792565349999723 12.2103998060000407   F   F   F
  7.8902602960000570  5.5792565349999723 12.2103998060000407   F   F   F
 17.6897798838501927  7.0106400900493195 13.6439120965348835   F   F   F
  0.0000000000000000 16.7377696039999648 12.2103998060000407   F   F   F
  9.8640509560664302 18.0789849040418176 13.6525883264964332   F   F   F
 13.8324734702871073  7.0401364235017674 13.6072990991587019   F   F   F
 13.7944711491920824 20.9132731854859237 13.6295029278393933   F   F   F
 15.7805205919999434  5.5792565349999723 12.2103998060000407   F   F   F
  5.9713886159443694  7.0100304655685699 13.6246677682106583   F   F   F
  3.9451301480000271  5.5792565349999723 12.2103998060000407   F   F   F
  5.9307046153099847 18.0941813933611719 13.6601346081225437   F   F   F
 13.8079546360000549 12.5533272030000536 10.8156001569999933   F   F   F
  5.9177862444164138 20.8893316798810886 13.6208210994682499   F   F   F
 19.7256482699999580  0.0000000000000000 12.2103998060000407   F   F   F
 11.8353900909999528 16.7377696039999648 12.2103998060000407   F   F   F
 21.6982156369999721  6.9740706679999214 10.8156001569999933   F   F   F
  0.0000000000000000  0.0000000000000000 12.2103998060000407   F   F   F
 17.7107009940021953 12.5930837306497079 13.6127032774950596   F   F   F
  2.0291775886928156 15.3836038060201510 16.3621265655245800   F   F   F
  1.9783472509721836  4.2148801398115081 16.3683442035482294   F   F   F
  1.9725650740000149  6.9740706679999214 10.8156001569999933   F   F   F
 23.6583907851311146 11.1227596950572458 17.8257598544697409   F   F   F
 13.7472345510382468  4.1391244991673997 16.4870341493608237   F   F   F
 23.6653758874160935 16.8104843869134335 17.7694448596391830   F   F   F
  7.9066455192075047 22.3130758609833073 17.7606849594504723   F   F   F
 23.6645184670930000 22.3023826673247605 17.7951385884428710   F   F   F
  0.0278693250963134  5.5707996629341290 17.7643296873978187   F   F   F
  7.8861271455231066 11.0803463500104886 17.7185604801373806   F   F   F
  7.9439995055295469 16.5430242282177922 17.7106222133930551   F   F   F
 15.6962118359428207  5.5259802436367638 17.7189023991706947   F   F   F
 15.7638701653014603  0.0073294247396294 17.7560708806774343   F   F   F
  9.8397140423056317  4.2736527038733509 16.3959164337046950   F   F   F
 15.7602877271897768 16.5472105869522750 17.7138652640092324   F   F   F
 11.8008486843813714  5.6548713811235762 17.7052312339054936   F   F   F
 10.1164472015482971  6.8145646655043448 19.6536076625168157   F   F   F
  4.0382915682392246 16.7461971885301644 17.8456473556045623   F   F   F
  5.8732006373768870  9.7315581036110874 16.4673483445561359   F   F   F
  3.9157338785234939 11.2348638160415497 17.6193826268140370   F   F   F
  7.9221471849748584  5.6791024584857448 17.7822792515211283   F   F   F
 11.8280743425516039  0.0010993613004623 17.7307068214724843   F   F   F
 19.7099612999106846 19.5097902541786290 14.9579289008000078   F   F   F
 10.0150912653687332  9.9096630221792026 16.3643136823665962   F   F   F
 17.8030063327404662  9.7149489608052235 16.4712008147633391   F   F   F
 17.7943416495234530 15.1854872317509653 16.5915656532179803   F   F   F
 17.7123591208686868 18.0349394809446686 16.3716292873263711   F   F   F
  9.8889947743172666  1.4548303210605174 19.2000108742765541   F   F   F
  5.8957286007510161  7.0564623096009740 19.2383562108495241   F   F   F
 15.7800364318209354 11.0366725233428316 17.7390179635197889   F   F   F
 13.9928670249549363 18.0793002295196388 19.3816080896882816   F   F   F
  3.9636699728291815 22.2808790117498070 17.7690355923527648   F   F   F
  3.9881659890818404  5.5390959686673078 17.7942824060685538   F   F   F
 11.8223932935603795  2.8024546517142297 14.9881248089207819   F   F   F
 17.7201832808030950 20.9154563694118423 19.2071768660547946   F   F   F
 13.9816792277507904 12.6338797163064438 19.1643170584858957   F   F   F
 13.6495297747113700  9.7270870327199344 16.5644931839716989   F   F   F
  2.0093070189092388 18.1421533740683181 16.4194879060400645   F   F   F
  9.8587276050692996  1.4570060069057744 16.4185238321826681   F   F   F
  9.8467856773521731  7.1358541433420690 16.5769148898710590   F   F   F
  5.9952457280751661 18.1335485864287662 16.5212157807760214   F   F   F
 13.7566818146217464 12.4998458767995402 16.4670511807744866   F   F   F
 17.7079460740891719  6.9546164602836971 16.4504303108573957   F   F   F
 13.8695198893025839 18.1741078401998415 16.5118191722291314   F   F   F
 13.8011197661886431  1.3898828401146968 16.3718251222730871   F   F   F
  5.9780935478556341 12.4786734170598361 16.3157196218114571   F   F   F
  1.9483281272216053  1.4110965174670929 16.4272561784039581   F   F   F
  5.8961453099709233 15.2470428293118996 16.5632953045992046   F   F   F
 17.7410143698067841 20.8450441309681196 16.4324029202865241   F   F   F
 13.7953226525740753  9.8119510639930638 13.6920383259476495   F   F   F
 21.6417720425941411 15.3756630760870152 16.3617017242411009   F   F   F
 21.6681645578449462  9.7603951912546290 16.3725074975441593   F   F   F
 13.7192173579374170 15.3126336017372946 16.4216031426105573   F   F   F
  5.9535196137982052 20.9173869184295071 16.3577543749676622   F   F   F
 11.7760920191885656 11.2567920323353565 18.2654668514969032   F   F   F
 21.7299144788198220 12.5839404934827837 16.4146720514250930   F   F   F
  9.9420827778403069 12.6143855705615184 16.6600990969282421   F   F   F
 21.6699136073308836 18.1402255489782469 16.4034661993883013   F   F   F
  1.9803393848438797 20.9524602873222143 16.3752376129293182   F   F   F
  2.0522337883314767  6.9967861052605729 16.4143537696277662   F   F   F
 19.6979892422934384  0.0472034911955709 17.7674762491296114   F   F   F
 21.6777476454959839  4.1717102751382367 13.5968424773820260   F   F   F
 21.6734454933925420 20.9448191054476567 16.3927738935359422   F   F   F
  5.8999979093629209  7.0030346795758618 16.3785717512457900   F   F   F
 13.8151511446375270 20.9283523777406515 16.3860304286156584   F   F   F
 21.7044621328909280  4.2153303594919986 16.3654762487251730   F   F   F
 21.6849174955290565 12.5460924913159619 13.6226801234371919   F   F   F
 21.6851298146781630  1.3892409431352302 13.6221413864817880   F   F   F
 21.6352110167480802 18.1502743235954114 19.2466047784545111   F   F   F
 13.7912013861291065  1.4782256239816944 19.1710015626480619   F   F   F
 13.7975404026127713  7.1585591867074951 19.0024993811639575   F   F   F
  5.8605741041629802 12.8088273411906961 18.8623292019519440   F   F   F
 17.8489954116992173 15.4518414594108009 19.7113502670541259   F   F   F
  6.2032510790628237 17.8407729040356529 19.3917100475480524   F   F   F
  5.9420361962802737  1.3258455259411270 19.2696749273007271   F   F   F
 21.6982156369999721 12.5533272030000536 10.8156001569999933   F   F   F
  9.8821448969271817 20.8634738408947058 19.1940275951995218   F   F   F
 11.8359757850023648 19.4913899346597645 15.0250972732834160   F   F   F
  9.9540026009069305 15.0900813013642967 19.0067517415760250   F   F   F
 19.7048258091689377 13.9046125501818505 15.0057607008902156   F   F   F
 19.7038464712322465  8.3273389293519653 14.9916444096997168   F   F   F
 21.6627097151493935  6.9572833591726253 19.1887412134075248   F   F   F
  3.9454467682433867  8.3942483064361362 14.9275567993021649   F   F   F
 21.6229251593086325 12.5469060637175200 19.2337995108793187   F   F   F
 13.6874913957278288 15.3069077509419742 19.1853866441884868   F   F   F
  9.8468752367922132 20.9142542084981642 16.3832262568807536   F   F   F
  3.9543700345661819  2.7750602603580643 14.9811799468936524   F   F   F
 17.7103129694083989  1.3357835871300581 16.3343338311924278   F   F   F
  3.9709728408348557 19.4886424459098180 14.9965248235590352   F   F   F
 11.8586746920931372 16.8817854621084642 17.7824454129284391   F   F   F
 11.8430615750153674 13.8627347992364260 15.0007626254730049   F   F   F
 17.8812563585678639  9.7022460286784877 19.1428822909951570   F   F   F
  5.9652969329659662  4.2005664812975603 16.4158944790492072   F   F   F
 17.7152231355345897  4.0996211657467834 16.5264379073748131   F   F   F
  1.9142625130538580 12.5967731350856251 16.3934595613815546   F   F   F
  9.4022712889149442 12.2921137605866662 19.5554964746273328   F   F   F
  3.9659642125156593 13.9322665197267241 15.0078179222585355   F   F   F
 19.7153612781721996  2.7801509149069603 14.9974184095471461   F   F   F
 17.8168572539967229 12.7046441149285094 19.0535700035634825   F   F   F
 21.7057484250444865  4.1565946539801546 19.2160630737274474   F   F   F
 11.8238571839893911  8.3533212814405342 14.9907423331498197   F   F   F
 13.7590518146367451  9.8130173005495536 19.3957215025161496   F   F   F
 17.6588474784473100  6.9768054856500523 19.2146187316901873   F   F   F
 17.5423542398060768 18.0746085070736520 19.1999005747902487   F   F   F
  1.9623367920406301  9.7949133441398288 16.3454805167293280   F   F   F
 21.6742562355296791  1.4002610813986553 19.2513301483374164   F   F   F
 17.6960367084301069  1.5107495700357596 19.1688855532507141   F   F   F
  1.9939851976819198  6.9461387162620642 19.2261093148846989   F   F   F
  2.0353119566533691 12.5582086178159518 19.2029123995989046   F   F   F
  1.9945579309183854  1.3515077873831411 19.2645245465007378   F   F   F
  2.0684579875782476  9.7415409530631596 19.1912685584316094   F   F   F
  1.9820322783847095  4.1354758665732243 19.2398351663073086   F   F   F
 15.7767763766573506 19.5222529496102766 14.9800198905516595   F   F   F
 19.6815227175372414  5.5327817133911088 17.7485721184123975   F   F   F
 19.6580150069980348 16.7532064031513173 17.7829992362838638   F   F   F
  1.9933115646807862 20.8814821280093028 19.2200858829877888   F   F   F
 19.7244328378262139 11.2356620786362686 17.6645085026784443   F   F   F
  9.9161576535226423  4.2063267109413713 19.1980540151671093   F   F   F
  9.8178786643910279  9.3586736744362380 18.8949960686745868   F   F   F
  6.0022446749336442  4.1595531520841273 19.2379758063020425   F   F   F
  5.9642131138071584 20.7588358458731328 19.1212248896371584   F   F   F
 13.6573181183849126  4.2743461524078654 19.3218626999163483   F   F   F
  1.9945523285060598 18.1353509598811229 19.2691760570607187   F   F   F
  5.6958762298956254  9.8650036840367967 19.2358969244634359   F   F   F
 21.6421749386639064 20.9161332403778530 19.2306357724872470   F   F   F
 21.6929642304095545 15.3383003500136610 19.1647734631742921   F   F   F
 21.5903399639135607  9.7243705076178699 19.1984861085002692   F   F   F
  9.7715057839527830 18.1405948087367754 19.1868625768815022   F   F   F
  6.0279078168320490 15.1276721506110690 19.8843134172472951   F   F   F
 13.7791504496601842 20.8818898876919299 19.1814620612748747   F   F   F
 17.6414448023927868  4.3421003799445712 19.4058834824055033   F   F   F
  1.9672477326798314 15.3323032336144021 19.1669727679320658   F   F   F
 21.6982156369999721 18.1325837370000720 10.8156001569999933   F   F   F
 15.7851218217637044  5.5331442857103701 15.0851181678068276   F   F   F
 19.7256482699999580 13.9481413360000008 12.2103998060000407   F   F   F
  7.8122372685299553  5.5362345303336795 15.0828662879093081   F   F   F
  7.9029088799556266 16.7635605778978203 15.0441601409390220   F   F   F
 11.8578042825447820  5.5333998520781460 15.0584007684565577   F   F   F
  0.0000000000000000  8.3688848019999824 12.2103998060000407   F   F   F
 15.7521098016920043 16.7798512028019466 15.0662518239824230   F   F   F
  7.8382499035269637 11.1422940393146401 15.0248108763077806   F   F   F
 15.7616767501276343  0.0031594452255945 15.1653134929509861   F   F   F
  7.8853261190455513  0.0244593783497981 15.1742435840463443   F   F   F
  3.9451301480000271  8.3688848019999824 12.2103998060000407   F   F   F
  0.0175760970535625  2.7348476802363950 18.5802492836721136   F   F   F
 -0.0006209260673763 -0.0000804786806365 15.1994673834476224   F   F   F
 11.8625460462371262 11.1570820467891050 15.0079292416332741   F   F   F
  3.9286644887312296  0.0254046514720787 15.1965412893404022   F   F   F
 11.8623282151322957 16.8017256735738414 15.1149725751379833   F   F   F
  0.0209570051582309  5.5749664339505012 15.1821616725394897   F   F   F
 15.8241027998174850 11.1551589631523811 15.0200951644333323   F   F   F
 15.7805205919999434  2.7896282670000101 12.2103998060000407   F   F   F
  3.8886063333183785 16.7710323984026317 15.1013953630691287   F   F   F
 23.6594872860802141 11.1556418846966121 15.2038676759487839   F   F   F
 23.6675860527081419 16.7623660727259178 15.1951358637548886   F   F   F
 15.7805205919999434 13.9481413360000008 12.2103998060000407   F   F   F
 19.7256482699999580 19.5273965409999306 12.2103998060000407   F   F   F
  7.8902602960000570 13.9481413360000008 12.2103998060000407   F   F   F
  7.8902602960000570  2.7896282670000101 12.2103998060000407   F   F   F
  0.0000000000000000 13.9481413360000008 12.2103998060000407   F   F   F
 19.7467419064815957  0.0102806655954124 15.1940787710439462   F   F   F
  7.8902602960000570 19.5273965409999306 12.2103998060000407   F   F   F
  3.9367610939817665  5.5390306216090588 15.1865801730445256   F   F   F
 11.8544013377608373 19.5689562741257106 18.2823411050388955   F   F   F
 11.8407674371191796 22.3045043856512955 15.1651827403316553   F   F   F
  0.0000000000000000 19.5273965409999306 12.2103998060000407   F   F   F
  7.8902602960000570  8.3688848019999824 12.2103998060000407   F   F   F
 19.7922348364127885 11.1563054152434127 15.0849578883305995   F   F   F
 15.7805205919999434  8.3688848019999824 12.2103998060000407   F   F   F
  7.7079123419553692  8.3411547289283217 17.7820777089744837   F   F   F
 19.6968760064936426 19.5598397472060697 18.5261138701278618   F   F   F
 11.8353900909999528  2.7896282670000101 12.2103998060000407   F   F   F
 11.8353900909999528  8.3688848019999824 12.2103998060000407   F   F   F
 19.8729944858005680 13.9909471805846337 18.1142806263697125   F   F   F
  7.8528232572551637  2.6755423706543713 18.4046003814856221   F   F   F
 23.6477093354756001 19.5299342185314089 18.6613970334606165   F   F   F
  3.8684372543144487 11.1547943311512725 15.0589236817760970   F   F   F
 11.8353900909999528 13.9481413360000008 12.2103998060000407   F   F   F
 19.7256482699999580  8.3688848019999824 12.2103998060000407   F   F   F
 23.6602692157723666 13.9070813491808210 18.7276428904794052   F   F   F
 19.7789706047179941  5.5424384589903983 15.0958476815195013   F   F   F
  0.0000000000000000  2.7896282670000101 12.2103998060000407   F   F   F
  3.9451301480000271 19.5273965409999306 12.2103998060000407   F   F   F
 19.7907974846735470 16.7749989484647379 15.0787719627967434   F   F   F
  3.9451301480000271  2.7896282670000101 12.2103998060000407   F   F   F
 19.7256482699999580  2.7896282670000101 12.2103998060000407   F   F   F
 15.7762661000518047 13.9740327470394572 17.7989011858345201   F   F   F
 19.8206631751114415  8.3034282635752845 18.1170395594822295   F   F   F
 11.8651569587991457  8.2987170922561138 17.8494127419973765   F   F   F
 11.8353900909999528 19.5273965409999306 12.2103998060000407   F   F   F
 11.8400951110030981  2.7216742780486385 18.1779361983168819   F   F   F
 15.7442298181293427  2.7883096093069075 18.3136121482527088   F   F   F
  7.9075982570250600 13.9390667357656799 17.8517185544471779   F   F   F
  3.9729499266920865  2.7383273122184524 18.6518948457402232   F   F   F
  7.9173453943123837 19.6093030675484847 18.0862864360139710   F   F   F
  3.9326634374373524 19.4985042045399659 18.5322010801661854   F   F   F
 15.7805205919999434 19.5273965409999306 12.2103998060000407   F   F   F
  3.7734231666243723 13.9986487307080747 18.0472387403079040   F   F   F
  3.8660337080884828  8.2836391771912403 18.2286180664606796   F   F   F
  3.9451301480000271 13.9481413360000008 12.2103998060000407   F   F   F
 15.7513848115375392 19.6630570509719682 18.2129786703983463   F   F   F
  0.0064338999544102  8.3684466050568069 18.7300868845840931   F   F   F
 19.7346313643737474  2.7891940998390310 18.5278222484998700   F   F   F
 11.9229837448664835 13.9503110235835504 17.8202479441825545   F   F   F
 15.8772445552371337  8.3127682520193922 17.8090286537168723   F   F   F
 13.8404531687365058 16.7382087338814536 17.9917757866833803   F   F   F
 21.6887091440191000  0.0083450805958292 18.1159415586597845   F   F   F
 17.7530837259999217 11.1585130689999925 12.2103998060000407   F   F   F
 13.7928450814169441  0.0207776251040367 18.1281202239761505   F   F   F
  1.9174530686345277 13.9670577436394279 15.1637861965140033   F   F   F
  1.9861398917005373  5.5286011065536886 18.1177613254138059   F   F   F
 17.8436702222716050  5.5359131321678934 17.8176083256972539   F   F   F
  9.8726623739523269  0.0005772288408884 18.1408182604691177   F   F   F
 13.9725231109735866 11.1896671894736599 17.8083398674717017   F   F   F
  9.8141232537256222  5.5550193245775441 17.7351629913167663   F   F   F
  5.9039741200133493 16.7982740613364356 17.7597395066819423   F   F   F
 13.8229792308349460  5.5385149139368384 17.9012685563201757   F   F   F
  5.9113998667299370 22.2658277265973972 18.1262466325015126   F   F   F