Au  C  H  O Sr Ti                       
   1.00000000000000     
    23.6707801818999997    0.0000000000000000    0.0000000000000000
     0.0000000000000000   22.3170261383000010    0.0000000000000000
     0.0000000000000000    0.0000000000000000   30.0000000000000000
   Au   C    H    O    Sr   Ti
    50     2     3   265    72    72
Selective dynamics
Direct
  0.7128105252607807  0.5253395123067469  0.7541131881023750   T   T   T
  0.2881822694263279  0.5396446239858831  0.7773945456152332   T   T   T
  0.5675267105006049  0.5116883838300917  0.8570631818868241   T   T   T
  0.6599786864382836  0.1967429907044962  0.7484844586736517   T   T   T
  0.4679876483445308  0.4538578500817344  0.8810177597538948   T   T   T
  0.2807736343520482  0.3416117293317985  0.7025807998775083   T   T   T
  0.6686065696493120  0.6819877288551337  0.7487687655336019   T   T   T
  0.3965098135348863  0.3829414380684082  0.6909062253030959   T   T   T
  0.4508416414368160  0.5803569929634840  0.7035038272281342   T   T   T
  0.3735980594754454  0.4955528023390756  0.8334056164335206   T   T   T
  0.3228627757545718  0.4167783360877046  0.7703031749769129   T   T   T
  0.6987658388285189  0.3448419227573771  0.7573144075732340   T   T   T
  0.3680389040157278  0.6208011894770054  0.8199535583694602   T   T   T
  0.7700558051923229  0.4295701263035918  0.7958076401751765   T   T   T
  0.2559224721339443  0.5942016846004367  0.6945036529501052   T   T   T
  0.6473312686206988  0.4459025950753569  0.6950710454326980   T   T   T
  0.5396619243196226  0.6679512751653919  0.7021147601391547   T   T   T
  0.4408983086810993  0.4735578508793876  0.7564013650078056   T   T   T
  0.7062810108537392  0.7572604068775624  0.6883526365988751   T   T   T
  0.3736119841982118  0.7413581371317370  0.7788528254333998   T   T   T
  0.4611364315091971  0.5761691474551248  0.8654055149142693   T   T   T
  0.6512045327120864  0.4403709208441236  0.8125237557750619   T   T   T
  0.4166977630343689  0.6973036723869301  0.6995662753379258   T   T   T
  0.5166555273126219  0.3787814524801373  0.7330355910527346   T   T   T
  0.3474778008157823  0.5007226679053569  0.6969885619593424   T   T   T
  0.5631863733476700  0.6416712353798165  0.8622056302525782   T   T   T
  0.4626733055410054  0.6985146902073215  0.8314722207704027   T   T   T
  0.6156780298406583  0.3216205471983763  0.6960235876853572   T   T   T
  0.2938953444087194  0.7474237838015186  0.6965778415667143   T   T   T
  0.5089039599877025  0.6061516475537604  0.7778303235161849   T   T   T
  0.5778603965095150  0.7265303392132803  0.7941405609294817   T   T   T
  0.2848203395281797  0.6634823094722635  0.7643834380499593   T   T   T
  0.5965430521445616  0.2935934431888363  0.7848239435053577   T   T   T
  0.5125492247975053  0.4849381067244327  0.6781138354428263   T   T   T
  0.5600123094094461  0.4882693696282475  0.7625314085010616   T   T   T
  0.4814394392722856  0.2724801005202750  0.7754098835530077   T   T   T
  0.5436352619306817  0.3871507478700543  0.8299019663634037   T   T   T
  0.5494075357114561  0.2169732058718835  0.7099985257752612   T   T   T
  0.2391676507520810  0.4701182406805799  0.7093109974118007   T   T   T
  0.4322279707412401  0.2283509625391534  0.6986629165325410   T   T   T
  0.3673573762954032  0.3010258557545525  0.7568744802083363   T   T   T
  0.4248050431889457  0.3738367916159335  0.8180594906265299   T   T   T
  0.6197948750317657  0.5710984140632783  0.7040635731630118   T   T   T
  0.5960333054599268  0.7849844153447594  0.7128400506685582   T   T   T
  0.6315662357313847  0.5861867617749155  0.7998416097994847   T   T   T
  0.7312000284255642  0.6147831666053304  0.6941232678637909   T   T   T
  0.3913922049262519  0.8186069896666641  0.7064921505875801   T   T   T
  0.4854765535108143  0.7771100100455198  0.7547970042375349   T   T   T
  0.7624617853284941  0.4322628026668786  0.7052793459778837   T   T   T
  0.7197756342161287  0.2591372344007757  0.6901362206635696   T   T   T
  0.7732361141711044  0.1548507869909593  0.7829515232474242   T   T   T
  0.7259023411662324  0.1347655930448332  0.7532153423116150   T   T   T
  0.7413382055283383  0.1231593343002102  0.7199023781946104   T   T   T
  0.7060258816556354  0.0944122545715513  0.7671170941125575   T   T   T
  0.8098773972129377  0.1234993572250048  0.7824221124522813   T   T   T
  0.7477439972329806  0.3115113938356217  0.5479248558072241   T   T   T
  0.5859648801501695  0.8142673808438029  0.5503847246509249   T   T   T
  0.5812025038570581  0.5598918677311976  0.5489651751321357   T   T   T
  0.2525906072009832  0.5591478025095223  0.5438828982582241   T   T   T
  0.4159079316399815  0.3193225977717477  0.5525905225487143   T   T   T
  0.5764785603162532  0.4356967425954799  0.5523076643361280   T   T   T
  0.4165892071807170  0.0652796970865604  0.5472890526462730   T   T   T
  0.0851581345900701  0.8125993197076924  0.5473423945807315   T   T   T
  0.0866813050238097  0.3135297150048156  0.5470830124299431   T   T   T
  0.5005144387344691  0.7565720423873977  0.5925099413173823   T   T   T
  0.0823963660263849  0.0631254478477653  0.5475488680394022   T   T   T
  0.0833333358191695  0.3124999999901945  0.3605200052333331   F   F   F
  0.9168436026388447  0.1887974544530187  0.5453930624863836   T   T   T
  0.5838715799062454  0.9375915288493271  0.5462424933515013   T   T   T
  0.5794372154592607  0.6860994536480043  0.5475252669819266   T   T   T
  0.2515232946104349  0.9372840399166478  0.5452160164713545   T   T   T
  0.4971934886954215  0.5044603637622119  0.6090338323808513   T   T   T
  0.9179003303469336  0.5637781698731936  0.5470989848529823   T   T   T
  0.4197909635052850  0.5649126613644928  0.5553883444758257   T   T   T
  0.9154557159342311  0.8126354927496724  0.5467897434041369   T   T   T
  0.0840993315527121  0.9383847872582669  0.5461146708443930   T   T   T
  0.2489532174685987  0.6833584371309230  0.5518266418236490   T   T   T
  0.7493211839954943  0.9339289964261472  0.5476448437275435   T   T   T
  0.7516714969964370  0.6800903533381149  0.5533836059708904   T   T   T
  0.9156366779354717  0.9384843448766903  0.5463886551710753   T   T   T
  0.4176640479180821  0.0651919660951376  0.6400797475133065   T   T   T
  0.4123750548906193  0.8128557745791786  0.6394009529081921   T   T   T
  0.5824771499365523  0.0616557995295503  0.5453252574014598   T   T   T
  0.9154515114692061  0.4375172423774521  0.5457673801436487   T   T   T
  0.7500931326891622  0.1896847406018636  0.4556067119548524   T   T   T
  0.3340503903803357  0.9998783032456472  0.5919391929870215   T   T   T
  0.5825653800186854  0.9372658789972194  0.4544271503095182   T   T   T
  0.4993989674942983  0.1256510441519658  0.4989863447227001   T   T   T
  0.9996228836298899  0.4987130352831113  0.5941456600903220   T   T   T
  0.5793539469179987  0.1847032331198936  0.5505244345341888   T   T   T
  0.9996664391564137  0.7536938172705595  0.5928184613745616   T   T   T
  0.9140609880811038  0.5627899416589888  0.6408350457550971   T   T   T
  0.9998887650984766  0.9988384023671758  0.5930495111210665   T   T   T
  0.0012075319000167  0.2497621509382971  0.5920508582149107   T   T   T
  0.3330770185678916  0.4961710362527609  0.5911097026170593   T   T   T
  0.3353759332630122  0.7409520744217725  0.5903515371693664   T   T   T
  0.6635047875467964  0.2467895935971711  0.5903169786563961   T   T   T
  0.6661348781933053  0.0010902886845953  0.5918864488892024   T   T   T
  0.6655456638896144  0.7412412842484351  0.5908586908115093   T   T   T
  0.6664930425882275  0.4938307797871324  0.5915527351457114   T   T   T
  0.1674959278219360  0.9983203503393692  0.5922945006068632   T   T   T
  0.1685505217808040  0.2482806594958379  0.5931514605866469   T   T   T
  0.1709330739962548  0.7504361944253033  0.5950918641957660   T   T   T
  0.2482765699982236  0.4358957025139855  0.5491362960481915   T   T   T
  0.1654854611242192  0.5034029056178364  0.5872449172697819   T   T   T
  0.3346447671795167  0.2544684545394356  0.5926017584285882   T   T   T
  0.4997151382713755  0.0001282463679577  0.5911008959611346   T   T   T
  0.8326786881614630  0.8742009523497837  0.4986320617910778   T   T   T
  0.7484270443438655  0.9374258631942924  0.6402192783157642   T   T   T
  0.8323673399951168  0.0016826497168644  0.5920732471516688   T   T   T
  0.7490829888818146  0.1836545481360577  0.5506520434107648   T   T   T
  0.4229262195832771  0.6878318316257825  0.5467450252270158   T   T   T
  0.4230146804309667  0.4436271746894916  0.5459939619921923   T   T   T
  0.7524684246771818  0.4350192706603462  0.5492604023880583   T   T   T
  0.5830522018952387  0.3106387183624907  0.5447759291843079   T   T   T
  0.2532290023541823  0.8125804219130832  0.5506295946134228   T   T   T
  0.9158204551949771  0.1869108431707544  0.4531917057922862   T   T   T
  0.9132300000664543  0.8133867640422631  0.6419403098067379   T   T   T
  0.7550200917337055  0.4341498316067344  0.6384819688670761   T   T   T
  0.2492539471490480  0.3137863421417840  0.5459614950193425   T   T   T
  0.4175430630466652  0.9349534376661490  0.6397375814675605   T   T   T
  0.7466389975954254  0.3123765797373343  0.6404295330877232   T   T   T
  0.7489594617391032  0.0683772626770346  0.6386882558790142   T   T   T
  0.0843752940218080  0.3114065562919146  0.6407476954728882   T   T   T
  0.6664874363363973  0.8743234100664712  0.4987777359846592   T   T   T
  0.0865115712118126  0.5628893990703270  0.6400881066997308   T   T   T
  0.0874344533153089  0.4366865170299674  0.6397275868578098   T   T   T
  0.4173061397944543  0.1874582349860398  0.6399790057825232   T   T   T
  0.4151184179751276  0.4187198048035904  0.6303001945746018   T   T   T
  0.0844866681958365  0.9356554318194608  0.6409975796116296   T   T   T
  0.0833903608653173  0.6871272627272532  0.6388110667866226   T   T   T
  0.0841101479904080  0.0603656999107436  0.6421400818099066   T   T   T
  0.8331701537084405  0.5034058549695906  0.5892897118523415   T   T   T
  0.0837302151457190  0.1854244909915289  0.6412255668932412   T   T   T
  0.2400615229758994  0.4423709907639354  0.6416486549382878   T   T   T
  0.9124792997753388  0.4361482159908091  0.6399831757428802   T   T   T
  0.2520775984456985  0.9303096676658815  0.6373124283388069   T   T   T
  0.9162964804062498  0.6876550250431970  0.6390307689639743   T   T   T
  0.9143673843640677  0.9371410935367126  0.6413962378849479   T   T   T
  0.3971689087268268  0.5506416404511885  0.6520161044312075   T   T   T
  0.2544312293210316  0.6785768628512896  0.6626294481979307   T   T   T
  0.2536067049067857  0.1864796583904488  0.6412736248230861   T   T   T
  0.5789964621366165  0.1930533501037720  0.6459212382506929   T   T   T
  0.5821380731079661  0.9361612140616445  0.6393468264806561   T   T   T
  0.9166666865332829  0.8124999999834799  0.3605200052333331   F   F   F
  0.7463631763016066  0.1950295202687162  0.6461726670231560   T   T   T
  0.8319762051170396  0.2493443404733149  0.5905866892046002   T   T   T
  0.8303195228895945  0.7507486832663297  0.5927144493029092   T   T   T
  0.0846365626521862  0.8126578934663140  0.6424565238511112   T   T   T
  0.7524653585007246  0.5687802891538798  0.6357387963454491   T   T   T
  0.5827916157175366  0.0668683183333788  0.6387872279489460   T   T   T
  0.7411262340355570  0.8098850996790904  0.6399374515050593   T   T   T
  0.8328818996773286  0.1245390772458859  0.4998312154446064   T   T   T
  0.5906448670700327  0.5661303810108093  0.6386254535389501   T   T   T
  0.2476135748414798  0.5740614490681298  0.6287455022051950   T   T   T
  0.7535665024906700  0.6920631097486730  0.6574757749527773   T   T   T
  0.2627234431530242  0.8006435892989757  0.6460179879193225   T   T   T
  0.2510126926995935  0.0594342925281741  0.6423077047240103   T   T   T
  0.9166666865332829  0.5625000000092442  0.3605200052333331   F   F   F
  0.4994459891930070  0.3740210113053416  0.5003711778666348   T   T   T
  0.5002840373066869  0.6210439181981131  0.5001261719080332   T   T   T
  0.8323590448633356  0.6230574935344990  0.5001569262178566   T   T   T
  0.2519991425073303  0.1882719025369913  0.5471826894645931   T   T   T
  0.8325469698476448  0.3730985676521719  0.4995985050226588   T   T   T
  0.9152221325859389  0.3118778874383022  0.6397599942250410   T   T   T
  0.1667373870315705  0.3762089632888689  0.4976992561706031   T   T   T
  0.5801451624872602  0.4393864834403509  0.6469904629116606   T   T   T
  0.5768763950086374  0.6864417082816912  0.6398037820604797   T   T   T
  0.9161111791706277  0.1862378573964139  0.6396838138702486   T   T   T
  0.2491904580995705  0.3164539870635851  0.6412903635144139   T   T   T
  0.1677674859103506  0.8732556872972139  0.4998869261417115   T   T   T
  0.9159038310186142  0.4369579435389530  0.4535961739614577   T   T   T
  0.1670922550345696  0.1244143610181895  0.4993491747453980   T   T   T
  0.7485053292277000  0.0598435823757586  0.5444002687849581   T   T   T
  0.4255914818773006  0.3052063395980620  0.6567432566534251   T   T   T
  0.5906442344358780  0.8106123929311392  0.6459172200181305   T   T   T
  0.4203852365897747  0.6762140121796204  0.6337323251057688   T   T   T
  0.0835941887107993  0.1888594042573993  0.5456162167236440   T   T   T
  0.4983311348800880  0.2539609785508360  0.5917545496680319   T   T   T
  0.9158650472566197  0.0626566401820882  0.6411807474697485   T   T   T
  0.1675465161422146  0.6242797159909903  0.5002410461683614   T   T   T
  0.4999994093350135  0.8731768106644908  0.5008791941802674   T   T   T
  0.4165121270123995  0.1911448415565128  0.5468549287702832   T   T   T
  0.0829236543272999  0.4389476081231355  0.5448208640692048   T   T   T
  0.9143063178412230  0.6887558104362671  0.5456695875491921   T   T   T
  0.5850652730609247  0.3217317681535274  0.6325591783772537   T   T   T
  0.9166666865332829  0.6874999999963620  0.3605200052333331   F   F   F
  0.9166666865332829  0.4374999701794380  0.3605200052333331   F   F   F
  0.9166666865332829  0.1875000000030838  0.3605200052333331   F   F   F
  0.5833333134730552  0.9375000000154046  0.3605200052333331   F   F   F
  0.0809455325362251  0.5645307170373488  0.5464352085420365   T   T   T
  0.5833333134730552  0.4374999701794380  0.3605200052333331   F   F   F
  0.5833333134730552  0.1875000000030838  0.3605200052333331   F   F   F
  0.2499999999799343  0.9375000000154046  0.3605200052333331   F   F   F
  0.9166666865332829  0.9375000000154046  0.3605200052333331   F   F   F
  0.2499999999799343  0.6874999999963620  0.3605200052333331   F   F   F
  0.2499999999799343  0.1875000000030838  0.3605200052333331   F   F   F
  0.7499999404149307  0.9375000000154046  0.3605200052333331   F   F   F
  0.7499999404149307  0.6874999999963620  0.3605200052333331   F   F   F
  0.4174185300898172  0.9357825164205898  0.4539082178113694   T   T   T
  0.5833290747258288  0.0639133063678226  0.4537430055169125   T   T   T
  0.7499999404149307  0.4374999701794380  0.3605200052333331   F   F   F
  0.4166666269218169  0.6874999999963620  0.3605200052333331   F   F   F
  0.4166666269218169  0.4374999701794380  0.3605200052333331   F   F   F
  0.2499999999799343  0.4374999701794380  0.3605200052333331   F   F   F
  0.0833333358191695  0.0625000000159659  0.3605200052333331   F   F   F
  0.9153004373133149  0.6868637499746724  0.4533265007140970   T   T   T
  0.6653913631839719  0.3790301827050390  0.5031367203464646   T   T   T
  0.3343543409557337  0.3784790958308265  0.5030082076058719   T   T   T
  0.3355764895083066  0.6257898166693605  0.5037396114758491   T   T   T
  0.9174642512351143  0.0634175056841430  0.5473975577922889   T   T   T
  0.7494961281462322  0.9384298465757320  0.4553544609905320   T   T   T
  0.2499915104112989  0.9360774681066737  0.4539860877913772   T   T   T
  0.2501018263885788  0.1884785292832689  0.4541038415817086   T   T   T
  0.7490751906134115  0.6886559243889393  0.4574617251832666   T   T   T
  0.7499999404149307  0.1875000000030838  0.3605200052333331   F   F   F
  0.4166666269218169  0.9375000000154046  0.3605200052333331   F   F   F
  0.5833333134730552  0.0625000000159659  0.3605200052333331   F   F   F
  0.2505317291141496  0.0620399416375455  0.4542541481477391   T   T   T
  0.4159808548566269  0.9370003645277991  0.5460375896764801   T   T   T
  0.0843755851754655  0.6869593202971339  0.4531662558663845   T   T   T
  0.2520810287584250  0.6875660742803631  0.4560018367948205   T   T   T
  0.0840677440396641  0.9368577803605176  0.4536845068091314   T   T   T
  0.0827910887056488  0.4368078244674014  0.4528159137725714   T   T   T
  0.0856825117196617  0.6893272033285125  0.5454303149563753   T   T   T
  0.0838560119345151  0.1865681136732665  0.4529806389283899   T   T   T
  0.9165940581553008  0.8121396273757427  0.4540646259667928   T   T   T
  0.7463990314325114  0.5576953843673458  0.5446672952283613   T   T   T
  0.9161014056337901  0.5622239049248471  0.4540590875540214   T   T   T
  0.9161158667464426  0.0622463257373130  0.4540667161178694   T   T   T
  0.9162353570130282  0.3121994294124575  0.4538097769532112   T   T   T
  0.4169291983228089  0.4355387901651264  0.4540591884060324   T   T   T
  0.5822734240415071  0.4395821408162246  0.4564249854162514   T   T   T
  0.5830091789560352  0.1904210499496619  0.4556857119554935   T   T   T
  0.5833333134730552  0.6874999999963620  0.3605200052333331   F   F   F
  0.9164682472075667  0.9371206216504645  0.4536636873407171   T   T   T
  0.0000917217224079  0.3737285549117916  0.4981962720091428   T   T   T
  0.9996848541308562  0.6271623007960159  0.4976382539059312   T   T   T
  0.3337283775499717  0.1257489164508242  0.4987557538652388   T   T   T
  0.0000897084634207  0.8751697577740947  0.4995977705078175   T   T   T
  0.3334973860884658  0.8741598759071877  0.4991074443795899   T   T   T
  0.6658667249884954  0.1263181850362116  0.4998773081348570   T   T   T
  0.2511657859350499  0.4392779687100248  0.4549213042710929   T   T   T
  0.0833333358191695  0.5625000000092442  0.3605200052333331   F   F   F
  0.9166666865332829  0.0625000000159659  0.3605200052333331   F   F   F
  0.7494148333034925  0.8131790635675514  0.4530457909307506   T   T   T
  0.7496598376683002  0.4384191788336238  0.4557928899348279   T   T   T
  0.9157756016619344  0.3126213529241869  0.5465399173301634   T   T   T
  0.4171654660511738  0.6847546303288047  0.4547379588891000   T   T   T
  0.0001367105040154  0.1250729918787475  0.4983427490844315   T   T   T
  0.5832748702131431  0.8104945378748681  0.4553352073507838   T   T   T
  0.4166062942111208  0.8099818668819024  0.4550540399921781   T   T   T
  0.7744531065797979  0.1993848279685981  0.8063978024163319   T   T   T
  0.2499999999799343  0.8124999999834799  0.3605200052333331   F   F   F
  0.0000000000000000  0.2500000000190425  0.4070133268666680   F   F   F
  0.0000000000000000  0.4999999999932783  0.4070133268666680   F   F   F
  0.7482004257471113  0.5642740014606167  0.4537942617279934   T   T   T
  0.3333333432766779  0.0000000000000000  0.4070133268666680   F   F   F
  0.3333333432766779  0.4999999999932783  0.4070133268666680   F   F   F
  0.3333333432766779  0.7500000000123208  0.4070133268666680   F   F   F
  0.6666666865533486  0.0000000000000000  0.4070133268666680   F   F   F
  0.6666666865533486  0.2500000000190425  0.4070133268666680   F   F   F
  0.6666666865533486  0.4999999999932783  0.4070133268666680   F   F   F
  0.8333332538436267  0.2500000000190425  0.4070133268666680   F   F   F
  0.1666666716383389  0.0000000000000000  0.4070133268666680   F   F   F
  0.5843082116743474  0.3155301913643745  0.4536263564386688   T   T   T
  0.1666666716383389  0.4999999999932783  0.4070133268666680   F   F   F
  0.5000000000021103  0.2500000000190425  0.4070133268666680   F   F   F
  0.0000000000000000  0.0000000000000000  0.4070133268666680   F   F   F
  0.5000000000021103  0.7500000000123208  0.4070133268666680   F   F   F
  0.3333333432766779  0.2500000000190425  0.4070133268666680   F   F   F
  0.7473209679148277  0.3141404672594503  0.4547351450069034   T   T   T
  0.0000000000000000  0.7500000000123208  0.4070133268666680   F   F   F
  0.5844907118695249  0.5628016002400380  0.4548704813128733   T   T   T
  0.7493000999568948  0.0642515477276665  0.4533346823145347   T   T   T
  0.8333332538436267  0.0000000000000000  0.4070133268666680   F   F   F
  0.5827440543085257  0.6861137143173378  0.4546461800064449   T   T   T
  0.2517908699988911  0.5645927094745875  0.4537773973362401   T   T   T
  0.4168904597800704  0.1872682139447301  0.4537046685801815   T   T   T
  0.6653345788312424  0.6259892508584263  0.5029971810916938   T   T   T
  0.1666666716383389  0.7500000000123208  0.4070133268666680   F   F   F
  0.2505041685838978  0.8108135620852590  0.4553240351108190   T   T   T
  0.1666666716383389  0.2500000000190425  0.4070133268666680   F   F   F
  0.7478415406460839  0.8078367534428217  0.5455562128100373   T   T   T
  0.9166666865332829  0.3124999999901945  0.3605200052333331   F   F   F
  0.0833333358191695  0.1875000000030838  0.3605200052333331   F   F   F
  0.5000000000021103  0.0000000000000000  0.4070133268666680   F   F   F
  0.6666666865533486  0.7500000000123208  0.4070133268666680   F   F   F
  0.4141076706353723  0.8116500607671588  0.5476600977979053   T   T   T
  0.4166666269218169  0.5625000000092442  0.3605200052333331   F   F   F
  0.0834562428060924  0.8121705999391876  0.4541723736403597   T   T   T
  0.4168106282468934  0.0615320788516941  0.4553345130484981   T   T   T
  0.0835032447951740  0.3119546549544625  0.4540302881932717   T   T   T
  0.7499999404149307  0.8124999999834799  0.3605200052333331   F   F   F
  0.5833333134730552  0.3124999999901945  0.3605200052333331   F   F   F
  0.4166666269218169  0.3124999999901945  0.3605200052333331   F   F   F
  0.7499999404149307  0.0625000000159659  0.3605200052333331   F   F   F
  0.7499999404149307  0.3124999999901945  0.3605200052333331   F   F   F
  0.7499999404149307  0.5625000000092442  0.3605200052333331   F   F   F
  0.5000000000021103  0.4999999999932783  0.4070133268666680   F   F   F
  0.2499999999799343  0.3124999999901945  0.3605200052333331   F   F   F
  0.2499999999799343  0.0625000000159659  0.3605200052333331   F   F   F
  0.4166666269218169  0.8124999999834799  0.3605200052333331   F   F   F
  0.0839696378234019  0.5625059701580216  0.4539860867545686   T   T   T
  0.4166666269218169  0.0625000000159659  0.3605200052333331   F   F   F
  0.5833333134730552  0.5625000000092442  0.3605200052333331   F   F   F
  0.2499999999799343  0.5625000000092442  0.3605200052333331   F   F   F
  0.2511061996810329  0.0626020723857144  0.5472392474785235   T   T   T
  0.2522693632293883  0.3141284477082348  0.4541713020067808   T   T   T
  0.0833333358191695  0.6874999999963620  0.3605200052333331   F   F   F
  0.5833333134730552  0.8124999999834799  0.3605200052333331   F   F   F
  0.0837610486387544  0.0618900776663785  0.4541783371562942   T   T   T
  0.4155569897728646  0.3114209185127002  0.4573644419433045   T   T   T
  0.4160510162161293  0.5595224729382544  0.4578659664647283   T   T   T
  0.0833333358191695  0.4374999701794380  0.3605200052333331   F   F   F
  0.0833333358191695  0.8124999999834799  0.3605200052333331   F   F   F
  0.0833333358191695  0.9375000000154046  0.3605200052333331   F   F   F
  0.4166666269218169  0.1875000000030838  0.3605200052333331   F   F   F
  0.8333332538436267  0.4999999999932783  0.4070133268666680   F   F   F
  0.8333332538436267  0.7500000000123208  0.4070133268666680   F   F   F
  0.3315617428644074  0.1197791385216564  0.6127518324255381   T   T   T
  0.1666666716383389  0.6249999999803961  0.4070133268666680   F   F   F
  0.9997931133899814  0.6236004742354930  0.6243239598073845   T   T   T
  0.8360580268478700  0.5000597154143740  0.5030085778124745   T   T   T
  0.1666666716383389  0.8749999404036828  0.4070133268666680   F   F   F
  0.5000000000021103  0.1249999999871179  0.4070133268666680   F   F   F
  0.5000000000021103  0.6249999999803961  0.4070133268666680   F   F   F
  0.8377716897976802  0.3727582421522763  0.6039367205338584   T   T   T
  0.8317895575275234  0.8767191887330985  0.6180347281295575   T   T   T
  0.5000000000021103  0.8749999404036828  0.4070133268666680   F   F   F
  0.8393299938505657  0.6270399828349792  0.6043358641674479   T   T   T
  0.5003628459540403  0.1226400730124033  0.6071028396382354   T   T   T
  0.8360304927413514  0.7515919719055640  0.5026397153203812   T   T   T
  0.1666666716383389  0.1249999999871179  0.4070133268666680   F   F   F
  0.8349384620659841  0.1240548148228810  0.6134277593572817   T   T   T
  0.5035684866576626  0.6249741600929624  0.5941192455815775   T   T   T
  0.6656550940389062  0.1247207940096078  0.6101806234991454   T   T   T
  0.5017155958990358  0.3714276983565758  0.5950422229673583   T   T   T
  0.0003670021745190  0.3751937107317117  0.6252406198210307   T   T   T
  0.6663442453389069  0.6260473566505023  0.5932786031062947   T   T   T
  0.6653440157537068  0.8814616780762556  0.6072996143811931   T   T   T
  0.1633881032731245  0.3713073357799202  0.6074478476472837   T   T   T
  0.0000000000000000  0.3750000000061604  0.4070133268666680   F   F   F
  0.1678242875047916  0.1227721122610254  0.6220745437277191   T   T   T
  0.6712845386095851  0.3727893642290327  0.5932166095253828   T   T   T
  0.1663419822031023  0.8737790960738582  0.6176354388421935   T   T   T
  0.3346364642780638  0.8788535902302442  0.6026179163719688   T   T   T
  0.3340524720067281  0.6246803556264453  0.5950617210907191   T   T   T
  0.6666666865533486  0.8749999404036828  0.4070133268666680   F   F   F
  0.5000000000021103  0.3750000000061604  0.4070133268666680   F   F   F
  0.1596007881708124  0.6274743212637229  0.6013168219141397   T   T   T
  0.8333332538436267  0.1249999999871179  0.4070133268666680   F   F   F
  0.1635502554980284  0.4998883631782378  0.5019833826497275   T   T   T
  0.9990812519419625  0.8748533724028341  0.6239422012006332   T   T   T
  0.9998548498381803  0.7510950645194185  0.5067579039104659   T   T   T
  0.0000000000000000  0.8749999404036828  0.4070133268666680   F   F   F
  0.5010729246404774  0.7528023347547735  0.5038465040044998   T   T   T
  0.3311571428312491  0.4991996957393495  0.5009491050927722   T   T   T
  0.6684454285965902  0.4998693589751055  0.5006885751077603   T   T   T
  0.1644289834332679  0.7514210892986340  0.5034458057419039   T   T   T
  0.6659428113114788  0.9999673928462595  0.5055784662819228   T   T   T
  0.3338566825782889  0.7511060458584031  0.5014904874817787   T   T   T
  0.3302594725087002  0.2480618812469763  0.5028798490402111   T   T   T
  0.0007186273593748  0.1228069066387138  0.6198401822137374   T   T   T
  0.6666666865533486  0.3750000000061604  0.4070133268666680   F   F   F
  0.8333332538436267  0.3750000000061604  0.4070133268666680   F   F   F
  0.8359889706345613  0.2486726123288427  0.5025017492335222   T   T   T
  0.6670204806185975  0.2480543746048769  0.5025246414708436   T   T   T
  0.3261143439209201  0.3733407315542519  0.5927379937749228   T   T   T
  0.1666666716383389  0.3750000000061604  0.4070133268666680   F   F   F
  0.6652979574899713  0.7518039787958262  0.5022204406590882   T   T   T
  0.5011599924587908  0.4997166451926481  0.5002632618237113   T   T   T
  0.8333332538436267  0.6249999999803961  0.4070133268666680   F   F   F
  0.5012001436498656  0.2479658406340793  0.5022230659983941   T   T   T
  0.3333333432766779  0.1249999999871179  0.4070133268666680   F   F   F
  0.1660181496867528  0.0011758484272978  0.5065331137815690   T   T   T
  0.3331322144995604  0.0011168550193065  0.5057299972399297   T   T   T
  0.5009021728578478  0.8769671563106068  0.6095375410023496   T   T   T
  0.0000000000000000  0.1249999999871179  0.4070133268666680   F   F   F
  0.5002233189157058  0.9991560781844472  0.5055225818885535   T   T   T
  0.1664230017888084  0.2482008787255338  0.5062505989637268   T   T   T
  0.0000000000000000  0.6249999999803961  0.4070133268666680   F   F   F
  0.9996253707780969  0.5000436108819838  0.5067620520363515   T   T   T
  0.8343280967407026  0.0000989870610816  0.5062826419979684   T   T   T
  0.6666666865533486  0.1249999999871179  0.4070133268666680   F   F   F
  0.0001290514822961  0.9999115081839262  0.5066929336514974   T   T   T
  0.6666666865533486  0.6249999999803961  0.4070133268666680   F   F   F
  0.0010162347053307  0.2498870392838109  0.5060076552157097   T   T   T
  0.3333333432766779  0.6249999999803961  0.4070133268666680   F   F   F
  0.3333333432766779  0.8749999404036828  0.4070133268666680   F   F   F
  0.3333333432766779  0.3750000000061604  0.4070133268666680   F   F   F
  0.8333332538436267  0.8749999404036828  0.4070133268666680   F   F   F
  0.4166020331080744  0.8767839426094892  0.5038736230600271   T   T   T
  0.2491971581743692  0.8787202347162012  0.5024039855415523   T   T   T
  0.9188493430861268  0.3745039333351620  0.5059115413884365   T   T   T
  0.0833333358191695  0.2500000000190425  0.4070133268666680   F   F   F
  0.7517990199599438  0.7525360359025465  0.5905192821788423   T   T   T
  0.2499999999799343  0.2500000000190425  0.4070133268666680   F   F   F
  0.0833333358191695  0.4999999999932783  0.4070133268666680   F   F   F
  0.0833333358191695  0.0000000000000000  0.4070133268666680   F   F   F
  0.9166666865332829  0.7500000000123208  0.4070133268666680   F   F   F
  0.9183020484654509  0.4999577709990612  0.6038649681205166   T   T   T
  0.5831594746890360  0.1234151777736815  0.5046017605792134   T   T   T
  0.7522924447080459  0.6244810328536461  0.5024824072597940   T   T   T
  0.0833333358191695  0.7500000000123208  0.4070133268666680   F   F   F