 C  H 
 1.0000000000000000
    23.6707801818999997    0.0000000000000000    0.0000000000000000
     0.0000000000000000   22.3170261383000010    0.0000000000000000
     0.0000000000000000    0.0000000000000000   30.0000000000000000
 C   H  
   3   8
Cartesian
 11.8353900909499998 11.1585130691500005 15.4175620000000002
 11.8353900909499998 12.4253700691500004 14.5696600000000007
 11.8353900909499998  9.8916560691500006 14.5696600000000007
 10.9584920909499992 11.1585130691500005 16.0745590000000007
 12.7122880909500005 11.1585130691500005 16.0745590000000007
 11.8353900909499998 13.3246630691500005 15.1919120000000003
 11.8353900909499998  8.9923630691500005 15.1919120000000003
 12.7190090909499993 12.4627470691499997 13.9254409999999993
 10.9517710909500003 12.4627470691499997 13.9254409999999993
 10.9517710909500003  9.8542790691500013 13.9254409999999993
 12.7190090909499993  9.8542790691500013 13.9254409999999993
