 C  H                                   
   1.00000000000000     
    23.6707801818999997    0.0000000000000000    0.0000000000000000
     0.0000000000000000   22.3170261383000010    0.0000000000000000
     0.0000000000000000    0.0000000000000000   30.0000000000000000
   C    H 
     3     8
Direct
  0.5000000000000000  0.5000000000000000  0.5139938071221266
  0.5000000000000000  0.5569461870159245  0.4856245114357165
  0.5000000000000000  0.4430538129840755  0.4856245114357165
  0.4629155778684648  0.5000000000000000  0.5358864675541639
  0.5370844221315352  0.5000000000000000  0.5358864675541639
  0.5000000000000000  0.5971639927375492  0.5063776915872467
  0.5000000000000000  0.4028360072624508  0.5063776915872467
  0.5373156140672535  0.5585179479330549  0.4641537795975736
  0.4626843859327465  0.5585179479330549  0.4641537795975736
  0.4626843859327465  0.4414820520669451  0.4641537795975736
  0.5373156140672535  0.4414820520669451  0.4636537795975735
 
  0.00000000E+00  0.00000000E+00  0.00000000E+00
  0.00000000E+00  0.00000000E+00  0.00000000E+00
  0.00000000E+00  0.00000000E+00  0.00000000E+00
  0.00000000E+00  0.00000000E+00  0.00000000E+00
  0.00000000E+00  0.00000000E+00  0.00000000E+00
  0.00000000E+00  0.00000000E+00  0.00000000E+00
  0.00000000E+00  0.00000000E+00  0.00000000E+00
  0.00000000E+00  0.00000000E+00  0.00000000E+00
  0.00000000E+00  0.00000000E+00  0.00000000E+00
  0.00000000E+00  0.00000000E+00  0.00000000E+00
  0.00000000E+00  0.00000000E+00  0.00000000E+00
