Au C  H  O  Sr Ti                       
   1.00000000000000     
    23.6707801818999997    0.0000000000000000    0.0000000000000000
     0.0000000000000000   27.8962826732999716    0.0000000000000000
     0.0000000000000000    0.0000000000000000   30.0000000000000000
   Au   C    H    O    Sr   Ti
    50     5    11   330    90    90
Selective dynamics
Direct
  0.7121511611170632  0.6255452202837830  0.7547939642755068   F   F   F
  0.2941533079462317  0.7977013186335142  0.6966037719558145   F   F   F
  0.5081075949588012  0.6854754878498710  0.7784181058826221   F   F   F
  0.5775302354094265  0.7790084946713733  0.7943479990639375   F   F   F
  0.2403764460806954  0.5752705472910122  0.7092355619983195   F   F   F
  0.6017753808901176  0.4271269087073506  0.7845696399889590   F   F   F
  0.5137280275025233  0.5881242725709441  0.6782535814645669   F   F   F
  0.5669784654481802  0.6116218378025948  0.8586129943716827   F   F   F
  0.4856637844397014  0.4167397830443562  0.7743190158073929   F   F   F
  0.6190272855293344  0.4563640123711181  0.6976920397921589   F   F   F
  0.4609625580237946  0.7584588859581771  0.8328310762452062   F   F   F
  0.5523372108716700  0.5084697988778188  0.8271264604112005   F   F   F
  0.5619846551696739  0.5918723382874020  0.7632933996857574   F   F   F
  0.5539801572704164  0.3712208530058305  0.7095164978270745   F   F   F
  0.7375586600906985  0.3973680298788054  0.6939948128212663   T   T   T
  0.7609849190637306  0.5514419517337075  0.7043742276551015   F   F   F
  0.4858273148186569  0.8208899100429008  0.7552614903713533   F   F   F
  0.6203366249604301  0.6580024056426979  0.7037246255722494   F   F   F
  0.6295527862773866  0.6724573520905253  0.8010882598615225   F   F   F
  0.4302040555812923  0.4967606965596119  0.8152431207441850   F   F   F
  0.3490806907418857  0.6000188205812478  0.6979815336484023   F   F   F
  0.3699093189306453  0.4391509869916419  0.7557500612363199   F   F   F
  0.7323965507707371  0.6934761351677494  0.6932316287869611   F   F   F
  0.4367240298024839  0.3813573681736244  0.6981755236019467   F   F   F
  0.5199178007704361  0.5032122843276241  0.7331190423616292   F   F   F
  0.2856513584087423  0.7298189608119756  0.7642755871281111   F   F   F
  0.2571412215376867  0.6744618223714269  0.6945767368073064   F   F   F
  0.6639451777659460  0.3465786865471188  0.7416463399400186   T   T   T
  0.4716197614432858  0.5597762357144234  0.8774960230010933   F   F   F
  0.2821573635391914  0.4716221620970629  0.7023877305329620   F   F   F
  0.6699051723306795  0.7463958985296202  0.7487279060239160   F   F   F
  0.3978639489930060  0.5058177709902338  0.6907241830866582   F   F   F
  0.3920974341329213  0.8544015944905112  0.7065129989517587   F   F   F
  0.3750304602042007  0.5939480303531965  0.8332164103810555   F   F   F
  0.2892555452278245  0.6301992579489166  0.7778181658603671   F   F   F
  0.3678679574320682  0.6951980084840059  0.8201682521609328   F   F   F
  0.5965424882763699  0.8274135475900906  0.7133981030404257   F   F   F
  0.7750772434420128  0.5532271727720399  0.7944892181426511   F   F   F
  0.4513362155814917  0.6641962318253221  0.7036690826912135   F   F   F
  0.6456948523430270  0.5567952904636968  0.6955886090315317   F   F   F
  0.5604824080554280  0.7145374474787403  0.8646691029488736   F   F   F
  0.5395074946460525  0.7348916284161646  0.7024256473875781   F   F   F
  0.4435842491188211  0.5786913100426290  0.7565879730440273   F   F   F
  0.3736888159328231  0.7930806243295194  0.7790260505954834   F   F   F
  0.4602214927530071  0.6589937210632186  0.8653779970531161   F   F   F
  0.6557090512131083  0.5626123949107296  0.8171154806258372   F   F   F
  0.7071070806938806  0.8059796743368679  0.6877689899784727   F   F   F
  0.4158130376818860  0.7571430421910250  0.6998472634347408   F   F   F
  0.3252805345056657  0.5317506489325936  0.7693658924357223   F   F   F
  0.6944787614950059  0.4866008236489492  0.7640241386254445   T   T   T
  0.6516605175897894  0.2495794539092273  0.8052891193776972   T   T   T
  0.6145443777313986  0.2057730138969731  0.8139572882664368   T   T   T
  0.6845152134640955  0.2460592499784582  0.7613418795587421   T   T   T
  0.7561295475727405  0.4336606488156747  0.7504797354028341   T   T   T
  0.7209507220965676  0.2890159361885409  0.7506401448449651   T   T   T
  0.6249321296001114  0.2818796817855045  0.8047124430573973   T   T   T
  0.6815275387323325  0.2548099016238012  0.8328304240215516   T   T   T
  0.7136967769493481  0.2152126499512690  0.7628630776984764   T   T   T
  0.7485507011644970  0.3004709157141789  0.7778246402795475   T   T   T
  0.5834629027492966  0.2013581714763930  0.7873228844229345   T   T   T
  0.6399614116064853  0.1730711308637325  0.8153755119532278   T   T   T
  0.6560035074193848  0.2380682047718921  0.7334966591438103   T   T   T
  0.5918267361685210  0.2091230058457114  0.8454967613158146   T   T   T
  0.7437797482949549  0.2857614097343699  0.7192344188911903   T   T   T
  0.7549952436121572  0.4116528401648196  0.7805852281737629   T   T   T
  0.7960274291587980  0.4529951291177881  0.7466665628842956   T   T   T
  0.5858229840756835  0.8518440589121923  0.5507838812238930   F   F   F
  0.6666666865533486  0.4000000000243773  0.4070133268666680   F   F   F
  0.9177888411841693  0.6510007929696613  0.5470143303829218   F   F   F
  0.3333333432766779  0.8000000000129006  0.4070133268666680   F   F   F
  0.3337702519499857  0.3009832039800955  0.4988122321690724   F   F   F
  0.9998010756497351  0.7020166165166160  0.4972306651407195   F   F   F
  0.9160992519755879  0.6497749571841638  0.4542300904782550   F   F   F
  0.5833333134730552  0.9500000000130839  0.3605200052333331   F   F   F
  0.9164138394153554  0.9496421401774882  0.4537414861091662   F   F   F
  0.7499999404149307  0.4500000000005357  0.3605200052333331   F   F   F
  0.4166666269218169  0.8499999999890662  0.3605200052333331   F   F   F
  0.4166666269218169  0.4500000000005357  0.3605200052333331   F   F   F
  0.4166666269218169  0.6500000000127244  0.3605200052333331   F   F   F
  0.5000000000021103  0.8000000000129006  0.4070133268666680   F   F   F
  0.0000000000000000  0.2000000000121887  0.4070133268666680   F   F   F
  0.5833689161518265  0.0504153756822703  0.6415770008372661   F   F   F
  0.7473094479319045  0.8468204061962723  0.5457376631913746   F   F   F
  0.5844344371922503  0.6499179767272096  0.4548866317512150   F   F   F
  0.5000000000021103  0.6000000000007191  0.4070133268666680   F   F   F
  0.0833333358191695  0.3500000000123720  0.3605200052333331   F   F   F
  0.6666666865533486  0.8000000000129006  0.4070133268666680   F   F   F
  0.2499999999799343  0.1500000000001833  0.3605200052333331   F   F   F
  0.9166666865332829  0.1500000000001833  0.3605200052333331   F   F   F
  0.5835047842892180  0.0495822790002123  0.4541759091679083   F   F   F
  0.2501552078992262  0.0491187609725898  0.4542173544637009   F   F   F
  0.7499548791790644  0.0499769623951565  0.4536717496214848   F   F   F
  0.4164506809883193  0.0490604310479554  0.4543586279779532   F   F   F
  0.0832980161642070  0.0497201387444051  0.4539194366559158   F   F   F
  0.8333332538436267  0.0000000000000000  0.4070133268666680   F   F   F
  0.4999335581490101  0.1000789670661320  0.4987579501111483   F   F   F
  0.9995430568711186  0.5990503226808244  0.5941832959842515   F   F   F
  0.0836545297421907  0.1505795738478710  0.5463181887792956   F   F   F
  0.7499999404149307  0.2500000000242011  0.3605200052333331   F   F   F
  0.2499999999799343  0.2500000000242011  0.3605200052333331   F   F   F
  0.1666666716383389  0.2000000000121887  0.4070133268666680   F   F   F
  0.7499999404149307  0.6500000000127244  0.3605200052333331   F   F   F
  0.5833333134730552  0.6500000000127244  0.3605200052333331   F   F   F
  0.5000000000021103  0.4000000000243773  0.4070133268666680   F   F   F
  0.9166666865332829  0.4500000000005357  0.3605200052333331   F   F   F
  0.1666666716383389  0.4000000000243773  0.4070133268666680   F   F   F
  0.5844001580291689  0.4524874353728876  0.4538408516604804   F   F   F
  0.3333333432766779  0.4000000000243773  0.4070133268666680   F   F   F
  0.6661728797422342  0.3016318273298566  0.4997360636563997   F   F   F
  0.5833333134730552  0.4500000000005357  0.3605200052333331   F   F   F
  0.0000000000000000  0.0000000000000000  0.4070133268666680   F   F   F
  0.4166666269218169  0.2500000000242011  0.3605200052333331   F   F   F
  0.0837561613194424  0.0498367785260356  0.5465652597572586   F   F   F
  0.9163307772017788  0.1506966438285176  0.5463342410605776   F   F   F
  0.5828480281509840  0.1498378009114347  0.5475011352673818   F   F   F
  0.0833333358191695  0.6500000000127244  0.3605200052333331   F   F   F
  0.2501218853618070  0.1503084823798204  0.5464955316212823   F   F   F
  0.5829146469533626  0.8475927135983596  0.4557054400646621   F   F   F
  0.2524538148558122  0.6470982474398639  0.5440434234952392   F   F   F
  0.4994760428347575  0.4027611053772304  0.5914674759966161   F   F   F
  0.2499999999799343  0.6500000000127244  0.3605200052333331   F   F   F
  0.9161778293645071  0.2497840121126558  0.4541799719533870   F   F   F
  0.0002575600421082  0.2996813467158361  0.4984880430823608   F   F   F
  0.7466356981371760  0.6468825806893719  0.5451339102696338   F   F   F
  0.7497651715438138  0.1497977232738208  0.5469304342909851   F   F   F
  0.9166666865332829  0.2500000000242011  0.3605200052333331   F   F   F
  0.7499475779840026  0.8499294871224379  0.4536872396543998   F   F   F
  0.7490095745771299  0.5502727198512716  0.4555912738694587   F   F   F
  0.0833333358191695  0.4500000000005357  0.3605200052333331   F   F   F
  0.8333332538436267  0.4000000000243773  0.4070133268666680   F   F   F
  0.4170680361063575  0.2504938353487773  0.4550371014954990   F   F   F
  0.5000000000021103  0.2000000000121887  0.4070133268666680   F   F   F
  0.6666666865533486  0.6000000000007191  0.4070133268666680   F   F   F
  0.0839825996287402  0.6499096515092404  0.4542419877972392   F   F   F
  0.0838129071326819  0.8495932481166761  0.4541685334841361   F   F   F
  0.0835021840572026  0.4496140948924818  0.4541051226047514   F   F   F
  0.7499999404149307  0.8499999999890662  0.3605200052333331   F   F   F
  0.9151638311093038  0.4499149762862871  0.5467119265888059   F   F   F
  0.4168961661992867  0.3504530509184391  0.4541714105133536   F   F   F
  0.4166435882852539  0.1510787256085209  0.5463129139841669   F   F   F
  0.8333332538436267  0.2000000000121887  0.4070133268666680   F   F   F
  0.9999441571193657  0.4992420063746295  0.4983467095211722   F   F   F
  0.2519752360744221  0.6519040541586705  0.4537693583344620   F   F   F
  0.5828564370583109  0.3530351973114350  0.4561520998775350   F   F   F
  0.2501548546791383  0.2503116910326924  0.4543915463451569   F   F   F
  0.2519024442887385  0.4517930643310564  0.4538026765892269   F   F   F
  0.7499999404149307  0.1500000000001833  0.3605200052333331   F   F   F
  0.5833333134730552  0.8499999999890662  0.3605200052333331   F   F   F
  0.2505358429015487  0.8483853349838739  0.4554672530202737   F   F   F
  0.4166666269218169  0.1500000000001833  0.3605200052333331   F   F   F
  0.0833333358191695  0.1500000000001833  0.3605200052333331   F   F   F
  0.0833333358191695  0.7500000000008953  0.3605200052333331   F   F   F
  0.7497712214522281  0.0501832151523729  0.6408614529165817   F   F   F
  0.2514429025570948  0.2507957974048765  0.5475610124516521   F   F   F
  0.0833333358191695  0.8499999999890662  0.3605200052333331   F   F   F
  0.4171171417340673  0.0494921751448913  0.6423029902272646   F   F   F
  0.9166044098385910  0.0497394701972524  0.4538824054655350   F   F   F
  0.9159589137618767  0.0499733562187714  0.6402695110339067   F   F   F
  0.0833328435807772  0.1486737068531312  0.6404384379141774   F   F   F
  0.6664329666581210  0.1001374058863007  0.4989313296993174   F   F   F
  0.1667555461793384  0.0998690560085720  0.4987343934071902   F   F   F
  0.8333332538436267  0.6000000000007191  0.4070133268666680   F   F   F
  0.3335126844690350  0.0999835472834860  0.4989457249601656   F   F   F
  0.0000125397801796  0.1000270170793840  0.4991488652624625   F   F   F
  0.9165916740769759  0.1499053037556095  0.4537191306836235   F   F   F
  0.0836122625062643  0.0497713245057909  0.6403588014448971   F   F   F
  0.0833693135515077  0.1499255044475447  0.4537275899287607   F   F   F
  0.4166286166765047  0.1502858988960938  0.4538452515726732   F   F   F
  0.4144696179867893  0.8487438439549635  0.5479506202203552   F   F   F
  0.1666666716383389  0.8000000000129006  0.4070133268666680   F   F   F
  0.5819810204694775  0.3478730371759440  0.5508733703806925   F   F   F
  0.0000142763853788  0.8020322438957095  0.5926021770138306   F   F   F
  0.3338748761404204  0.2000723818522729  0.5921056625450873   F   F   F
  0.9998291112828852  0.2000160793050441  0.5923878442960202   F   F   F
  0.0006934065347650  0.3984148394242908  0.5923463596142469   F   F   F
  0.0841557768688190  0.9503189200067723  0.5461290338043270   F   F   F
  0.4197740179880398  0.6518354709297256  0.5557278476174261   F   F   F
  0.0838919723673328  0.3481011771053062  0.6420242954683957   F   F   F
  0.6660757417945504  0.0001636345275458  0.5918265935095803   F   F   F
  0.3340373260424414  0.9999786587347685  0.5917391632287661   F   F   F
  0.9999642789718663  0.9992211436610816  0.5919927733945016   F   F   F
  0.8325511622456716  0.9987349075191148  0.5919320384539262   F   F   F
  0.1674317100693372  0.9987070928189965  0.5920840157733451   F   F   F
  0.4997066353381214  0.0000574516283081  0.5914070076130002   F   F   F
  0.7499310116589584  0.1505172474265990  0.4541567447283654   F   F   F
  0.9163456470791260  0.0499331552160882  0.5465224056116966   F   F   F
  0.5831685064100185  0.1511378291408150  0.4545434720403279   F   F   F
  0.9162428755388845  0.8497008493979052  0.4540194355695277   F   F   F
  0.2500894955393207  0.1498857667098576  0.4536779166268587   F   F   F
  0.7499917939641847  0.0491746076513309  0.5461347314979932   F   F   F
  0.4230091873307060  0.7502226834075003  0.5466531167055919   F   F   F
  0.4230632115050383  0.5546603346637227  0.5461385844069753   F   F   F
  0.7521407367863731  0.5492581051623660  0.5486816372225789   F   F   F
  0.2499999999799343  0.8499999999890662  0.3605200052333331   F   F   F
  0.1666666716383389  0.6000000000007191  0.4070133268666680   F   F   F
  0.4172228686724750  0.5480566412780163  0.4541302467038975   F   F   F
  0.4170194582626294  0.0502273789290584  0.5471128948873840   F   F   F
  0.7491792645479194  0.3501963020336021  0.5470700776745048   F   F   F
  0.0847116462686515  0.7499742075407809  0.4535721086864370   F   F   F
  0.0833333358191695  0.5499999761504029  0.3605200052333331   F   F   F
  0.2531079709977178  0.8499081037158049  0.5506884271301757   F   F   F
  0.8333332538436267  0.8000000000129006  0.4070133268666680   F   F   F
  0.2499999999799343  0.4500000000005357  0.3605200052333331   F   F   F
  0.0840839883361255  0.2497653314199511  0.4543268357225756   F   F   F
  0.0833333358191695  0.9500000000130839  0.3605200052333331   F   F   F
  0.4158980149963298  0.6470877554245220  0.4581665001943236   F   F   F
  0.6666666865533486  0.0000000000000000  0.4070133268666680   F   F   F
  0.8325565415713214  0.2006993853740440  0.5918886274065827   F   F   F
  0.7479494369985957  0.9481090239009760  0.6394886821699188   F   F   F
  0.5833333134730552  0.1500000000001833  0.3605200052333331   F   F   F
  0.2500466209666072  0.0499543417222625  0.5468708741132673   F   F   F
  0.5828483743187505  0.0501611082343771  0.5470360036082127   F   F   F
  0.7498590800657894  0.1501504314086546  0.6417960742241604   F   F   F
  0.2507635664629717  0.1484027406847375  0.6410351981217701   F   F   F
  0.9159889808655990  0.1497353794804326  0.6407035850477953   F   F   F
  0.5828012422460560  0.1502673627826780  0.6426101238466018   F   F   F
  0.4166726818499669  0.1500017448480762  0.6413993007844923   F   F   F
  0.4166666269218169  0.3500000000123720  0.3605200052333331   F   F   F
  0.5000000000021103  0.0000000000000000  0.4070133268666680   F   F   F
  0.4155430610718369  0.4489880877295818  0.4573034356491092   F   F   F
  0.3333333432766779  0.0000000000000000  0.4070133268666680   F   F   F
  0.9166666865332829  0.0500000000120124  0.3605200052333331   F   F   F
  0.5833333134730552  0.0500000000120124  0.3605200052333331   F   F   F
  0.2499999999799343  0.0500000000120124  0.3605200052333331   F   F   F
  0.7499999404149307  0.0500000000120124  0.3605200052333331   F   F   F
  0.4166666269218169  0.0500000000120124  0.3605200052333331   F   F   F
  0.0833333358191695  0.0500000000120124  0.3605200052333331   F   F   F
  0.8332339868105549  0.1001376008198704  0.4988564548606220   F   F   F
  0.0837190790534379  0.3497706801340499  0.4536021743499745   F   F   F
  0.1666666716383389  0.0000000000000000  0.4070133268666680   F   F   F
  0.0838558462718311  0.9495209469920241  0.4536600107790747   F   F   F
  0.3354234101942595  0.7928310229256681  0.5906665555297579   F   F   F
  0.3330936107829530  0.5967996322469702  0.5914228773637333   F   F   F
  0.4971696961393803  0.6035634179884468  0.6090935088231006   F   F   F
  0.2517444962349629  0.9499454458505880  0.5450334208676395   F   F   F
  0.5792775847379659  0.7483366314073976  0.5476930627859815   F   F   F
  0.9157261910314958  0.5500321774861732  0.5458580906042911   F   F   F
  0.9173213100744491  0.3508443550614970  0.5453244964305242   F   F   F
  0.9143022508911329  0.7506892761465167  0.5459484594988595   F   F   F
  0.0836262830834045  0.4487536481561634  0.6405647959196656   F   F   F
  0.6663056668732139  0.8991694467269014  0.4987843152634710   F   F   F
  0.0866949447412466  0.6500109383057975  0.6402469718491304   F   F   F
  0.5829851593637301  0.4486649636027664  0.5455786931346012   F   F   F
  0.2483541960705367  0.5486527175395182  0.5491272315351807   F   F   F
  0.1683284868228512  0.3978927893782043  0.5933008927275694   F   F   F
  0.4127369063300819  0.8501701475869083  0.6395073953270582   F   F   F
  0.1671762458365222  0.1998072143056859  0.5923204162991240   F   F   F
  0.6665292526405509  0.5955998520791823  0.5914763986047973   F   F   F
  0.6651069555150499  0.3996851959236025  0.5898506147119065   F   F   F
  0.6652000104806035  0.7932192262524680  0.5909617418938211   F   F   F
  0.6661752282831159  0.1998440948737539  0.5920963544397821   F   F   F
  0.9143525708475551  0.8505845071169844  0.6413824786590538   F   F   F
  0.9166666865332829  0.8499999999890662  0.3605200052333331   F   F   F
  0.4159797873802660  0.3528941359114626  0.5474277330202213   F   F   F
  0.9138465802206994  0.6499319733421487  0.6409586513800036   F   F   F
  0.1676749879519335  0.6995774508152479  0.5002148905468218   F   F   F
  0.5000561481682837  0.8982061189338992  0.5007788638964925   F   F   F
  0.9146685358797484  0.3479800647894180  0.6399950140433575   F   F   F
  0.4166666269218169  0.7500000000008953  0.3605200052333331   F   F   F
  0.2500371841694502  0.3511194509394642  0.4544788700596172   F   F   F
  0.2499999999799343  0.7500000000008953  0.3605200052333331   F   F   F
  0.9166666865332829  0.9500000000130839  0.3605200052333331   F   F   F
  0.2499999999799343  0.9500000000130839  0.3605200052333331   F   F   F
  0.5833333134730552  0.3500000000123720  0.3605200052333331   F   F   F
  0.7486027087796359  0.2520909338741149  0.6395522610990696   F   F   F
  0.7536546306743546  0.4462944944928040  0.6446086905667912   F   F   F
  0.4172410222584730  0.9474012255649882  0.6391948488264987   F   F   F
  0.5832691129447412  0.2524314964892937  0.6386512371170312   F   F   F
  0.7490605347413251  0.7505914142780696  0.4570403907837175   F   F   F
  0.0857567510449755  0.7508991325524121  0.5459354649698653   F   F   F
  0.7537824206263863  0.5467792602656658  0.6379598787617411   F   F   F
  0.3352489423953173  0.4041178743883265  0.5932797429759020   F   F   F
  0.0868174434080515  0.5489129044518464  0.6395695864018833   F   F   F
  0.2505184512259291  0.0485097890525950  0.6415886201065391   F   F   F
  0.2521535783911517  0.9454656553241847  0.6372816779728652   F   F   F
  0.9166666865332829  0.5499999761504029  0.3605200052333331   F   F   F
  0.9166666865332829  0.3500000000123720  0.3605200052333331   F   F   F
  0.0858272199658714  0.4508075554900373  0.5470878389240852   F   F   F
  0.0829577335838465  0.5498237120984797  0.4531691795517645   F   F   F
  0.5833333134730552  0.7500000000008953  0.3605200052333331   F   F   F
  0.5833333134730552  0.5499999761504029  0.3605200052333331   F   F   F
  0.0853598898215395  0.8496384277567799  0.5468226733116452   F   F   F
  0.4160702977111796  0.9484433286768521  0.5466763972757391   F   F   F
  0.4997851348349514  0.3014269100777582  0.5001914703172190   F   F   F
  0.0000000000000000  0.8000000000129006  0.4070133268666680   F   F   F
  0.4165441974874255  0.2524661673099899  0.5472718524045419   F   F   F
  0.5766959844398230  0.5483409116719429  0.5522967758021267   F   F   F
  0.4164643627600739  0.4551578747467317  0.5525923593463133   F   F   F
  0.5809209664936503  0.6475644454077170  0.5488865193217265   F   F   F
  0.7492718021040901  0.4517354579778043  0.5503224944951270   F   F   F
  0.2395545042432303  0.5534301823334360  0.6417171505980050   F   F   F
  0.5826790872332310  0.9486369178105818  0.4538754387775938   F   F   F
  0.9156438768489537  0.8497483724813222  0.5463648050266698   F   F   F
  0.7482876326386290  0.9477144149261960  0.5471534612628943   F   F   F
  0.1708595305558802  0.7998152023543028  0.5945910240267978   F   F   F
  0.8331915365178659  0.6021783095557964  0.5895549482159410   F   F   F
  0.0839180163542963  0.2484254558441350  0.6421943860224886   F   F   F
  0.0840251376903041  0.7496707173995958  0.6396092057760328   F   F   F
  0.0844061123005773  0.9494966539622851  0.6408353136761278   F   F   F
  0.4157093119286657  0.5344400485067524  0.6301436419664270   F   F   F
  0.4182993680191345  0.3495635892493709  0.6398275447412729   F   F   F
  0.5008432954460957  0.8049385578149995  0.5927398256084544   F   F   F
  0.2491731051497510  0.4509323236837588  0.5460145916307866   F   F   F
  0.0811737995130812  0.6516521758208427  0.5466560956478972   F   F   F
  0.5833829005003466  0.2496903162038606  0.5457718257829853   F   F   F
  0.4172899571290571  0.9479823680382751  0.4541226089958954   F   F   F
  0.0828240570219805  0.2501359869956943  0.5474322191477299   F   F   F
  0.5837361792349114  0.9506721763352530  0.5456382735252063   F   F   F
  0.4182110841966420  0.2521978923236645  0.6391889579709300   F   F   F
  0.9160575587515893  0.9504938267444487  0.5462094943603617   F   F   F
  0.7511829048890135  0.7449228185989440  0.5526125850395545   F   F   F
  0.2492335712137148  0.7463420751456908  0.5522854268393687   F   F   F
  0.9124252334465339  0.5483116369307908  0.6399051668763320   F   F   F
  0.2516019188019101  0.7501120850975767  0.4561478505994074   F   F   F
  0.4274358591766045  0.4436577630657013  0.6572041571739717   F   F   F
  0.2473967330396505  0.6588310178201837  0.6289888492049371   F   F   F
  0.2512506181798173  0.2485286929755830  0.6416658530309647   F   F   F
  0.9166666865332829  0.6500000000127244  0.3605200052333331   F   F   F
  0.4997755232750833  0.4986034744190420  0.5002030308266114   F   F   F
  0.5002764262386989  0.6964282412903842  0.5000364005243583   F   F   F
  0.8323612108294896  0.6985863541430462  0.5005138597452614   F   F   F
  0.2529843766269835  0.3508902233491611  0.5475021050230353   F   F   F
  0.8327656336508511  0.4992183274485740  0.4995452913700404   F   F   F
  0.9151282354938601  0.4484435207855810  0.6396338899810132   F   F   F
  0.1665446786507232  0.5008956388314516  0.4978268358698656   F   F   F
  0.4166666269218169  0.9500000000130839  0.3605200052333331   F   F   F
  0.2506635181900023  0.9483090843781454  0.4536150872088029   F   F   F
  0.6653614502635676  0.7001867365218146  0.5030035874479566   F   F   F
  0.4166666269218169  0.5499999761504029  0.3605200052333331   F   F   F
  0.2499999999799343  0.3500000000123720  0.3605200052333331   F   F   F
  0.7499999404149307  0.9500000000130839  0.3605200052333331   F   F   F
  0.7499999404149307  0.7500000000008953  0.3605200052333331   F   F   F
  0.7500951463614527  0.3506274117393247  0.4541729094052513   F   F   F
  0.7499999404149307  0.5499999761504029  0.3605200052333331   F   F   F
  0.5878138111654394  0.4562938630440954  0.6344354545351862   F   F   F
  0.0828520668892025  0.5509629681437715  0.5452160804672346   F   F   F
  0.5899221125811351  0.8478116395449788  0.6465208548124934   F   F   F
  0.9166666865332829  0.7500000000008953  0.3605200052333331   F   F   F
  0.8325039746825951  0.8996440291208714  0.4994541381528919   F   F   F
  0.0000000000000000  0.4000000000243773  0.4070133268666680   F   F   F
  0.0000000000000000  0.6000000000007191  0.4070133268666680   F   F   F
  0.7483975626718902  0.6510313194263091  0.4540954116533129   F   F   F
  0.3333333432766779  0.2000000000121887  0.4070133268666680   F   F   F
  0.3333333432766779  0.6000000000007191  0.4070133268666680   F   F   F
  0.2510765007666365  0.5517931686934716  0.4552691908304851   F   F   F
  0.3336364497558577  0.8983026156631624  0.4994283550766170   F   F   F
  0.6666666865533486  0.2000000000121887  0.4070133268666680   F   F   F
  0.0001255830966258  0.8998981735665055  0.4991399913183727   F   F   F
  0.5903792730675121  0.6524730828566803  0.6387627518231866   F   F   F
  0.5000615592376292  0.2002493288096971  0.5915731220506260   F   F   F
  0.8328700132131459  0.3000376120279356  0.4999197141532861   F   F   F
  0.9160615198616000  0.4495854043605974  0.4540937411074424   F   F   F
  0.7543627708509533  0.7545570822065528  0.6555085184608700   F   F   F
  0.9152046242196690  0.2499943091059578  0.6408526421079870   F   F   F
  0.4171124097060002  0.7470047060100669  0.4544693430291247   F   F   F
  0.2617085689638756  0.8403458887743653  0.6461118795306717   F   F   F
  0.7499999404149307  0.3500000000123720  0.3605200052333331   F   F   F
  0.7415081522965394  0.8485060271445946  0.6396544329206861   F   F   F
  0.0851817826490233  0.8500273307363742  0.6418723490320843   F   F   F
  0.7527238602487785  0.6549421268156621  0.6358288648944850   F   F   F
  0.4171272563309785  0.8471152072518464  0.4554503655622355   F   F   F
  0.7495449062385688  0.2506628963709758  0.4542273011863998   F   F   F
  0.5831079987295453  0.2520605494354200  0.4537893620940849   F   F   F
  0.5829741978940461  0.7486405367610800  0.4547928151522243   F   F   F
  0.5833333134730552  0.2500000000242011  0.3605200052333331   F   F   F
  0.7427567081773034  0.3519134270859112  0.6411884653625961   F   F   F
  0.8321423215855148  0.3971330472193557  0.5904200479266848   F   F   F
  0.8303006001880959  0.8006535435541267  0.5923489486639184   F   F   F
  0.4201850484251182  0.7409231677642154  0.6338973648426602   F   F   F
  0.1678166679773625  0.8990105034346101  0.4994697255820100   F   F   F
  0.9158973065841778  0.5497389134690991  0.4537233077289642   F   F   F
  0.7483061553173087  0.4502779375268489  0.4558484953487465   F   F   F
  0.1673230741485483  0.3003566407809117  0.4999712100899956   F   F   F
  0.7486318804789462  0.2504370402042895  0.5463933166209500   F   F   F
  0.9156466149806590  0.7500989514777316  0.6393410533114761   F   F   F
  0.9157724370006832  0.9497983348731083  0.6408739544812718   F   F   F
  0.9160409655460171  0.3496539218067696  0.4534889167347274   F   F   F
  0.2553190698718097  0.7420124973124302  0.6630425886557987   F   F   F
  0.2499999999799343  0.5499999761504029  0.3605200052333331   F   F   F
  0.5828096599315558  0.5514885565270475  0.4565766484701044   F   F   F
  0.3972829992226252  0.6404496632424213  0.6523860629442026   F   F   F
  0.9146156868900164  0.7498584211647668  0.4536783002623324   F   F   F
  0.6657401063323505  0.5023669670000643  0.5036321127884946   F   F   F
  0.3343549925583744  0.5023388069970736  0.5030792893329874   F   F   F
  0.3355144054753438  0.7004856285485914  0.5040601099573294   F   F   F
  0.9165011646735053  0.2506118082412740  0.5470697785263994   F   F   F
  0.7494447285892889  0.9497383653684253  0.4547536449959324   F   F   F
  0.0833333358191695  0.2500000000242011  0.3605200052333331   F   F   F
  0.5774143204053885  0.7484816668522001  0.6399105708293220   F   F   F
  0.1654268179126817  0.6023763741422599  0.5873001886317013   F   F   F
  0.2489237851627237  0.4528200978327988  0.6413286065354384   F   F   F
  0.0835982168571618  0.3507668614646846  0.5461975071102572   F   F   F
  0.5818553725981417  0.9477997108256488  0.6378413528782971   F   F   F
  0.5809119187874288  0.3531788317421345  0.6448645243516324   F   F   F
  0.5796105649928691  0.5505439224323041  0.6458950684428046   F   F   F
  0.2541080932971127  0.3490319149291565  0.6408448801034297   F   F   F
  0.1666666716383389  0.5000000000125482  0.4070133268666680   F   F   F
  0.9996419075594289  0.0994966317267156  0.6191269993677864   F   F   F
  0.8338518453700345  0.0007441936792603  0.5059867124988600   F   F   F
  0.8362533774516550  0.5998930225341397  0.5029873302449701   F   F   F
  0.1672146870788609  0.0987368126465142  0.6190158700317241   F   F   F
  0.8329283171762611  0.9009853583420266  0.6179086523519288   F   F   F
  0.1635983161751184  0.5997878978900459  0.5020877574591296   F   F   F
  0.5010660882757776  0.2979237825559338  0.6057470628316821   F   F   F
  0.9999340464783799  0.4995994463150382  0.6236708486231990   F   F   F