Au C  H  O  Sr Ti
 1.0000000000000000
    23.6707801818999997    0.0000000000000000    0.0000000000000000
     0.0000000000000000   27.8962826732999716    0.0000000000000000
     0.0000000000000000    0.0000000000000000   30.0000000000000000
 Au  C   H   O   Sr  Ti 
  50   5  11 330  90  90
Selective dynamics
Cartesian
 16.8571735910869300 17.4503862899680371 22.6438189282652758   F   F   F
  6.9628382921740029 22.2529014734647035 20.8981131586744269   F   F   F
 12.0273031890235949 19.1222179746782430 23.3525431764786688   F   F   F
 13.6705912507775285 21.7314411722544527 23.8304399719182207   F   F   F
  5.6898980160824477 16.0479098008540078 21.2770668599495494   F   F   F
 14.2444927599291731 11.9152529826730209 23.5370891996687419   F   F   F
 12.1603432122933519 16.4064809546678987 20.3476074439369441   F   F   F
 13.4208226234948107 17.0619756765044706 25.7583898311505237   F   F   F
 11.4960406837818123 11.6254907890149841 23.2295704742217168   F   F   F
 14.6528588023631965 12.7308594910260400 20.9307611937648197   F   F   F
 10.9113433830675799 21.1581834787655296 24.9849322873561306   F   F   F
 13.0742527048270389 14.1844172403316477 24.8137938123359447   F   F   F
 13.3026152381222111 16.5110380553723601 22.8988019905727533   F   F   F
 13.1131425278823652 10.3556818496741823 21.2854949348122631   F   F   F
 17.4585889142636042 11.0850908868315265 20.8198443846379355   T   T   T
 18.0131067408984720 15.3831805634797121 21.1312268296530910   F   F   F
 11.4999115754352275 22.8997769742165680 22.6578447111406085   F   F   F
 14.6838518882201541 18.3558211075200575 21.1117387671675836   F   F   F
 14.9020056168747459 18.7590603796561872 24.0326477958456728   F   F   F
 10.1832656330267017 13.8577768122122809 24.4572936223256185   F   F   F
  8.2630122962970649 16.7382946282346197 20.9394460094520163   F   F   F
  8.7560421756435733 12.2506800693776121 22.6725018370896088   F   F   F
 17.3363977592758900 19.3454062938270930 20.7969488636088720   F   F   F
 10.3375985096081546 10.6384529421171870 20.9452657080583542   F   F   F
 12.3068599746938254 14.0377521282803368 21.9935712708488467   F   F   F
  6.7615905135545420 20.3592360311448139 22.9282676138434063   F   F   F
  6.0867333307238676 18.8149776492224028 20.8373021042191766   F   F   F
 15.7161003557301999  9.6682570084594524 22.2493901982005404   T   T   T
 11.1636077025641942 15.6156761052853117 26.3248806900328773   F   F   F
  6.6788849290406338 13.1565051488525384 21.0716319159887888   F   F   F
 15.8571780769573909 20.8216709715739476 22.4618371807175450   F   F   F
  9.4177500789160362 14.1104355207219960 20.7217254925997416   F   F   F
  9.2812521732473421 23.8346283964255186 21.1953899685527389   F   F   F
  8.8772635850103843 16.5689421479825612 24.9964923114315951   F   F   F
  6.8469044274834276 17.5802166402468885 23.3345449758109069   F   F   F
  8.7077215563390897 19.3934401585849443 24.6050475648279203   F   F   F
 14.1206261091536156 23.0817622112911920 21.4019430912127717   F   F   F
 18.3466830535089578 15.4329815941994806 23.8346765442796134   F   F   F
 10.6834803471600708 18.5286058335398849 21.1100724807364628   F   F   F
 15.2841009143962285 15.5325188139374752 20.8676582709458600   F   F   F
 13.2670558769020150 19.9329386155251704 25.9400730884662813   F   F   F
 12.7705633122542714 20.5007446005391394 21.0727694216272639   F   F   F
 10.4999852530447662 16.1433363655314714 22.6976391913208175   F   F   F
  8.8455058183802837 22.1240012790135907 23.3707815178645930   F   F   F
 10.8938017899422412 18.3834751227093136 25.9613399115934911   F   F   F
 15.5211448145476911 15.6947944039318941 24.5134644187751682   F   F   F
 16.7377762721698176 22.4838368242354854 20.6330696993541274   F   F   F
  9.8426190117361045 21.1214763290832046 20.9954179030421955   F   F   F
  7.6996440297345465 14.8338664143342900 23.0809767730717539   F   F   F
 16.4388541043464471 13.5743541255717250 22.9207241587632886   T   T   T
 15.4253128650911489  6.9623389956997439 24.1586735813310014   T   T   T
 14.5467448773024799  5.7403021622068255 24.4187186479930496   T   T   T
 16.2030091490749797  6.8641383917792886 22.8402563867622312   T   T   T
 17.8981763096338717 12.0975200436487693 22.5143920620850047   T   T   T
 17.0654660647298755  8.0624702530039389 22.5192043453489852   T   T   T
 14.7926310683709126  7.8633952829483400 24.1413732917220223   T   T   T
 16.1322885572443191  7.1082490436532870 24.9849127206466370   T   T   T
 16.8937595236985239  6.0036329179105659 22.8858923309542988   T   T   T
 17.7187791022719665  8.3820215998680947 23.3347392083864378   T   T   T
 13.8110221152718964  5.6171444700842441 23.6196865326880641   T   T   T
 15.1483858990355529  4.8280411891623061 24.4612653585968083   T   T   T
 15.5281148226796510  6.6412179358416630 22.0048997743143069   T   T   T
 14.0090005776164439  5.8337544845620490 25.3649028394744853   T   T   T
 17.6058469256387369  7.9716810630707444 21.5770325667357028   T   T   T
 17.8713264499234477 11.4835839925045047 23.4175568452128466   T   T   T
 18.8425902943809298 12.6368801714978609 22.4149968865288542   T   T   T
 13.8668870815601561 23.7632826609857766 16.5235164367167435   F   F   F
 15.7805205919999434 11.1585130700000246 12.2103998060000407   F   F   F
 21.7247779130712324 18.1605021412241179 16.4104299114877321   F   F   F
  7.8902602960000570 22.3170261389998572 12.2103998060000407   F   F   F
  7.9006022651654835  8.3963125381442190 14.9643669650720668   F   F   F
 23.6660714873319797 19.5836539757010470 14.9169199542216635   F   F   F
 21.6847840183171989 18.1263058796408352 13.6269027143476560   F   F   F
 13.8079546360000549 26.5014685399999657 10.8156001569999933   F   F   F
 21.6922305484518780 26.4914855808686731 13.6122445832750909   F   F   F
 17.7530837259999217 12.5533272029999310 10.8156001569999933   F   F   F
  9.8628241350000643 23.7118402719999644 10.8156001569999933   F   F   F
  9.8628241350000643 12.5533272029999310 10.8156001569999933   F   F   F
  9.8628241350000643 18.1325837379999442 10.8156001569999933   F   F   F
 11.8353900909999528 22.3170261389998572 12.2103998060000407   F   F   F
  0.0000000000000000  5.5792565350000141 12.2103998060000407   F   F   F
 13.8087973791831224  1.4064015711132454 19.2473100251178977   F   F   F
 17.6893976698531681 23.6231414247699973 16.3721298957411570   F   F   F
 13.8340190935102090 18.1302955932414207 13.6465989525365305   F   F   F
 11.8353900909999528 16.7377696040000430 12.2103998060000407   F   F   F
  1.9725650740000149  9.7636989360001234 10.8156001569999933   F   F   F
 15.7805205919999434 22.3170261389998572 12.2103998060000407   F   F   F
  5.9176950450000287  4.1844424010001093 10.8156001569999933   F   F   F
 21.6982156369999721  4.1844424010001093 10.8156001569999933   F   F   F
 13.8120134839969726  1.3831612705764227 13.6252772750371953   F   F   F
  5.9213689375400262  1.3702308406536867 13.6265206339109888   F   F   F
 17.7520170913909929  1.3941714701280932 13.6101524886445073   F   F   F
  9.8577125262770178  1.3686036525876699 13.6307588393386769   F   F   F
  1.9717290302113255  1.3870070449695375 13.6175830996774891   F   F   F
 19.7256482699999580  0.0000000000000000 12.2103998060000407   F   F   F
 11.8338173605003227  2.7918311549287580 14.9627385033344389   F   F   F
 23.6599639815405460 16.7112771370357756 17.8254988795276077   F   F   F
  1.9801679847475548  4.2006103568853472 16.3895456633788328   F   F   F
 17.7530837259999217  6.9740706690001133 10.8156001569999933   F   F   F
  5.9176950450000287  6.9740706690001133 10.8156001569999933   F   F   F
  3.9451301480000271  5.5792565350000141 12.2103998060000407   F   F   F
 17.7530837259999217 18.1325837379999442 10.8156001569999933   F   F   F
 13.8079546360000549 18.1325837379999442 10.8156001569999933   F   F   F
 11.8353900909999528 11.1585130700000246 12.2103998060000407   F   F   F
 21.6982156369999721 12.5533272029999310 10.8156001569999933   F   F   F
  3.9451301480000271 11.1585130700000246 12.2103998060000407   F   F   F
 13.8332076789761267 12.6227174032785499 13.6152255498143546   F   F   F
  7.8902602960000570 11.1585130700000246 12.2103998060000407   F   F   F
 15.7688317995217382  8.4144067184576397 14.9920819096920415   F   F   F
 13.8079546360000549 12.5533272029999310 10.8156001569999933   F   F   F
  0.0000000000000000  0.0000000000000000 12.2103998060000407   F   F   F
  9.8628241350000643  6.9740706690001133 10.8156001569999933   F   F   F
  1.9825736834722814  1.3902608612889769 16.3969577927176786   F   F   F
 21.6902644010528647  4.2038761741578998 16.3900272318172640   F   F   F
 13.7964675538158446  4.1799176493709398 16.4250340580214171   F   F   F
  1.9725650740000149 18.1325837379999442 10.8156001569999933   F   F   F
  5.9205801670817753  4.1930479126622338 16.3948659486384756   F   F   F
 13.7980444728429479 23.6446859303692385 13.6711632019398532   F   F   F
  5.9757787575340133 18.0516356279793868 16.3213027048570858   F   F   F
 11.8229876160668610 11.2355376454140163 17.7440242798985253   F   F   F
  5.9176950450000287 18.1325837379999442 10.8156001569999933   F   F   F
 21.6866440064174704  6.9680454091656889 13.6253991586016170   F   F   F
  0.0060966471403817  8.3599955599002378 14.9546412924707468   F   F   F
 17.6734494865645786 18.0456193273444008 16.3540173080890447   F   F   F
 17.7475265636582158  4.1787996322631873 16.4079130287294603   F   F   F
 21.6982156369999721  6.9740706690001133 10.8156001569999933   F   F   F
 17.7518442664075593 23.7098732251404130 13.6106171896320216   F   F   F
 17.7296409939537583 15.3505633403766648 13.6677382160837126   F   F   F
  1.9725650740000149 12.5533272029999310 10.8156001569999933   F   F   F
 19.7256482699999580 11.1585130700000246 12.2103998060000407   F   F   F
  9.8723258035703036  6.9878468388085890 13.6511130448648714   F   F   F
 11.8353900909999528  5.5792565350000141 12.2103998060000407   F   F   F
 15.7805205919999434 16.7377696040000430 12.2103998060000407   F   F   F
  1.9879336549164590 18.1300633506075535 13.6272596339171219   F   F   F
  1.9839169011437614 23.7004934067898922 13.6250560045241169   F   F   F
  1.9765618435265122 12.5425618850205183 13.6231536781424811   F   F   F
 17.7530837259999217 23.7118402719999644 10.8156001569999933   F   F   F
 21.6626418766138293 12.5509553574333896 16.4013577976642146   F   F   F
  9.8682575087801059  9.7763373721411337 13.6251423154006819   F   F   F
  9.8622787924982429  4.2145348354972310 16.3893874195250504   F   F   F
 19.7256482699999580  5.5792565350000141 12.2103998060000407   F   F   F
 23.6694583373477663 13.9269961322121230 14.9504012856352055   F   F   F
  5.9644504244000656 18.1856997706805359 13.6130807500337720   F   F   F
 13.7966665992126760  9.8483696578240263 13.6845629963259761   F   F   F
  5.9213605765449575  6.9827656894797272 13.6317463903547544   F   F   F
  5.9627273860420855 12.6033470324155541 13.6140802976767397   F   F   F
 17.7530837259999217  4.1844424010001093 10.8156001569999933   F   F   F
 13.8079546360000549 23.7118402719999644 10.8156001569999933   F   F   F
  5.9303788650096720 23.6667971205923884 13.6640175906082550   F   F   F
  9.8628241350000643  4.1844424010001093 10.8156001569999933   F   F   F
  1.9725650740000149  4.1844424010001093 10.8156001569999933   F   F   F
  1.9725650740000149 20.9222120049999525 10.8156001569999933   F   F   F
 17.7476697697103347  1.3999251553456191 19.2258435874975078   F   F   F
  5.9518496747278409  6.9962704576820123 16.4268303735494676   F   F   F
  1.9725650740000149 23.7118402719999644 10.8156001569999933   F   F   F
  9.8734881720896119  1.3806477079583950 19.2690897068178977   F   F   F
 21.6967414990494127  1.3875463206427157 13.6164721639659838   F   F   F
 21.6814621033093005  1.3940708712124101 19.2080853310172088   F   F   F
  1.9725534223332666  4.1474437524622028 19.2131531374252980   F   F   F
 15.7749882597358866  2.7934613807751418 14.9679398909794621   F   F   F
  3.9472338777237885  2.7859754167308184 14.9620318022157974   F   F   F
 19.7256482699999580 16.7377696040000430 12.2103998060000407   F   F   F
  7.8945054419418854  2.7891692976994151 14.9683717488050156   F   F   F
  0.0002968263800944  2.7903819434134278 14.9744659578737771   F   F   F
 21.6964400336357848  4.1818007277933509 13.6115739205088104   F   F   F
  1.9791674862971087  1.3884349374380738 19.2107640433470159   F   F   F
  1.9734166949936569  4.1823642520058328 13.6118276978628003   F   F   F
  9.8619244028386710  4.1924179174164236 13.6153575471801904   F   F   F
  9.8108192194413189 23.6767981881909328 16.4385186066107458   F   F   F
  3.9451301480000271 22.3170261389998572 12.2103998060000407   F   F   F
 13.7759448055708287  9.7043645794795772 16.5262011114207610   F   F   F
  0.0003379331800771 22.3737181888157259 17.7780653104148563   F   F   F
  7.9030788013789417  5.5812757192714324 17.7631698763526664   F   F   F
 23.6667351126416463  5.5797050874987004 17.7716353288806097   F   F   F
  0.0164134736611674 11.1142929818174565 17.7703907884273598   F   F   F
  1.9920328952989030 26.5103652222941442 16.3838710141297135   F   F   F
  9.9363785058678005 18.1837865535392531 16.6718354285228152   F   F   F
  1.9857884369330998  9.7107288354380987 19.2607288640519450   F   F   F
 15.7665324685147592  0.0045647950355212 17.7547978052874953   F   F   F
  7.9069241173002434 27.8956873313324678 17.7521748968630426   F   F   F
 23.6699346372951673 27.8745554767075525 17.7597832018350701   F   F   F
 19.7071355517025957 27.8609912958452348 17.7579611536176891   F   F   F
  3.9632392045308458 27.8602153691083423 17.7625204732002615   F   F   F
 11.8284459205254660  0.0016026868633660 17.7422102283899754   F   F   F
 17.7514521285691025  4.1988716814194520 13.6247023418509752   F   F   F
 21.6906163826508980  1.3929494126777147 16.3956721683508064   F   F   F
 13.8040535242384728  4.2161836043411363 13.6363041612098215   F   F   F
 21.6881837001129121 23.7034950825471142 13.6205830670858603   F   F   F
  5.9198134747134974  4.1812557168425517 13.6103374988057411   F   F   F
 17.7528908931551257  1.3717887553901604 16.3840419449397494   F   F   F
 10.0129574882293486 20.9284240442572411 16.3995935011678249   F   F   F
 10.0142362825845037 15.4729614834464417 16.3841575322093078   F   F   F
 17.8037580463225709 15.3222593622104828 16.4604491166772959   F   F   F
  5.9176950450000287 23.7118402719999644 10.8156001569999933   F   F   F
  3.9451301480000271 16.7377696040000430 12.2103998060000407   F   F   F
  9.8759908112079398 15.2887429860708952 13.6239074011169006   F   F   F
  9.8711759281096985  1.4011571605438915 16.4133868466214921   F   F   F
 17.7336576879513537  9.7691750326736084 16.4121023302352249   F   F   F
  2.0051907576720955 20.9214924912417111 13.6071632605930866   F   F   F
  1.9725650740000149 15.3429548049998807 10.8156001569999933   F   F   F
  5.9912631437736747 23.7092767075844897 16.5206528139052011   F   F   F
 19.7256482699999580 22.3170261389998572 12.2103998060000407   F   F   F
  5.9176950450000287 12.5533272029999310 10.8156001569999933   F   F   F
  1.9903336047218798  6.9675242872813428 13.6298050716772945   F   F   F
  1.9725650740000149 26.5014685399999657 10.8156001569999933   F   F   F
  9.8446304910666989 18.0513429397535887 13.7449950058296029   F   F   F
 15.7805205919999434  0.0000000000000000 12.2103998060000407   F   F   F
 19.7072628845375526  5.5987667867519697 17.7566588221975223   F   F   F
 17.7045467103696055 26.4487173358481336 19.1846604650976573   F   F   F
 13.8079546360000549  4.1844424010001093 10.8156001569999933   F   F   F
  5.9187986001274737  1.3935404374428266 16.4061262233980827   F   F   F
 13.7964757478769080  1.3993084545122063 16.4110801082463027   F   F   F
 17.7497494516390617  4.1886388780938058 19.2538822267249188   F   F   F
  5.9357692593743359  4.1398848036339633 19.2310559436531108   F   F   F
 21.6821738151121366  4.1770604721800133 19.2211075514338177   F   F   F
 13.7953600949446749  4.1919008287568849 19.2783037153981560   F   F   F
  9.8629674598732979  4.1844910757700928 19.2419790235347392   F   F   F
  9.8628241350000643  9.7636989360001234 10.8156001569999933   F   F   F
 11.8353900909999528  0.0000000000000000 12.2103998060000407   F   F   F
  9.8362284547452727 12.5250986122487866 13.7191030694733573   F   F   F
  7.8902602960000570  0.0000000000000000 12.2103998060000407   F   F   F
 21.6982156369999721  1.3948141340000999 10.8156001569999933   F   F   F
 13.8079546360000549  1.3948141340000999 10.8156001569999933   F   F   F
  5.9176950450000287  1.3948141340000999 10.8156001569999933   F   F   F
 17.7530837259999217  1.3948141340000999 10.8156001569999933   F   F   F
  9.8628241350000643  1.3948141340000999 10.8156001569999933   F   F   F
  1.9725650740000149  1.3948141340000999 10.8156001569999933   F   F   F
 19.7232985418808369  2.7934668186971350 14.9656936458186234   F   F   F
  1.9816959173049566  9.7573017638517872 13.6080652304992213   F   F   F
  3.9451301480000271  0.0000000000000000 12.2103998060000407   F   F   F
  1.9849333040677197 26.4881047415089732 13.6098003233721894   F   F   F
  7.9397338105716271 22.1170383276960649 17.7199966658928112   F   F   F
  7.8845856408386243 16.6484912404829117 17.7426863209120320   F   F   F
 11.7683945904172553 16.8371757194689060 18.2728052646930905   F   F   F
  5.9589886323809305 26.4999466816620561 16.3510026260291461   F   F   F
 13.7119523726344053 20.8758102045257559 16.4307918835793991   F   F   F
 21.6759533747150570 15.3438531025649532 16.3757427181288264   F   F   F
 21.7137110869448371  9.7872533031271960 16.3597348929157818   F   F   F
 21.6422476006604612 20.9414402471982264 16.3784537849657639   F   F   F
  1.9794993642965701 12.5185586196389664 19.2169438775899906   F   F   F
 15.7719749745100586 25.0834850570883745 14.9635294579040625   F   F   F
  2.0521369798519564 18.1328888757153734 19.2074091554740001   F   F   F
 13.7997135566087348 12.5160846502685956 16.3673607940379995   F   F   F
  5.8787375824381813 15.3053712979566505 16.4738169460553294   F   F   F
  3.9844666099354904 11.0997297261622823 17.7990267818271448   F   F   F
  9.7698045826968851 23.7165867574854659 19.1852218598117368   F   F   F
  3.9571921668315091  5.5738785304361347 17.7696124889736922   F   F   F
 15.7772674240605291 16.6150218337765878 17.7442919581438900   F   F   F
 15.7436005414495135 11.1497312058181368 17.6955184413572724   F   F   F
 15.7458032250839963 22.1278677574350944 17.7288522568146902   F   F   F
 15.7688873913166461  5.5749073611880497 17.7628906331934076   F   F   F
 21.6434387132876651 23.7281458480648340 19.2414743597716686   F   F   F
 21.6982156369999721 23.7118402719999644 10.8156001569999933   F   F   F
  9.8465661071917356  9.8444345691360322 16.4228319906066282   F   F   F
 21.6314615203851623 18.1306860467681688 19.2287595414000450   F   F   F
  3.9689977818129396 19.5156103198088573 15.0064467164045858   F   F   F
 11.8367191618990173 25.0566117926677556 15.0233659168948446   F   F   F
 21.6509178521097603  9.7073502520389123 19.1998504213007415   F   F   F
  9.8628241350000643 20.9222120049999525 10.8156001569999933   F   F   F
  5.9185752237763136  9.7949274555012504 13.6343661017884390   F   F   F
  5.9176950450000287 20.9222120049999525 10.8156001569999933   F   F   F
 21.6982156369999721 26.5014685399999657 10.8156001569999933   F   F   F
  5.9176950450000287 26.5014685399999657 10.8156001569999933   F   F   F
 13.8079546360000549  9.7636989360001234 10.8156001569999933   F   F   F
 17.7200101630976370  7.0323999507285535 19.1865678329721518   F   F   F
 17.8395930957637425 12.4499573739086831 19.3382607170036600   F   F   F
  9.8764205207515943 26.4289723933917422 19.1758454647950600   F   F   F
 13.8064349594067366  7.0419003817094659 19.1595371135109751   F   F   F
 17.7308472607984271 20.9387102648530394 13.7112117235114273   F   F   F
  2.0299292030995262 20.9472944608178580 16.3780639490959317   F   F   F
 17.8426179836276262 15.2531088042687735 19.1387963628521760   F   F   F
  7.9356040216539636 11.2733864572699591 17.7983922892770572   F   F   F
  2.0550366188664499 15.3126295456107826 19.1870875920565034   F   F   F
  5.9299671904790117  1.3532427878334150 19.2476586031962036   F   F   F
  5.9686719261764134 26.3749771788202523 19.1184503391859764   F   F   F
 21.6982156369999721 15.3429548049998807 10.8156001569999933   F   F   F
 21.6982156369999721  9.7636989360001234 10.8156001569999933   F   F   F
  2.0315972574356662 12.5758549992094686 16.4126351677226197   F   F   F
  1.9636742760518657 15.3380376931822067 13.5950753865528871   F   F   F
 13.8079546360000549 20.9222120049999525 10.8156001569999933   F   F   F
 13.8079546360000549 15.3429548049998807 10.8156001569999933   F   F   F
  2.0205351883168601 23.7017537508012062 16.4046801993493752   F   F   F
  9.8487085573390338 26.4580431963750584 16.4002919182721456   F   F   F
 11.8303040648593303  8.4086902888685007 15.0057441095165007   F   F   F
  0.0000000000000000 22.3170261389998572 12.2103998060000407   F   F   F
  9.8599261347708378  7.0428675687241151 16.4181555721362180   F   F   F
 13.6508438794594369 15.2966730733355298 16.5689032740638069   F   F   F
  9.8580363844888339 12.6972127349132684 16.5777707803893044   F   F   F
 13.7508525009280209 18.0646408182723022 16.4665955796517878   F   F   F
 17.7358481241019419 12.6017400293014408 16.5096748348537830   F   F   F
  5.6704420115255703 15.4386448063093855 19.2515145179401976   F   F   F
 13.7924685904880171 26.4634436135720215 13.6162631633278544   F   F   F
 21.6740049337942935 23.7048207999154812 16.3909441508001343   F   F   F
 17.7125520650232637 26.4377092123423481 16.4146038378867836   F   F   F
  4.0443783897708006 22.3118709712783208 17.8377307208039895   F   F   F
 19.7222937103339788 16.7985363430984798 17.6866484464781912   F   F   F
  1.9864049184237056  6.9301467394714651 19.2658315806746891   F   F   F
  1.9889405640210240 20.9130262444746151 19.1882761732808866   F   F   F
  1.9979585302757688 26.4874270562843570 19.2250594102838512   F   F   F
  9.8401637422324146 14.9088906650765978 18.9043092589927610   F   F   F
  9.9014723906086761  9.7515246979938173 19.1948263422382830   F   F   F
 11.8553515520828512 22.4547935434457031 17.7821947682537029   F   F   F
  5.8981217992411485 12.5793355680100873 16.3804377489236437   F   F   F
  1.9214471648037734 18.1786733013692263 16.3996828694368482   F   F   F
 13.8091283996230061  6.9654316416086308 16.3731547734895209   F   F   F
  9.8775788473163288 26.4451841080999834 13.6236782698768693   F   F   F
  1.9605100475404682  6.9778641999967173 16.4229665744318503   F   F   F
 13.8174907828917561 26.5202197606894359 16.3691482057561757   F   F   F
  9.8993826436527144  7.0353836938713243 19.1756687391278859   F   F   F
 21.6837971071768330 26.5152444700897050 16.3862848308108831   F   F   F
 17.7810854180289795 20.7805775174275773 16.5783775511865770   F   F   F
  5.8995530781497276 20.8201694992415725 16.5685628051809921   F   F   F
 21.5978171333317128 15.2958564168812217 19.1971550062899183   F   F   F
  5.9556137133042544 20.9253387625404308 13.6844355179822390   F   F   F
 10.1177402644310277 12.3764023686848077 19.7161247152192161   F   F   F
  5.8560736855017730 18.3789363070497309 18.8696654761481852   F   F   F
  5.9472981535008884  6.9330266716725859 19.2499755909289476   F   F   F
 21.6982156369999721 18.1325837379999442 10.8156001569999933   F   F   F
 11.8300765517385837 13.9091834642830392 15.0060909247984497   F   F   F
 11.8419333156826703 19.4277590807056555 15.0010920157306522   F   F   F
 19.7026392534849641 19.4879624068845416 15.0154157923577998   F   F   F
  5.9883375685923692  9.7885328578456434 16.4250631506910736   F   F   F
 19.7122122571899574 13.9263355781975076 14.9863587411011174   F   F   F
 21.6617993006252476 12.5099072188444129 19.1890166994303613   F   F   F
  3.9422424788064947 13.9731263306652842 14.9348050760958841   F   F   F
  9.8628241350000643 26.5014685399999657 10.8156001569999933   F   F   F
  5.9334010386971867 26.4542982794710255 13.6084526162641026   F   F   F
 15.7496246306990315 19.5326071261080010 15.0901076234387439   F   F   F
  9.8628241350000643 15.3429548049998807 10.8156001569999933   F   F   F
  5.9176950450000287  9.7636989360001234 10.8156001569999933   F   F   F
 17.7530837259999217 26.5014685399999657 10.8156001569999933   F   F   F
 17.7530837259999217 20.9222120049999525 10.8156001569999933   F   F   F
 17.7553373250320554  9.7812013908877056 13.6251872821574942   F   F   F
 17.7530837259999217 15.3429548049998807 10.8156001569999933   F   F   F
 13.9140115119819416 12.7289025855700437 19.0330636360554983   F   F   F
  1.9611730629504065 15.3698187018590122 16.3564824140170550   F   F   F
 13.9639166513501536 23.6507931504606397 19.3956256443748210   F   F   F
 21.6982156369999721 20.9222120049999525 10.8156001569999933   F   F   F
 19.7060185852697849 25.0967241417024027 14.9836241445867806   F   F   F
  0.0000000000000000 11.1585130700000246 12.2103998060000407   F   F   F
  0.0000000000000000 16.7377696040000430 12.2103998060000407   F   F   F
 17.7151541946760034 18.1613537158877598 13.6228623495992824   F   F   F
  7.8902602960000570  5.5792565350000141 12.2103998060000407   F   F   F
  7.8902602960000570 16.7377696040000430 12.2103998060000407   F   F   F
  5.9431766584877730 15.3929782110689999 13.6580757249145162   F   F   F
  7.8974350628404943 25.0593036927042370 14.9828506522985396   F   F   F
 15.7805205919999434  5.5792565350000141 12.2103998060000407   F   F   F
  0.0029726498747324 25.1038138269975839 14.9741997395511568   F   F   F
 13.9747379967310259 18.2015735560894036 19.1628825546956065   F   F   F
 11.8368472461320664  5.5862118816139574 17.7471936615186863   F   F   F
 19.7146830028645823  8.3699340377531755 14.9975914245986299   F   F   F
 21.6838908697410773 12.5417615258331647 13.6228122332231916   F   F   F
 17.8563553262218591 21.0493376583744194 19.6652555538260039   F   F   F
 21.6636074813622308  6.9739119135361607 19.2255792632396556   F   F   F
  9.8733761612932600 20.8386544371421358 13.6340802908736780   F   F   F
  6.1948460076635889 23.4425264565951927 19.3833563859200702   F   F   F
 17.7530837259999217  9.7636989360001234 10.8156001569999933   F   F   F
 17.5520764760982431 23.6701639832244410 19.1896329876206160   F   F   F
  2.0163192525873499 23.7126026982524500 19.2561704709624664   F   F   F
 17.8175610336199703 18.2704507043020463 19.0748659468344819   F   F   F
  9.8737275924896117 23.6313652783486674 13.6635109668671486   F   F   F
 17.7423127120359609  6.9925630128727994 13.6268190355919980   F   F   F
 13.8026212602346625  7.0315523378377005 13.6136808628226014   F   F   F
 13.7994540900694016 20.8842880341781232 13.6437844545666600   F   F   F
 13.8079546360000549  6.9740706690001133 10.8156001569999933   F   F   F
 17.5816307678966375  9.8170764385182459 19.2356539608779578   F   F   F
 19.6974579743066514 11.0785357441400780 17.7126014378004868   F   F   F
 19.6538629919521206 22.3352575743651727 17.7704684599176304   F   F   F
  9.9461079169920605 20.6690021271473192 19.0169209452797894   F   F   F
  3.9723514585510280 25.0790511300775130 14.9840917674602636   F   F   F
 21.6800038133483426 15.3356721266467435 13.6116992318688848   F   F   F
 17.7129905112787789 12.5610806267994910 13.6754548604623416   F   F   F
  3.9606677075299750  8.3788337540272035 14.9991363026998208   F   F   F
 17.7207006799795224  6.9862624654034624 16.3917994986285898   F   F   F
 21.6740697475080495 20.9249723833686367 19.1802315993443067   F   F   F
 21.6770480528860325 26.4958428322499024 19.2262186344381618   F   F   F
 21.6834043330552824  9.7540446405495533 13.6046675020418117   F   F   F
  6.0436015791827584 20.6993903721487555 19.8912776596739391   F   F   F
  5.9176950450000287 15.3429548049998807 10.8156001569999933   F   F   F
 13.7955593481276875 15.3844806639686880 13.6972994541030904   F   F   F
  9.4039985446046277 17.8661648438303935 19.5715818883261399   F   F   F
 21.6496668752911035 20.9182624817666785 13.6103490078700364   F   F   F
 15.7585877152677423 14.0141709171621880 15.1089633836549027   F   F   F
  7.9144435315701331 14.0133853577587377 15.0923786799895883   F   F   F
  7.9418877398677523 19.5409451025756837 15.1218032987199464   F   F   F
 21.6942976054418644  6.9911378439653911 16.4120933557919280   F   F   F
 17.7399414289207620 26.4941699059955091 13.6426093498779384   F   F   F
  1.9725650740000149  6.9740706690001133 10.8156001569999933   F   F   F
 13.6678474521970639 20.8798561542916907 19.1973171248795609   F   F   F
  3.9157818430023545 16.8040616087899011 17.6190056589511173   F   F   F
  5.8922202006332602 12.6319974492951115 19.2398581960630750   F   F   F
  1.9788350148247409  9.7850915198451425 16.3859252133077007   F   F   F
 13.7729706224280921 26.4400886508641726 19.1352405863489388   F   F   F
 13.7506383346630159  9.8523765245043577 19.3459357305490265   F   F   F
 13.7198342750531133 15.3581288842388783 19.3768520532841322   F   F   F
  6.0149368188777244  9.7366929608669359 19.2253464031028116   F   F   F
  3.9451301480000271 13.9481413370000329 12.2103998060000407   F   F   F
 23.6623038544544961  2.7755861636896095 18.5738099810335342   F   F   F
 19.7379237360258166  0.0207602372403815 15.1796013749657313   F   F   F
 19.7947698740296119 16.7347853303526968 15.0896199073491761   F   F   F
  3.9581021010289437  2.7543900358478166 18.5704761009517121   F   F   F
 19.7160631031591294 25.1341422408136879 18.5372595705578149   F   F   F
  3.8724997803101888 16.7318527435651809 15.0626327237739677   F   F   F
 11.8606252321803947  8.3109660532790084 18.1724118849504279   F   F   F
 23.6692190105874438 13.9369673778285428 18.7101254586960160   F   F   F
  0.0000000000000000 13.9481413370000329 12.2103998060000407   F   F   F