Au  C  H  O Sr Ti                       
   1.00000000000000     
    23.6707801818999997    0.0000000000000000    0.0000000000000000
     0.0000000000000000   22.3170261383000010    0.0000000000000000
     0.0000000000000000    0.0000000000000000   30.0000000000000000
   Au   C    H    O    Sr   Ti
    50     2     4   264    72    72
Selective dynamics
Direct
  0.7138751172168313  0.5272328297549091  0.7534579665244295   T   T   T
  0.5677443312364596  0.5115895548268805  0.8569027232825938   T   T   T
  0.6675166712162692  0.1990481802372366  0.7555197147313112   T   T   T
  0.4692330269031870  0.4514577600027645  0.8796031699041796   T   T   T
  0.5156566947030914  0.3785448593525858  0.7328848717408221   T   T   T
  0.2825053810313742  0.3398611506364834  0.7020495814794879   T   T   T
  0.6695919324541936  0.6826563003750403  0.7487059838928286   T   T   T
  0.3976548875586029  0.3817172101965245  0.6901808901016624   T   T   T
  0.4510981777982574  0.5810874610208864  0.7027165078964088   T   T   T
  0.3738330558916203  0.4938208284671728  0.8327087447247025   T   T   T
  0.3248380954773509  0.4154014717992651  0.7686791491937494   T   T   T
  0.3675737386471079  0.6199723450354810  0.8202246871718423   T   T   T
  0.4157802485958533  0.6973880486096374  0.6993404569237588   T   T   T
  0.7720869692679686  0.4319023912695149  0.7953039201848878   T   T   T
  0.2560297601180859  0.5938855936183872  0.6945039672424307   T   T   T
  0.6491138624775304  0.4484508005067013  0.6936755273249615   T   T   T
  0.5627186596524436  0.6414325107015190  0.8621508427672396   T   T   T
  0.5391701865384868  0.6690240229567138  0.7019612830752143   T   T   T
  0.4432961633297798  0.4764574448559176  0.7571055692964724   T   T   T
  0.3732183204352695  0.7411596305363424  0.7786476149102513   T   T   T
  0.4613286821839979  0.5744981489427341  0.8638900822884643   T   T   T
  0.6539908946835443  0.4430020779829604  0.8137231229582481   T   T   T
  0.7067151339768826  0.7579283440007403  0.6881462797768308   T   T   T
  0.6996847911868311  0.3462198260334698  0.7580852131137423   T   T   T
  0.2885975087152715  0.5388186115274048  0.7770972051679459   T   T   T
  0.6165323668331312  0.3246262769464945  0.6961875662474944   T   T   T
  0.5591325589845436  0.2134080535011402  0.7121038119496735   T   T   T
  0.2933989886339098  0.7472495047888265  0.6969616768262116   T   T   T
  0.5106033340650961  0.6042913801613315  0.7770617088952125   T   T   T
  0.5775920102010460  0.7253179725276714  0.7933463974680460   T   T   T
  0.2399148956868758  0.4702890314379219  0.7083665233005799   T   T   T
  0.2846467480211940  0.6629718031416189  0.7645032888978993   T   T   T
  0.5988972386683555  0.2902151289553560  0.7849773228938454   T   T   T
  0.5134407286137548  0.4856733216581789  0.6781704876496992   T   T   T
  0.5627467799607850  0.4868490100327189  0.7619300916360232   T   T   T
  0.4843069872654024  0.2709526486687494  0.7755978611301119   T   T   T
  0.5466671022524499  0.3863384568892753  0.8279900406080094   T   T   T
  0.3910802209742121  0.8189085380106121  0.7062964059288798   T   T   T
  0.4627528929098590  0.6970667731620387  0.8298912920425118   T   T   T
  0.4412825306318557  0.2270757718429359  0.6978012205542262   T   T   T
  0.3700674210761792  0.2986158838617566  0.7551325405029639   T   T   T
  0.3492873374988592  0.4994340875738464  0.6976036459210051   T   T   T
  0.4265929949632290  0.3733180525110429  0.8154844674608119   T   T   T
  0.5965517492434254  0.7849907538036388  0.7127382648000594   T   T   T
  0.6323948208298193  0.5865559306354898  0.8001768345598917   T   T   T
  0.7319346702264576  0.6160149989772449  0.6935252236434989   T   T   T
  0.4853002958419972  0.7771593600707301  0.7546233961765876   T   T   T
  0.7634315922892394  0.4329907382089793  0.7051947462196373   T   T   T
  0.7193997876811083  0.2623252011880427  0.6899172544607868   T   T   T
  0.6199307819593891  0.5728518456458106  0.7039624332516634   T   T   T
  0.7545240263534557  0.1517340836215691  0.7651420602190476   T   T   T
  0.7165467628245031  0.1082817801800465  0.7520113696016926   T   T   T
  0.7635819678309935  0.1602491134151565  0.8000729726342447   T   T   T
  0.7831220939765051  0.1715987646957334  0.7409794692876357   T   T   T
  0.6941061033042103  0.0813155730462702  0.7764840040084600   T   T   T
  0.7149244666254116  0.0935905231504418  0.7174767320649867   T   T   T
  0.7500209290416449  0.1900405764376288  0.4559475205257706   T   T   T
  0.5824509377318906  0.0617764489069874  0.5453486235944315   T   T   T
  0.5859638886737814  0.8141870651498184  0.5503288394377697   T   T   T
  0.7479559486813204  0.3113177931129085  0.5480063444001002   T   T   T
  0.5811776071807410  0.5600971606091404  0.5489887327431893   T   T   T
  0.2527355301309996  0.5592705375638705  0.5438536967056796   T   T   T
  0.4160915902957437  0.3197712348718149  0.5526314849939775   T   T   T
  0.5765874563640953  0.4360954832846703  0.5523571974602105   T   T   T
  0.4168335635301016  0.0654441722029990  0.5473201993271660   T   T   T
  0.0853755234070310  0.8125923061212955  0.5473721359052868   T   T   T
  0.0866674422142534  0.3134937011971869  0.5471250206951693   T   T   T
  0.5003084241700139  0.7572344742755434  0.5925475475902123   T   T   T
  0.0824151745373781  0.0631066306637106  0.5475423550801806   T   T   T
  0.9145404265817617  0.6885113787481736  0.5458897481069888   T   T   T
  0.5842764855389312  0.9375598742161431  0.5463425660029316   T   T   T
  0.9168070186463619  0.1885434339017556  0.5455579926038104   T   T   T
  0.9154534973491532  0.4375357038354875  0.5457463038175673   T   T   T
  0.5792511696716234  0.6861056002664695  0.5475645353792417   T   T   T
  0.2515357715194587  0.9373680970299124  0.5453140346688797   T   T   T
  0.4973368795595085  0.5045511273778902  0.6089634885076732   T   T   T
  0.9179982349512509  0.5637131570532578  0.5470717137279344   T   T   T
  0.4200027186069159  0.5652101467604458  0.5554159515615357   T   T   T
  0.9155788035909073  0.8125737787863184  0.5468198539160088   T   T   T
  0.0841373286474921  0.9384190340432054  0.5461300479106673   T   T   T
  0.2490177012486770  0.6834010924353441  0.5518725767155651   T   T   T
  0.7485831133119107  0.9334989231122005  0.5482303585677134   T   T   T
  0.7517768986962222  0.6800287804180631  0.5534301487739015   T   T   T
  0.9157293912417342  0.9386193150544279  0.5464525197760701   T   T   T
  0.4181430884349239  0.0651220333928264  0.6401349084512786   T   T   T
  0.5825460908604621  0.9372392570656322  0.4545403683694763   T   T   T
  0.2533385090057001  0.8126180585551374  0.5505821896277058   T   T   T
  0.5826132384144261  0.3111452267350121  0.5449647961513124   T   T   T
  0.7524810367895204  0.4346921423264885  0.5496631691697651   T   T   T
  0.0856626448700326  0.6893572276984238  0.5454835991711388   T   T   T
  0.0831534961033749  0.4386112824940164  0.5450778103961049   T   T   T
  0.0836903058250179  0.1888363874261727  0.5457715821762487   T   T   T
  0.4993905507873505  0.1260225003753788  0.4990863788192069   T   T   T
  0.9999034016182444  0.4985185166701567  0.5941744436122564   T   T   T
  0.5800038241062453  0.1848137937928146  0.5506618889721944   T   T   T
  0.9997571082918492  0.7537862467791598  0.5928931856234173   T   T   T
  0.3341873427963116  0.0000140835157993  0.5921024852513422   T   T   T
  0.9999301933153285  0.9987330183596959  0.5930775126446245   T   T   T
  0.0012098322666250  0.2495189883728937  0.5922749599958366   T   T   T
  0.3331812942757694  0.4964471914389110  0.5907388874976737   T   T   T
  0.3354045483874165  0.7412140625287269  0.5904612097386811   T   T   T
  0.6632117946977072  0.2479536219036093  0.5902831100591676   T   T   T
  0.6665030135741191  0.0026148530073937  0.5917468516177428   T   T   T
  0.6655748157168764  0.7412036930550076  0.5908706577715223   T   T   T
  0.6666214526442124  0.4946647928698811  0.5915052735677413   T   T   T
  0.1675415363313004  0.9983939253319579  0.5923383575779024   T   T   T
  0.1686338097429873  0.2482614029410050  0.5931354364831708   T   T   T
  0.1710580015033359  0.7505175099592444  0.5951136113078160   T   T   T
  0.2482892293757821  0.4360369338892642  0.5489150344309675   T   T   T
  0.1656432212434107  0.5033814507908380  0.5871792167020908   T   T   T
  0.3350388713013466  0.2549611521194325  0.5931362621908607   T   T   T
  0.5000512869583450  0.0000004742817182  0.5911881012164900   T   T   T
  0.8326516625886170  0.8742712211431170  0.4992647213521326   T   T   T
  0.7479710960152213  0.9392861311636033  0.6412834121910146   T   T   T
  0.8321316287601145  0.0020632783352140  0.5922794931502529   T   T   T
  0.7485231308102166  0.1834926294843709  0.5509711148439926   T   T   T
  0.4230577386503089  0.6882115503239520  0.5466805297292644   T   T   T
  0.4231752761963176  0.4439801434803868  0.5456311771860568   T   T   T
  0.0833333358191695  0.3124999999901945  0.3605200052333331   F   F   F
  0.4126922932908135  0.8131255938498296  0.6396383481072557   T   T   T
  0.9160690653664483  0.0630709477460032  0.6408879805503748   T   T   T
  0.9142890915568719  0.5626961794155683  0.6408970007634064   T   T   T
  0.4177312861631998  0.9349151966900900  0.6398064686683215   T   T   T
  0.7412993002716891  0.8106163175147092  0.6395754314537521   T   T   T
  0.7465800325305314  0.3134199456164858  0.6390782984835633   T   T   T
  0.7486879927219953  0.0701843065814896  0.6395970859586748   T   T   T
  0.0843490802296579  0.3115656478726381  0.6408268558150652   T   T   T
  0.6665288908935315  0.8742983430978410  0.4986681176347978   T   T   T
  0.0866965752903316  0.5631222174944911  0.6399132433162654   T   T   T
  0.0874682304446687  0.4367820058691678  0.6398359845327232   T   T   T
  0.0841323365840947  0.1855852474146466  0.6415798949283943   T   T   T
  0.4185624707138300  0.1876794925693228  0.6398791961813965   T   T   T
  0.4147180980652239  0.4188369162799025  0.6298726671232349   T   T   T
  0.0844645065198816  0.9355970504535678  0.6410666433641874   T   T   T
  0.0833982286835424  0.6871795611533903  0.6388316452799092   T   T   T
  0.0840638125474290  0.0603522562564279  0.6421190853102264   T   T   T
  0.8333654479308898  0.5033614547846682  0.5891824538626445   T   T   T
  0.9125368182041594  0.4361777351286488  0.6399594485160476   T   T   T
  0.8304279380911631  0.7509516560823295  0.5926917376213006   T   T   T
  0.8317295322760533  0.2487373486215509  0.5908327109388261   T   T   T
  0.7453330671112027  0.1958204144335742  0.6470901350238973   T   T   T
  0.9166666865332829  0.8124999999834799  0.3605200052333331   F   F   F
  0.5829844716926070  0.9366382642023542  0.6395751306170504   T   T   T
  0.0846838518934625  0.8126593190031943  0.6425620497572267   T   T   T
  0.5795819198142558  0.1927698442296229  0.6457071237330702   T   T   T
  0.2544887727456560  0.6781032467954470  0.6626872513388552   T   T   T
  0.2406849129904793  0.4421680714285268  0.6411329548773113   T   T   T
  0.9141983825370019  0.9374573552710235  0.6414745288842536   T   T   T
  0.9163224788623261  0.6876914490615600  0.6390511044693492   T   T   T
  0.2521251037931792  0.9302934389082415  0.6372987265749812   T   T   T
  0.2535423415901916  0.1864646914996594  0.6412629560873588   T   T   T
  0.3967127622601842  0.5507188384516786  0.6518779840552291   T   T   T
  0.4157919722097295  0.1916134924087592  0.5466358557920867   T   T   T
  0.7527695272913091  0.5687989791043176  0.6355981181387141   T   T   T
  0.5000172519161977  0.8732595210472242  0.5010550474056638   T   T   T
  0.9151245388222395  0.3118390148808929  0.6398317423868358   T   T   T
  0.9130188989623436  0.8135643150838708  0.6419959652797761   T   T   T
  0.5827994179421344  0.0670887014499547  0.6389610558421809   T   T   T
  0.2492723267228326  0.3137678279543393  0.5459142315259110   T   T   T
  0.5902981956852413  0.5668232232916058  0.6387225109116436   T   T   T
  0.2476261425360933  0.5740305808518172  0.6287675455297500   T   T   T
  0.7541247575036667  0.6928261656840871  0.6568386851002956   T   T   T
  0.2626519632720903  0.8005566816079388  0.6461732651853287   T   T   T
  0.2509939189770585  0.0595187913127552  0.6423434840076893   T   T   T
  0.9166666865332829  0.5625000000092442  0.3605200052333331   F   F   F
  0.4995780086496963  0.3743502151641200  0.4997343132696687   T   T   T
  0.5003218997192638  0.6211049078760099  0.5000055718880775   T   T   T
  0.8324960693640815  0.6230656055577821  0.5002329620408951   T   T   T
  0.2523394429149253  0.1883320800688610  0.5473585503352394   T   T   T
  0.8324703297751122  0.3731080650854637  0.4997226599727257   T   T   T
  0.8328334673731590  0.1246831663431103  0.5000458828311156   T   T   T
  0.1667360789665926  0.3761759178034383  0.4976911937640049   T   T   T
  0.1675961862739080  0.6243026846343289  0.5002506404838750   T   T   T
  0.5808261721815740  0.4399367095021754  0.6469038441286368   T   T   T
  0.5766949507773365  0.6868586839043809  0.6397135073598956   T   T   T
  0.9160466706264583  0.1862659781755280  0.6398867510529590   T   T   T
  0.2490436753788169  0.3163261536004329  0.6412433972523423   T   T   T
  0.1677856311275480  0.8732474307525652  0.4998521546236676   T   T   T
  0.9159542107171912  0.4369071501771543  0.4536395051189005   T   T   T
  0.1671167614309753  0.1245219562858817  0.4994873421932527   T   T   T
  0.7488921690105627  0.0602584642742240  0.5447091888595066   T   T   T
  0.4308051412124712  0.3054089912337265  0.6565013715746629   T   T   T
  0.5909993306598154  0.8108311447082915  0.6458349311054518   T   T   T
  0.4204689622627574  0.6762860081343846  0.6336251987530048   T   T   T
  0.7549477772997568  0.4339517868025073  0.6385462412971907   T   T   T
  0.4988617522648732  0.2532949958404377  0.5908177648721880   T   T   T
  0.5833570902171187  0.3217285392583362  0.6336450306420236   T   T   T
  0.9157902500898015  0.1868872574367987  0.4532718349749514   T   T   T
  0.6653456581159245  0.6260278249297133  0.5029871480068051   T   T   T
  0.5845478164188356  0.5629047344469322  0.4548913342645968   T   T   T
  0.5833515991541782  0.0638375679042901  0.4538262894126664   T   T   T
  0.9166666865332829  0.6874999999963620  0.3605200052333331   F   F   F
  0.9166666865332829  0.4374999701794380  0.3605200052333331   F   F   F
  0.9166666865332829  0.1875000000030838  0.3605200052333331   F   F   F
  0.5833333134730552  0.9375000000154046  0.3605200052333331   F   F   F
  0.5833333134730552  0.6874999999963620  0.3605200052333331   F   F   F
  0.5833333134730552  0.4374999701794380  0.3605200052333331   F   F   F
  0.5833333134730552  0.1875000000030838  0.3605200052333331   F   F   F
  0.2499999999799343  0.9375000000154046  0.3605200052333331   F   F   F
  0.9166666865332829  0.9375000000154046  0.3605200052333331   F   F   F
  0.2499999999799343  0.6874999999963620  0.3605200052333331   F   F   F
  0.2499999999799343  0.1875000000030838  0.3605200052333331   F   F   F
  0.7499999404149307  0.9375000000154046  0.3605200052333331   F   F   F
  0.7499999404149307  0.6874999999963620  0.3605200052333331   F   F   F
  0.7499999404149307  0.4374999701794380  0.3605200052333331   F   F   F
  0.7499999404149307  0.1875000000030838  0.3605200052333331   F   F   F
  0.4166666269218169  0.9375000000154046  0.3605200052333331   F   F   F
  0.4166666269218169  0.6874999999963620  0.3605200052333331   F   F   F
  0.4166666269218169  0.4374999701794380  0.3605200052333331   F   F   F
  0.2499999999799343  0.4374999701794380  0.3605200052333331   F   F   F
  0.0833333358191695  0.0625000000159659  0.3605200052333331   F   F   F
  0.9153088071156035  0.6868857364557283  0.4533433355344457   T   T   T
  0.6654698162058273  0.3787724489840876  0.5033028651276776   T   T   T
  0.3343805318074199  0.3784862467005158  0.5030069886771220   T   T   T
  0.3356767108196808  0.6258384964753636  0.5037653474552695   T   T   T
  0.9171957428749707  0.0633080087236160  0.5473467365094848   T   T   T
  0.7498734336732017  0.9385399473659017  0.4555233490366974   T   T   T
  0.2499554343493740  0.9362013666448573  0.4540728947869332   T   T   T
  0.2499846523855509  0.1887063044840984  0.4543182466939963   T   T   T
  0.7491127146255212  0.6886541804863459  0.4575033090479496   T   T   T
  0.2504839653936369  0.0620835344727329  0.4542971186647730   T   T   T
  0.4174602781316222  0.9358071952186519  0.4538788237506338   T   T   T
  0.4160429171751903  0.9373198917273999  0.5460201409030373   T   T   T
  0.4171602060754390  0.6847573064374418  0.4546774819786252   T   T   T
  0.4164342474561870  0.4354456476112797  0.4538273202348532   T   T   T
  0.0844278054984303  0.6870026663254948  0.4531969788060389   T   T   T
  0.0840902581102782  0.9368827131202799  0.4537157928854803   T   T   T
  0.0827619428170345  0.4368242032852646  0.4528777523883016   T   T   T
  0.0838851551620488  0.1865573973690290  0.4529908348201481   T   T   T
  0.9165754187199554  0.8123710211377677  0.4540460639595169   T   T   T
  0.7463980829380946  0.5576383309674247  0.5446161956391373   T   T   T
  0.9161187350973929  0.5622208311612568  0.4540542766377994   T   T   T
  0.9161832084858712  0.0622415515166602  0.4541350537585196   T   T   T
  0.9162430150745799  0.3121909646970347  0.4538713932374943   T   T   T
  0.4168537368186712  0.1872796428795392  0.4536667028063313   T   T   T
  0.5827839853060534  0.4397122714578073  0.4564263914405876   T   T   T
  0.2520693876196116  0.6876393794062864  0.4561411279345642   T   T   T
  0.5831692810126491  0.1903982292086739  0.4556832014785669   T   T   T
  0.0001483136969529  0.1251211340814149  0.4984510547514488   T   T   T
  0.5832216670285623  0.8104462458292581  0.4552912028273072   T   T   T
 -0.0000048072916334  0.3735041300333798  0.4984158018194445   T   T   T
  0.9998007258871004  0.6272759265451630  0.4976362043939015   T   T   T
  0.3336785600442010  0.1255875609241789  0.4985915573401321   T   T   T
  0.0001439929555151  0.8751495851737940  0.4996127780784187   T   T   T
  0.3335248027629489  0.8744626802871406  0.4992275271146305   T   T   T
  0.6658600488464415  0.1262937704871751  0.5002135203271759   T   T   T
  0.2511656501743292  0.4393361885009919  0.4548701487869435   T   T   T
  0.0833333358191695  0.5625000000092442  0.3605200052333331   F   F   F
  0.9166666865332829  0.0625000000159659  0.3605200052333331   F   F   F
  0.7495655535264143  0.8131902389699790  0.4529664362923692   T   T   T
  0.7496643746918071  0.4386212642781563  0.4562615234760167   T   T   T
  0.9163426683127811  0.9370579594364334  0.4536597602220595   T   T   T
  0.9156775530362503  0.3124887723063475  0.5467277727995872   T   T   T
  0.0809387542316937  0.5644031181712904  0.5463810555501448   T   T   T
  0.5833333134730552  0.0625000000159659  0.3605200052333331   F   F   F
  0.5843921722581082  0.3156442057861676  0.4537042918623621   T   T   T
  0.7477461160537323  0.8073419920376614  0.5452176511331467   T   T   T
  0.5000000000021103  0.4999999999932783  0.4070133268666680   F   F   F
  0.0833333358191695  0.1875000000030838  0.3605200052333331   F   F   F
  0.0000000000000000  0.0000000000000000  0.4070133268666680   F   F   F
  0.0000000000000000  0.2500000000190425  0.4070133268666680   F   F   F
  0.0000000000000000  0.4999999999932783  0.4070133268666680   F   F   F
  0.7482010165121921  0.5643532218752048  0.4537809365946880   T   T   T
  0.3333333432766779  0.0000000000000000  0.4070133268666680   F   F   F
  0.3333333432766779  0.4999999999932783  0.4070133268666680   F   F   F
  0.3333333432766779  0.7500000000123208  0.4070133268666680   F   F   F
  0.6666666865533486  0.0000000000000000  0.4070133268666680   F   F   F
  0.6666666865533486  0.2500000000190425  0.4070133268666680   F   F   F
  0.6666666865533486  0.4999999999932783  0.4070133268666680   F   F   F
  0.8333332538436267  0.2500000000190425  0.4070133268666680   F   F   F
  0.1666666716383389  0.0000000000000000  0.4070133268666680   F   F   F
  0.1666666716383389  0.4999999999932783  0.4070133268666680   F   F   F
  0.1666666716383389  0.7500000000123208  0.4070133268666680   F   F   F
  0.5000000000021103  0.0000000000000000  0.4070133268666680   F   F   F
  0.5000000000021103  0.2500000000190425  0.4070133268666680   F   F   F
  0.5000000000021103  0.7500000000123208  0.4070133268666680   F   F   F
  0.9166666865332829  0.3124999999901945  0.3605200052333331   F   F   F
  0.3333333432766779  0.2500000000190425  0.4070133268666680   F   F   F
  0.7474715137828462  0.3142857211491337  0.4547978584484772   T   T   T
  0.0000000000000000  0.7500000000123208  0.4070133268666680   F   F   F
  0.4166735713362160  0.8100483761957781  0.4551173576484242   T   T   T
  0.7491923083507589  0.0643951468435465  0.4533938816070393   T   T   T
  0.8333332538436267  0.0000000000000000  0.4070133268666680   F   F   F
  0.5827819166934339  0.6861929073456590  0.4546401628952262   T   T   T
  0.2517935823908913  0.5646410371228302  0.4538329321038737   T   T   T
  0.1666666716383389  0.2500000000190425  0.4070133268666680   F   F   F
  0.2507253232618167  0.8108899721405154  0.4553284317189044   T   T   T
  0.6666666865533486  0.7500000000123208  0.4070133268666680   F   F   F
  0.5833333134730552  0.8124999999834799  0.3605200052333331   F   F   F
  0.2499999999799343  0.5625000000092442  0.3605200052333331   F   F   F
  0.5833333134730552  0.5625000000092442  0.3605200052333331   F   F   F
  0.2499999999799343  0.8124999999834799  0.3605200052333331   F   F   F
  0.2499999999799343  0.3124999999901945  0.3605200052333331   F   F   F
  0.2499999999799343  0.0625000000159659  0.3605200052333331   F   F   F
  0.7499999404149307  0.5625000000092442  0.3605200052333331   F   F   F
  0.7499999404149307  0.3124999999901945  0.3605200052333331   F   F   F
  0.7499999404149307  0.0625000000159659  0.3605200052333331   F   F   F
  0.4166666269218169  0.8124999999834799  0.3605200052333331   F   F   F
  0.4166666269218169  0.3124999999901945  0.3605200052333331   F   F   F
  0.7499999404149307  0.8124999999834799  0.3605200052333331   F   F   F
  0.0835321196985133  0.3119340367475442  0.4540302301092985   T   T   T
  0.4166666269218169  0.0625000000159659  0.3605200052333331   F   F   F
  0.4169330103750927  0.0615764866421824  0.4553824056870268   T   T   T
  0.0834770861614870  0.8121570807361661  0.4541786196030303   T   T   T
  0.4166666269218169  0.5625000000092442  0.3605200052333331   F   F   F
  0.4138289263252946  0.8121080394220545  0.5478845642172114   T   T   T
  0.5833333134730552  0.3124999999901945  0.3605200052333331   F   F   F
  0.0840141384225997  0.5625115668260817  0.4539646115393642   T   T   T
  0.2510918943439421  0.0625629507691987  0.5472574238882949   T   T   T
  0.8333332538436267  0.4999999999932783  0.4070133268666680   F   F   F
  0.4166666269218169  0.1875000000030838  0.3605200052333331   F   F   F
  0.0833333358191695  0.9375000000154046  0.3605200052333331   F   F   F
  0.0833333358191695  0.8124999999834799  0.3605200052333331   F   F   F
  0.0833333358191695  0.4374999701794380  0.3605200052333331   F   F   F
  0.8333332538436267  0.7500000000123208  0.4070133268666680   F   F   F
  0.4155612228726862  0.3114034985908669  0.4573832531347712   T   T   T
  0.0837651815899122  0.0619579435737608  0.4542074514521987   T   T   T
  0.4160639902998805  0.5595398699655512  0.4578763360770928   T   T   T
  0.0833333358191695  0.6874999999963620  0.3605200052333331   F   F   F
  0.2522408727034479  0.3144343777810424  0.4539488534827845   T   T   T
  0.1666666716383389  0.8749999404036828  0.4070133268666680   F   F   F
  0.5000000000021103  0.1249999999871179  0.4070133268666680   F   F   F
  0.8362382791631301  0.7517558879083422  0.5026506360036753   T   T   T
  0.8380911291025154  0.3730328142945391  0.6032580141250454   T   T   T
  0.8314305247658668  0.8776554647662902  0.6183997111964988   T   T   T
  0.1635414855207626  0.4998921709122426  0.5019076891037931   T   T   T
  0.5000000000021103  0.8749999404036828  0.4070133268666680   F   F   F
  0.3318726541052550  0.1197235074055402  0.6136361685050232   T   T   T
  0.8396953882441133  0.6269634127227752  0.6041026884466671   T   T   T
  0.5000000000021103  0.6249999999803961  0.4070133268666680   F   F   F
  0.6652860290871698  0.1251960358888619  0.6078509428876311   T   T   T
  0.8333332538436267  0.1249999999871179  0.4070133268666680   F   F   F
  0.8333332538436267  0.3750000000061604  0.4070133268666680   F   F   F
  0.9990168947024638  0.8749975991146216  0.6238725204350059   T   T   T
  0.0000000000000000  0.1249999999871179  0.4070133268666680   F   F   F
  0.9999164525946715  0.6236707148181438  0.6238808467501198   T   T   T
  0.1666666716383389  0.6249999999803961  0.4070133268666680   F   F   F
  0.3341103466547926  0.6248183307266352  0.5950706833831381   T   T   T
  0.5005472671017002  0.1225465161371175  0.6065736973482651   T   T   T
  0.8353241497392114  0.1241283243081082  0.6123205229022625   T   T   T
  0.0004627524001175  0.3753180727084606  0.6246331569223628   T   T   T
  0.6665610740082514  0.6260420302741206  0.5929624368515336   T   T   T
  0.6659052915931385  0.8820805356552956  0.6071198479860698   T   T   T
  0.1633359967095629  0.3713905615155314  0.6074170592093692   T   T   T
  0.1677914107908861  0.1226922795026612  0.6217805450050498   T   T   T
  0.1598500676447618  0.6277269726185878  0.6014638881961644   T   T   T
  0.5014657844417351  0.3717709162240968  0.5949612767925029   T   T   T
  0.1663572972380227  0.8737677594372114  0.6176194441907441   T   T   T
  0.3347834857761474  0.8790063044305355  0.6025904418927264   T   T   T
  0.6705346039096324  0.3728402260620787  0.5927061182174530   T   T   T
  0.6666666865533486  0.8749999404036828  0.4070133268666680   F   F   F
  0.5000000000021103  0.3750000000061604  0.4070133268666680   F   F   F
  0.5036994306294469  0.6252331339345234  0.5939494618204713   T   T   T
  0.0000000000000000  0.3750000000061604  0.4070133268666680   F   F   F
  0.1666666716383389  0.1249999999871179  0.4070133268666680   F   F   F
  0.5015843298955311  0.8773422746068295  0.6096942009038012   T   T   T
  0.8363576527291178  0.5001356683457582  0.5028706926666611   T   T   T
  0.9997481573218577  0.4999644186569807  0.5067648027019603   T   T   T
  0.5012340587610138  0.4998047969077748  0.5001632090759062   T   T   T
  0.6668131982028647  0.2481975259074740  0.5024068499059386   T   T   T
  0.3331708998678725  0.0011843983948963  0.5058498160563419   T   T   T
  0.3301994032551756  0.2481496942021840  0.5028841448578465   T   T   T
  0.6684223598979685  0.5001096606507835  0.5005827348086306   T   T   T
  0.8333332538436267  0.6249999999803961  0.4070133268666680   F   F   F
  0.1644870334837389  0.7514888748525111  0.5035023983566476   T   T   T
  0.6660479038993814  0.0000239750307852  0.5056223563098913   T   T   T
  0.5011784420155879  0.7529708710600640  0.5037578251313216   T   T   T
  0.6654239614198505  0.7518442666404862  0.5021501107592062   T   T   T
  0.1666666716383389  0.3750000000061604  0.4070133268666680   F   F   F
  0.3257397264341476  0.3737752933761369  0.5925972887967136   T   T   T
  0.0009807534554840  0.1231535243372658  0.6195908866501998   T   T   T
  0.8361530953626777  0.2486889127477397  0.5025375410667794   T   T   T
  0.6666666865533486  0.3750000000061604  0.4070133268666680   F   F   F
  0.3311706129345266  0.4992689456706609  0.5007453087702333   T   T   T
  0.0000000000000000  0.8749999404036828  0.4070133268666680   F   F   F
  0.1660165570833652  0.0011948613841684  0.5065517515963199   T   T   T
  0.3339098487076993  0.7512619804099931  0.5015277638706407   T   T   T
  0.5003791659062338  0.9992390322867390  0.5055695793913515   T   T   T
  0.1663632783677511  0.2481691651301882  0.5063024372497036   T   T   T
  0.0000000000000000  0.6249999999803961  0.4070133268666680   F   F   F
  0.6666666865533486  0.1249999999871179  0.4070133268666680   F   F   F
  0.8342860623304855  0.9999701426098271  0.5064929639500820   T   T   T
  0.3333333432766779  0.3750000000061604  0.4070133268666680   F   F   F
  0.3333333432766779  0.8749999404036828  0.4070133268666680   F   F   F
  0.3333333432766779  0.6249999999803961  0.4070133268666680   F   F   F
  0.8333332538436267  0.8749999404036828  0.4070133268666680   F   F   F
  0.6666666865533486  0.6249999999803961  0.4070133268666680   F   F   F
  0.0002333219011476  0.9999225850625202  0.5066899115595264   T   T   T
  0.0011127629532692  0.2498096344769061  0.5062071362810272   T   T   T
  0.9999707760244043  0.7511214816903414  0.5067900964197144   T   T   T
  0.5010283107821958  0.2480952312337616  0.5022159188814694   T   T   T
  0.3333333432766779  0.1249999999871179  0.4070133268666680   F   F   F
  0.0833333358191695  0.2500000000190425  0.4070133268666680   F   F   F
  0.7521661101807890  0.7525677949074535  0.5905302414966755   T   T   T
  0.2499999999799343  0.2500000000190425  0.4070133268666680   F   F   F
  0.0833333358191695  0.7500000000123208  0.4070133268666680   F   F   F
  0.0833333358191695  0.4999999999932783  0.4070133268666680   F   F   F
  0.0833333358191695  0.0000000000000000  0.4070133268666680   F   F   F
  0.9187119675533738  0.3743039184340592  0.5058804769899289   T   T   T
  0.9166666865332829  0.7500000000123208  0.4070133268666680   F   F   F
  0.5831341198182611  0.1234554044738483  0.5045405481648957   T   T   T
  0.7525413574258163  0.6247350330664136  0.5023689813405486   T   T   T
  0.5839587826479405  0.8759072224478578  0.5057072112228739   T   T   T
  0.9179787692667626  0.1249001274170864  0.5062065837985531   T   T   T
  0.4166666269218169  0.4999999999932783  0.4070133268666680   F   F   F