Au  C  H  O Sr Ti                       
   1.00000000000000     
    23.6707801818999997    0.0000000000000000    0.0000000000000000
     0.0000000000000000   27.8962826732999716    0.0000000000000000
     0.0000000000000000    0.0000000000000000   30.0000000000000000
   Au   C    H    O    Sr   Ti
    50     7    15   330    90    90
Selective dynamics
Direct
  0.7122616005388372  0.6255294679644993  0.7547601092502327   T   T   T
  0.2941479925955843  0.7977116040059944  0.6966265848514724   T   T   T
  0.5079428636007054  0.6853445347363532  0.7783512381227834   T   T   T
  0.5775622725714773  0.7790400971244408  0.7943257366356621   T   T   T
  0.2403509675308153  0.5752453283077517  0.7092377498914622   T   T   T
  0.2855584665362445  0.7298400442686067  0.7642899316221311   T   T   T
  0.6017925188668170  0.4269680489793934  0.7844654906017215   T   T   T
  0.5137296826366984  0.5881199214152361  0.6782381933518811   T   T   T
  0.4857001400125744  0.4167929662402005  0.7741565980340644   T   T   T
  0.6191130086930778  0.4563601112223050  0.6976638024403502   T   T   T
  0.4609118081347179  0.7585132788468155  0.8327480260438218   T   T   T
  0.5520238771186041  0.5083774791982009  0.8269095669855460   T   T   T
  0.5619789419593091  0.5918857468538889  0.7632694497814092   T   T   T
  0.5540056772635246  0.3711683981542107  0.7095300617466140   T   T   T
  0.7375325304841622  0.3974136257391602  0.6939482852782720   T   T   T
  0.7610281790609302  0.5514403961698610  0.7043790527061377   T   T   T
  0.4857661965937881  0.8209178559462308  0.7553092073948476   T   T   T
  0.6203325893905647  0.6580031049730811  0.7037368050388026   T   T   T
  0.6295934346361821  0.6724761514664249  0.8010864784714655   T   T   T
  0.4300791065434231  0.4967543910559721  0.8151938719756167   T   T   T
  0.3490511614523270  0.5999979637108646  0.6979597471894002   T   T   T
  0.3698808078831346  0.4389949923261513  0.7557034184428607   T   T   T
  0.7324070311747237  0.6934743750896720  0.6932298045854537   T   T   T
  0.4368231188178937  0.3812611568138723  0.6981794259194697   T   T   T
  0.5199481027646800  0.5032254933427672  0.7330181181978369   T   T   T
  0.5670987205199707  0.6116779322462059  0.8586093758253325   T   T   T
  0.2571546587188916  0.6744531051433298  0.6946011538305733   T   T   T
  0.6639498502468250  0.3465157240127411  0.7414871478580385   T   T   T
  0.4717131236438091  0.5598371166322565  0.8774037021534193   T   T   T
  0.3920562308926833  0.8544303517872357  0.7065262390563651   T   T   T
  0.6699297947737229  0.7463695026727484  0.7486954722445497   T   T   T
  0.3978757202577157  0.5057633092075688  0.6907574537931447   T   T   T
  0.4512970495020368  0.6641642764058254  0.7035271857838677   T   T   T
  0.3750722626587879  0.5940153340319049  0.8332091777369952   T   T   T
  0.2892161870572009  0.6301830286784782  0.7778007292629123   T   T   T
  0.3678227202826371  0.6952192797014276  0.8201808261975252   T   T   T
  0.5964437758002044  0.8274149739347670  0.7133849980068669   T   T   T
  0.7751681051581545  0.5531023657646857  0.7943443096420911   T   T   T
  0.2821728934414562  0.4715965378079178  0.7023704064988130   T   T   T
  0.6457164147858160  0.5567583791566408  0.6955850327279266   T   T   T
  0.6944706841019590  0.4866029012456770  0.7640012046521546   T   T   T
  0.3252828154292581  0.5317100579567539  0.7693504405960340   T   T   T
  0.7070131629512019  0.8059972121771497  0.6877973826174607   T   T   T
  0.6557869076787857  0.5625918703101420  0.8171669712090402   T   T   T
  0.4601963537602559  0.6590099077474055  0.8654176703448211   T   T   T
  0.4157315480058383  0.7571291576625016  0.6998456848137062   T   T   T
  0.4435628362839744  0.5786644412235412  0.7565514495390462   T   T   T
  0.5394766557749029  0.7348732557669408  0.7024155409730624   T   T   T
  0.5604541137332966  0.7145937289785383  0.8647115287900917   T   T   T
  0.3735907904330394  0.7930450723173276  0.7790421449213314   T   T   T
  0.7210038438449629  0.2889108378175640  0.7503577679880039   T   T   T
  0.7561378608800888  0.4337268165696100  0.7504090050262351   T   T   T
  0.6516430064250658  0.2502315943601612  0.8050973324796328   T   T   T
  0.5800063213925768  0.2119923998514816  0.8579481692620851   T   T   T
  0.6136160969174859  0.2071678283819352  0.8145452966268157   T   T   T
  0.6844774992596808  0.2460209263677151  0.7611644325521174   T   T   T
  0.5417238257073136  0.1688615793336271  0.8668610262048554   T   T   T
  0.7485513119557859  0.3002344387263258  0.7776109769750981   T   T   T
  0.7136632661758738  0.2151896132566440  0.7630242025721294   T   T   T
  0.5543553834952886  0.2447468599538346  0.8565249381581346   T   T   T
  0.6253462769360459  0.2828216768460633  0.8042640974836223   T   T   T
  0.6560516114486253  0.2377775711335071  0.7333462624119322   T   T   T
  0.5843056071332070  0.2024190911387539  0.7865536606690262   T   T   T
  0.6395386609200374  0.1745817328679215  0.8158505237781466   T   T   T
  0.6094198161213917  0.2167643826823247  0.8858740740104036   T   T   T
  0.5111152141360494  0.1641617817824495  0.8399349898713854   T   T   T
  0.5183215117407107  0.1731156393416800  0.8980096997641721   T   T   T
  0.6815796873111576  0.2554426695686057  0.8326651653189644   T   T   T
  0.7437161855012528  0.2857537354964975  0.7189067228609065   T   T   T
  0.5665028726156297  0.1358755904101831  0.8692360642179198   T   T   T
  0.7550693818519205  0.4117556655100400  0.7805468619891817   T   T   T
  0.7959883970492364  0.4531165311700718  0.7470692760870490   T   T   T
  0.0000000000000000  0.8000000000129006  0.4070133268666680   F   F   F
  0.5833333134730552  0.6500000000127244  0.3605200052333331   F   F   F
  0.5000000000021103  0.4000000000243773  0.4070133268666680   F   F   F
  0.0833333358191695  0.3500000000123720  0.3605200052333331   F   F   F
  0.9166666865332829  0.4500000000005357  0.3605200052333331   F   F   F
  0.5766690135290042  0.5483131550962199  0.5523458695695069   T   T   T
  0.5844417777443877  0.6499344613603101  0.4548995073468929   T   T   T
  0.6666666865533486  0.4000000000243773  0.4070133268666680   F   F   F
  0.2516252310226370  0.7500919256557980  0.4561525125821665   T   T   T
  0.3333333432766779  0.8000000000129006  0.4070133268666680   F   F   F
  0.3337931548722264  0.3009153130133365  0.4988072299542763   T   T   T
  0.9998123011378210  0.7020169226910837  0.4972488065401505   T   T   T
  0.9161169174033493  0.6497753174040934  0.4542410020411535   T   T   T
  0.5833333134730552  0.9500000000130839  0.3605200052333331   F   F   F
  0.9163686965866520  0.9496075205092885  0.4537395604384626   T   T   T
  0.7499999404149307  0.4500000000005357  0.3605200052333331   F   F   F
  0.4166666269218169  0.8499999999890662  0.3605200052333331   F   F   F
  0.7499999404149307  0.6500000000127244  0.3605200052333331   F   F   F
  0.1666666716383389  0.2000000000121887  0.4070133268666680   F   F   F
  0.7499999404149307  0.2500000000242011  0.3605200052333331   F   F   F
  0.4166666269218169  0.4500000000005357  0.3605200052333331   F   F   F
  0.0833333358191695  0.9500000000130839  0.3605200052333331   F   F   F
  0.4159025208485390  0.6470603469447266  0.4581904763119735   T   T   T
  0.2505718896774877  0.8484064381855020  0.4555005630917266   T   T   T
  0.5833333134730552  0.8499999999890662  0.3605200052333331   F   F   F
  0.7499999404149307  0.1500000000001833  0.3605200052333331   F   F   F
  0.2518972138885850  0.4517928681986796  0.4538146195153641   T   T   T
  0.2499999999799343  0.1500000000001833  0.3605200052333331   F   F   F
  0.9166666865332829  0.1500000000001833  0.3605200052333331   F   F   F
  0.5834741982364039  0.0495779358356729  0.4541914341481891   T   T   T
  0.2501609230674726  0.0490907843947894  0.4542484062589952   T   T   T
  0.7499442946913949  0.0500330943040401  0.4536570676776135   T   T   T
  0.4164771712216386  0.0490618501253185  0.4544484220424277   T   T   T
  0.0832975374934268  0.0497578663327878  0.4538983142548749   T   T   T
  0.8333332538436267  0.0000000000000000  0.4070133268666680   F   F   F
  0.4999436445292511  0.1001525612384191  0.4988396432890907   T   T   T
  0.9995610105243848  0.5990529553516221  0.5941845050298002   T   T   T
  0.0836338176010915  0.1505789930032335  0.5463029246609837   T   T   T
  0.2499999999799343  0.2500000000242011  0.3605200052333331   F   F   F
  0.4166666269218169  0.6500000000127244  0.3605200052333331   F   F   F
  0.5000000000021103  0.8000000000129006  0.4070133268666680   F   F   F
  0.0000000000000000  0.2000000000121887  0.4070133268666680   F   F   F
  0.5828669629265018  0.3530362078779392  0.4561544630429058   T   T   T
  0.2502561664640917  0.2503047375288225  0.4543938312456657   T   T   T
  0.7489940073097540  0.5503036402258045  0.4556061303242414   T   T   T
  0.7499518421805514  0.8498891822123481  0.4537343800869840   T   T   T
  0.9166666865332829  0.2500000000242011  0.3605200052333331   F   F   F
  0.0833333358191695  0.6500000000127244  0.3605200052333331   F   F   F
  0.6661677993941157  0.3015446098985475  0.4996997464518144   T   T   T
  0.2519662575461645  0.6518814254607260  0.4537825101224202   T   T   T
  0.5833333134730552  0.4500000000005357  0.3605200052333331   F   F   F
  0.4166666269218169  0.2500000000242011  0.3605200052333331   F   F   F
  0.0837597092107630  0.0497926394808963  0.5465621828597499   T   T   T
  0.9163530901441298  0.1507251765994268  0.5463537138646490   T   T   T
  0.5827830299959497  0.1498178636378510  0.5476418119904660   T   T   T
  0.2501220092925798  0.1502661666053448  0.5464628979349083   T   T   T
  0.7498337134549067  0.1498327826014016  0.5469697380341028   T   T   T
  0.5829037062090898  0.8475628836151395  0.4557236593284724   T   T   T
  0.0000000000000000  0.0000000000000000  0.4070133268666680   F   F   F
  0.9999519951462129  0.4992209581485369  0.4983660868284480   T   T   T
  0.8333332538436267  0.2000000000121887  0.4070133268666680   F   F   F
  0.4165086984798979  0.1510317258451348  0.5463505861599246   T   T   T
  0.5834647066939677  0.0504833114479850  0.6416648714379596   T   T   T
  0.7473173496282974  0.8468177642952149  0.5458080021397930   T   T   T
  0.6666666865533486  0.8000000000129006  0.4070133268666680   F   F   F
  0.1666666716383389  0.4000000000243773  0.4070133268666680   F   F   F
  0.5844217322602282  0.4524481913841460  0.4538708263108917   T   T   T
  0.3333333432766779  0.4000000000243773  0.4070133268666680   F   F   F
  0.0833333358191695  0.4500000000005357  0.3605200052333331   F   F   F
  0.8333332538436267  0.4000000000243773  0.4070133268666680   F   F   F
  0.4171719808673451  0.2505379565221748  0.4550508614426143   T   T   T
  0.5000000000021103  0.2000000000121887  0.4070133268666680   F   F   F
  0.6666666865533486  0.6000000000007191  0.4070133268666680   F   F   F
  0.0840099237200090  0.6499107491683801  0.4542682996094703   T   T   T
  0.0838146556203014  0.8495788299016277  0.4541894647595631   T   T   T
  0.0835197289692702  0.4496164423344649  0.4541219592630868   T   T   T
  0.7499999404149307  0.8499999999890662  0.3605200052333331   F   F   F
  0.9151301488818788  0.4500214056426332  0.5467371927957194   T   T   T
  0.4169133410103500  0.3505090424476150  0.4542456021445921   T   T   T
  0.0840914591755160  0.2498371746840707  0.4542980978839721   T   T   T
  0.2499999999799343  0.4500000000005357  0.3605200052333331   F   F   F
  0.8333332538436267  0.8000000000129006  0.4070133268666680   F   F   F
  0.1666666716383389  0.0000000000000000  0.4070133268666680   F   F   F
  0.7499550922575182  0.1504989475023408  0.4541960614146924   T   T   T
  0.9163802502154559  0.0499536378261151  0.5465178026893168   T   T   T
  0.4144720437374407  0.8487193243393921  0.5479674392138995   T   T   T
  0.4166364839907563  0.1502704131791297  0.4538619377500845   T   T   T
  0.0833728514689331  0.1500202120099780  0.4537677973961430   T   T   T
  0.9166460151803298  0.0497527839585756  0.4538835276068410   T   T   T
  0.4166666269218169  0.1500000000001833  0.3605200052333331   F   F   F
  0.4996749056347491  0.0002211249167470  0.5915581359384315   T   T   T
  0.0833333358191695  0.1500000000001833  0.3605200052333331   F   F   F
  0.7497968584684899  0.0501442314967167  0.6408669816505494   T   T   T
  0.2514368475790529  0.2508229900859096  0.5475250393192101   T   T   T
  0.0833333358191695  0.8499999999890662  0.3605200052333331   F   F   F
  0.4171291758580659  0.0494894530350751  0.6425965262458279   T   T   T
  0.9159505889636074  0.0500138174103574  0.6402720824988090   T   T   T
  0.0836331819496781  0.0497599144001526  0.6404378693134366   T   T   T
  0.0833182073946541  0.1486500979409980  0.6404474029410415   T   T   T
  0.0833333358191695  0.7500000000008953  0.3605200052333331   F   F   F
  0.1674092980936961 -0.0014295364536344  0.5922178386385225   T   T   T
  0.8326451783201640 -0.0013161750854620  0.5919618883358032   T   T   T
  0.0000094529532723 -0.0008437215337350  0.5920504110231132   T   T   T
  0.1666666716383389  0.8000000000129006  0.4070133268666680   F   F   F
  0.5820583471800933  0.3478560606891745  0.5509014634752966   T   T   T
  0.0001023792931559  0.8020218556089651  0.5926730541236774   T   T   T
  0.3338792688035109  0.2000717854028506  0.5921160163340338   T   T   T
  0.9998575426922647  0.2000236501226088  0.5924064639712039   T   T   T
  0.0006384084784280  0.3984559955338529  0.5923978880290822   T   T   T
  0.0841939061149207  0.9503074624162231  0.5461436369160941   T   T   T
  0.4197735375219986  0.6517787993791194  0.5557267495313887   T   T   T
  0.0838771917763126  0.3480806564379737  0.6420770426998751   T   T   T
  0.9177468623998648  0.6510016895166296  0.5470001285078894   T   T   T
  0.2530510468971411  0.8498485714714785  0.5507182320942261   T   T   T
  0.5856449992325694  0.8518703634617339  0.5507832072846442   T   T   T
  0.7494042443153026  0.4518285851709541  0.5503293782425913   T   T   T
  0.5808512095966335  0.6475567063734974  0.5488803163226404   T   T   T
  0.4163994720017017  0.4551360760200925  0.5525850219816821   T   T   T
  0.6661199264092774  0.0000970325661485  0.5918661937445975   T   T   T
  0.3340498405243724 -0.0000819821038665  0.5918688670318004   T   T   T
  0.6664195173448083  0.1001485670347853  0.4990343127537289   T   T   T
  0.2524808055606548  0.6471288501025039  0.5441068992326218   T   T   T
  0.1667376074661130  0.0998874987623199  0.4987312605708433   T   T   T
  0.3334630855711174  0.0999347387980345  0.4990956570642796   T   T   T
  0.4166666269218169  0.0500000000120124  0.3605200052333331   F   F   F
  0.0833333358191695  0.0500000000120124  0.3605200052333331   F   F   F
  0.5833333134730552  0.1500000000001833  0.3605200052333331   F   F   F
  0.7477559932077961  0.9479565279752498  0.6393551994360578   T   T   T
  0.8325269192542658  0.2007297935131455  0.5919232108800084   T   T   T
  0.7491760198540275  0.3501985894744536  0.5470482569022240   T   T   T
  0.4230047435060699  0.7501538308023443  0.5466931228564390   T   T   T
  0.7499999404149307  0.0500000000120124  0.3605200052333331   F   F   F
  0.4230792231824758  0.5546459803342212  0.5461462601137982   T   T   T
  0.2499999999799343  0.8499999999890662  0.3605200052333331   F   F   F
  0.4165298112555467  0.2524928748439156  0.5473006793213684   T   T   T
  0.4172262394913232  0.5480428643576032  0.4541279239641836   T   T   T
  0.4171266568444589  0.0502438210545480  0.5472935714900581   T   T   T
  0.0847094004492762  0.7499849881965726  0.4535736332389563   T   T   T
  0.6666666865533486  0.0000000000000000  0.4070133268666680   F   F   F
  0.0833333358191695  0.5499999761504029  0.3605200052333331   F   F   F
  0.7521522842652696  0.5492932106459772  0.5486605611526408   T   T   T
  0.2499999999799343  0.0500000000120124  0.3605200052333331   F   F   F
  0.5833333134730552  0.0500000000120124  0.3605200052333331   F   F   F
  0.9166666865332829  0.0500000000120124  0.3605200052333331   F   F   F
  0.0000235945876726  0.1000509914528678  0.4991188043724987   T   T   T
  0.9166016362648896  0.1499410020443922  0.4537173961003971   T   T   T
  0.5831612844914478  0.1512003282298869  0.4546342772186510   T   T   T
  0.2500781338553213  0.1498723509803113  0.4536691472434947   T   T   T
  0.8332428767769555  0.1001487174726562  0.4988700652053912   T   T   T
  0.7500318257949969  0.0491879251734567  0.5461664984583606   T   T   T
  0.2500405393236599  0.0498903459568021  0.5468643126373283   T   T   T
  0.5829568289955946  0.0501547119731183  0.5471250810424645   T   T   T
  0.7498761454104951  0.1501328381857131  0.6418706240132128   T   T   T
  0.2508466708180186  0.1484352802888606  0.6411007021252862   T   T   T
  0.9159983413162681  0.1497427385368174  0.6407312748776596   T   T   T
  0.5826906678732978  0.1503587182061633  0.6428359356993019   T   T   T
  0.4166495821620398  0.1500289396354551  0.6414995873738067   T   T   T
  0.4166666269218169  0.3500000000123720  0.3605200052333331   F   F   F
  0.5000000000021103  0.0000000000000000  0.4070133268666680   F   F   F
  0.4155173930395050  0.4490060449775370  0.4573373681419469   T   T   T
  0.3333333432766779  0.0000000000000000  0.4070133268666680   F   F   F
  0.8333332538436267  0.6000000000007191  0.4070133268666680   F   F   F
  0.4994562774872611  0.4027529452059912  0.5914331151871571   T   T   T
  0.1666666716383389  0.6000000000007191  0.4070133268666680   F   F   F
  0.9161583575324900  0.2498348247829574  0.4541483427355837   T   T   T
  0.5832562449662280  0.2524926506116054  0.6386823314212627   T   T   T
  0.7490822803973342  0.7505938984082614  0.4570661927144377   T   T   T
  0.9143586825517229  0.8505895787575440  0.6413874790399924   T   T   T
  0.0858024564317426  0.7509026332168922  0.5459686319034824   T   T   T
  0.6661792851794301  0.1998712442550647  0.5921102545184799   T   T   T
  0.6650905777340229  0.3997586240313935  0.5898423595661613   T   T   T
  0.3354019032416585  0.7927667524899995  0.5906911593306406   T   T   T
  0.3331172508475355  0.5967742713889775  0.5914594662845852   T   T   T
  0.4971619819103308  0.6035608584766963  0.6091060763363806   T   T   T
  0.2517028957612155  0.9499198999161138  0.5450524960159591   T   T   T
  0.5792548295178256  0.7483489839629845  0.5476989736741836   T   T   T
  0.9157495802276633  0.5500677780383972  0.5458776138559781   T   T   T
  0.9173310200316420  0.3508932346598221  0.5453261884729079   T   T   T
  0.9143528596372416  0.7506813979246421  0.5459589690222219   T   T   T
  0.0836480046131925  0.4486920551981559  0.6405815040040153   T   T   T
  0.6662841376810509  0.8990889186128628  0.4988658122059987   T   T   T
  0.0866824426624609  0.6499975891332920  0.6402539398639444   T   T   T
  0.4173772787841566  0.9473811990900782  0.6392716166779535   T   T   T
  0.5829751771452693  0.4486694145217752  0.5456086929250645   T   T   T
  0.7536590581325707  0.4463068779672422  0.6445348751547851   T   T   T
  0.5833333134730552  0.3500000000123720  0.3605200052333331   F   F   F
  0.1673163082983231  0.3004230669983450  0.4999851456341347   T   T   T
  0.7486709006094266  0.2504786808743721  0.5464404962358980   T   T   T
  0.4274437553380159  0.4436464879989204  0.6572079209498627   T   T   T
  0.5899392603032830  0.8478281605487120  0.6465010553709749   T   T   T
  0.9124779415484920  0.5483138586205593  0.6399095836629863   T   T   T
  0.7537819673730775  0.5468270603241823  0.6380018677965060   T   T   T
  0.9166666865332829  0.8499999999890662  0.3605200052333331   F   F   F
  0.4159437838687562  0.3528805121885854  0.5474393647045322   T   T   T
  0.9138868696813475  0.6499631067014543  0.6408620956661542   T   T   T
  0.1677065581807485  0.6996391229091701  0.5002618625610714   T   T   T
  0.5000628509864544  0.8982303802580478  0.5007707234612875   T   T   T
  0.9146095800062164  0.3479942763893381  0.6399994817518982   T   T   T
  0.4166666269218169  0.7500000000008953  0.3605200052333331   F   F   F
  0.2500448950775787  0.3511565347098187  0.4544688412431249   T   T   T
  0.2499999999799343  0.7500000000008953  0.3605200052333331   F   F   F
  0.9166666865332829  0.9500000000130839  0.3605200052333331   F   F   F
  0.2499999999799343  0.9500000000130839  0.3605200052333331   F   F   F
  0.7485487640365255  0.2520841172600823  0.6396026381475108   T   T   T
  0.9160105813595804  0.5497003310331282  0.4537041969373546   T   T   T
  0.2483675591639660  0.5486488900476764  0.5491326465623264   T   T   T
  0.4127744835099418  0.8501214527247307  0.6395001434328101   T   T   T
  0.4182146468175782  0.2521703478518794  0.6391671526613244   T   T   T
  0.9160888870443692  0.9504473300466489  0.5462418596083217   T   T   T
  0.7511583277839760  0.7449098366230085  0.5526250254080068   T   T   T
  0.7483351879289402  0.9477974290877907  0.5470707919085626   T   T   T
  0.2493679465121189  0.7463494190642316  0.5522136284363860   T   T   T
  0.9156835773748772  0.8496913165659428  0.5463682963461906   T   T   T
  0.2395815990162319  0.5534137476139733  0.6417130387248174   T   T   T
  0.2506076512304653  0.0484507244201966  0.6416591875886932   T   T   T
  0.2521108676793667  0.9454157615150376  0.6373867706331890   T   T   T
  0.9166666865332829  0.5499999761504029  0.3605200052333331   F   F   F
  0.9166666865332829  0.3500000000123720  0.3605200052333331   F   F   F
  0.0857906264503131  0.4508345096906080  0.5471209757986435   T   T   T
  0.5833333134730552  0.7500000000008953  0.3605200052333331   F   F   F
  0.5833333134730552  0.5499999761504029  0.3605200052333331   F   F   F
  0.0853831476961707  0.8496721711810398  0.5468661862076253   T   T   T
  0.4161237248810107  0.9483954524440700  0.5467491203377818   T   T   T
  0.4998046208645248  0.3014315789629493  0.5003024903782661   T   T   T
  0.2499999999799343  0.6500000000127244  0.3605200052333331   F   F   F
  0.1683233297597199  0.3979263871485582  0.5933199863484684   T   T   T
  0.5837455940887493  0.9506884296375487  0.5456202290431127   T   T   T
  0.4173028537452629  0.9479625553871621  0.4540992842789506   T   T   T
  0.1672326664950792  0.1997823671107709  0.5923725202938996   T   T   T
  0.6665376529500147  0.5956081951746812  0.5914683992488939   T   T   T
  0.6651626077490641  0.7932182218388580  0.5909321455251402   T   T   T
  0.3352500271054522  0.4041455774548867  0.5933815307043762   T   T   T
  0.5826994880562867  0.9485575842187386  0.4538695496111746   T   T   T
  0.0868306370215810  0.5489110896461210  0.6395801615387646   T   T   T
  0.1708674208045270  0.7997097589957490  0.5945785594664390   T   T   T
  0.8331943281776116  0.6021526768282436  0.5895705795924826   T   T   T
  0.0839412438277544  0.2484620820954786  0.6421687335841367   T   T   T
  0.0840907180813656  0.7496167117379491  0.6396745425456845   T   T   T
  0.0844352050796080  0.9494360639361926  0.6409508187380306   T   T   T
  0.4157274114001979  0.5344059462698083  0.6301560562824994   T   T   T
  0.4182864168176246  0.3495803256080839  0.6398220607347866   T   T   T
  0.5007989360582883  0.8049349584015963  0.5926798511369580   T   T   T
  0.2491645498973753  0.4509370063840112  0.5459988624244028   T   T   T
  0.0811732752529686  0.6516915239117657  0.5466790082444234   T   T   T
  0.5833097325314853  0.2497182804108552  0.5458001937728599   T   T   T
  0.0828363045847211  0.2501062904744607  0.5474048416968977   T   T   T
  0.1678489374732403  0.8990540542822177  0.4995261884529813   T   T   T
  0.5000000000021103  0.6000000000007191  0.4070133268666680   F   F   F
  0.8303149269828003  0.8006297231363111  0.5923612378967162   T   T   T
  0.9160440415269266  0.4495709992503372  0.4541053892807571   T   T   T
  0.7540021547468804  0.7545930083493492  0.6553079997248844   T   T   T
  0.9151835006674635  0.2500127444911061  0.6408467097010722   T   T   T
  0.5877767199984162  0.4563058459090815  0.6344628686751744   T   T   T
  0.7500633014389282  0.3506348491147811  0.4541726360930187   T   T   T
  0.2474210992073653  0.6587803349280126  0.6290359875831635   T   T   T
  0.2617161783501656  0.8403052282118750  0.6461003441461446   T   T   T
  0.2512223968923170  0.2486084870795853  0.6416391438750408   T   T   T
  0.9166666865332829  0.6500000000127244  0.3605200052333331   F   F   F
  0.4997553774803222  0.4985984717251796  0.5002499648773353   T   T   T
  0.5002905520966368  0.6963934162523979  0.5000356526179427   T   T   T
  0.8323856160687945  0.6986099377640227  0.5004904240173939   T   T   T
  0.2530644433271677  0.3508280318663937  0.5475283972657997   T   T   T
  0.8328078246772526  0.4992920419362812  0.4995131018652910   T   T   T
  0.9150857555560515  0.4484750866426082  0.6397053246810543   T   T   T
  0.1665123163139297  0.5008902895880185  0.4978171805373620   T   T   T
  0.4166666269218169  0.9500000000130839  0.3605200052333331   F   F   F
  0.8328681505089324  0.3000526995454402  0.4999308884248491   T   T   T
  0.2506870506708789  0.9483165394384790  0.4536332496503369   T   T   T
  0.5000773133133005  0.2002460115652305  0.5916211456647922   T   T   T
  0.7466474631650233  0.6468645558766027  0.5451482445372762   T   T   T
  0.4201950291797067  0.7409086633619955  0.6339166269165780   T   T   T
  0.9166666865332829  0.7500000000008953  0.3605200052333331   F   F   F
  0.8324700079988474  0.8995893036043072  0.4995394771012766   T   T   T
  0.0000000000000000  0.4000000000243773  0.4070133268666680   F   F   F
  0.0000000000000000  0.6000000000007191  0.4070133268666680   F   F   F
  0.7483985846205576  0.6510174552286870  0.4541127417918610   T   T   T
  0.3333333432766779  0.2000000000121887  0.4070133268666680   F   F   F
  0.3333333432766779  0.6000000000007191  0.4070133268666680   F   F   F
  0.2510876286723640  0.5517786892223724  0.4552436577105410   T   T   T
  0.3336324402841611  0.8982705146633431  0.4994772942279104   T   T   T
  0.6666666865533486  0.2000000000121887  0.4070133268666680   F   F   F
  0.0001505305486169  0.8999071617343033  0.4991763211063963   T   T   T
  0.5904098654858684  0.6524806053933586  0.6387436603797738   T   T   T
  0.0838469044896509  0.9495260248920446  0.4536715617756273   T   T   T
  0.0829567633271903  0.5498055100072895  0.4531640367045777   T   T   T
  0.0837613775856244  0.3498126711575889  0.4536382463137522   T   T   T
  0.9162385849878055  0.8496991259335631  0.4540388244962446   T   T   T
  0.0002527773605852  0.2996938121217639  0.4984893173445667   T   T   T
  0.6653836687902147  0.7001541842060390  0.5030260802527364   T   T   T
  0.0828671602436159  0.5509750459252805  0.5452231625732992   T   T   T
  0.2499999999799343  0.3500000000123720  0.3605200052333331   F   F   F
  0.5809512561854976  0.3531635855894874  0.6448655866416374   T   T   T
  0.2541150187973858  0.3490271829764302  0.6408800875302154   T   T   T
  0.2553630174583837  0.7420094723884074  0.6630265972673303   T   T   T
  0.3972480838890389  0.6404068667255406  0.6522990364015442   T   T   T
  0.9158317003825776  0.9497455347188886  0.6409166772824556   T   T   T
  0.9156716580533197  0.7500874195906727  0.6393610713258692   T   T   T
  0.7414859460010216  0.8484837718964523  0.6396970180870444   T   T   T
  0.0853096650399339  0.8499799985000495  0.6419052345569254   T   T   T
  0.7527512220351564  0.6549546967187880  0.6358204472260203   T   T   T
  0.4171682560061966  0.8470954019789075  0.4554224619581658   T   T   T
  0.7495854562270813  0.2506440698422434  0.4542251341422879   T   T   T
  0.9160593476787874  0.3496805809830209  0.4534865275448298   T   T   T
  0.5830160822357418  0.2521334105374461  0.4537180518154175   T   T   T
  0.5829620494857501  0.7486276456883165  0.4547763873904400   T   T   T
  0.4166666269218169  0.5499999761504029  0.3605200052333331   F   F   F
  0.7425618742441844  0.3519763384006064  0.6411408794878359   T   T   T
  0.8321291669106113  0.3971464042984950  0.5904224897810483   T   T   T
  0.5817540578602360  0.9478156946674873  0.6379081060912599   T   T   T
  0.0836174542189114  0.3507807242994411  0.5462942442321123   T   T   T
  0.5833333134730552  0.2500000000242011  0.3605200052333331   F   F   F
  0.1654332402012331  0.6024042929418764  0.5873222228396966   T   T   T
  0.7499999404149307  0.9500000000130839  0.3605200052333331   F   F   F
  0.7499999404149307  0.5499999761504029  0.3605200052333331   F   F   F
  0.4171148465345585  0.7470151374515058  0.4545132592393183   T   T   T
  0.7482948586356877  0.4502843455792934  0.4558522609081708   T   T   T
  0.7499999404149307  0.3500000000123720  0.3605200052333331   F   F   F
  0.2499999999799343  0.5499999761504029  0.3605200052333331   F   F   F
  0.2488618056525171  0.4528007375051152  0.6413437010656944   T   T   T
  0.0833333358191695  0.2500000000242011  0.3605200052333331   F   F   F
  0.5828051597788355  0.5514811118013941  0.4565741295224779   T   T   T
  0.6657323147625087  0.5024030700089108  0.5035938112259531   T   T   T
  0.3343563740795414  0.5023458252354702  0.5031002033110982   T   T   T
  0.3355383544889279  0.7004273905020696  0.5040202371406779   T   T   T
  0.9164477491209432  0.2506533189769853  0.5470862175408422   T   T   T
  0.7494373925143106  0.9497376142992879  0.4547429415137249   T   T   T
  0.5795944557072192  0.5505408698100535  0.6458957611710155   T   T   T
  0.5772843661240766  0.7485594317701143  0.6399043838310010   T   T   T
  0.9146224883030191  0.7498643882755626  0.4536676449798369   T   T   T
  0.7499999404149307  0.7500000000008953  0.3605200052333331   F   F   F
  0.8332073217295163  0.2985130179653648  0.6122354289325607   T   T   T
  0.6662619999078899  0.7008689531967717  0.5931734296837868   T   T   T
  0.1666666716383389  0.5000000000125482  0.4070133268666680   F   F   F