Au  C  H  O Sr Ti 
 1.0000000000000000
    23.6707801818999997    0.0000000000000000    0.0000000000000000
     0.0000000000000000   27.8962826732999716    0.0000000000000000
     0.0000000000000000    0.0000000000000000   30.0000000000000000
 Au  C   H   O   Sr  Ti 
  50   7  15 330  90  90
Selective dynamics
Cartesian
 16.8749915679120264 17.4315258723767954 22.6322860939803725   T   T   T
  6.9551116164406572 22.2430562550888453 20.9091897439769063   T   T   T
 12.0390750396294184 19.1138834382651766 23.3350914750853491   T   T   T
 13.6811434805204168 21.7607643584579478 23.8239820918105742   T   T   T
  5.6880703188015538 16.0576730741462157 21.2777073726836647   T   T   T
  6.7512540362218072 20.3622916026887317 22.9356459007493427   T   T   T
 14.2518100470175710 11.8997443473822742 23.5209208228726432   T   T   T
 12.1560487373070742 16.4086710639791704 20.3402378754774134   T   T   T
 11.5017583463826796 11.6230188645542256 23.2196767838440614   T   T   T
 14.6675491896109627 12.7265012755347175 20.9248927539474785   T   T   T
 10.9271907943967079 21.1486269000980158 24.9582414522166047   T   T   T
 13.0596996996945265 14.1564105131834079 24.8042653445700445   T   T   T
 13.2915779650342571 16.5046827742292948 22.8931387401852611   T   T   T
 13.1143548750194050 10.3587825645071412 21.2817692734854838   T   T   T
 17.4496640478009368 11.0413926518644274 20.8158308422950178   T   T   T
 18.0180604287177495 15.3652934467168922 21.1098551196142665   T   T   T
 11.4986695022654466 22.9095687727665336 22.6555067169262117   T   T   T
 14.6932352051626722 18.3465286652657618 21.1202038312993174   T   T   T
 14.9293761443339914 18.7370077445511214 24.0362491202578497   T   T   T
 10.1801114251186746 13.8572729611884267 24.4447335790664582   T   T   T
  8.2613262347927741 16.7408061082276625 20.9347140613348550   T   T   T
  8.7562286953845447 12.2498439762526292 22.6691426245021788   T   T   T
 17.3391819290075482 19.3431520940024413 20.7912352246367611   T   T   T
 10.3251752919412798 10.6538903315117466 20.9364554423788221   T   T   T
 12.3011015860366602 14.0352090883684664 21.9830559294631875   T   T   T
 13.4321051892710575 17.0561063379515900 25.7553211933053241   T   T   T
  6.0852323606193313 18.8211472627773446 20.8320988070229944   T   T   T
 15.6946142041349574  9.5722519544554174 22.2261532251849587   T   T   T
 11.1677354345721156 15.6102988289873661 26.3129714328585216   T   T   T
  9.2644757614849382 23.8307047129141125 21.1952799639578551   T   T   T
 15.8469599185670731 20.8112994947657661 22.4487164498669252   T   T   T
  9.4150812012065490 14.1005855789867223 20.7147985337017175   T   T   T
 10.6872934859689082 18.5318121491190730 21.0926488887891388   T   T   T
  8.8774393336382733 16.5743938648778020 24.9930332894375660   T   T   T
  6.8457932720688897 17.5875332611861310 23.3314466584268523   T   T   T
  8.7145741053195067 19.3962337938269158 24.6068100900235045   T   T   T
 14.1172141441166765 23.0870668749883876 21.3935384220743927   T   T   T
 18.3540465295301090 15.4157525669804141 23.8169277932960881   T   T   T
  6.6803048936663307 13.1644000944802997 21.0715766517512009   T   T   T
 15.2827931747890720 15.5257896842417313 20.8714236224246363   T   T   T
 16.4529270176510352 13.5541865819670946 22.9038501010099793   T   T   T
  7.6994169358679230 14.8363213086360535 23.0807847630287171   T   T   T
 16.7270588101665751 22.4913265266249454 20.6374968445006459   T   T   T
 15.5086428309185163 15.6645442244103119 24.4904053235582495   T   T   T
 10.9057539364191296 18.3746169966610537 25.9583037526779137   T   T   T
  9.8803440086411918 21.1342440620150072 20.9854557557444110   T   T   T
 10.4858030029774163 16.1489350363667974 22.6824620553753640   T   T   T
 12.7836905675712007 20.4842307386388995 21.0537960583353829   T   T   T
 13.2807076646446731 19.9302912650790169 25.9221985001387338   T   T   T
  8.8448767517327305 22.1076973248900330 23.3633158459497139   T   T   T
 17.1363076384599857  8.0750531978843600 22.5465465903942075   T   T   T
 17.8904844153210725 12.0527425047019623 22.5097843285341703   T   T   T
 15.4350151609692556  7.0072679526996673 24.1523130533862584   T   T   T
 13.7381226970653998  5.9232855175681705 25.7294598695110750   T   T   T
 14.5355993313957139  5.7984686532224030 24.4251944062151125   T   T   T
 16.2175859936030555  6.9082215725763412 22.8328415111220693   T   T   T
 12.8236629132451245  4.7236387198017598 26.0043465116158039   T   T   T
 17.8263456594324161  8.3116621347432460 23.3593147557060057   T   T   T
 16.8707804582373164  6.0191371427240714 22.8710938922572389   T   T   T
 13.1254744917703476  6.8370742986380426 25.6911307458128135   T   T   T
 14.8082139878296424  7.9126566555704212 24.1339320155105455   T   T   T
 15.5413019905149845  6.7278549848093689 21.9880615369404246   T   T   T
 13.8422870334544630  5.6673989071311608 23.5848610949924407   T   T   T
 15.1513229815253752  4.8907887177567133 24.4606505309704723   T   T   T
 14.4296186889115781  6.0537379655762793 26.5710566731180116   T   T   T
 12.1344284976623200  4.5961591126135923 25.1647058162245720   T   T   T
 12.2964466853544554  4.8437537144757608 26.9276638246170528   T   T   T
 16.1402758956338026  7.1400815194865448 24.9831139567370819   T   T   T
 17.6550674813902440  8.0032240904571665 21.5892675059112165   T   T   T
 13.4325004328001611  3.8115520558430713 26.0442734245306724   T   T   T
 17.8557832827234542 11.4422866784668926 23.4138544668846720   T   T   T
 18.8380797511584035 12.5857322406192083 22.4125377789014841   T   T   T
  0.0000000000000000 22.3170261389999354 12.2103998060000407   F   F   F
 13.8079546360000549 18.1325837380000259 10.8156001569999933   F   F   F
 11.8353900909999528 11.1585130699999446 12.2103998060000407   F   F   F
  1.9725650740000149  9.7636989360000435 10.8156001569999933   F   F   F
 21.6982156369999721 12.5533272029998937 10.8156001569999933   F   F   F
 13.6498097978222699 15.3053343362101479 16.5652535543183888   T   T   T
 13.8345288659751482 18.1391924261382442 13.6446265782878307   T   T   T
 15.7805205919999434 11.1585130699999446 12.2103998060000407   F   F   F
  5.9668303810966057 20.9251626527438219 13.6843383340234919   T   T   T
  7.8902602960000570 22.3170261389999354 12.2103998060000407   F   F   F
  7.9002196080554654  8.3843940076843850 14.9631152158905536   T   T   T
 23.6670714691496933 19.5744998224970885 14.9310692033787085   T   T   T
 21.6868771241237503 18.1284233479155361 13.6190875770111273   T   T   T
 13.8079546360000549 26.5014685400000047 10.8156001569999933   F   F   F
 21.6915742219295389 26.4938660350003943 13.6085656407962556   T   T   T
 17.7530837259999217 12.5533272029998937 10.8156001569999933   F   F   F
  9.8628241350000643 23.7118402720000461 10.8156001569999933   F   F   F
 17.7530837259999217 18.1325837380000259 10.8156001569999933   F   F   F
  3.9451301480000271  5.5792565349999723 12.2103998060000407   F   F   F
 17.7530837259999217  6.9740706690000334 10.8156001569999933   F   F   F
  9.8628241350000643 12.5533272029998937 10.8156001569999933   F   F   F
  1.9725650740000149 26.5014685400000047 10.8156001569999933   F   F   F
  9.8484191360585118 18.0660802696447220 13.7362182795624701   T   T   T
  5.9296141005931489 23.6739512062530011 13.6597684025741763   T   T   T
 13.8079546360000549 23.7118402720000461 10.8156001569999933   F   F   F
 17.7530837259999217  4.1844424010000720 10.8156001569999933   F   F   F
  5.9711053626781174 12.5899016925625418 13.6250893462273162   T   T   T
  5.9176950450000287  4.1844424010000720 10.8156001569999933   F   F   F
 21.6982156369999721  4.1844424010000720 10.8156001569999933   F   F   F
 13.8079546360000549  1.3988313413889826 13.5904391766785544   T   T   T
  5.9176950450000287  1.3988313413889826 13.5904391766785544   T   T   T
 17.7530837259999217  1.3988313413889826 13.5904391766785544   T   T   T
  9.8628241350000643  1.3988313413889826 13.5904391766785544   T   T   T
  1.9725650740000149  1.3988313413889826 13.5904391766785544   T   T   T
 19.7256482699999580  0.0000000000000000 12.2103998060000407   F   F   F
 11.8353900909999528  2.7896282670000101 14.9311421647795974   T   T   T
 23.6621776131400914 16.7256003325754143 17.8199292278940788   T   T   T
  1.9725650740000149  4.1981327768183450 16.3557451054029492   T   T   T
  5.9176950450000287  6.9740706690000334 10.8156001569999933   F   F   F
  9.8628241350000643 18.1325837380000259 10.8156001569999933   F   F   F
 11.8353900909999528 22.3170261389999354 12.2103998060000407   F   F   F
  0.0000000000000000  5.5792565349999723 12.2103998060000407   F   F   F
 13.7988675516632799  9.8231890170970697 13.6691518099758529   T   T   T
  5.9296485343106546  6.9643456735902918 13.6283825719805058   T   T   T
 17.7389093909721396 15.3478568646011979 13.6625874484066987   T   T   T
 17.7389036142705869 23.7271914944748517 13.5917608527312570   T   T   T
 21.6982156369999721  6.9740706690000334 10.8156001569999933   F   F   F
  1.9725650740000149 18.1325837380000259 10.8156001569999933   F   F   F
 15.7653745971181305  8.3855846497800499 14.9774957708529008   T   T   T
  5.9622555304602018 18.1794479201825396 13.6153876082687155   T   T   T
 13.8079546360000549 12.5533272029998937 10.8156001569999933   F   F   F
  9.8628241350000643  6.9740706690000334 10.8156001569999933   F   F   F
  1.9725650740000149  1.3811237581817855 16.3557451054029492   T   T   T
 21.6982156369999721  4.1981327768183450 16.3557451054029492   T   T   T
 13.8079546360000549  4.1981327768183450 16.3557451054029492   T   T   T
  5.9176950450000287  4.1981327768183450 16.3557451054029492   T   T   T
 17.7530837259999217  4.1981327768183450 16.3557451054029492   T   T   T
 13.8066267945130594 23.6671510446862712 13.6612813498168322   T   T   T
  0.0000000000000000  0.0000000000000000 12.2103998060000407   F   F   F
 -0.0021845396553649 13.9196002827392906 14.9453893695931672   T   T   T
 19.7256482699999580  5.5792565349999723 12.2103998060000407   F   F   F
  9.8628241350000643  4.1981327768183450 16.3557451054029492   T   T   T
 13.8079546360000549  1.3911429482368400 19.1908049430373673   T   T   T
 17.7094330372353461 23.6134891142092229 16.3649971542774537   T   T   T
 15.7805205919999434 22.3170261389999354 12.2103998060000407   F   F   F
  3.9451301480000271 11.1585130699999446 12.2103998060000407   F   F   F
 13.8310160095909254 12.6148932528660449 13.6199808119266557   T   T   T
  7.8902602960000570 11.1585130699999446 12.2103998060000407   F   F   F
  1.9725650740000149 12.5533272029998937 10.8156001569999933   F   F   F
 19.7256482699999580 11.1585130699999446 12.2103998060000407   F   F   F
  9.8717177080061038  6.9555230760966609 13.6609727416600357   T   T   T
 11.8353900909999528  5.5792565349999723 12.2103998060000407   F   F   F
 15.7805205919999434 16.7377696039999648 12.2103998060000407   F   F   F
  1.9876903297012698 18.1322029148223578 13.6171355211050304   T   T   T
  1.9772797186992768 23.7019212319129764 13.6253345035045861   T   T   T
  1.9760439920159056 12.5419376073326276 13.6213442378608960   T   T   T
 17.7530837259999217 23.7118402720000461 10.8156001569999933   F   F   F
 21.6731435527630723 12.5568987654533508 16.4060386998234904   T   T   T
  9.8755409759293524  9.7559088514189636 13.6083144610189226   T   T   T
  1.9871919622688610  6.9623456445618670 13.6230885829806567   T   T   T
  5.9176950450000287 12.5533272029998937 10.8156001569999933   F   F   F
 19.7256482699999580 22.3170261389999354 12.2103998060000407   F   F   F
  3.9451301480000271  0.0000000000000000 12.2103998060000407   F   F   F
 17.7530837259999217  4.1804251936111481 13.5904391766785544   T   T   T
 21.6982156369999721  1.3811237581817855 16.3557451054029492   T   T   T
  9.8135137967424306 23.6929289036760835 16.4320962348622572   T   T   T
  9.8628241350000643  4.1804251936111481 13.5904391766785544   T   T   T
  1.9725650740000149  4.1804251936111481 13.5904391766785544   T   T   T
 21.6982156369999721  1.3988313413889826 13.5904391766785544   T   T   T
  9.8628241350000643  4.1844424010000720 10.8156001569999933   F   F   F
 11.8353900909999528  0.0000000000000000 17.7201439025163410   T   T   T
  1.9725650740000149  4.1844424010000720 10.8156001569999933   F   F   F
 17.7530837259999217  1.3911429482368400 19.1908049430373673   T   T   T
  5.9439237548040715  6.9748615751132572 16.4182927690112024   T   T   T
  1.9725650740000149 23.7118402720000461 10.8156001569999933   F   F   F
  9.8628241350000643  1.3911429482368400 19.1908049430373673   T   T   T
 21.6982156369999721  1.3911429482368400 19.1908049430373673   T   T   T
  1.9725650740000149  1.3911429482368400 19.1908049430373673   T   T   T
  1.9725650740000149  4.1881135867632935 19.1908049430373673   T   T   T
  1.9725650740000149 20.9222120050000342 10.8156001569999933   F   F   F
  3.9451301480000271  0.0000000000000000 17.7201439025163410   T   T   T
 19.7256482699999580  0.0000000000000000 17.7201439025163410   T   T   T
  0.0000000000000000  0.0000000000000000 17.7201439025163410   T   T   T
  3.9451301480000271 22.3170261389999354 12.2103998060000407   F   F   F
 13.7627970087824103  9.7197888304119484 16.5085023447435475   T   T   T
 23.6671642760386618 22.3877570583892407 17.7699817099333828   T   T   T
  7.9073919577178193  5.5764783285548081 17.7592885201265887   T   T   T
 23.6684448480527259  5.5533577326135433 17.7915845449765690   T   T   T
  0.0141675809246418 11.1139700211902586 17.7684025836066048   T   T   T
  1.9847441791789220 26.5266435630908219 16.3771544326926772   T   T   T
  9.9380016711320014 18.1853890442051700 16.6632481573543174   T   T   T
  1.9873613982542637  9.7108747112359559 19.2442163329542772   T   T   T
 21.7168220346016163 18.1601005951743915 16.4103677788776601   T   T   T
  5.9911780076077568 23.7121911899902784 16.5208462899900503   T   T   T
 13.8706982749607732 23.7572721585279822 16.5140456404736113   T   T   T
 17.7237475102046282 12.5935619191239336 16.5042958957215617   T   T   T
 13.7558050754733578 18.0766196034470461 16.4684211861460277   T   T   T
  9.8547630781235842 12.7092069769298170 16.5791945430493826   T   T   T
 15.7805205919999434  0.0000000000000000 17.7201439025163410   T   T   T
  7.8902602960000570  0.0000000000000000 17.7201439025163410   T   T   T
 15.7805205919999434  2.7896282670000101 14.9311421647795974   T   T   T
  5.9779749347256299 18.0545963738440918 16.3190622808676622   T   T   T
  3.9451301480000271  2.7896282670000101 14.9311421647795974   T   T   T
  7.8902602960000570  2.7896282670000101 14.9311421647795974   T   T   T
  9.8628241350000643  1.3948141340000613 10.8156001569999933   F   F   F
  1.9725650740000149  1.3948141340000613 10.8156001569999933   F   F   F
 13.8079546360000549  4.1844424010000720 10.8156001569999933   F   F   F
 17.7188079568530625 26.4636505601527077 19.2123791693696546   T   T   T
 19.7018291105979095  5.6036247070256726 17.7601093969792565   T   T   T
 17.7197275928553140  9.7488573853446159 16.4106816244409721   T   T   T
 10.0185966391603767 20.9303323360157094 16.4020439935097500   T   T   T
 17.7530837259999217  1.3948141340000613 10.8156001569999933   F   F   F
 10.0177202604680247 15.4815381581240032 16.3737101157438723   T   T   T
  5.9176950450000287 23.7118402720000461 10.8156001569999933   F   F   F
  9.8616358424837500  7.0387706417523388 16.4212309537425405   T   T   T
  9.8617114066520664 15.2974145191954261 13.6188513300393677   T   T   T
  9.8628241350000643  1.3811237581817855 16.3557451054029492   T   T   T
  2.0018415100658014 20.9082045382720594 13.5919741050869654   T   T   T
 15.7805205919999434  0.0000000000000000 12.2103998060000407   F   F   F
  1.9725650740000149 15.3429548049999607 10.8156001569999933   F   F   F
 17.8102823960123295 15.3226135370024323 16.4506441322093373   T   T   T
  5.9176950450000287  1.3948141340000613 10.8156001569999933   F   F   F
 13.8079546360000549  1.3948141340000613 10.8156001569999933   F   F   F
 21.6982156369999721  1.3948141340000613 10.8156001569999933   F   F   F
  0.0000000000000000  2.7896282670000101 14.9311421647795974   T   T   T
 21.6982156369999721  4.1804251936111481 13.5904391766785544   T   T   T
 13.8079546360000549  4.1804251936111481 13.5904391766785544   T   T   T
  5.9176950450000287  4.1804251936111481 13.5904391766785544   T   T   T
 19.7256482699999580  2.7896282670000101 14.9311421647795974   T   T   T
 17.7530837259999217  1.3811237581817855 16.3557451054029492   T   T   T
  5.9176950450000287  1.3811237581817855 16.3557451054029492   T   T   T
 13.8079546360000549  1.3811237581817855 16.3557451054029492   T   T   T
 17.7530837259999217  4.1881135867632935 19.1908049430373673   T   T   T
  5.9176950450000287  4.1881135867632935 19.1908049430373673   T   T   T
 21.6982156369999721  4.1881135867632935 19.1908049430373673   T   T   T
 13.8079546360000549  4.1881135867632935 19.1908049430373673   T   T   T
  9.8628241350000643  4.1881135867632935 19.1908049430373673   T   T   T
  9.8628241350000643  9.7636989360000435 10.8156001569999933   F   F   F
 11.8353900909999528  0.0000000000000000 12.2103998060000407   F   F   F
  9.8366244298960304 12.5280496201263745 13.7221293675976810   T   T   T
  7.8902602960000570  0.0000000000000000 12.2103998060000407   F   F   F
 19.7256482699999580 16.7377696039999648 12.2103998060000407   F   F   F
 11.8224468199667072 11.2454125938277549 17.7447553797105932   T   T   T
  3.9451301480000271 16.7377696039999648 12.2103998060000407   F   F   F
 21.6850914753874484  6.9665864183977595 13.6225245230760983   T   T   T
 13.7920069748660783  7.0453658287837841 19.1798701686846620   T   T   T
 17.7307813501930980 20.9468359472230610 13.7198244885740159   T   T   T
 21.6407587880476200 23.7283638577592484 19.2482525992108187   T   T   T
  2.0360941707736089 20.9613840349744862 16.3603139903121715   T   T   T
 15.7644361419824861  5.5832063838367461 17.7599327737177184   T   T   T
 15.7398946704648690 11.1412603165460204 17.6841877356108661   T   T   T
  7.9443571338892145 22.1206555788763382 17.7090298239381632   T   T   T
  7.8870568175647175 16.6455455928234599 17.7315937053301624   T   T   T
 11.7698713212303012 16.8443350220579404 18.2707369556922714   T   T   T
  5.9534784695160381 26.4965587912551683 16.3579077780040514   T   T   T
 13.7181910520264783 20.8909222153474019 16.4220555999022970   T   T   T
 21.6760669521497960 15.3443119893793227 16.3710923554180354   T   T   T
 21.7220924315651764  9.7913256232425567 16.3467900749534500   T   T   T
 21.6397846580115711 20.9532526730672473 16.3626704539586889   T   T   T
  1.9774504411350615 12.5217440599957435 19.2134650297279244   T   T   T
 15.7780938278402640 25.0950219706451136 14.9661158457174324   T   T   T
  2.0534192543294729 18.1355026439054825 19.2042489864057977   T   T   T
  9.8791076424431026 26.4458580736444446 19.1949499001961925   T   T   T
 13.7930049371331531 12.5310624859164328 16.3672967650465537   T   T   T
 17.8397768022190064 12.4132778389864615 19.3471508623614170   T   T   T
 13.8079546360000549  9.7636989360000435 10.8156001569999933   F   F   F
  3.9556652041901956  8.3568655191410386 14.9846638904150034   T   T   T
 17.7212744884944975  6.9516606266082688 16.3663411078814001   T   T   T
 10.1123278096835811 12.3748372470843631 19.6688614559895818   T   T   T
 13.9914181754398506 23.6569882482055647 19.3833300438943681   T   T   T
 21.6039406905442739 15.2993940170962670 19.1930023101180147   T   T   T
 17.8433627301223048 15.2330293801815593 19.1144106210971323   T   T   T
 21.6982156369999721 23.7118402720000461 10.8156001569999933   F   F   F
  9.8553384763260077  9.8556832007838473 16.3968347086982149   T   T   T
 21.6207083289447297 18.1264623740325206 19.2348359500880051   T   T   T
  3.9699467478383417 19.5116612457548761 15.0035403655840121   T   T   T
 11.8358656991383686 25.0722515181757473 15.0269730019289476   T   T   T
 21.6553205490726413  9.7015333707083400 19.1943090264199334   T   T   T
  9.8628241350000643 20.9222120050000342 10.8156001569999933   F   F   F
  5.9174457686303752  9.7876241740996974 13.6269058033820407   T   T   T
  5.9176950450000287 20.9222120050000342 10.8156001569999933   F   F   F
 21.6982156369999721 26.5014685400000047 10.8156001569999933   F   F   F
  5.9176950450000287 26.5014685400000047 10.8156001569999933   F   F   F
 17.7201092396578233  7.0318796681870701 19.1998669705751794   T   T   T
 21.6773263195061894 15.3325303061444238 13.6091252728725145   T   T   T
  5.8800195824898402 15.3026477318773644 16.4757218875118809   T   T   T
  9.7700278760405865 23.7197366513437444 19.1841399645936086   T   T   T
  9.8917505511546562  7.0345595113592552 19.2019438839577532   T   T   T
 21.6784693749737158 26.5252113111014580 16.3908611904137231   T   T   T
 17.7955439919397378 20.7659215432175088 16.5912470344824357   T   T   T
 17.7317361112297682 26.4296876377917656 16.4237859857115431   T   T   T
  5.8993784008620231 20.8260054026044301 16.5606184843067012   T   T   T
 21.6722865977920307 23.7193558627761689 16.4042995690237845   T   T   T
  5.6894652747654231 15.4411237906362881 19.2532052672732341   T   T   T
  5.9176950450000287  1.3911429482368400 19.1908049430373673   T   T   T
  5.9660348320658789 26.3387782468543392 19.1218758311812849   T   T   T
 21.6982156369999721 15.3429548049999607 10.8156001569999933   F   F   F
 21.6982156369999721  9.7636989360000435 10.8156001569999933   F   F   F
  2.0259112434028910 12.5748768925525063 16.4131236264773719   T   T   T
 13.8079546360000549 20.9222120050000342 10.8156001569999933   F   F   F
 13.8079546360000549 15.3429548049999607 10.8156001569999933   F   F   F
  2.0120997224564667 23.7177083350178535 16.4193831621425623   T   T   T
  9.8458390492479175 26.4920106513492968 16.3833628433533427   T   T   T
 11.8289000648495346  8.3852324768847506 14.9918473267626808   T   T   T
  5.9176950450000287 18.1325837380000259 10.8156001569999933   F   F   F
  3.9857508451401911 11.1231660729980639 17.7940676590208113   T   T   T
 13.8204335007527419 26.5100105468128149 16.3830402606745018   T   T   T
  9.8723076546881021 26.4690716957544439 13.6222011060995527   T   T   T
  3.9644819614337443  5.5427579419646182 17.7698055304848239   T   T   T
 15.7791551642427645 16.6138050383519840 17.7411519784080411   T   T   T
 15.7586084188179374 22.1304836300757017 17.7088196134857228   T   T   T
  7.9305850290128728 11.2563218388988240 17.7856198585270526   T   T   T
 13.7941563478179319 26.4938240679355275 13.6294362875075077   T   T   T
  2.0541198691657603 15.3168707206887689 19.1849839988355626   T   T   T
  4.0415132080634804 22.3219060117981982 17.8489229016817355   T   T   T
 19.7231347296715356 16.7943690163341799 17.6790104854849197   T   T   T
  1.9898982598455437  6.9251759486291409 19.2661149315540214   T   T   T
  1.9680190655866947 20.9117230817997495 19.1691930193268298   T   T   T
  2.0013091879805285 26.4596402388883831 19.2252864427571168   T   T   T
  9.8382835558813824 14.9190336423859193 18.9017610429026988   T   T   T
  9.9013501010520120  9.7556970083160657 19.1864260457070692   T   T   T
 11.8592269173172564 22.4569930634607431 17.7874323240822712   T   T   T
  5.9056483703337577 12.5776063600499679 16.3793411305559076   T   T   T
  1.9359949916757497 18.1733816170718647 16.3888154775509953   T   T   T
 13.8019612568371528  6.9748576805552451 16.3815468734083431   T   T   T
  1.9500945533220537  6.9889008205647540 16.4258803043962160   T   T   T
  3.9706912495020585 25.0681521067040336 14.9962678854209006   T   T   T
 11.8353900909999528 16.7377696039999648 12.2103998060000407   F   F   F
 19.6618074022978462 22.3392050741242159 17.7778256006671214   T   T   T
 21.6873406123161701 12.5447398865579594 13.6161489693166917   T   T   T
 17.8509671924725524 21.0609772351429427 19.6705699918997929   T   T   T
 21.6698247176769065  6.9706335313536556 19.2367304837579809   T   T   T
 13.9303654806848538 12.7346288645054102 19.0290810280172877   T   T   T
 17.7637430040836399  9.7705720034307468 13.6170784730727004   T   T   T
  5.8619145909357391 18.3814650251657490 18.8627691038305123   T   T   T
  6.2044641658378801 23.4235933467406880 19.3897442316160742   T   T   T
  5.9423179940661806  6.9043034582587799 19.2697377618658372   T   T   T
 21.6982156369999721 18.1325837380000259 10.8156001569999933   F   F   F
 11.8273026333536109 13.9313970843082799 14.9938458670080870   T   T   T
 11.8427925882981899 19.4402127094764836 15.0023129761780272   T   T   T
 19.7037859870780920 19.4842197924973526 15.0004669827322434   T   T   T
  5.9656032674726136  9.7801545006589201 16.4174075594063780   T   T   T
 19.7098089126153901 13.9082175596329343 14.9849920462171831   T   T   T
 21.6563121696313985 12.5062715753844031 19.1885571661178567   T   T   T
  3.9449579631810119 13.9724283403843295 14.9364684763954738   T   T   T
  9.8628241350000643 26.5014685400000047 10.8156001569999933   F   F   F
 19.7207741948541795  8.3608294327079875 15.0026448980505087   T   T   T
  5.9191419325496843 26.4696120015844159 13.6214941595384538   T   T   T
 11.8286937787076472  5.5790759844958062 17.7312956505539390   T   T   T
 17.6705493738256116 18.0445375573489102 16.3472771687881071   T   T   T
  9.9520742407490168 20.6678124366890152 19.0093151071166453   T   T   T
 21.6982156369999721 20.9222120050000342 10.8156001569999933   F   F   F
 19.7122876095447808 25.0919309942973996 14.9600550663453511   T   T   T
  0.0000000000000000 11.1585130699999446 12.2103998060000407   F   F   F
  0.0000000000000000 16.7377696039999648 12.2103998060000407   F   F   F
 17.7128735892240456 18.1643764477126410 13.6197551495761715   T   T   T
  7.8902602960000570  5.5792565349999723 12.2103998060000407   F   F   F
  7.8902602960000570 16.7377696039999648 12.2103998060000407   F   F   F
  5.9453303280741130 15.3824800843077583 13.6486982802520682   T   T   T
  7.8933609926818340 25.0828704912560667 14.9795001301151274   T   T   T
 15.7805205919999434  5.5792565349999723 12.2103998060000407   F   F   F
  0.0022605925179385 25.1102414038568185 14.9850652471993584   T   T   T
 13.9823028165987182 18.1922292796240654 19.1706281601671087   T   T   T
  1.9897465142289392 26.4853363206272334 13.6070241401637855   T   T   T
  1.9600116746751703 15.3275860462498077 13.5850612643002098   T   T   T
  1.9889965740224649  9.7441723038089449 13.5893351510079938   T   T   T
 21.6963062570932550 23.7037805902992389 13.6221631156844545   T   T   T
  0.0094611068486718  8.3668999292188300 14.9380855608156402   T   T   T
 15.7494291787504075 19.5466738701851384 15.0891079946073070   T   T   T
  1.9583724533604818 15.3742935107166208 16.3450295697623815   T   T   T
  5.9176950450000287  9.7636989360000435 10.8156001569999933   F   F   F
 13.7332630945829379  9.8579370030206963 19.3396217222793183   T   T   T
  6.0025532695878212  9.7399879158336482 19.2359534676733617   T   T   T
  6.0277340721409347 20.7067154214221354 19.8851107788367756   T   T   T
  9.4012624007031178 17.8672157356069192 19.5602673182562405   T   T   T
 21.6478825865156317 26.4920043808754428 19.2401095206957891   T   T   T
 21.6913060664722188 20.9211558763226506 19.1696903671125476   T   T   T
 17.5468263304583623 23.6694059299730171 19.1867632719605972   T   T   T
  1.9957934750631694 23.7130116585368995 19.2680288310756325   T   T   T
 17.8338798110606440 18.2590636168682323 19.0761962064201462   T   T   T
  9.8677101960268896 23.6642828217607502 13.6483389598806273   T   T   T
 17.7499743042389184  6.9905263956696073 13.6144408591043309   T   T   T
 21.6811017570048605  9.7441662992750793 13.5886656106589108   T   T   T
 13.8031231214528560  6.9988545522928414 13.6223705692204078   T   T   T
 13.7948914082426395 20.8912672893179980 13.6377957337232001   T   T   T
  9.8628241350000643 15.3429548049999607 10.8156001569999933   F   F   F
 17.5795148806469328  9.8012338023012937 19.2159389476062437   T   T   T
 19.6961532453635009 11.0722921326600776 17.6856901081706717   T   T   T
 13.7746781439839872 26.4523502621148268 19.1835224683457604   T   T   T
  1.9784792637440478  9.7942886041112551 16.3678454190774829   T   T   T
 13.8079546360000549  6.9740706690000334 10.8156001569999933   F   F   F
  3.9196632542895955 16.7977546916456504 17.6223486154609574   T   T   T
 17.7530837259999217 26.5014685400000047 10.8156001569999933   F   F   F
 17.7530837259999217 15.3429548049999607 10.8156001569999933   F   F   F
  9.8744745067641571 20.8643975758563727 13.6433078010520479   T   T   T
 17.6911904539963309 12.5592576109052949 13.6799964544695705   T   T   T
 17.7530837259999217  9.7636989360000435 10.8156001569999933   F   F   F
  5.9176950450000287 15.3429548049999607 10.8156001569999933   F   F   F
  5.8991410891962905 12.6350300196884433 19.2376162378429036   T   T   T
  1.9725650740000149  6.9740706690000334 10.8156001569999933   F   F   F
 13.7953805189578915 15.3878441700909523 13.6941761680178082   T   T   T
 15.7547704242890028 14.0235994062931599 15.1049228899039907   T   T   T
  7.9159301721056430 14.0227133377352846 15.0945672726779208   T   T   T
  7.9450436857213047 19.5456595391418624 15.1133818039389087   T   T   T
 21.7202963661012802  6.9940247858596276 16.4219198029306916   T   T   T
 17.7431371123211399 26.5192086231880353 13.6585444416048567   T   T   T
 13.7120569625376714 15.3610764996871065 19.3769512913028166   T   T   T
 13.7013912185077285 20.8797578426241657 19.1904005031368392   T   T   T
 21.6673340141484445 20.9055066395990821 13.5961454083896900   T   T   T
 17.7530837259999217 20.9222120050000342 10.8156001569999933   F   F   F
 19.7224439684224997  8.3160494120859632 18.3850550259461585   T   T   T
 15.7725032682451456 19.5528492297059380 17.7948804538118743   T   T   T
  3.9451301480000271 13.9481413369999547 12.2103998060000407   F   F   F
 19.7256482699999580  0.0000000000000000 15.1353817264146731   T   T   T