Au  C  H  O Sr Ti                       
   1.00000000000000     
    23.6707801818999997    0.0000000000000000    0.0000000000000000
     0.0000000000000000   22.3170261383000010    0.0000000000000000
     0.0000000000000000    0.0000000000000000   30.0000000000000000
   Au   O    Sr   Ti
    50   265    72    72
Selective dynamics
Direct
  0.7143388761237190  0.5227678846747139  0.7528552237359634   F   F   F
  0.6205310381331657  0.5705581584052197  0.7042435556979427   F   F   F
  0.7251912013035025  0.2586930827238163  0.6917121346780064   F   F   F
  0.2932791024071690  0.7463406588475294  0.6967596765829782   F   F   F
  0.5118569796552279  0.6034241122731601  0.7768842958393520   F   F   F
  0.5784365883695628  0.7257443330331270  0.7939964182175103   F   F   F
  0.2404833580658021  0.4693557722808066  0.7092752441176913   F   F   F
  0.2858395560638911  0.6623886488889354  0.7643043907919775   F   F   F
  0.5968445995050402  0.2950737110819333  0.7883586786907060   F   F   F
  0.5139976381139206  0.4837280691370083  0.6779901595566571   F   F   F
  0.5624384356829921  0.4861550800067747  0.7623264391435569   F   F   F
  0.5557018016444744  0.2122035032332050  0.7126670813515119   F   F   F
  0.5444795907729088  0.3875185800104859  0.8308741234524248   F   F   F
  0.3914093626689095  0.8169201849190983  0.7066371198081285   F   F   F
  0.4640617786809642  0.6951635498004833  0.8303661968996749   F   F   F
  0.4400545830172859  0.2283327201168532  0.6971835453199233   F   F   F
  0.3703667486532325  0.2988014160616501  0.7556072985818716   F   F   F
  0.3490884877767115  0.5005370001925797  0.6976377627316523   F   F   F
  0.4268219697520408  0.3725398634209611  0.8169418740738763   F   F   F
  0.5964497728935001  0.7845336411851278  0.7129879330439195   F   F   F
  0.6347490484508782  0.5837368833816257  0.8000435070367757   F   F   F
  0.7319488372469607  0.6138366017286927  0.6941706643961538   F   F   F
  0.4858334231869108  0.7753637643401063  0.7544593277603937   F   F   F
  0.7623291876821980  0.4287259468726248  0.7045552225123970   F   F   F
  0.4838292382210057  0.2692015482690522  0.7754586862107544   F   F   F
  0.2894604936061711  0.5380738536512766  0.7774465014399183   F   F   F
  0.6177730300964939  0.3183973391286514  0.6973623645421938   F   F   F
  0.3686092953984570  0.6188117939305968  0.8201808860859003   F   F   F
  0.5690139226987299  0.5099333436837910  0.8567027846267052   F   F   F
  0.6759543542489581  0.2141760378149726  0.7622747456873071   T   T   T
  0.4685457913823825  0.4521513563414032  0.8817344509681604   F   F   F
  0.5182365173185062  0.3764839580681354  0.7337137644854153   F   F   F
  0.2826050619056417  0.3381149844835463  0.7023377658915635   F   F   F
  0.6693081646998849  0.6810088498748073  0.7488209182101997   F   F   F
  0.3971144464847569  0.3821613052247912  0.6901922453204818   F   F   F
  0.4523632138630020  0.5795868114517972  0.7027603496165256   F   F   F
  0.3753184710303969  0.4932827763329684  0.8325052745780468   F   F   F
  0.3251352653101662  0.4145184556004438  0.7691656189519520   F   F   F
  0.4156719340036190  0.6953332966860373  0.6996455824894028   F   F   F
  0.7026274362670506  0.3393822269963991  0.7595690031958640   F   F   F
  0.7720225251847097  0.4273032161077737  0.7948530094486941   F   F   F
  0.2571481204917703  0.5931714425332828  0.6945184216875688   F   F   F
  0.6476515312219107  0.4440972159468046  0.6945460281580367   F   F   F
  0.5650491658333010  0.6395624262466910  0.8612512679164794   F   F   F
  0.5401688246681431  0.6678108377020067  0.7017449834847298   F   F   F
  0.4433202884080956  0.4727986182075909  0.7555465459675830   F   F   F
  0.3745095258556432  0.7397920822549011  0.7792043629077838   F   F   F
  0.4626684975385373  0.5739402928164949  0.8644432995141003   F   F   F
  0.6534413524720222  0.4372568221135111  0.8120818057086510   F   F   F
  0.7067106114690134  0.7565354125055421  0.6883983289910276   F   F   F
  0.2494674540515192  0.3136704933924577  0.5459633047334478   F   F   F
  0.7506304566516206  0.1897652090595159  0.4554600605008190   F   F   F
  0.4170303215157674  0.9357292439319309  0.4538669018202697   F   F   F
  0.4171144785061003  0.6847415128729892  0.4547378656209204   F   F   F
  0.4165308201313849  0.4353166524801182  0.4537232134175753   F   F   F
  0.0845376819649388  0.6869159360499140  0.4530631706649402   F   F   F
  0.0838870336877235  0.9366530711348986  0.4534922929719230   F   F   F
  0.0827534839813495  0.4368010057650409  0.4528140242064254   F   F   F
  0.0838889862472811  0.1866045556326270  0.4529697068353258   F   F   F
  0.9165165846356231  0.8120263173287654  0.4540625998742769   F   F   F
  0.0833333358191695  0.3124999999901945  0.3605200052333331   F   F   F
  0.7466795788615954  0.5579807679874378  0.5447442495744070   F   F   F
  0.9164341244158152  0.0617644308824339  0.4542718308463094   F   F   F
  0.9162427838388609  0.3121615208543105  0.4538769963365752   F   F   F
  0.4171192217363497  0.1871548295445820  0.4535333393186605   F   F   F
  0.2522126644022222  0.6875993991843501  0.4560128610235310   F   F   F
  0.9167825432654269  0.9366246009985630  0.4533304265231237   F   F   F
  0.5826854217189137  0.1902561397845375  0.4555267791991042   F   F   F
  0.0002026715367833  0.1249468829402716  0.4982938676136186   F   F   F
  0.5828933737498900  0.8104637322037931  0.4552091523471731   F   F   F
  0.0000852698134750  0.3734684261497705  0.4984168293360156   F   F   F
  0.9999044300026156  0.6271417133471360  0.4977248269114156   F   F   F
  0.3336734855349732  0.1256833374913811  0.4985107135869313   F   F   F
  0.0001434337808206  0.8748184676243866  0.4994180309266980   F   F   F
  0.3334018527713027  0.8736420825304876  0.4991664643674270   F   F   F
  0.6660584771546354  0.1260630430925787  0.4987856677149054   F   F   F
  0.2512073895490374  0.4393226383929800  0.4549409556206996   F   F   F
  0.0833333358191695  0.5625000000092442  0.3605200052333331   F   F   F
  0.9166666865332829  0.0625000000159659  0.3605200052333331   F   F   F
  0.7498943065122390  0.8132316369909987  0.4530111201809532   F   F   F
  0.7497250188510023  0.4383330982252360  0.4557257891549256   F   F   F
  0.2504853412370167  0.0619803902046741  0.4542538867822188   F   F   F
  0.7491051014197225  0.6886565562719227  0.4574061537936842   F   F   F
  0.2498941382387727  0.1884989768087593  0.4541014540610462   F   F   F
  0.2500567579139528  0.9360526937448199  0.4540229885550033   F   F   F
  0.6654204310131959  0.6258727287562280  0.5029927101290568   F   F   F
  0.5844921707285735  0.5628255569997762  0.4548206301005848   F   F   F
  0.5831416690165838  0.0635569199902477  0.4538696789738239   F   F   F
  0.9166666865332829  0.6874999999963620  0.3605200052333331   F   F   F
  0.9166666865332829  0.4374999701794380  0.3605200052333331   F   F   F
  0.9166666865332829  0.1875000000030838  0.3605200052333331   F   F   F
  0.5833333134730552  0.9375000000154046  0.3605200052333331   F   F   F
  0.5833333134730552  0.6874999999963620  0.3605200052333331   F   F   F
  0.5833333134730552  0.4374999701794380  0.3605200052333331   F   F   F
  0.5833333134730552  0.1875000000030838  0.3605200052333331   F   F   F
  0.2499999999799343  0.9375000000154046  0.3605200052333331   F   F   F
  0.9166666865332829  0.9375000000154046  0.3605200052333331   F   F   F
  0.2499999999799343  0.6874999999963620  0.3605200052333331   F   F   F
  0.2499999999799343  0.1875000000030838  0.3605200052333331   F   F   F
  0.7499999404149307  0.9375000000154046  0.3605200052333331   F   F   F
  0.7499999404149307  0.6874999999963620  0.3605200052333331   F   F   F
  0.7499999404149307  0.4374999701794380  0.3605200052333331   F   F   F
  0.7499999404149307  0.1875000000030838  0.3605200052333331   F   F   F
  0.4166666269218169  0.9375000000154046  0.3605200052333331   F   F   F
  0.4166666269218169  0.6874999999963620  0.3605200052333331   F   F   F
  0.4166666269218169  0.4374999701794380  0.3605200052333331   F   F   F
  0.2499999999799343  0.4374999701794380  0.3605200052333331   F   F   F
  0.0833333358191695  0.0625000000159659  0.3605200052333331   F   F   F
  0.9154799872169264  0.6867110151711060  0.4531746131601224   F   F   F
  0.6656485300561101  0.3784770047419741  0.5030499457852429   F   F   F
  0.3343836688175017  0.3784624742828626  0.5029917187751778   F   F   F
  0.3355609555455104  0.6256753327342750  0.5038398154899539   F   F   F
  0.9178160106103448  0.0633249174558799  0.5476115744853587   F   F   F
  0.7494494537243384  0.9384709937587203  0.4553502251098251   F   F   F
  0.9154126611760987  0.3127890633965720  0.5466580720438898   F   F   F
  0.2522680874803385  0.3141225311962046  0.4541256629666748   F   F   F
  0.2518955162389673  0.5646251103269719  0.4537286808403209   F   F   F
  0.2499999999799343  0.8124999999834799  0.3605200052333331   F   F   F
  0.2499999999799343  0.5625000000092442  0.3605200052333331   F   F   F
  0.2499999999799343  0.3124999999901945  0.3605200052333331   F   F   F
  0.2499999999799343  0.0625000000159659  0.3605200052333331   F   F   F
  0.7499999404149307  0.5625000000092442  0.3605200052333331   F   F   F
  0.7499999404149307  0.3124999999901945  0.3605200052333331   F   F   F
  0.7499999404149307  0.0625000000159659  0.3605200052333331   F   F   F
  0.4166666269218169  0.8124999999834799  0.3605200052333331   F   F   F
  0.4166666269218169  0.5625000000092442  0.3605200052333331   F   F   F
  0.4166666269218169  0.3124999999901945  0.3605200052333331   F   F   F
  0.7499999404149307  0.8124999999834799  0.3605200052333331   F   F   F
  0.0835295710333597  0.3120249440445662  0.4539827606007094   F   F   F
  0.4166666269218169  0.0625000000159659  0.3605200052333331   F   F   F
  0.4170017997581965  0.0615742998012792  0.4553645288234165   F   F   F
  0.0835721466770067  0.8120320131774008  0.4541829259895422   F   F   F
  0.0839464244235657  0.5624545516081696  0.4539102438879752   F   F   F
  0.4160679272863064  0.5594902741895638  0.4578746974903254   F   F   F
  0.0837881262220179  0.0618605388877285  0.4541734082351567   F   F   F
  0.4155312512661240  0.3113076588935684  0.4573924360116237   F   F   F
  0.8333332538436267  0.7500000000123208  0.4070133268666680   F   F   F
  0.0833333358191695  0.4374999701794380  0.3605200052333331   F   F   F
  0.0833333358191695  0.6874999999963620  0.3605200052333331   F   F   F
  0.0833333358191695  0.9375000000154046  0.3605200052333331   F   F   F
  0.4166666269218169  0.1875000000030838  0.3605200052333331   F   F   F
  0.0833333358191695  0.8124999999834799  0.3605200052333331   F   F   F
  0.8333332538436267  0.4999999999932783  0.4070133268666680   F   F   F
  0.6910249684194980  0.1333383398169516  0.7697889090268242   T   T   T
  0.2510686768332491  0.0625140251392082  0.5472660194521808   F   F   F
  0.4144056822088942  0.8117779341166482  0.5479006176127683   F   F   F
  0.5833333134730552  0.0625000000159659  0.3605200052333331   F   F   F
  0.5833333134730552  0.3124999999901945  0.3605200052333331   F   F   F
  0.5833333134730552  0.8124999999834799  0.3605200052333331   F   F   F
  0.7493777878829917  0.0644389867956363  0.4528984377566516   F   F   F
  0.2502758632396151  0.8107473366790288  0.4553403169991341   F   F   F
  0.8333332538436267  0.2500000000190425  0.4070133268666680   F   F   F
  0.5842335680357280  0.3152776010323208  0.4537549877208349   F   F   F
  0.8333332538436267  0.0000000000000000  0.4070133268666680   F   F   F
  0.7482066811479982  0.8079311948578862  0.5454698679017795   F   F   F
  0.0833333358191695  0.1875000000030838  0.3605200052333331   F   F   F
  0.0000000000000000  0.0000000000000000  0.4070133268666680   F   F   F
  0.0000000000000000  0.2500000000190425  0.4070133268666680   F   F   F
  0.0000000000000000  0.4999999999932783  0.4070133268666680   F   F   F
  0.7482395033877935  0.5642857004105508  0.4537965406052678   F   F   F
  0.3333333432766779  0.0000000000000000  0.4070133268666680   F   F   F
  0.3333333432766779  0.4999999999932783  0.4070133268666680   F   F   F
  0.3333333432766779  0.7500000000123208  0.4070133268666680   F   F   F
  0.6666666865533486  0.0000000000000000  0.4070133268666680   F   F   F
  0.5827366198091042  0.4394884210604175  0.4561875402910047   F   F   F
  0.6666666865533486  0.2500000000190425  0.4070133268666680   F   F   F
  0.6666666865533486  0.7500000000123208  0.4070133268666680   F   F   F
  0.1666666716383389  0.0000000000000000  0.4070133268666680   F   F   F
  0.1666666716383389  0.2500000000190425  0.4070133268666680   F   F   F
  0.1666666716383389  0.4999999999932783  0.4070133268666680   F   F   F
  0.1666666716383389  0.7500000000123208  0.4070133268666680   F   F   F
  0.5000000000021103  0.0000000000000000  0.4070133268666680   F   F   F
  0.5000000000021103  0.2500000000190425  0.4070133268666680   F   F   F
  0.5000000000021103  0.7500000000123208  0.4070133268666680   F   F   F
  0.9166666865332829  0.3124999999901945  0.3605200052333331   F   F   F
  0.3333333432766779  0.2500000000190425  0.4070133268666680   F   F   F
  0.7474983280671097  0.3141542440441256  0.4546114181749985   F   F   F
  0.0000000000000000  0.7500000000123208  0.4070133268666680   F   F   F
  0.4167068613377438  0.8098957748192319  0.4551121803037077   F   F   F
  0.5833333134730552  0.5625000000092442  0.3605200052333331   F   F   F
  0.6666666865533486  0.4999999999932783  0.4070133268666680   F   F   F
  0.5828015971427547  0.6861047510656775  0.4546004574462188   F   F   F
  0.5000000000021103  0.4999999999932783  0.4070133268666680   F   F   F
  0.9160357976657707  0.1866276019138198  0.4529474816064436   F   F   F
  0.4157664888862556  0.9371185116097323  0.5459040678942202   F   F   F
  0.4990432911012803  0.2531619598461887  0.5908714581561938   F   F   F
  0.4159875877446453  0.1915312736535384  0.5464983268591155   F   F   F
  0.0861183624099979  0.6893348713057819  0.5453257003793226   F   F   F
  0.0828610347891470  0.4389580918566978  0.5448582848341346   F   F   F
  0.0836202653980607  0.1889333280537429  0.5455046044591896   F   F   F
  0.4995320659560605  0.1257237704276761  0.4995681411358532   F   F   F
  0.9998448107331015  0.4996589928020327  0.5940354772182772   F   F   F
  0.5807671317067573  0.1852953645230500  0.5499382271035813   F   F   F
  0.9998262645771021  0.7531174375285161  0.5923648230858376   F   F   F
  0.3340213122637294  0.9998358918850272  0.5920068135589034   F   F   F
  0.9998908530124169  0.9993373238444363  0.5931399401865889   F   F   F
  0.0012808002573479  0.2499711896094468  0.5918294338580239   F   F   F
  0.3332989272713007  0.4963803249349255  0.5908906407335195   F   F   F
  0.3354509948264592  0.7411509843258770  0.5903686704402773   F   F   F
  0.6639170928799842  0.2462781574567074  0.5909166327020188   F   F   F
  0.6658520341934135  0.0008786994427723  0.5919501945109573   F   F   F
  0.6657684865159084  0.7415638480553142  0.5901959559659176   F   F   F
  0.6667356549053594  0.4944095672164792  0.5910760969902285   F   F   F
  0.1675242210019050  0.9982944145048691  0.5922784112556698   F   F   F
  0.1685697562223893  0.2481281394646970  0.5930530815746451   F   F   F
  0.1707564618463451  0.7501215214123818  0.5949795959562181   F   F   F
  0.2484551575881540  0.4357540205828698  0.5491854162539553   F   F   F
  0.1658219089790336  0.5027618921176185  0.5873993186845254   F   F   F
  0.3348725543923763  0.2543524965465807  0.5927341017823764   F   F   F
  0.4994686549923415  0.9998785816052660  0.5908998302873982   F   F   F
  0.8328267838812664  0.8749744744323991  0.4987488159399760   F   F   F
  0.7483643463616687  0.9367729580374089  0.6397374037269188   F   F   F
  0.8323947810411099  0.0019089279064488  0.5925141196819652   F   F   F
  0.7483794364585066  0.1835272414408919  0.5502213567498657   F   F   F
  0.4231061855709441  0.6880293263472481  0.5467049199738625   F   F   F
  0.4231007035620209  0.4439459892023976  0.5453788954902521   F   F   F
  0.7520524272299838  0.4351010666633570  0.5488252511626186   F   F   F
  0.5834601401557435  0.3112997390213721  0.5453977423186060   F   F   F
  0.2530286257968442  0.8125138697043539  0.5507201038519653   F   F   F
  0.5824858488267353  0.0616912376253680  0.5454165783083980   F   F   F
  0.5827505427883182  0.9370816188853013  0.4542730495896805   F   F   F
  0.5857346600393782  0.8142799188933125  0.5503009035568169   F   F   F
  0.7481268383545370  0.3111297795037800  0.5480602662602863   F   F   F
  0.5811845600316943  0.5600526858141990  0.5488669600651761   F   F   F
  0.2524308752837499  0.5590717164009646  0.5439141193172716   F   F   F
  0.4160884268386411  0.3197370902593946  0.5526696734034786   F   F   F
  0.5766551610639539  0.4358902048940294  0.5518140122354254   F   F   F
  0.4165280973848553  0.0654493474866342  0.5473427741095804   F   F   F
  0.0849187636118529  0.8128752174450824  0.5473243959131864   F   F   F
  0.0821393558804715  0.5644246773565627  0.5462682229037981   F   F   F
  0.0867481899335161  0.3135667894171235  0.5469911717914755   F   F   F
  0.5008841998487554  0.7563279325830976  0.5928503414120883   F   F   F
  0.0824082599880640  0.0631669156171384  0.5475669202100590   F   F   F
  0.9140206369938895  0.6891439821208039  0.5453403011699791   F   F   F
  0.5838646030737280  0.9376143534607806  0.5461385871229041   F   F   F
  0.9177222343450424  0.1891773756416626  0.5450774084127588   F   F   F
  0.9159221731639278  0.4376481600564546  0.5457608307782920   F   F   F
  0.5794837970748290  0.6860847886767800  0.5473700975755307   F   F   F
  0.2515803249005657  0.9373036301480013  0.5452060193210855   F   F   F
  0.4975255620823305  0.5043695934872261  0.6088634983708872   F   F   F
  0.9176255537105504  0.5638109894636329  0.5471033811028718   F   F   F
  0.4201292438499635  0.5650245377279433  0.5553490708637696   F   F   F
  0.9155594147535524  0.8129025154069751  0.5468350121099590   F   F   F
  0.0836002935388933  0.9389268653837064  0.5457445218750152   F   F   F
  0.2491554212405944  0.6831888476437626  0.5519466587576076   F   F   F
  0.7489120280482098  0.9338902760365144  0.5476267737570595   F   F   F
  0.7518795752675302  0.6801756626826929  0.5533383869346409   F   F   F
  0.9161156994468058  0.9389071384912526  0.5460401820573679   F   F   F
  0.4177083557349306  0.0651800225091037  0.6400141883598920   F   F   F
  0.9161586029847655  0.5622584217416815  0.4540097615065264   F   F   F
  0.4122245345649702  0.8125693435340509  0.6396060442066087   F   F   F
  0.9167690872436012  0.0619521282376567  0.6426283816608134   F   F   F
  0.9131295927142489  0.5621406081709495  0.6412909942158720   F   F   F
  0.9152960649118072  0.3118690525079657  0.6390568845371121   F   F   F
  0.9143135143882475  0.8132120199090664  0.6415946870149014   F   F   F
  0.5815103232696188  0.0657520935098006  0.6390941446971965   F   F   F
  0.5854891016184851  0.3203143860522886  0.6341440236402960   F   F   F
  0.5912217288207842  0.5652728166108858  0.6387519368966821   F   F   F
  0.2476338398311810  0.5735717587710880  0.6288876707722864   F   F   F
  0.7534961741719641  0.6913571648577701  0.6570763249943212   F   F   F
  0.2620671041848652  0.7996714607498490  0.6463149426186021   F   F   F
  0.2510480374304223  0.0593780594235938  0.6423223484181833   F   F   F
  0.9166666865332829  0.5625000000092442  0.3605200052333331   F   F   F
  0.4996139754468132  0.3740606177798043  0.4998283930245506   F   F   F
  0.5002815738392385  0.6211422779892644  0.5000045197518190   F   F   F
  0.8324076533935454  0.6230564146088611  0.5000460113881076   F   F   F
  0.2520241684999007  0.1882148590785562  0.5471767125976825   F   F   F
  0.8325409032022506  0.3731106379545395  0.4997571151194578   F   F   F
  0.8330658234853701  0.1242858358942769  0.4993080545468729   F   F   F
  0.1668286054375940  0.3763453565134327  0.4977694600697831   F   F   F
  0.1677560668825251  0.6243423053977821  0.4999960875906382   F   F   F
  0.5810927669730788  0.4384445215907817  0.6459605386919520   F   F   F
  0.5785299567283886  0.6857549060368342  0.6395725053892605   F   F   F
  0.9178053784614804  0.1868005983028524  0.6408111737232929   F   F   F
  0.2491050972680213  0.3162182320496854  0.6411528311605963   F   F   F
  0.9158871790665373  0.4369620013083875  0.4536396582209576   F   F   F
  0.1670802699475118  0.1243188162953643  0.4993169093174288   F   F   F
  0.7485723144430594  0.0589810294748219  0.5438596815357783   F   F   F
  0.1676978619057223  0.8733264034180408  0.4998682415370297   F   F   F
  0.4269451819728118  0.3047354980386316  0.6553535868187552   F   F   F
  0.5911479962665140  0.8099554842255472  0.6460343074458450   F   F   F
  0.4204097036876959  0.6759637401691734  0.6335997636474318   F   F   F
  0.4999498890933793  0.8734702558154837  0.5008571586625052   F   F   F
  0.7543972475996625  0.4333202174832778  0.6378448677554616   F   F   F
  0.7533103800392453  0.5681014588847759  0.6357866878910841   F   F   F
  0.3974688345199482  0.5507003397995973  0.6517885977148197   F   F   F
  0.4175390299820307  0.9348803194832342  0.6397370373761859   F   F   F
  0.7411668814347578  0.8096901765880347  0.6400168344655768   F   F   F
  0.7476395080873957  0.3112365443204510  0.6398254456757257   F   F   F
  0.7476918462426596  0.0665950424960826  0.6394116282961022   F   F   F
  0.0843806328933354  0.3114097051118847  0.6405162155058406   F   F   F
  0.6664702305890486  0.8741125692588980  0.4986769919605862   F   F   F
  0.0870540135878812  0.5627550085123758  0.6401665941279688   F   F   F
  0.0872377117255070  0.4365743858709195  0.6395374015722979   F   F   F
  0.0835432100913422  0.1853910283015949  0.6411206816016346   F   F   F
  0.4184347129272226  0.1878154919726427  0.6398382305057950   F   F   F
  0.4153542085161774  0.4189694138508386  0.6298333894685655   F   F   F
  0.0843871014550999  0.9355965710273821  0.6406450926876559   F   F   F
  0.0832806745739489  0.6870712946808339  0.6390064522000642   F   F   F
  0.0843775156936957  0.0603554859483708  0.6421582204153466   F   F   F
  0.8331822841331160  0.5024209097184098  0.5889558235339081   F   F   F
  0.9125853858262829  0.4359959976073142  0.6397368697821761   F   F   F
  0.8305064889387666  0.7508983960226487  0.5928698618034787   F   F   F
  0.8321459890076355  0.2469795744766969  0.5907459566893181   F   F   F
  0.7470624465081031  0.1948053137730952  0.6467506458100161   F   F   F
  0.9166666865332829  0.8124999999834799  0.3605200052333331   F   F   F
  0.5817812519327603  0.9353765953189921  0.6389028906282093   F   F   F
  0.0843509139069738  0.8124627155974125  0.6421753925401390   F   F   F
  0.5796283287393393  0.1917645582929239  0.6458439343522926   F   F   F
  0.2547388379091586  0.6775625108107519  0.6625534892943392   F   F   F
  0.2409396099462811  0.4420636206021626  0.6417095821519965   F   F   F
  0.9147577945071532  0.9368269694372984  0.6406595965568940   F   F   F
  0.9163232527367597  0.6875525698868259  0.6390715877732234   F   F   F
  0.2520727274143582  0.9301823693509021  0.6373335178172610   F   F   F
  0.2536169415449336  0.1864418980257412  0.6412595239262231   F   F   F
  0.0009280497898274  0.1223100172479690  0.6196765756976319   F   F   F
  0.1666666716383389  0.3750000000061604  0.4070133268666680   F   F   F
  0.6653935916554303  0.7518800437540918  0.5021751888863264   F   F   F
  0.5010817864772861  0.7528055596700867  0.5039414215105396   F   F   F
  0.6658940936688893  0.0001551958319297  0.5055992524240907   F   F   F
  0.1645018023923512  0.7514959533613705  0.5033709884017981   F   F   F
  0.8333332538436267  0.6249999999803961  0.4070133268666680   F   F   F
  0.6686905632300011  0.4997357625056082  0.5007341222010737   F   F   F
  0.3313193067727056  0.4991462711090264  0.5009545890630349   F   F   F
  0.3302869398404269  0.2479750242760517  0.5028057084441073   F   F   F
  0.3339493119328765  0.7510934819560759  0.5015122216271664   F   F   F
  0.6669769565095578  0.2475124940929661  0.5030140622914061   F   F   F
  0.5013567893963540  0.4997517154197268  0.5002403969252214   F   F   F
  0.9998538463932292  0.5004233475524487  0.5068347214273885   F   F   F
  0.8361283141633749  0.5000409601374542  0.5028269710097675   F   F   F
  0.8361412481357462  0.2482281249419742  0.5026272654954411   F   F   F
  0.6666666865533486  0.3750000000061604  0.4070133268666680   F   F   F
  0.1660457979561158  0.0011310128110793  0.5065391228946083   F   F   F
  0.0000000000000000  0.8749999404036828  0.4070133268666680   F   F   F
  0.5014472548783786  0.2479553477104304  0.5023337296275656   F   F   F
  0.9999700127479230  0.7509498226820455  0.5065486727170168   F   F   F
  0.0011065011932345  0.2499019002405944  0.5057943915085872   F   F   F
  0.0000936061406946  0.9999522566203538  0.5065935707615807   F   F   F
  0.6666666865533486  0.6249999999803961  0.4070133268666680   F   F   F
  0.8333332538436267  0.8749999404036828  0.4070133268666680   F   F   F
  0.3333333432766779  0.6249999999803961  0.4070133268666680   F   F   F
  0.3333333432766779  0.1249999999871179  0.4070133268666680   F   F   F
  0.3333333432766779  0.3750000000061604  0.4070133268666680   F   F   F
  0.8344486655368613  0.0003388412146279  0.5067981368470740   F   F   F
  0.3333333432766779  0.8749999404036828  0.4070133268666680   F   F   F
  0.6666666865533486  0.1249999999871179  0.4070133268666680   F   F   F
  0.0000000000000000  0.6249999999803961  0.4070133268666680   F   F   F
  0.1664571830353978  0.2481718529285573  0.5061842182086593   F   F   F
  0.3331551113936158  0.0011972524854258  0.5057421956658317   F   F   F
  0.5002335984233284  0.9993476589815771  0.5053867787278463   F   F   F
  0.5004900651460886  0.8766299051280981  0.6094058804611748   F   F   F
  0.3261297309248903  0.3734136129458463  0.5927606164476344   F   F   F
  0.0000000000000000  0.3750000000061604  0.4070133268666680   F   F   F
  0.3342316797397800  0.6242828079597089  0.5950955931369819   F   F   F
  0.5000000000021103  0.8749999404036828  0.4070133268666680   F   F   F
  0.8333332538436267  0.3750000000061604  0.4070133268666680   F   F   F
  0.1666666716383389  0.1249999999871179  0.4070133268666680   F   F   F
  0.6651514830166860  0.1249169876867882  0.6158755978772774   F   F   F
  0.5000000000021103  0.6249999999803961  0.4070133268666680   F   F   F
  0.8394147118348414  0.6269844128137905  0.6040436014763557   F   F   F
  0.3317497076632705  0.1198671286549171  0.6135754773623461   F   F   F
  0.9992907987416686  0.8749027578234205  0.6223061066093933   F   F   F
  0.1638207611266225  0.4998444251317835  0.5021035568125072   F   F   F
  0.5000000000021103  0.1249999999871179  0.4070133268666680   F   F   F
  0.8320325980203975  0.8759170751092995  0.6190851768967818   F   F   F
  0.8378273241863283  0.3725567493201893  0.6032165942191554   F   F   F
  0.8360248051715971  0.7516992893780099  0.5025732750174683   F   F   F
  0.1666666716383389  0.8749999404036828  0.4070133268666680   F   F   F
  0.8333332538436267  0.1249999999871179  0.4070133268666680   F   F   F
  0.0000000000000000  0.1249999999871179  0.4070133268666680   F   F   F
  0.5036838110687469  0.6249163803962361  0.5941347750187163   F   F   F
  0.6711846561360488  0.3719278757481135  0.5935964725872083   F   F   F
  0.5000000000021103  0.3750000000061604  0.4070133268666680   F   F   F
  0.6666666865533486  0.8749999404036828  0.4070133268666680   F   F   F
  0.3344994517830031  0.8786200221721501  0.6028337965649087   F   F   F
  0.1597238430868586  0.6273233251099981  0.6014612615607930   F   F   F
  0.1663666978570149  0.8734207314335976  0.6182133995500294   F   F   F
  0.5021571524867383  0.3709188309495630  0.5953135941881484   F   F   F
  0.1666666716383389  0.6249999999803961  0.4070133268666680   F   F   F
  0.1678611522124882  0.1227332088246769  0.6222130953816105   F   F   F
  0.5002556294333260  0.1224107831587347  0.6066141620069914   F   F   F
  0.9997148779505096  0.6227973613413624  0.6276260781090244   F   F   F
  0.0004305043896053  0.3747367991697601  0.6238195534863280   F   F   F
  0.8339636867464009  0.1247561696478030  0.6255572007138497   F   F   F
  0.6653493912239057  0.8809539287352379  0.6072719649055500   F   F   F
  0.1635691506127159  0.3714228559091026  0.6075855367383767   F   F   F
  0.6665599592864666  0.6261981054937991  0.5936323394086926   F   F   F
  0.0838650412018680  0.2477237848849114  0.6036789718157394   F   F   F
  0.7496025675698093  0.0018424292222221  0.6040822931002836   F   F   F
  0.5825827018737328  0.0008694696998646  0.6040094598295696   F   F   F
  0.9162683839334633  0.0004690813505945  0.6039384183641587   F   F   F
  0.5846653742324577  0.7497730941415526  0.5997608562129599   F   F   F
  0.5903783084517826  0.5013843307661787  0.5935423881211008   F   F   F
  0.2427963220277505  0.4975949124888857  0.5941543394609994   F   F   F
  0.5847880870479898  0.2473321707436824  0.5978878589797958   F   F   F
  0.2497538703872237  0.9977072687964750  0.6042159074790732   F   F   F
  0.7546729486688264  0.2475208904378405  0.5924421799966098   F   F   F
  0.2492711967596151  0.2456009089092035  0.6035480195096810   F   F   F
  0.4171233389056965  0.0000726369200734  0.6047027309490716   F   F   F
  0.2495553986120029  0.7527295703486345  0.5919890264050878   F   F   F
  0.0818115398095927  0.4998916429217815  0.6030672992594219   F   F   F
  0.0813879377609155  0.6259288197770303  0.5054847731199743   F   F   F
  0.2467749937471027  0.3728169450004231  0.5027649566776304   F   F   F
  0.0836116267091924  0.9987353287858056  0.6035740422474589   F   F   F
  0.7508337626869164  0.1218343238335819  0.5047317773384563   F   F   F
  0.0811113589927572  0.7516019889654117  0.6033823925995137   F   F   F