Au  C  H  O Sr Ti                       
   1.00000000000000     
    23.6707801818999997    0.0000000000000000    0.0000000000000000
     0.0000000000000000   22.3170261383000010    0.0000000000000000
     0.0000000000000000    0.0000000000000000   30.0000000000000000
   Au   C    H    O    Sr   Ti
    50     1     2   265    72    72
Selective dynamics
Direct
  0.7104928072114660  0.5259550180606567  0.7545910413951162   F   F   F
  0.6197942707756354  0.5703187336907547  0.7038907411765223   F   F   F
  0.7219298538275964  0.2613365774610585  0.6898382747832770   F   F   F
  0.2951768599979729  0.7484918148931925  0.6956295131992007   F   F   F
  0.5077795710440256  0.6083126750272427  0.7778619631077177   F   F   F
  0.5783690094579867  0.7266269846168498  0.7937262364303805   F   F   F
  0.2388914934965811  0.4702495265795648  0.7086100750485755   F   F   F
  0.2831007843266349  0.6653176267583589  0.7633396814697448   F   F   F
  0.5979633645353886  0.3095345711053383  0.7918327609181190   F   F   F
  0.5124106892984273  0.4846950172949462  0.6781010411856130   F   F   F
  0.5583508066166516  0.4917477664369088  0.7636335434072095   F   F   F
  0.5471937874865631  0.2094364270157314  0.7086018960069822   F   F   F
  0.5394479163333656  0.3951069132846214  0.8347037116761484   F   F   F
  0.3927485029423252  0.8206181861773274  0.7059115517964969   F   F   F
  0.4620672690175809  0.7013588323585722  0.8306722133061442   F   F   F
  0.4322050352077085  0.2287457079955999  0.6985960186705782   F   F   F
  0.3701395985588292  0.3023134849663904  0.7573893195158306   F   F   F
  0.3473043436738692  0.5007110700996478  0.6965880729014771   F   F   F
  0.4238387580779488  0.3772484121922730  0.8189585994225226   F   F   F
  0.5966959423058569  0.7848334239756340  0.7127490556150207   F   F   F
  0.6300537700522355  0.5877927092048054  0.8007086970496786   F   F   F
  0.7314164669456034  0.6143469365643313  0.6940240442973717   F   F   F
  0.4857226484586050  0.7776368722848446  0.7545217514858251   F   F   F
  0.7603340801858280  0.4339889855150787  0.7045732236837026   F   F   F
  0.2872625265811450  0.5408631414614860  0.7763077504681419   F   F   F
  0.4856551895771659  0.2719383193908200  0.7738594790326374   F   F   F
  0.4507229059369067  0.5807531167649387  0.7032557824780810   F   F   F
  0.7066943373511734  0.7569924567550430  0.6882218735532248   F   F   F
  0.6494543143712406  0.4398787619275382  0.8119863673881795   F   F   F
  0.3663742718219325  0.6230983350197832  0.8184775805528801   F   F   F
  0.5653142643097624  0.5154228959543588  0.8587866059750411   F   F   F
  0.6576145726501466  0.2156557790422511  0.7564050593977072   T   T   T
  0.4632209494956214  0.4593076527700575  0.8849515720343177   F   F   F
  0.5171253639386677  0.3810760011544900  0.7350378056201947   F   F   F
  0.2821834384936039  0.3404214782225026  0.7028092142943123   F   F   F
  0.6691894919924124  0.6815176650596939  0.7485975541970618   F   F   F
  0.3972945339304133  0.3833822245003162  0.6907642696211624   F   F   F
  0.6128533054731164  0.3136055141150891  0.6994123486844899   F   F   F
  0.3714608004838169  0.4978840291152764  0.8332442023318052   F   F   F
  0.3227133264578086  0.4174662507549627  0.7698227969528801   F   F   F
  0.4158805800463199  0.6977701134442853  0.6995809486175162   F   F   F
  0.7025523767057891  0.3448465029729917  0.7564576993858836   F   F   F
  0.7702831608267786  0.4321972722009804  0.7950460099157155   F   F   F
  0.2559021201117915  0.5947762995560737  0.6937423420517135   F   F   F
  0.6428498342159727  0.4409813106533278  0.6988295013482997   F   F   F
  0.5617082616035844  0.6443294904915930  0.8631310488204065   F   F   F
  0.5392874732721751  0.6684243003779997  0.7017985312156156   F   F   F
  0.4397631580930650  0.4750544146045570  0.7564036460066390   F   F   F
  0.3724541291785854  0.7434390422489585  0.7780725362421776   F   F   F
  0.4586229092715044  0.5802481626702871  0.8649640921394379   F   F   F
  0.7340277149070857  0.0957862440750787  0.7437219167905198   T   T   T
  0.7513052917838436  0.0530021543881105  0.7557384204420003   T   T   T
  0.7464157416301376  0.1110776991759437  0.7103996418408016   T   T   T
  0.7475205816435775  0.8073199121340906  0.5452134418114554   F   F   F
  0.7493693015563636  0.4384670034106293  0.4561115222402208   F   F   F
  0.7504365562138062  0.1896537636841060  0.4557164192716243   F   F   F
  0.4172456463415202  0.9361513625106923  0.4541587674494920   F   F   F
  0.4172093492443238  0.6852419822093054  0.4550506910949821   F   F   F
  0.4169251405714860  0.4355755782250839  0.4540530237873313   F   F   F
  0.0843263333328181  0.6869458057355757  0.4531517889369425   F   F   F
  0.0840669886243930  0.9368986991986716  0.4537254926588972   F   F   F
  0.0827683896921698  0.4367524774058467  0.4528400261937691   F   F   F
  0.0839954519900630  0.1866360997751855  0.4530089018434964   F   F   F
  0.9165547098245952  0.8122236951052102  0.4541095445609855   F   F   F
  0.2511405907369664  0.0625819102696994  0.5472809748948748   F   F   F
  0.9160678086643799  0.5621808639869101  0.4540366688985813   F   F   F
  0.9161023794953493  0.0621672364571495  0.4540954018736372   F   F   F
  0.9161888513929028  0.3121253630059755  0.4538303241693527   F   F   F
  0.4169102789657728  0.1872741925532750  0.4537907958226484   F   F   F
  0.2520845676666852  0.6875835181896832  0.4560693205558763   F   F   F
  0.9164248989820365  0.9370722972255479  0.4536817206892181   F   F   F
  0.5827789999643258  0.1898989839041576  0.4555823517097366   F   F   F
  0.0003209269746733  0.1248168217929120  0.4980600130873611   F   F   F
  0.5832089080348126  0.8104193947669174  0.4554110494472212   F   F   F
  0.0000045386309111  0.3734075486261972  0.4984256403800487   F   F   F
  0.9995780336525755  0.6270818377634271  0.4976605201329534   F   F   F
  0.3337669625117741  0.1257775396833765  0.4987962952704024   F   F   F
  0.0001178343959154  0.8752091763177603  0.4996495376386534   F   F   F
  0.3335720573147896  0.8742847076188127  0.4992986763642548   F   F   F
  0.6659970756961044  0.1259833418988094  0.4993011616433876   F   F   F
  0.2511562428703300  0.4392853420681462  0.4548904557824898   F   F   F
  0.0833333358191695  0.5625000000092442  0.3605200052333331   F   F   F
  0.9166666865332829  0.0625000000159659  0.3605200052333331   F   F   F
  0.7489522632396373  0.6885919370355040  0.4575257935824766   F   F   F
  0.7498386905531049  0.8131866369032963  0.4530031046571850   F   F   F
  0.7495601142558925  0.9384113456270740  0.4554420695888268   F   F   F
  0.9173518504481777  0.0634511971005551  0.5474627820274236   F   F   F
  0.5826280570752544  0.4391360994091187  0.4564097326530998   F   F   F
  0.2500183810362628  0.9360887919154237  0.4541049188090724   F   F   F
  0.6653816061111399  0.6254331590126228  0.5030031007735190   F   F   F
  0.5846113717924268  0.5625250905155923  0.4549758688769785   F   F   F
  0.5831930059885480  0.0634571820626633  0.4541659584151816   F   F   F
  0.9166666865332829  0.6874999999963620  0.3605200052333331   F   F   F
  0.9166666865332829  0.4374999701794380  0.3605200052333331   F   F   F
  0.9166666865332829  0.1875000000030838  0.3605200052333331   F   F   F
  0.5833333134730552  0.9375000000154046  0.3605200052333331   F   F   F
  0.5833333134730552  0.6874999999963620  0.3605200052333331   F   F   F
  0.5833333134730552  0.4374999701794380  0.3605200052333331   F   F   F
  0.5833333134730552  0.1875000000030838  0.3605200052333331   F   F   F
  0.2499999999799343  0.9375000000154046  0.3605200052333331   F   F   F
  0.9166666865332829  0.9375000000154046  0.3605200052333331   F   F   F
  0.2499999999799343  0.6874999999963620  0.3605200052333331   F   F   F
  0.2499999999799343  0.1875000000030838  0.3605200052333331   F   F   F
  0.7499999404149307  0.9375000000154046  0.3605200052333331   F   F   F
  0.7499999404149307  0.6874999999963620  0.3605200052333331   F   F   F
  0.7499999404149307  0.4374999701794380  0.3605200052333331   F   F   F
  0.7499999404149307  0.1875000000030838  0.3605200052333331   F   F   F
  0.4166666269218169  0.9375000000154046  0.3605200052333331   F   F   F
  0.4166666269218169  0.6874999999963620  0.3605200052333331   F   F   F
  0.4166666269218169  0.4374999701794380  0.3605200052333331   F   F   F
  0.2499999999799343  0.4374999701794380  0.3605200052333331   F   F   F
  0.0833333358191695  0.0625000000159659  0.3605200052333331   F   F   F
  0.9152944415596451  0.6868805944031919  0.4533240007120511   F   F   F
  0.6654533655025219  0.3785083098304654  0.5033714314216766   F   F   F
  0.3343884884823396  0.3784723706542508  0.5030072396794694   F   F   F
  0.3356967519376610  0.6258464737963934  0.5037614137065205   F   F   F
  0.2499892433020250  0.1886876855825292  0.4543480602251719   F   F   F
  0.2505332974455854  0.0620588942330329  0.4542715900179459   F   F   F
  0.9152206731192933  0.3126228055749536  0.5465450931991569   F   F   F
  0.2522790036524398  0.3142424049526156  0.4541647445544967   F   F   F
  0.5833333134730552  0.0625000000159659  0.3605200052333331   F   F   F
  0.2499999999799343  0.8124999999834799  0.3605200052333331   F   F   F
  0.2499999999799343  0.5625000000092442  0.3605200052333331   F   F   F
  0.2499999999799343  0.3124999999901945  0.3605200052333331   F   F   F
  0.2499999999799343  0.0625000000159659  0.3605200052333331   F   F   F
  0.7499999404149307  0.5625000000092442  0.3605200052333331   F   F   F
  0.7499999404149307  0.3124999999901945  0.3605200052333331   F   F   F
  0.7499999404149307  0.0625000000159659  0.3605200052333331   F   F   F
  0.4166666269218169  0.8124999999834799  0.3605200052333331   F   F   F
  0.4166666269218169  0.5625000000092442  0.3605200052333331   F   F   F
  0.4166666269218169  0.3124999999901945  0.3605200052333331   F   F   F
  0.7499999404149307  0.8124999999834799  0.3605200052333331   F   F   F
  0.0834638929535316  0.3119932100546166  0.4540389025102058   F   F   F
  0.4166666269218169  0.0625000000159659  0.3605200052333331   F   F   F
  0.4169467910390949  0.0617528795941737  0.4553326802815576   F   F   F
  0.0834530070208928  0.8121684812182934  0.4541859653259266   F   F   F
  0.0839641285190993  0.5625271470697655  0.4539895106287801   F   F   F
  0.4160049766791474  0.5596438489201887  0.4578007205427710   F   F   F
  0.0839407283309086  0.0620646973614640  0.4540422793245753   F   F   F
  0.4155845209648987  0.3114493661946725  0.4573686649419031   F   F   F
  0.8333332538436267  0.7500000000123208  0.4070133268666680   F   F   F
  0.0833333358191695  0.4374999701794380  0.3605200052333331   F   F   F
  0.0833333358191695  0.6874999999963620  0.3605200052333331   F   F   F
  0.0833333358191695  0.9375000000154046  0.3605200052333331   F   F   F
  0.4166666269218169  0.1875000000030838  0.3605200052333331   F   F   F
  0.0833333358191695  0.8124999999834799  0.3605200052333331   F   F   F
  0.8333332538436267  0.4999999999932783  0.4070133268666680   F   F   F
  0.7011650569657206  0.1232473503163263  0.7677090017308452   T   T   T
  0.4144942021794691  0.8116256471972889  0.5475621833740192   F   F   F
  0.5833333134730552  0.3124999999901945  0.3605200052333331   F   F   F
  0.5833333134730552  0.8124999999834799  0.3605200052333331   F   F   F
  0.7497108915390029  0.0640230388746588  0.4534023722488527   F   F   F
  0.5833333134730552  0.5625000000092442  0.3605200052333331   F   F   F
  0.2518535953729497  0.5646455468999036  0.4537792435373547   F   F   F
  0.2505597406207016  0.8108298268545084  0.4553333966423807   F   F   F
  0.8333332538436267  0.2500000000190425  0.4070133268666680   F   F   F
  0.5842706374661404  0.3147993501079043  0.4543741561721362   F   F   F
  0.7467432506213356  0.5572607075233336  0.5446075919158346   F   F   F
  0.5000000000021103  0.4999999999932783  0.4070133268666680   F   F   F
  0.0833333358191695  0.1875000000030838  0.3605200052333331   F   F   F
  0.0000000000000000  0.0000000000000000  0.4070133268666680   F   F   F
  0.0000000000000000  0.2500000000190425  0.4070133268666680   F   F   F
  0.0000000000000000  0.4999999999932783  0.4070133268666680   F   F   F
  0.7481606590579872  0.5642209963311160  0.4537474629152669   F   F   F
  0.3333333432766779  0.0000000000000000  0.4070133268666680   F   F   F
  0.3333333432766779  0.4999999999932783  0.4070133268666680   F   F   F
  0.3333333432766779  0.7500000000123208  0.4070133268666680   F   F   F
  0.5828022137850439  0.6860412440530936  0.4546305170203482   F   F   F
  0.6666666865533486  0.0000000000000000  0.4070133268666680   F   F   F
  0.6666666865533486  0.4999999999932783  0.4070133268666680   F   F   F
  0.6666666865533486  0.7500000000123208  0.4070133268666680   F   F   F
  0.1666666716383389  0.0000000000000000  0.4070133268666680   F   F   F
  0.1666666716383389  0.2500000000190425  0.4070133268666680   F   F   F
  0.1666666716383389  0.4999999999932783  0.4070133268666680   F   F   F
  0.1666666716383389  0.7500000000123208  0.4070133268666680   F   F   F
  0.5000000000021103  0.0000000000000000  0.4070133268666680   F   F   F
  0.5000000000021103  0.2500000000190425  0.4070133268666680   F   F   F
  0.5000000000021103  0.7500000000123208  0.4070133268666680   F   F   F
  0.9166666865332829  0.3124999999901945  0.3605200052333331   F   F   F
  0.3333333432766779  0.2500000000190425  0.4070133268666680   F   F   F
  0.7473217996067021  0.3141829474519255  0.4547078934758630   F   F   F
  0.0000000000000000  0.7500000000123208  0.4070133268666680   F   F   F
  0.4168940803908328  0.8104835057231554  0.4549086683175645   F   F   F
  0.6666666865533486  0.2500000000190425  0.4070133268666680   F   F   F
  0.5826652757008759  0.9371425247473653  0.4543499529051189   F   F   F
  0.8333332538436267  0.0000000000000000  0.4070133268666680   F   F   F
  0.9160400767377865  0.4368531758169638  0.4535629090911328   F   F   F
  0.7480543955497012  0.1828246967430545  0.5506064002294906   F   F   F
  0.4161820190453227  0.9369400398930736  0.5463109648475495   F   F   F
  0.4989017063814387  0.2538588228770564  0.5919559194839792   F   F   F
  0.4169509856672562  0.1909967507837891  0.5471843734248907   F   F   F
  0.0854574479197794  0.6892452445649866  0.5454192567033402   F   F   F
  0.0828864896696260  0.4389732671108248  0.5448216875552774   F   F   F
  0.0835016232782948  0.1888843703299088  0.5456526171618421   F   F   F
  0.4996472853014495  0.1255745289446324  0.4994907366667647   F   F   F
  0.9994511426680717  0.4984455598491380  0.5939492421091188   F   F   F
  0.5806062589224155  0.1856189995074971  0.5500331588334433   F   F   F
  0.9994020528668131  0.7535976554484662  0.5928414464738054   F   F   F
  0.3340338272516234  0.9998917457783634  0.5919597490840900   F   F   F
  0.9997958950585542  0.9987095317497392  0.5930773011645414   F   F   F
  0.0009651810739939  0.2515693967105079  0.5922579297544814   F   F   F
  0.3331859953669678  0.4964242611790723  0.5909972665112733   F   F   F
  0.3358283853177539  0.7414352628531660  0.5902157711452460   F   F   F
  0.6639151868032513  0.2469593046971497  0.5904588984237265   F   F   F
  0.6665722238328442  0.0026263609999830  0.5922400511037722   F   F   F
  0.6657065161246649  0.7408376607229030  0.5908162052214649   F   F   F
  0.6665367338189441  0.4945404768112809  0.5912982119552055   F   F   F
  0.1674994554916864  0.9983087925881691  0.5923075266678026   F   F   F
  0.1685799429741053  0.2492751713207397  0.5933145304435357   F   F   F
  0.1708485696687490  0.7503424746864269  0.5950680884852346   F   F   F
  0.2483271533685283  0.4361250609170639  0.5489516200754920   F   F   F
  0.1653418360860570  0.5032163073350446  0.5872897854572017   F   F   F
  0.3347350930913109  0.2543842553579836  0.5924981463580892   F   F   F
  0.4997871928575677  0.0001744000326838  0.5911094251708988   F   F   F
  0.8325951571459598  0.8744401082014548  0.4991868863105609   F   F   F
  0.7480055146993294  0.9393090188470339  0.6414261359710096   F   F   F
  0.4233175509401264  0.6876289311314920  0.5469697528031858   F   F   F
  0.4230713801397670  0.4435763021303671  0.5459652945821745   F   F   F
  0.7524060498757521  0.4342007223074305  0.5495542452526863   F   F   F
  0.7516376616275622  0.6794274325941601  0.5535438814248792   F   F   F
  0.2493979882428121  0.3138059334986494  0.5459924021314961   F   F   F
  0.5831046157666293  0.3115662921218529  0.5460494751810643   F   F   F
  0.9158098514980608  0.1866253559517403  0.4531287020990220   F   F   F
  0.2531409761767236  0.8124218085546033  0.5505895429823298   F   F   F
  0.5829899992388476  0.0625962788928902  0.5460582810918240   F   F   F
  0.5863691285658561  0.8146104854778713  0.5505576032308284   F   F   F
  0.7480091675076537  0.3107019637728712  0.5476356697655405   F   F   F
  0.5809444254459848  0.5600234418166323  0.5491129372235051   F   F   F
  0.2525018826755456  0.5591250103632959  0.5437122313505469   F   F   F
  0.4161252243439293  0.3192064987038208  0.5525606270568346   F   F   F
  0.5764278020268847  0.4359624060372127  0.5522771410822287   F   F   F
  0.4165466245638001  0.0652355899997943  0.5472854059034020   F   F   F
  0.0851610383113837  0.8125595410477615  0.5473437185585510   F   F   F
  0.0809288480478756  0.5645168263017766  0.5463789478867298   F   F   F
  0.8320984497831461  0.0020250303956999  0.5922485436272638   F   F   F
  0.0867144757995035  0.3135316087316937  0.5471440765670152   F   F   F
  0.9156962108979769  0.9385971506979871  0.5464509772249997   F   F   F
  0.9142347183926418  0.6886424165286513  0.5457931672608325   F   F   F
  0.5842147111027671  0.9380414367010417  0.5461362313911238   F   F   F
  0.9178569367372234  0.1887719508846359  0.5450574836813544   F   F   F
  0.9153740317212709  0.4375372926901520  0.5456268766137740   F   F   F
  0.5795936018237882  0.6861349721920433  0.5474198291431023   F   F   F
  0.2515231153320698  0.9372465565587902  0.5453417625481833   F   F   F
  0.4970716085170608  0.5046916533213732  0.6091841885421729   F   F   F
  0.9175172927726081  0.5636873933778972  0.5469906879311850   F   F   F
  0.4200755573453989  0.5648692690583559  0.5551470172617101   F   F   F
  0.9155405731288084  0.8127016730135281  0.5468245322849654   F   F   F
  0.0841211417844576  0.9383492418450032  0.5461611999157583   F   F   F
  0.2490028313288022  0.6833825146463184  0.5518129172274939   F   F   F
  0.7486516693382939  0.9334268064240661  0.5482824874751770   F   F   F
  0.0823733581470734  0.0631585967632446  0.5475601961169190   F   F   F
  0.5010030850089180  0.7565838562000096  0.5925168096144873   F   F   F
  0.0833333358191695  0.3124999999901945  0.3605200052333331   F   F   F
  0.4251349782522169  0.3052652957062278  0.6560863600563209   F   F   F
  0.5913569262266734  0.8105943437188969  0.6459786088852653   F   F   F
  0.9159048783635768  0.0626726201836689  0.6411208265510240   F   F   F
  0.9139247352805313  0.5628576286589677  0.6407319052713660   F   F   F
  0.9134512414955438  0.3116673461537687  0.6396105752576773   F   F   F
  0.9129472194065258  0.8135322181566593  0.6420142249591549   F   F   F
  0.5825859922140779  0.0667455801495294  0.6392797326106958   F   F   F
  0.5868886158736117  0.3206471649055160  0.6349332045852307   F   F   F
  0.5905525311930688  0.5661207609221393  0.6387390821941352   F   F   F
  0.2471820958115885  0.5743780713405613  0.6281677890751922   F   F   F
  0.7539007177509305  0.6916977846543588  0.6573405532503926   F   F   F
  0.2625316865861365  0.8012190674010355  0.6457145380095781   F   F   F
  0.2509753253593345  0.0595108755711138  0.6423417483367757   F   F   F
  0.9166666865332829  0.5625000000092442  0.3605200052333331   F   F   F
  0.5001195060625321  0.8733860151413850  0.5010250084608430   F   F   F
  0.5003548107331923  0.6210682301402528  0.4999230950547684   F   F   F
  0.8323559575630881  0.6230443154881158  0.5000313616281247   F   F   F
  0.2519452688874111  0.1881846185393314  0.5473630231758975   F   F   F
  0.8324479786753400  0.3731444363313230  0.4995650368003339   F   F   F
  0.8329093833461414  0.1246269946409981  0.5004121950233937   F   F   F
  0.1667308348664989  0.3762209624081763  0.4977595515748803   F   F   F
  0.1675165807220154  0.6243339147634401  0.5002795460154701   F   F   F
  0.5793355719128925  0.4387279206434798  0.6462765619481345   F   F   F
  0.5769007690666683  0.6864885906318250  0.6398019039488787   F   F   F
  0.9167658622662032  0.1859050796132138  0.6391683704995188   F   F   F
  0.2499679767048661  0.3166733755474382  0.6414566664405186   F   F   F
  0.1671592925525189  0.1244414560608220  0.4994578589009677   F   F   F
  0.7484803253686039  0.0599105507929920  0.5446546456968164   F   F   F
  0.1678103463052736  0.8732429498999608  0.4998793363793013   F   F   F
  0.4177479188815951  0.0653616487845454  0.6399933591099369   F   F   F
  0.4203526532266082  0.6763249673987417  0.6338780984432759   F   F   F
  0.4173855365140753  0.9350393117489944  0.6399770836402396   F   F   F
  0.4996065206606914  0.3741449147783626  0.5002198657837482   F   F   F
  0.7464308578711893  0.1945291267355742  0.6469809082788274   F   F   F
  0.3971405545981526  0.5507822728687657  0.6518007256361997   F   F   F
  0.4132714442769867  0.8134272934130991  0.6390090862305797   F   F   F
  0.7536029394797197  0.4332352051487121  0.6380181530532525   F   F   F
  0.7529129030988884  0.5681041043585964  0.6358528672262409   F   F   F
  0.7411314856417448  0.8100218712645884  0.6397764058783721   F   F   F
  0.7487722480026093  0.3121031934242069  0.6383726986746794   F   F   F
  0.7492238927427479  0.0700660879083159  0.6398653887247647   F   F   F
  0.0844126512160415  0.3114876816990275  0.6413992676602334   F   F   F
  0.6665188539310165  0.8743208431930043  0.4986143799890073   F   F   F
  0.0841230921178777  0.0602513065163635  0.6421324686612024   F   F   F
  0.0871340661533324  0.4364835406378020  0.6397949897435709   F   F   F
  0.0835195059122569  0.1857346189377367  0.6409260973881530   F   F   F
  0.4171967551170397  0.1875944482287792  0.6401351001606557   F   F   F
  0.4152129379668850  0.4187996000924343  0.6300532900513574   F   F   F
  0.0843694897502303  0.9355719143241927  0.6410845187242700   F   F   F
  0.0857161514763902  0.5628214839217875  0.6398159360760971   F   F   F
  0.9166666865332829  0.8124999999834799  0.3605200052333331   F   F   F
  0.0833227158180208  0.6871243490909364  0.6388220748106903   F   F   F
  0.8321100717840295  0.2462644778088148  0.5894445228417169   F   F   F
  0.8330872465960226  0.5022913857637192  0.5894752515957080   F   F   F
  0.2535517621867882  0.1865711322381003  0.6412839438178892   F   F   F
  0.0844364957988191  0.8126705191600792  0.6423729943437451   F   F   F
  0.8300592777074840  0.7507699967299644  0.5925382723190111   F   F   F
  0.2520867003841829  0.9303572157425535  0.6374846906305294   F   F   F
  0.2573989794639715  0.6790406028902538  0.6609259436913746   F   F   F
  0.2404398971175468  0.4422725913372005  0.6412639354063145   F   F   F
  0.9140237467106473  0.9373265324363942  0.6416005398419600   F   F   F
  0.9157194199509604  0.6879398054447279  0.6391409606852250   F   F   F
  0.9125111197519331  0.4361241573196608  0.6399995233058959   F   F   F
  0.5802224270974534  0.1911274055061938  0.6450349328526528   F   F   F
  0.5824243835366332  0.9362559733297786  0.6393068651984635   F   F   F
  0.0009588051213640  0.1224755660478252  0.6193161311217210   F   F   F
  0.1666666716383389  0.3750000000061604  0.4070133268666680   F   F   F
  0.6651013250392808  0.7518423183640266  0.5021685378241969   F   F   F
  0.5010734626531033  0.7528941104947151  0.5037939656660555   F   F   F
  0.6660281370130079  0.9999495331760500  0.5057692932156996   F   F   F
  0.1642690874302417  0.7514250818184607  0.5033760926863025   F   F   F
  0.8333332538436267  0.6249999999803961  0.4070133268666680   F   F   F
  0.6681788050278286  0.4999575172428123  0.5006774783558186   F   F   F
  0.3311198594012765  0.4992312783408579  0.5008485804007563   F   F   F
  0.3302067960733268  0.2480667923433870  0.5028435240417224   F   F   F
  0.3331458823237412  0.0010757798787324  0.5057986717471081   F   F   F
  0.6666937358282468  0.2480018003838325  0.5024127699929153   F   F   F
  0.5012238089658112  0.4997139017384171  0.5003210146442783   F   F   F
  0.9994679717639912  0.5000016720958698  0.5067001702981742   F   F   F
  0.8361936928590623  0.5001296764527865  0.5029526179287132   F   F   F
  0.8362800695309218  0.2485845416246235  0.5020140066352496   F   F   F
  0.6666666865533486  0.3750000000061604  0.4070133268666680   F   F   F
  0.1660418480390575  0.0011853393068293  0.5065591697473266   F   F   F
  0.0000000000000000  0.8749999404036828  0.4070133268666680   F   F   F
  0.5011894496464251  0.2481406996799862  0.5023335643591622   F   F   F
  0.9997329358877778  0.7511426450205576  0.5067659354553982   F   F   F
  0.0011321838731746  0.2499735979332129  0.5060507819255662   F   F   F
  0.0001913137078731  0.9998307044594767  0.5067256546781849   F   F   F
  0.6666666865533486  0.6249999999803961  0.4070133268666680   F   F   F
  0.8333332538436267  0.8749999404036828  0.4070133268666680   F   F   F
  0.3333333432766779  0.6249999999803961  0.4070133268666680   F   F   F
  0.3333333432766779  0.1249999999871179  0.4070133268666680   F   F   F
  0.3333333432766779  0.3750000000061604  0.4070133268666680   F   F   F
  0.8342796902798000  0.9998844154144138  0.5064752132976764   F   F   F
  0.3333333432766779  0.8749999404036828  0.4070133268666680   F   F   F
  0.6666666865533486  0.1249999999871179  0.4070133268666680   F   F   F
  0.0000000000000000  0.6249999999803961  0.4070133268666680   F   F   F
  0.1663981420122127  0.2482296448030610  0.5063334071381149   F   F   F
  0.3337852545572986  0.7512419142007332  0.5014380006894825   F   F   F
  0.5003056181019048  0.9992786328758569  0.5056258854206703   F   F   F
  0.5010137416087019  0.8773679774870118  0.6090637238395757   F   F   F
  0.3261435524566281  0.3735497217338448  0.5927483590021225   F   F   F
  0.0000000000000000  0.3750000000061604  0.4070133268666680   F   F   F
  0.3340301190697659  0.6248781721758760  0.5949549249542443   F   F   F
  0.5000000000021103  0.8749999404036828  0.4070133268666680   F   F   F
  0.8333332538436267  0.1249999999871179  0.4070133268666680   F   F   F
  0.1666666716383389  0.1249999999871179  0.4070133268666680   F   F   F
  0.6652263285569404  0.1245248755541084  0.6082112922806999   F   F   F
  0.5000000000021103  0.6249999999803961  0.4070133268666680   F   F   F
  0.8392017417831212  0.6271808147088649  0.6042797593246192   F   F   F
  0.3314603764074775  0.1198223263701834  0.6127602435815973   F   F   F
  0.9988243581676883  0.8750278233432809  0.6237260829031968   F   F   F
  0.5000000000021103  0.1249999999871179  0.4070133268666680   F   F   F
  0.1633580439856530  0.4998582685151831  0.5019137045859452   F   F   F
  0.8312541484002551  0.8774026244935911  0.6181692725982657   F   F   F
  0.8377453110550093  0.3734568655288939  0.6032379097996383   F   F   F
  0.8360072882288918  0.7518340312499703  0.5026479694183408   F   F   F
  0.1666666716383389  0.8749999404036828  0.4070133268666680   F   F   F
  0.8333332538436267  0.3750000000061604  0.4070133268666680   F   F   F
  0.0000000000000000  0.1249999999871179  0.4070133268666680   F   F   F
  0.5035948082361585  0.6251166291481027  0.5940578019705356   F   F   F
  0.1666666716383389  0.6249999999803961  0.4070133268666680   F   F   F
  0.5000000000021103  0.3750000000061604  0.4070133268666680   F   F   F
  0.6666666865533486  0.8749999404036828  0.4070133268666680   F   F   F
  0.6710407704592711  0.3725004318400593  0.5940115770317007   F   F   F
  0.3345291719335961  0.8788845505548508  0.6024307315744224   F   F   F
  0.1662634310516538  0.8737987417623856  0.6175744612904239   F   F   F
  0.5024664020879896  0.3711142108974173  0.5957509491660886   F   F   F
  0.1589884332924782  0.6272011994058815  0.6008322334245406   F   F   F
  0.1676322975934639  0.1228661878529422  0.6218092263963513   F   F   F
  0.1634599738795615  0.3712589435667013  0.6078052760268022   F   F   F
  0.6657627593725834  0.8820459883224743  0.6072946237070838   F   F   F
  0.6661114346858668  0.6260069043675927  0.5933092714050119   F   F   F
  0.9998674166568833  0.3744513764316011  0.6255667724935989   F   F   F
  0.9994271816654248  0.6239967233457406  0.6239616997289659   F   F   F
  0.8359385573409313  0.1240824112938839  0.6110444326278639   F   F   F
  0.5000467162279563  0.1224097034957907  0.6062521757798720   F   F   F
  0.5844570119436767  0.7500975010734123  0.5997093875187858   F   F   F
  0.0835414141511066  0.2485701736900694  0.6039160747994288   F   F   F
  0.7498549847155118  0.0032173582278858  0.6051121333657719   F   F   F
  0.5827725515592874  0.0017559100279527  0.6043838240962600   F   F   F
  0.9166502858686556  0.9997592463866454  0.6038606003495346   F   F   F
  0.5902581286170019  0.5012898737380169  0.5938115433727944   F   F   F
  0.4148497185916753  0.2485722352952209  0.5913507894525409   F   F   F
  0.2493144774561671  0.7526350310951742  0.5919723194413677   F   F   F
  0.5849265091236688  0.2477092790462976  0.5968181495646050   F   F   F
  0.2497938791497987  0.9977605232808457  0.6042198359272959   F   F   F
  0.7546579988730286  0.2474229970562263  0.5917785890164282   F   F   F
  0.2493010629243244  0.2460405315741667  0.6038071005070762   F   F   F
  0.4172129829873157  0.0000916300721769  0.6047864837803374   F   F   F
  0.2422110076582911  0.4981436674737481  0.5936396597586082   F   F   F
  0.0812473354770518  0.4994734784789330  0.6030254194477180   F   F   F