Au  C  H  O Sr Ti                       
   1.00000000000000     
    23.6707801818999997    0.0000000000000000    0.0000000000000000
     0.0000000000000000   22.3170261383000010    0.0000000000000000
     0.0000000000000000    0.0000000000000000   30.0000000000000000
   Au   C    H    O    Sr   Ti
    50     1     2   265    72    72
Selective dynamics
Direct
  0.7104928072114651  0.5259550180606600  0.7545910413951198   F   F   F 
  0.6197942707756376  0.5703187336907518  0.7038907411765233   F   F   F
  0.7219298538275953  0.2613365774610575  0.6898382747832796   F   F   F
  0.2951768599979716  0.7484918148931895  0.6956295131992007   F   F   F
  0.5077795710440258  0.6083126750272411  0.7778619631077203   F   F   F
  0.5783690094579857  0.7266269846168522  0.7937262364303813   F   F   F
  0.2388914934965784  0.4702495265795620  0.7086100750485731   F   F   F
  0.2831007843266369  0.6653176267583578  0.7633396814697465   F   F   F
  0.5979633645353857  0.3095345711053358  0.7918327609181185   F   F   F
  0.5124106892984238  0.4846950172949482  0.6781010411856133   F   F   F
  0.5583508066166549  0.4917477664369071  0.7636335434072062   F   F   F
  0.5471937874865613  0.2094364270157306  0.7086018960069829   F   F   F
  0.5394479163333639  0.3951069132846196  0.8347037116761492   F   F   F
  0.3927485029423282  0.8206181861773301  0.7059115517964989   F   F   F
  0.4620672690175835  0.7013588323585719  0.8306722133061436   F   F   F
  0.4322050352077077  0.2287457079955988  0.6985960186705812   F   F   F
  0.3701395985588263  0.3023134849663895  0.7573893195158294   F   F   F
  0.3473043436738669  0.5007110700996491  0.6965880729014737   F   F   F
  0.4238387580779487  0.3772484121922715  0.8189585994225246   F   F   F
  0.5966959423058588  0.7848334239756316  0.7127490556150182   F   F   F
  0.6300537700522387  0.5877927092048062  0.8007086970496752   F   F   F
  0.7314164669456038  0.6143469365643296  0.6940240442973723   F   F   F
  0.4857226484586047  0.7776368722848440  0.7545217514858273   F   F   F
  0.7603340801858250  0.4339889855150772  0.7045732236837032   F   F   F
  0.2872625265811465  0.5408631414614832  0.7763077504681440   F   F   F
  0.4856551895771685  0.2719383193908208  0.7738594790326347   F   F   F
  0.4507229059369094  0.5807531167649393  0.7032557824780780   F   F   F
  0.7066943373511703  0.7569924567550410  0.6882218735532226   F   F   F
  0.6494543143712385  0.4398787619275415  0.8119863673881791   F   F   F
  0.3663742718219323  0.6230983350197810  0.8184775805528807   F   F   F
  0.5653142643097611  0.5154228959543610  0.8587866059750385   F   F   F
  0.6576145726501480  0.2156557790422480  0.7564050593977049   T   T   T
  0.4632209494956182  0.4593076527700587  0.8849515720343152   F   F   F
  0.5171253639386652  0.3810760011544898  0.7350378056201934   F   F   F
  0.2821834384936050  0.3404214782225055  0.7028092142943134   F   F   F
  0.6691894919924104  0.6815176650596972  0.7485975541970624   F   F   F
  0.3972945339304149  0.3833822245003146  0.6907642696211647   F   F   F
  0.6128533054731169  0.3136055141150865  0.6994123486844864   F   F   F
  0.3714608004838143  0.4978840291152757  0.8332442023318049   F   F   F
  0.3227133264578053  0.4174662507549610  0.7698227969528788   F   F   F
  0.4158805800463221  0.6977701134442823  0.6995809486175195   F   F   F
  0.7025523767057920  0.3448465029729935  0.7564576993858823   F   F   F
  0.7702831608267779  0.4321972722009829  0.7950460099157172   F   F   F
  0.2559021201117911  0.5947762995560750  0.6937423420517169   F   F   F
  0.6428498342159743  0.4409813106533295  0.6988295013483018   F   F   F
  0.5617082616035820  0.6443294904915923  0.8631310488204060   F   F   F
  0.5392874732721727  0.6684243003779998  0.7017985312156165   F   F   F
  0.4397631580930668  0.4750544146045602  0.7564036460066375   F   F   F
  0.3724541291785830  0.7434390422489583  0.7780725362421798   F   F   F
  0.4586229092715072  0.5802481626702887  0.8649640921394381   F   F   F
  0.7340277149070877  0.0957862440750778  0.7437219167905186   T   T   T
  0.7513052917838419  0.0530021543881070  0.7557384204420003   T   T   T
  0.7464157416301367  0.1110776991759465  0.7103996418408021   T   T   T
  0.7475205816435795  0.8073199121340899  0.5452134418114553   F   F   F
  0.7493693015563627  0.4384670034106282  0.4561115222402217   F   F   F
  0.7504365562138043  0.1896537636841059  0.4557164192716217   F   F   F
  0.4172456463415218  0.9361513625106913  0.4541587674494893   F   F   F
  0.4172093492443266  0.6852419822093071  0.4550506910949806   F   F   F
  0.4169251405714857  0.4355755782250817  0.4540530237873308   F   F   F
  0.0843263333328182  0.6869458057355748  0.4531517889369405   F   F   F
  0.0840669886243948  0.9368986991986682  0.4537254926588972   F   F   F
  0.0827683896921713  0.4367524774058459  0.4528400261937680   F   F   F
  0.0839954519900656  0.1866360997751854  0.4530089018434963   F   F   F
  0.9165547098245984  0.8122236951052103  0.4541095445609870   F   F   F
  0.2511405907369628  0.0625819102697001  0.5472809748948777   F   F   F
  0.9160678086643799  0.5621808639869109  0.4540366688985834   F   F   F
  0.9161023794953512  0.0621672364571504  0.4540954018736361   F   F   F
  0.9161888513929045  0.3121253630059790  0.4538303241693493   F   F   F
  0.4169102789657759  0.1872741925532778  0.4537907958226461   F   F   F
  0.2520845676666857  0.6875835181896807  0.4560693205558783   F   F   F
  0.9164248989820338  0.9370722972255475  0.4536817206892198   F   F   F
  0.5827789999643254  0.1898989839041545  0.4555823517097355   F   F   F
  0.0003209269746716  0.1248168217929150  0.4980600130873645   F   F   F
  0.5832089080348140  0.8104193947669186  0.4554110494472218   F   F   F
  0.0000045386309127  0.3734075486262005  0.4984256403800514   F   F   F
  0.9995780336525775  0.6270818377634261  0.4976605201329534   F   F   F
  0.3337669625117727  0.1257775396833758  0.4987962952704027   F   F   F
  0.0001178343959166  0.8752091763177630  0.4996495376386533   F   F   F
  0.3335720573147899  0.8742847076188155  0.4992986763642565   F   F   F
  0.6659970756961030  0.1259833418988072  0.4993011616433904   F   F   F
  0.2511562428703277  0.4392853420681491  0.4548904557824903   F   F   F
  0.0833333358191695  0.5625000000092442  0.3605200052333331   F   F   F
  0.9166666865332829  0.0625000000159659  0.3605200052333331   F   F   F
  0.7489522632396345  0.6885919370355068  0.4575257935824779   F   F   F
  0.7498386905531075  0.8131866369032930  0.4530031046571814   F   F   F
  0.7495601142558905  0.9384113456270733  0.4554420695888247   F   F   F
  0.9173518504481791  0.0634511971005565  0.5474627820274256   F   F   F
  0.5826280570752574  0.4391360994091162  0.4564097326530988   F   F   F
  0.2500183810362656  0.9360887919154260  0.4541049188090747   F   F   F
  0.6653816061111407  0.6254331590126258  0.5030031007735203   F   F   F
  0.5846113717924266  0.5625250905155933  0.4549758688769814   F   F   F
  0.5831930059885494  0.0634571820626607  0.4541659584151783   F   F   F
  0.9166666865332829  0.6874999999963620  0.3605200052333331   F   F   F
  0.9166666865332829  0.4374999701794380  0.3605200052333331   F   F   F
  0.9166666865332829  0.1875000000030838  0.3605200052333331   F   F   F
  0.5833333134730552  0.9375000000154046  0.3605200052333331   F   F   F
  0.5833333134730552  0.6874999999963620  0.3605200052333331   F   F   F
  0.5833333134730552  0.4374999701794380  0.3605200052333331   F   F   F
  0.5833333134730552  0.1875000000030838  0.3605200052333331   F   F   F
  0.2499999999799343  0.9375000000154046  0.3605200052333331   F   F   F
  0.9166666865332829  0.9375000000154046  0.3605200052333331   F   F   F
  0.2499999999799343  0.6874999999963620  0.3605200052333331   F   F   F
  0.2499999999799343  0.1875000000030838  0.3605200052333331   F   F   F
  0.7499999404149307  0.9375000000154046  0.3605200052333331   F   F   F
  0.7499999404149307  0.6874999999963620  0.3605200052333331   F   F   F
  0.7499999404149307  0.4374999701794380  0.3605200052333331   F   F   F
  0.7499999404149307  0.1875000000030838  0.3605200052333331   F   F   F
  0.4166666269218169  0.9375000000154046  0.3605200052333331   F   F   F
  0.4166666269218169  0.6874999999963620  0.3605200052333331   F   F   F
  0.4166666269218169  0.4374999701794380  0.3605200052333331   F   F   F
  0.2499999999799343  0.4374999701794380  0.3605200052333331   F   F   F
  0.0833333358191695  0.0625000000159659  0.3605200052333331   F   F   F
  0.9152944415596445  0.6868805944031900  0.4533240007120536   F   F   F
  0.6654533655025217  0.3785083098304677  0.5033714314216764   F   F   F
  0.3343884884823419  0.3784723706542490  0.5030072396794666   F   F   F
  0.3356967519376616  0.6258464737963908  0.5037614137065207   F   F   F
  0.2499892433020258  0.1886876855825326  0.4543480602251724   F   F   F
  0.2505332974455866  0.0620588942330331  0.4542715900179483   F   F   F
  0.9152206731192920  0.3126228055749550  0.5465450931991565   F   F   F
  0.2522790036524424  0.3142424049526168  0.4541647445544940   F   F   F
  0.5833333134730552  0.0625000000159659  0.3605200052333331   F   F   F
  0.2499999999799343  0.8124999999834799  0.3605200052333331   F   F   F
  0.2499999999799343  0.5625000000092442  0.3605200052333331   F   F   F
  0.2499999999799343  0.3124999999901945  0.3605200052333331   F   F   F
  0.2499999999799343  0.0625000000159659  0.3605200052333331   F   F   F
  0.7499999404149307  0.5625000000092442  0.3605200052333331   F   F   F
  0.7499999404149307  0.3124999999901945  0.3605200052333331   F   F   F
  0.7499999404149307  0.0625000000159659  0.3605200052333331   F   F   F
  0.4166666269218169  0.8124999999834799  0.3605200052333331   F   F   F
  0.4166666269218169  0.5625000000092442  0.3605200052333331   F   F   F
  0.4166666269218169  0.3124999999901945  0.3605200052333331   F   F   F
  0.7499999404149307  0.8124999999834799  0.3605200052333331   F   F   F
  0.0834638929535321  0.3119932100546188  0.4540389025102091   F   F   F
  0.4166666269218169  0.0625000000159659  0.3605200052333331   F   F   F
  0.4169467910390978  0.0617528795941741  0.4553326802815577   F   F   F
  0.0834530070208893  0.8121684812182918  0.4541859653259254   F   F   F
  0.0839641285190982  0.5625271470697647  0.4539895106287814   F   F   F
  0.4160049766791454  0.5596438489201893  0.4578007205427730   F   F   F
  0.0839407283309078  0.0620646973614669  0.4540422793245765   F   F   F
  0.4155845209648994  0.3114493661946738  0.4573686649419059   F   F   F
  0.8333332538436267  0.7500000000123208  0.4070133268666680   F   F   F
  0.0833333358191695  0.4374999701794380  0.3605200052333331   F   F   F
  0.0833333358191695  0.6874999999963620  0.3605200052333331   F   F   F
  0.0833333358191695  0.9375000000154046  0.3605200052333331   F   F   F
  0.4166666269218169  0.1875000000030838  0.3605200052333331   F   F   F
  0.0833333358191695  0.8124999999834799  0.3605200052333331   F   F   F
  0.8333332538436267  0.4999999999932783  0.4070133268666680   F   F   F
  0.7011650569657204  0.1232473503163263  0.7682090017308427   T   T   T
  0.4144942021794698  0.8116256471972890  0.5475621833740223   F   F   F
  0.5833333134730552  0.3124999999901945  0.3605200052333331   F   F   F
  0.5833333134730552  0.8124999999834799  0.3605200052333331   F   F   F
  0.7497108915389999  0.0640230388746561  0.4534023722488560   F   F   F
  0.5833333134730552  0.5625000000092442  0.3605200052333331   F   F   F
  0.2518535953729521  0.5646455468999038  0.4537792435373564   F   F   F
  0.2505597406207025  0.8108298268545079  0.4553333966423833   F   F   F
  0.8333332538436267  0.2500000000190425  0.4070133268666680   F   F   F
  0.5842706374661407  0.3147993501079057  0.4543741561721349   F   F   F
  0.7467432506213341  0.5572607075233321  0.5446075919158381   F   F   F
  0.5000000000021103  0.4999999999932783  0.4070133268666680   F   F   F
  0.0833333358191695  0.1875000000030838  0.3605200052333331   F   F   F
  0.0000000000000000  0.0000000000000000  0.4070133268666680   F   F   F
  0.0000000000000000  0.2500000000190425  0.4070133268666680   F   F   F
  0.0000000000000000  0.4999999999932783  0.4070133268666680   F   F   F
  0.7481606590579857  0.5642209963311179  0.4537474629152653   F   F   F
  0.3333333432766779  0.0000000000000000  0.4070133268666680   F   F   F
  0.3333333432766779  0.4999999999932783  0.4070133268666680   F   F   F
  0.3333333432766779  0.7500000000123208  0.4070133268666680   F   F   F
  0.5828022137850414  0.6860412440530971  0.4546305170203503   F   F   F
  0.6666666865533486  0.0000000000000000  0.4070133268666680   F   F   F
  0.6666666865533486  0.4999999999932783  0.4070133268666680   F   F   F
  0.6666666865533486  0.7500000000123208  0.4070133268666680   F   F   F
  0.1666666716383389  0.0000000000000000  0.4070133268666680   F   F   F
  0.1666666716383389  0.2500000000190425  0.4070133268666680   F   F   F
  0.1666666716383389  0.4999999999932783  0.4070133268666680   F   F   F
  0.1666666716383389  0.7500000000123208  0.4070133268666680   F   F   F
  0.5000000000021103  0.0000000000000000  0.4070133268666680   F   F   F
  0.5000000000021103  0.2500000000190425  0.4070133268666680   F   F   F
  0.5000000000021103  0.7500000000123208  0.4070133268666680   F   F   F
  0.9166666865332829  0.3124999999901945  0.3605200052333331   F   F   F
  0.3333333432766779  0.2500000000190425  0.4070133268666680   F   F   F
  0.7473217996067055  0.3141829474519238  0.4547078934758664   F   F   F
  0.0000000000000000  0.7500000000123208  0.4070133268666680   F   F   F
  0.4168940803908325  0.8104835057231531  0.4549086683175652   F   F   F
  0.6666666865533486  0.2500000000190425  0.4070133268666680   F   F   F
  0.5826652757008778  0.9371425247473664  0.4543499529051209   F   F   F
  0.8333332538436267  0.0000000000000000  0.4070133268666680   F   F   F
  0.9160400767377895  0.4368531758169661  0.4535629090911356   F   F   F
  0.7480543955496995  0.1828246967430529  0.5506064002294901   F   F   F
  0.4161820190453262  0.9369400398930740  0.5463109648475530   F   F   F
  0.4989017063814361  0.2538588228770570  0.5919559194839790   F   F   F
  0.4169509856672577  0.1909967507837926  0.5471843734248902   F   F   F
  0.0854574479197766  0.6892452445649857  0.5454192567033418   F   F   F
  0.0828864896696241  0.4389732671108221  0.5448216875552754   F   F   F
  0.0835016232782975  0.1888843703299093  0.5456526171618430   F   F   F
  0.4996472853014471  0.1255745289446299  0.4994907366667678   F   F   F
  0.9994511426680727  0.4984455598491399  0.5939492421091209   F   F   F
  0.5806062589224158  0.1856189995074956  0.5500331588334444   F   F   F
  0.9994020528668099  0.7535976554484642  0.5928414464738045   F   F   F
  0.3340338272516241  0.9998917457783646  0.5919597490840905   F   F   F
 -0.0002041049414423  0.9987095317497369  0.5930773011645447   F   F   F
  0.0009651810739935  0.2515693967105091  0.5922579297544843   F   F   F
  0.3331859953669651  0.4964242611790733  0.5909972665112762   F   F   F
  0.3358283853177549  0.7414352628531674  0.5902157711452455   F   F   F
  0.6639151868032523  0.2469593046971462  0.5904588984237237   F   F   F
  0.6665722238328406  0.0026263609999821  0.5922400511037753   F   F   F
  0.6657065161246679  0.7408376607229017  0.5908162052214669   F   F   F
  0.6665367338189466  0.4945404768112837  0.5912982119552068   F   F   F
  0.1674994554916855  0.9983087925881666  0.5923075266678001   F   F   F
  0.1685799429741057  0.2492751713207374  0.5933145304435378   F   F   F
  0.1708485696687484  0.7503424746864280  0.5950680884852313   F   F   F
  0.2483271533685251  0.4361250609170662  0.5489516200754924   F   F   F
  0.1653418360860605  0.5032163073350434  0.5872897854571981   F   F   F
  0.3347350930913104  0.2543842553579848  0.5924981463580918   F   F   F
  0.4997871928575683  0.0001744000326827  0.5911094251708977   F   F   F
  0.8325951571459620  0.8744401082014569  0.4991868863105577   F   F   F
  0.7480055146993267  0.9393090188470367  0.6414261359710131   F   F   F
  0.4233175509401266  0.6876289311314896  0.5469697528031857   F   F   F
  0.4230713801397687  0.4435763021303679  0.5459652945821757   F   F   F
  0.7524060498757522  0.4342007223074271  0.5495542452526875   F   F   F
  0.7516376616275616  0.6794274325941618  0.5535438814248819   F   F   F
  0.2493979882428120  0.3138059334986509  0.5459924021314965   F   F   F
  0.5831046157666282  0.3115662921218559  0.5460494751810652   F   F   F
  0.9158098514980620  0.1866253559517430  0.4531287020990232   F   F   F
  0.2531409761767245  0.8124218085546027  0.5505895429823295   F   F   F
  0.5829899992388452  0.0625962788928890  0.5460582810918234   F   F   F
  0.5863691285658540  0.8146104854778702  0.5505576032308306   F   F   F
  0.7480091675076542  0.3107019637728741  0.5476356697655417   F   F   F
  0.5809444254459843  0.5600234418166292  0.5491129372235083   F   F   F
  0.2525018826755487  0.5591250103632963  0.5437122313505499   F   F   F
  0.4161252243439302  0.3192064987038178  0.5525606270568345   F   F   F
  0.5764278020268873  0.4359624060372136  0.5522771410822290   F   F   F
  0.4165466245637976  0.0652355899997974  0.5472854059033987   F   F   F
  0.0851610383113862  0.8125595410477636  0.5473437185585507   F   F   F
  0.0809288480478750  0.5645168263017771  0.5463789478867270   F   F   F
  0.8320984497831434  0.0020250303956979  0.5922485436272631   F   F   F
  0.0867144757995027  0.3135316087316917  0.5471440765670144   F   F   F
  0.9156962108979798  0.9385971506979842  0.5464509772249979   F   F   F
  0.9142347183926389  0.6886424165286549  0.5457931672608333   F   F   F
  0.5842147111027642  0.9380414367010389  0.5461362313911213   F   F   F
  0.9178569367372204  0.1887719508846338  0.5450574836813533   F   F   F
  0.9153740317212731  0.4375372926901528  0.5456268766137770   F   F   F
  0.5795936018237864  0.6861349721920464  0.5474198291431057   F   F   F
  0.2515231153320682  0.9372465565587926  0.5453417625481816   F   F   F
  0.4970716085170591  0.5046916533213711  0.6091841885421754   F   F   F
  0.9175172927726063  0.5636873933778963  0.5469906879311862   F   F   F
  0.4200755573454005  0.5648692690583591  0.5551470172617115   F   F   F
  0.9155405731288052  0.8127016730135287  0.5468245322849641   F   F   F
  0.0841211417844603  0.9383492418450056  0.5461611999157598   F   F   F
  0.2490028313288024  0.6833825146463163  0.5518129172274941   F   F   F
  0.7486516693382924  0.9334268064240665  0.5482824874751743   F   F   F
  0.0823733581470717  0.0631585967632448  0.5475601961169178   F   F   F
  0.5010030850089212  0.7565838562000126  0.5925168096144887   F   F   F
  0.0833333358191695  0.3124999999901945  0.3605200052333331   F   F   F
  0.4251349782522135  0.3052652957062262  0.6560863600563183   F   F   F
  0.5913569262266752  0.8105943437188937  0.6459786088852645   F   F   F
  0.9159048783635791  0.0626726201836722  0.6411208265510213   F   F   F
  0.9139247352805320  0.5628576286589689  0.6407319052713630   F   F   F
  0.9134512414955451  0.3116673461537651  0.6396105752576789   F   F   F
  0.9129472194065237  0.8135322181566564  0.6420142249591554   F   F   F
  0.5825859922140808  0.0667455801495317  0.6392797326106927   F   F   F
  0.5868886158736091  0.3206471649055161  0.6349332045852284   F   F   F
  0.5905525311930657  0.5661207609221386  0.6387390821941318   F   F   F
  0.2471820958115883  0.5743780713405626  0.6281677890751942   F   F   F
  0.7539007177509327  0.6916977846543622  0.6573405532503923   F   F   F
  0.2625316865861337  0.8012190674010372  0.6457145380095791   F   F   F
  0.2509753253593347  0.0595108755711148  0.6423417483367745   F   F   F
  0.9166666865332829  0.5625000000092442  0.3605200052333331   F   F   F
  0.5001195060625315  0.8733860151413819  0.5010250084608420   F   F   F
  0.5003548107331948  0.6210682301402541  0.4999230950547704   F   F   F
  0.8323559575630848  0.6230443154881153  0.5000313616281254   F   F   F
  0.2519452688874130  0.1881846185393336  0.5473630231758974   F   F   F
  0.8324479786753404  0.3731444363313260  0.4995650368003333   F   F   F
  0.8329093833461443  0.1246269946410004  0.5004121950233931   F   F   F
  0.1667308348664970  0.3762209624081747  0.4977595515748776   F   F   F
  0.1675165807220152  0.6243339147634408  0.5002795460154670   F   F   F
  0.5793355719128916  0.4387279206434763  0.6462765619481373   F   F   F
  0.5769007690666671  0.6864885906318232  0.6398019039488785   F   F   F
  0.9167658622662034  0.1859050796132121  0.6391683704995165   F   F   F
  0.2499679767048648  0.3166733755474362  0.6414566664405168   F   F   F
  0.1671592925525198  0.1244414560608206  0.4994578589009658   F   F   F
  0.7484803253686072  0.0599105507929939  0.5446546456968198   F   F   F
  0.1678103463052747  0.8732429498999600  0.4998793363793028   F   F   F
  0.4177479188815927  0.0653616487845469  0.6399933591099355   F   F   F
  0.4203526532266052  0.6763249673987417  0.6338780984432785   F   F   F
  0.4173855365140761  0.9350393117489909  0.6399770836402430   F   F   F
  0.4996065206606929  0.3741449147783616  0.5002198657837449   F   F   F
  0.7464308578711889  0.1945291267355739  0.6469809082788250   F   F   F
  0.3971405545981549  0.5507822728687681  0.6518007256362015   F   F   F
  0.4132714442769860  0.8134272934130998  0.6390090862305789   F   F   F
  0.7536029394797198  0.4332352051487099  0.6380181530532530   F   F   F
  0.7529129030988858  0.5681041043585990  0.6358528672262375   F   F   F
  0.7411314856417442  0.8100218712645886  0.6397764058783695   F   F   F
  0.7487722480026107  0.3121031934242044  0.6383726986746801   F   F   F
  0.7492238927427514  0.0700660879083157  0.6398653887247674   F   F   F
  0.0844126512160386  0.3114876816990282  0.6413992676602310   F   F   F
  0.6665188539310186  0.8743208431930015  0.4986143799890076   F   F   F
  0.0841230921178753  0.0602513065163608  0.6421324686612041   F   F   F
  0.0871340661533316  0.4364835406377995  0.6397949897435690   F   F   F
  0.0835195059122538  0.1857346189377366  0.6409260973881514   F   F   F
  0.4171967551170369  0.1875944482287774  0.6401351001606568   F   F   F
  0.4152129379668864  0.4187996000924340  0.6300532900513546   F   F   F
  0.0843694897502315  0.9355719143241912  0.6410845187242675   F   F   F
  0.0857161514763887  0.5628214839217841  0.6398159360760959   F   F   F
  0.9166666865332829  0.8124999999834799  0.3605200052333331   F   F   F
  0.0833227158180183  0.6871243490909362  0.6388220748106899   F   F   F
  0.8321100717840302  0.2462644778088146  0.5894445228417184   F   F   F
  0.8330872465960254  0.5022913857637223  0.5894752515957075   F   F   F
  0.2535517621867850  0.1865711322381034  0.6412839438178913   F   F   F
  0.0844364957988204  0.8126705191600821  0.6423729943437447   F   F   F
  0.8300592777074867  0.7507699967299617  0.5925382723190128   F   F   F
  0.2520867003841845  0.9303572157425563  0.6374846906305263   F   F   F
  0.2573989794639742  0.6790406028902520  0.6609259436913737   F   F   F
  0.2404398971175480  0.4422725913371999  0.6412639354063154   F   F   F
  0.9140237467106439  0.9373265324363951  0.6416005398419592   F   F   F
  0.9157194199509575  0.6879398054447301  0.6391409606852282   F   F   F
  0.9125111197519339  0.4361241573196601  0.6399995233058933   F   F   F
  0.5802224270974567  0.1911274055061924  0.6450349328526553   F   F   F
  0.5824243835366310  0.9362559733297805  0.6393068651984642   F   F   F
  0.0009588051213617  0.1224755660478258  0.6193161311217220   F   F   F
  0.1666666716383389  0.3750000000061604  0.4070133268666680   F   F   F
  0.6651013250392821  0.7518423183640288  0.5021685378241949   F   F   F
  0.5010734626531015  0.7528941104947158  0.5037939656660526   F   F   F
  0.6660281370130060 -0.0000504668239503  0.5057692932156989   F   F   F
  0.1642690874302426  0.7514250818184600  0.5033760926862990   F   F   F
  0.8333332538436267  0.6249999999803961  0.4070133268666680   F   F   F
  0.6681788050278253  0.4999575172428110  0.5006774783558172   F   F   F
  0.3311198594012751  0.4992312783408590  0.5008485804007597   F   F   F
  0.3302067960733289  0.2480667923433900  0.5028435240417237   F   F   F
  0.3331458823237385  0.0010757798787337  0.5057986717471077   F   F   F
  0.6666937358282474  0.2480018003838329  0.5024127699929125   F   F   F
  0.5012238089658111  0.4997139017384177  0.5003210146442796   F   F   F
  0.9994679717639897  0.5000016720958711  0.5067001702981725   F   F   F
  0.8361936928590641  0.5001296764527895  0.5029526179287097   F   F   F
  0.8362800695309222  0.2485845416246234  0.5020140066352516   F   F   F
  0.6666666865533486  0.3750000000061604  0.4070133268666680   F   F   F
  0.1660418480390577  0.0011853393068298  0.5065591697473270   F   F   F
  0.0000000000000000  0.8749999404036828  0.4070133268666680   F   F   F
  0.5011894496464216  0.2481406996799852  0.5023335643591608   F   F   F
  0.9997329358877779  0.7511426450205609  0.5067659354554011   F   F   F
  0.0011321838731755  0.2499735979332095  0.5060507819255637   F   F   F
  0.0001913137078735  0.9998307044594777  0.5067256546781852   F   F   F
  0.6666666865533486  0.6249999999803961  0.4070133268666680   F   F   F
  0.8333332538436267  0.8749999404036828  0.4070133268666680   F   F   F
  0.3333333432766779  0.6249999999803961  0.4070133268666680   F   F   F
  0.3333333432766779  0.1249999999871179  0.4070133268666680   F   F   F
  0.3333333432766779  0.3750000000061604  0.4070133268666680   F   F   F
  0.8342796902798013 -0.0001155845855842  0.5064752132976732   F   F   F
  0.3333333432766779  0.8749999404036828  0.4070133268666680   F   F   F
  0.6666666865533486  0.1249999999871179  0.4070133268666680   F   F   F
  0.0000000000000000  0.6249999999803961  0.4070133268666680   F   F   F
  0.1663981420122095  0.2482296448030585  0.5063334071381176   F   F   F
  0.3337852545572969  0.7512419142007367  0.5014380006894846   F   F   F
  0.5003056181019059  0.9992786328758579  0.5056258854206681   F   F   F
  0.5010137416087016  0.8773679774870139  0.6090637238395734   F   F   F
  0.3261435524566307  0.3735497217338456  0.5927483590021252   F   F   F
  0.0000000000000000  0.3750000000061604  0.4070133268666680   F   F   F
  0.3340301190697687  0.6248781721758792  0.5949549249542443   F   F   F
  0.5000000000021103  0.8749999404036828  0.4070133268666680   F   F   F
  0.8333332538436267  0.1249999999871179  0.4070133268666680   F   F   F
  0.1666666716383389  0.1249999999871179  0.4070133268666680   F   F   F
  0.6652263285569411  0.1245248755541053  0.6082112922806987   F   F   F
  0.5000000000021103  0.6249999999803961  0.4070133268666680   F   F   F
  0.8392017417831199  0.6271808147088640  0.6042797593246187   F   F   F
  0.3314603764074803  0.1198223263701819  0.6127602435816003   F   F   F
  0.9988243581676884  0.8750278233432778  0.6237260829031990   F   F   F
  0.5000000000021103  0.1249999999871179  0.4070133268666680   F   F   F
  0.1633580439856499  0.4998582685151864  0.5019137045859461   F   F   F
  0.8312541484002531  0.8774026244935881  0.6181692725982633   F   F   F
  0.8377453110550058  0.3734568655288958  0.6032379097996410   F   F   F
  0.8360072882288925  0.7518340312499676  0.5026479694183407   F   F   F
  0.1666666716383389  0.8749999404036828  0.4070133268666680   F   F   F
  0.8333332538436267  0.3750000000061604  0.4070133268666680   F   F   F
  0.0000000000000000  0.1249999999871179  0.4070133268666680   F   F   F
  0.5035948082361563  0.6251166291481004  0.5940578019705355   F   F   F
  0.1666666716383389  0.6249999999803961  0.4070133268666680   F   F   F
  0.5000000000021103  0.3750000000061604  0.4070133268666680   F   F   F
  0.6666666865533486  0.8749999404036828  0.4070133268666680   F   F   F
  0.6710407704592721  0.3725004318400589  0.5940115770317020   F   F   F
  0.3345291719335945  0.8788845505548498  0.6024307315744234   F   F   F
  0.1662634310516518  0.8737987417623826  0.6175744612904234   F   F   F
  0.5024664020879893  0.3711142108974177  0.5957509491660896   F   F   F
  0.1589884332924748  0.6272011994058788  0.6008322334245403   F   F   F
  0.1676322975934627  0.1228661878529422  0.6218092263963523   F   F   F
  0.1634599738795586  0.3712589435666996  0.6078052760268003   F   F   F
  0.6657627593725833  0.8820459883224739  0.6072946237070870   F   F   F
  0.6661114346858683  0.6260069043675952  0.5933092714050127   F   F   F
 -0.0001325833431180  0.3744513764316037  0.6255667724935968   F   F   F
  0.9994271816654233  0.6239967233457386  0.6239616997289656   F   F   F
  0.8359385573409278  0.1240824112938834  0.6110444326278643   F   F   F
  0.5000467162279534  0.1224097034957915  0.6062521757798691   F   F   F
  0.5844570119436788  0.7500975010734090  0.5997093875187889   F   F   F
  0.0835414141511052  0.2485701736900700  0.6039160747994288   F   F   F
  0.7498549847155132  0.0032173582278886  0.6051121333657707   F   F   F
  0.5827725515592889  0.0017559100279505  0.6043838240962607   F   F   F
  0.9166502858686576 -0.0002407536133551  0.6038606003495379   F   F   F
  0.5902581286170000  0.5012898737380158  0.5938115433727945   F   F   F
  0.4148497185916760  0.2485722352952203  0.5913507894525414   F   F   F
  0.2493144774561704  0.7526350310951770  0.5919723194413665   F   F   F
  0.5849265091236668  0.2477092790462977  0.5968181495646036   F   F   F
  0.2497938791497969  0.9977605232808475  0.6042198359272961   F   F   F
  0.7546579988730269  0.2474229970562256  0.5917785890164315   F   F   F
  0.2493010629243241  0.2460405315741667  0.6038071005070741   F   F   F
  0.4172129829873167  0.0000916300721769  0.6047864837803341   F   F   F
  0.2422110076582882  0.4981436674737447  0.5936396597586047   F   F   F
  0.0812473354770539  0.4994734784789364  0.6030254194477171   F   F   F