Au  O Sr Ti  H                          
   1.00000000000000     
    23.6707801818999997    0.0000000000000000    0.0000000000000000
     0.0000000000000000   22.3170261383000010    0.0000000000000000
     0.0000000000000000    0.0000000000000000   30.0000000000000000
   Au   O    Sr   Ti   H 
    50   264    72    72     1
Selective dynamics
Direct
  0.7175881531469784  0.5261793574208031  0.7540209713436563   T   T   T
  0.6240770335978800  0.5681660423374706  0.7039311830338901   T   T   T
  0.7186539820978181  0.2593113406874071  0.6915774720817260   T   T   T
  0.2933635985257903  0.7456498927036614  0.6977184780761062   T   T   T
  0.5117529702541849  0.6034275547718770  0.7768068795561054   T   T   T
  0.5769525399791352  0.7243261081699588  0.7927415468559315   T   T   T
  0.5501069810490826  0.3839754501588059  0.8289315253331107   T   T   T
  0.2405592374862094  0.4684050080705068  0.7090802376203829   T   T   T
  0.2839983468290470  0.6606810361957527  0.7652068108242502   T   T   T
  0.6026083591394809  0.2880450802821941  0.7873294304298216   T   T   T
  0.5145516426312003  0.4838185429706219  0.6780342612945921   T   T   T
  0.5624229623187400  0.4861111081866382  0.7626026202126330   T   T   T
  0.4633123323154970  0.6951911149386302  0.8303436113544134   T   T   T
  0.7645206707779346  0.4320003448318075  0.7058414705675565   T   T   T
  0.7334328208730733  0.6158035994742488  0.6939187359415888   T   T   T
  0.6350552044972955  0.5840837173514511  0.8000064247650394   T   T   T
  0.5947226406765923  0.7845312191716263  0.7127611880965170   T   T   T
  0.4842060621790532  0.7788721493635271  0.7572043283411989   T   T   T
  0.3490326790764881  0.5002060334713918  0.6974057498241686   T   T   T
  0.4308164210501423  0.3722919261691265  0.8154274407024145   T   T   T
  0.3725959779157361  0.2987867960678623  0.7553408678488479   T   T   T
  0.4415899006998949  0.2284432847841734  0.6969917116170480   T   T   T
  0.3910389793194604  0.8169181548372267  0.7065386960896907   T   T   T
  0.2897591893655419  0.5365584751025280  0.7775908205932535   T   T   T
  0.5561249500177819  0.2086507737498846  0.7119669457902552   T   T   T
  0.4527720847470894  0.5798184666721796  0.7023242915553443   T   T   T
  0.6137036379240199  0.3198197986075582  0.6975070749986914   T   T   T
  0.7054243363324761  0.7575980904772637  0.6883489703939641   T   T   T
  0.6561369957207228  0.4413183398959742  0.8124270416067335   T   T   T
  0.3683003034502161  0.6184062269372346  0.8203089248951342   T   T   T
  0.5712491632847855  0.5099990242093425  0.8570258975276656   T   T   T
  0.6652468784557887  0.1933025793778806  0.7518202753620409   T   T   T
  0.4725916265625825  0.4508427469173847  0.8792857237642279   T   T   T
  0.5160216849659476  0.3773759445184008  0.7338713037216726   T   T   T
  0.2832857529538417  0.3378756840577931  0.7026384303361071   T   T   T
  0.6694240897551738  0.6812227536272965  0.7488021911176675   T   T   T
  0.3977024774884392  0.3819910851850126  0.6900472328857232   T   T   T
  0.3759859369215796  0.4925604418800464  0.8333317676198110   T   T   T
  0.4627476078224347  0.5732801623402486  0.8640834489011783   T   T   T
  0.3264777862052986  0.4140982127028396  0.7692615904465823   T   T   T
  0.4872301134242488  0.2686655450552052  0.7753505292716437   T   T   T
  0.4225814418633423  0.6977175581847821  0.6993771188659729   T   T   T
  0.6998595101353445  0.3464851800167165  0.7564341103103935   T   T   T
  0.7740686834956254  0.4296419612498094  0.7961065240661525   T   T   T
  0.2562196395476645  0.5922057540005066  0.6946425584160114   T   T   T
  0.6476352934324970  0.4420000699515108  0.6969178328007398   T   T   T
  0.5645458284765131  0.6393998877684514  0.8610227509963271   T   T   T
  0.5436967789591651  0.6651699082135032  0.7015152322104408   T   T   T
  0.4429112699322196  0.4746649298580131  0.7559760906050648   T   T   T
  0.3732386980400688  0.7380578840029351  0.7781017986150415   T   T   T
  0.2501189368393374  0.1884812594777396  0.4540892757744390   T   T   T
  0.7494562976136184  0.9384798910121881  0.4554044723188974   T   T   T
  0.7489720117116140  0.6887430065883011  0.4573194002516220   T   T   T
  0.7494736424719511  0.4385651682890925  0.4558603524937302   T   T   T
  0.7500188316888738  0.1898604525632638  0.4557289187454539   T   T   T
  0.4173443175516946  0.9357071989557890  0.4539496565462280   T   T   T
  0.4168659771984232  0.6846668279056844  0.4547301436063567   T   T   T
  0.4168702621539085  0.4353882198583522  0.4538166154847814   T   T   T
  0.0845795247166420  0.6868096564449373  0.4529931287333602   T   T   T
  0.0839595279048651  0.9368182264565166  0.4535541916495459   T   T   T
  0.0829021309578047  0.4368854811690024  0.4530206085348057   T   T   T
  0.0832636238060484  0.1872355104454549  0.4537030139017668   T   T   T
  0.9164664782151143  0.8124139456171140  0.4537393685102534   T   T   T
  0.9161143981149437  0.5624847462034290  0.4535954436995274   T   T   T
  0.2510079229020444  0.4391873315532388  0.4549663560776434   T   T   T
  0.9165917405418318  0.0633421292177836  0.4531750527795455   T   T   T
  0.9157856388869612  0.3133411368281713  0.4527250445328171   T   T   T
  0.4169841423140203  0.1871998836960317  0.4535615847430909   T   T   T
  0.2522517790866962  0.6874605434097575  0.4560331438037167   T   T   T
  0.9163729132267169  0.9376351619150145  0.4539102612217187   T   T   T
  0.5828499705893760  0.1894899530297744  0.4551381749753526   T   T   T
 -0.0000436857090588  0.1250679223015841  0.4994462258124051   T   T   T
  0.5834526140567026  0.8101192217545740  0.4554680796703809   T   T   T
  0.9995222460696339  0.3732883948014387  0.4982194691359692   T   T   T
  0.9999211922537232  0.6271867491266279  0.4976724802324862   T   T   T
  0.3335369822130211  0.1256193946577011  0.4985678888939525   T   T   T
  0.0001930787913540  0.8746282187465573  0.4991873262288132   T   T   T
  0.3334542596735434  0.8737191518294696  0.4990147993137097   T   T   T
  0.6661495736191330  0.1258147888266287  0.4995944582873464   T   T   T
  0.3355893434754929  0.6254589739425030  0.5041698516400323   T   T   T
  0.3343673968638708  0.3784632957329914  0.5029581388835940   T   T   T
  0.6653823449110017  0.3791735659311891  0.5030178167387908   T   T   T
  0.9153238940714703  0.6868787467652655  0.4533542510545054   T   T   T
  0.9157059854433496  0.4370877756891090  0.4543499826400517   T   T   T
  0.9166629816856523  0.1884456745385891  0.4546619443801694   T   T   T
  0.5829099715613552  0.9367980990088710  0.4541201186956936   T   T   T
  0.5827954725809636  0.6860183465462554  0.4545409804766655   T   T   T
  0.5823372691690243  0.4388540095367743  0.4558213967603472   T   T   T
  0.2500272472676676  0.9359869648109465  0.4540571668354595   T   T   T
  0.6653185170218350  0.6260582600040784  0.5029644649648306   T   T   T
  0.5846161062041666  0.5624518883626057  0.4550675619981535   T   T   T
  0.5832695304498725  0.0632166955651288  0.4541817667628624   T   T   T
  0.9166666865332829  0.6874999999963620  0.3605200052333331   F   F   F
  0.9166666865332829  0.4374999701794380  0.3605200052333331   F   F   F
  0.9166666865332829  0.1875000000030838  0.3605200052333331   F   F   F
  0.5833333134730552  0.9375000000154046  0.3605200052333331   F   F   F
  0.5833333134730552  0.6874999999963620  0.3605200052333331   F   F   F
  0.5833333134730552  0.4374999701794380  0.3605200052333331   F   F   F
  0.5833333134730552  0.1875000000030838  0.3605200052333331   F   F   F
  0.2499999999799343  0.9375000000154046  0.3605200052333331   F   F   F
  0.9166666865332829  0.9375000000154046  0.3605200052333331   F   F   F
  0.2499999999799343  0.6874999999963620  0.3605200052333331   F   F   F
  0.2499999999799343  0.1875000000030838  0.3605200052333331   F   F   F
  0.7499999404149307  0.9375000000154046  0.3605200052333331   F   F   F
  0.7499999404149307  0.6874999999963620  0.3605200052333331   F   F   F
  0.7499999404149307  0.4374999701794380  0.3605200052333331   F   F   F
  0.7499999404149307  0.1875000000030838  0.3605200052333331   F   F   F
  0.4166666269218169  0.9375000000154046  0.3605200052333331   F   F   F
  0.4166666269218169  0.6874999999963620  0.3605200052333331   F   F   F
  0.4166666269218169  0.4374999701794380  0.3605200052333331   F   F   F
  0.2499999999799343  0.4374999701794380  0.3605200052333331   F   F   F
  0.0833333358191695  0.0625000000159659  0.3605200052333331   F   F   F
  0.0833333358191695  0.3124999999901945  0.3605200052333331   F   F   F
  0.0833333358191695  0.5625000000092442  0.3605200052333331   F   F   F
  0.9166666865332829  0.3124999999901945  0.3605200052333331   F   F   F
  0.9166666865332829  0.0625000000159659  0.3605200052333331   F   F   F
  0.5833333134730552  0.8124999999834799  0.3605200052333331   F   F   F
  0.5833333134730552  0.5625000000092442  0.3605200052333331   F   F   F
  0.5833333134730552  0.3124999999901945  0.3605200052333331   F   F   F
  0.5833333134730552  0.0625000000159659  0.3605200052333331   F   F   F
  0.2499999999799343  0.8124999999834799  0.3605200052333331   F   F   F
  0.2499999999799343  0.5625000000092442  0.3605200052333331   F   F   F
  0.2499999999799343  0.3124999999901945  0.3605200052333331   F   F   F
  0.2499999999799343  0.0625000000159659  0.3605200052333331   F   F   F
  0.7499999404149307  0.8124999999834799  0.3605200052333331   F   F   F
  0.7499999404149307  0.5625000000092442  0.3605200052333331   F   F   F
  0.7499999404149307  0.3124999999901945  0.3605200052333331   F   F   F
  0.7499999404149307  0.0625000000159659  0.3605200052333331   F   F   F
  0.4166666269218169  0.8124999999834799  0.3605200052333331   F   F   F
  0.4166666269218169  0.5625000000092442  0.3605200052333331   F   F   F
  0.4166666269218169  0.3124999999901945  0.3605200052333331   F   F   F
  0.4166666269218169  0.0625000000159659  0.3605200052333331   F   F   F
  0.0833333358191695  0.8124999999834799  0.3605200052333331   F   F   F
  0.4166666269218169  0.1875000000030838  0.3605200052333331   F   F   F
  0.0833333358191695  0.9375000000154046  0.3605200052333331   F   F   F
  0.0833333358191695  0.6874999999963620  0.3605200052333331   F   F   F
  0.0833333358191695  0.4374999701794380  0.3605200052333331   F   F   F
  0.8333332538436267  0.4999999999932783  0.4070133268666680   F   F   F
  0.8333332538436267  0.7500000000123208  0.4070133268666680   F   F   F
  0.0835495718829709  0.0622511796094751  0.4540104235568101   T   T   T
  0.0833001534423190  0.3124360491594825  0.4537333416696598   T   T   T
  0.0839163319032638  0.5624708108325438  0.4538573390084944   T   T   T
  0.0835634431080048  0.8120215163325348  0.4542022078202696   T   T   T
  0.4168064808589076  0.0615238252683831  0.4553325129762440   T   T   T
  0.4155507822500896  0.3113922852677285  0.4573626167847603   T   T   T
  0.4159238718934943  0.5594874141127926  0.4578833493330109   T   T   T
  0.4167732229573646  0.8098480135862226  0.4551494351258775   T   T   T
  0.7495582977629474  0.0644872806135034  0.4530844850070423   T   T   T
  0.7473868200811775  0.3141372558000208  0.4546012055838174   T   T   T
  0.7481336807427308  0.5643930969464679  0.4536454991455138   T   T   T
  0.7491779374785789  0.8132885081747359  0.4530193654659311   T   T   T
  0.2505215010570520  0.0619425066273337  0.4541979240917877   T   T   T
  0.9154551137044387  0.3092531103961431  0.5449033845871503   T   T   T
  0.2522685568593377  0.3141274853447978  0.4541716818080384   T   T   T
  0.2519180917719631  0.5645479101936637  0.4537985119119513   T   T   T
  0.2502537786469493  0.8106603235064643  0.4554201297754303   T   T   T
  0.8333332538436267  0.2500000000190425  0.4070133268666680   F   F   F
  0.5840090793314493  0.3146192142322223  0.4541844884677277   T   T   T
  0.8333332538436267  0.0000000000000000  0.4070133268666680   F   F   F
  0.5000000000021103  0.4999999999932783  0.4070133268666680   F   F   F
  0.0833333358191695  0.1875000000030838  0.3605200052333331   F   F   F
  0.0000000000000000  0.0000000000000000  0.4070133268666680   F   F   F
  0.0000000000000000  0.2500000000190425  0.4070133268666680   F   F   F
  0.0000000000000000  0.4999999999932783  0.4070133268666680   F   F   F
  0.0000000000000000  0.7500000000123208  0.4070133268666680   F   F   F
  0.3333333432766779  0.0000000000000000  0.4070133268666680   F   F   F
  0.3333333432766779  0.2500000000190425  0.4070133268666680   F   F   F
  0.3333333432766779  0.4999999999932783  0.4070133268666680   F   F   F
  0.3333333432766779  0.7500000000123208  0.4070133268666680   F   F   F
  0.6666666865533486  0.0000000000000000  0.4070133268666680   F   F   F
  0.6666666865533486  0.2500000000190425  0.4070133268666680   F   F   F
  0.6666666865533486  0.4999999999932783  0.4070133268666680   F   F   F
  0.6666666865533486  0.7500000000123208  0.4070133268666680   F   F   F
  0.1666666716383389  0.0000000000000000  0.4070133268666680   F   F   F
  0.1666666716383389  0.2500000000190425  0.4070133268666680   F   F   F
  0.1666666716383389  0.4999999999932783  0.4070133268666680   F   F   F
  0.1666666716383389  0.7500000000123208  0.4070133268666680   F   F   F
  0.5000000000021103  0.0000000000000000  0.4070133268666680   F   F   F
  0.5000000000021103  0.2500000000190425  0.4070133268666680   F   F   F
  0.5000000000021103  0.7500000000123208  0.4070133268666680   F   F   F
  0.1670742523494808  0.1244372076508671  0.4989295023458518   T   T   T
  0.9167002703317854  0.0600110081256034  0.5454011847150965   T   T   T
  0.1677865274307568  0.8732329006571113  0.4999115964647852   T   T   T
  0.2515429593299349  0.1883912407772844  0.5471058617668297   T   T   T
  0.7484082907365815  0.9335704163604606  0.5478603235524896   T   T   T
  0.7518578091043863  0.6805063834951042  0.5531883069159949   T   T   T
  0.7524742460488416  0.4345283547696152  0.5496151052012495   T   T   T
  0.4230288897762191  0.4439927406620860  0.5455077596182696   T   T   T
  0.4231621790735052  0.6880929741728526  0.5466104834260415   T   T   T
  0.7492455049392603  0.1832131446919311  0.5510818603545419   T   T   T
  0.4157856263213957  0.9370417700777395  0.5460281065512511   T   T   T
  0.0839096076561516  0.9384386559040095  0.5458730981893107   T   T   T
  0.4156904518081149  0.1914319652636598  0.5465069776252037   T   T   T
  0.0869010104014505  0.6896547750130589  0.5450514730930064   T   T   T
  0.0823843848867600  0.4380258995207517  0.5451873831549678   T   T   T
  0.0836420646122590  0.1880856967598478  0.5463961429953774   T   T   T
  0.4993824176367394  0.1255220611173730  0.4991867547709680   T   T   T
  0.9996002552916039  0.4993493905044656  0.5943392764706286   T   T   T
  0.9996704851119766  0.7519006723818231  0.5924020121293809   T   T   T
  0.3345962395832751  0.2543614260956022  0.5927171763418737   T   T   T
  0.3339629971528175  0.0000024298819085  0.5920563558020138   T   T   T
  0.9997690832713714  0.9976279352322365  0.5921704369794663   T   T   T
  0.9989111856590898  0.2478455742690955  0.5919765292835077   T   T   T
  0.3332159985692951  0.4963979708429582  0.5908478851230038   T   T   T
  0.3355175548785245  0.7403514587365214  0.5905366866550271   T   T   T
  0.6634209064282014  0.2467900967455377  0.5909347213547783   T   T   T
  0.6661856216584746  0.0012179263634767  0.5919431299058503   T   T   T
  0.6656627557631203  0.7420220330391656  0.5902783409828504   T   T   T
  0.6668058834318226  0.4943886314126428  0.5910344822281706   T   T   T
  0.1672488254112243  0.9989973484383804  0.5924206157459240   T   T   T
  0.1678038292169416  0.2494473042617850  0.5935071986877661   T   T   T
  0.1707506096811133  0.7499567343072129  0.5950607619179196   T   T   T
  0.2481415548097943  0.4358422591029309  0.5490797865622600   T   T   T
  0.1654021477316374  0.5031935952050999  0.5875441704013792   T   T   T
  0.2489374665556645  0.6833352428469625  0.5518883244773167   T   T   T
  0.5803363239185030  0.1860522839829690  0.5491011653143929   T   T   T
  0.9158557118401537  0.8112432107347549  0.5461328406650435   T   T   T
  0.9169924983595933  0.5619089870783905  0.5453092060937363   T   T   T
  0.5809776059939256  0.5605603435795812  0.5493682662917885   T   T   T
  0.5859887118635446  0.8148641418892004  0.5505393248753124   T   T   T
  0.5834582823136374  0.3119911469308428  0.5457171218492005   T   T   T
  0.5822846337912554  0.0625941165891599  0.5461059442620213   T   T   T
  0.2531884737657310  0.8128308032299080  0.5512190009398092   T   T   T
  0.2523190169336044  0.5589721223771470  0.5438673115414490   T   T   T
  0.2495539493005576  0.3136547509588818  0.5460389495305893   T   T   T
  0.2510221807659447  0.0626486366719814  0.5472443267817306   T   T   T
  0.7480283379620364  0.8079232390199226  0.5453693048049653   T   T   T
  0.7464167869193746  0.5578880626961713  0.5444134362581814   T   T   T
  0.4143075834005919  0.8117190023396034  0.5479338744054945   T   T   T
  0.7502697466136172  0.0593316983542968  0.5438183647960968   T   T   T
  0.7472732445835287  0.3110103005334885  0.5476354676351951   T   T   T
  0.4158968548646567  0.3196479918474198  0.5526081542108410   T   T   T
  0.4202157206366471  0.5650746006725093  0.5554035558231804   T   T   T
  0.4165282929184045  0.0654119479894462  0.5473095432738940   T   T   T
  0.0848247739311911  0.8128636808560029  0.5473809517868401   T   T   T
  0.0825001353281265  0.5640691207472898  0.5462580823266197   T   T   T
  0.0846990638710473  0.3126554406247073  0.5467058960321670   T   T   T
  0.0828267536013645  0.0627729717242817  0.5471118588266768   T   T   T
  0.9163145282603506  0.9365730075065044  0.5466218551844054   T   T   T
  0.9129884320171525  0.6877614674631747  0.5459273816189806   T   T   T
  0.5838418731930310  0.9381268676898988  0.5459303246446764   T   T   T
  0.9154176914725570  0.1836641165074651  0.5494042946649090   T   T   T
  0.9156114876415121  0.4353249868588744  0.5467923549464241   T   T   T
  0.5764973250551036  0.4364678684006820  0.5516547622055233   T   T   T
  0.5795184673967039  0.6865146663126027  0.5471290896443375   T   T   T
  0.2515414107234666  0.9373688574952629  0.5452252808203605   T   T   T
  0.4976189463468594  0.5044867376001611  0.6090040590853120   T   T   T
  0.4985982601668960  0.2531094326771233  0.5903883734256336   T   T   T
  0.4995857862451147  0.0000117970864523  0.5910433116312366   T   T   T
  0.7537464799062399  0.6935334381121769  0.6573675309720324   T   T   T
  0.7478931920059084  0.9369316964608653  0.6407809284255094   T   T   T
  0.2530650876939879  0.1864455374240141  0.6410083707264704   T   T   T
  0.7457430432640515  0.1948313638665251  0.6466764063947287   T   T   T
  0.7555825415658024  0.4368662734427395  0.6393081808170408   T   T   T
  0.4173236095613659  0.9349763470310898  0.6397710095196004   T   T   T
  0.4209292164795378  0.6759615488834037  0.6336300695321641   T   T   T
  0.5900710346829986  0.8105397781283339  0.6460443191606225   T   T   T
  0.9156946935968749  0.0630343241000731  0.6382741725594520   T   T   T
  0.9129103421830088  0.5637416070936642  0.6411903175131106   T   T   T
  0.9155468688818272  0.3137689592661976  0.6380481331196591   T   T   T
  0.9147846702286988  0.8127865705254270  0.6414068596482811   T   T   T
  0.5823601171189138  0.0658355887714347  0.6395952541434844   T   T   T
  0.5830951205384226  0.3197687441732773  0.6340909599377534   T   T   T
  0.5914312763079397  0.5648398096329481  0.6395710707887028   T   T   T
  0.2474625825526704  0.5736815043087393  0.6286636099556362   T   T   T
  0.2620950693774288  0.7984438060978210  0.6469176729532387   T   T   T
  0.2490407672068150  0.3161355365235692  0.6415665728443849   T   T   T
  0.2509374151252255  0.0595230313652857  0.6423566389076251   T   T   T
  0.9166666865332829  0.5625000000092442  0.3605200052333331   F   F   F
  0.4995494701763064  0.3740319764135491  0.5002692195075767   T   T   T
  0.5000396114260532  0.8732949598267952  0.5008646847731132   T   T   T
  0.5003074727780390  0.6211300599877870  0.4999511184542086   T   T   T
  0.8322125327736888  0.6230119249726886  0.4999452548419659   T   T   T
  0.8326607204215539  0.8742243788368098  0.4986370588890595   T   T   T
  0.8323118783204323  0.3729122467155415  0.4998937130002097   T   T   T
  0.8330105012762002  0.1250380070558633  0.4996151504306821   T   T   T
  0.1664980817050157  0.3756005767186231  0.4980102860240814   T   T   T
  0.1677469990654622  0.6242034168837537  0.4999341896668306   T   T   T
  0.5816237287703440  0.4388334475957257  0.6458925408856071   T   T   T
  0.5798583764146210  0.6853317824655727  0.6389462496199483   T   T   T
  0.9135183003318255  0.1884877370949939  0.6446947621974695   T   T   T
  0.5819928407798318  0.9358647213434486  0.6391772900659485   T   T   T
  0.8303606671843646  0.7512352946567551  0.5928288731602853   T   T   T
  0.8316067059531937  0.2495964972170641  0.5911312754673582   T   T   T
  0.8329410302432823  0.5038696067619158  0.5889171156925587   T   T   T
  0.8326785838297772  0.9972818936616865  0.5915857182980320   T   T   T
  0.5009772158762202  0.7562894209749766  0.5928942828036229   T   T   T
  0.4177386054567083  0.0652550478245838  0.6400431360516023   T   T   T
  0.4269438662550768  0.3049811115965330  0.6548317616336741   T   T   T
  0.4120590590685910  0.8127498142323505  0.6394716993201214   T   T   T
  0.3972669519148569  0.5507580150420253  0.6518121190254152   T   T   T
  0.7518420315890798  0.5712290253728658  0.6342775300495148   T   T   T
  0.7410374186151008  0.8100540175502099  0.6399572967512078   T   T   T
  0.7465376301464386  0.3129630283195937  0.6400600867272556   T   T   T
  0.7513016376222823  0.0675786915723885  0.6369933747759606   T   T   T
  0.0819917831826829  0.3125682878804472  0.6397664340870632   T   T   T
  0.6664660759469918  0.8744079437289579  0.4988450135996368   T   T   T
  0.0867951690759470  0.5627400700700192  0.6415686437316420   T   T   T
  0.0819562451151167  0.0619420050379793  0.6404475163636197   T   T   T
  0.0872338903854183  0.4374022381093569  0.6394781764104006   T   T   T
  0.0823832816868572  0.1860783279475312  0.6411781811548032   T   T   T
  0.4185520382192947  0.1879641839526578  0.6398652142910801   T   T   T
  0.4150842017119208  0.4191615823125602  0.6297928064738436   T   T   T
  0.0845571907099908  0.9358681386405858  0.6406625060101152   T   T   T
  0.0838617214968821  0.6873151132532460  0.6401989495721574   T   T   T
  0.9117412678955459  0.4385134355548703  0.6399934711106481   T   T   T
  0.9150913702330147  0.6882482542184156  0.6402490913756947   T   T   T
  0.9155826355967847  0.9360543633028710  0.6415854987529311   T   T   T
  0.2404064166549665  0.4419298571676756  0.6415017418265797   T   T   T
  0.2544928333892190  0.6769442354698183  0.6635676730801805   T   T   T
  0.5785357311911806  0.1907078740269939  0.6443111296698668   T   T   T
  0.2516795114958701  0.9302173428317624  0.6372493589286774   T   T   T
  0.0840500776877540  0.8119269657550970  0.6417646337565547   T   T   T
  0.9166666865332829  0.8124999999834799  0.3605200052333331   F   F   F
  0.9993398356195472  0.1243606469634863  0.6151340605177916   T   T   T
  0.8333332538436267  0.6249999999803961  0.4070133268666680   F   F   F
  0.9999086422229880  0.5003952955669725  0.5069932928060854   T   T   T
  0.3311095140170088  0.4991954485657613  0.5009805433378371   T   T   T
  0.3300257329880908  0.2481130615301319  0.5028383612511986   T   T   T
  0.3330943484428562  0.0011467640434513  0.5058352849224870   T   T   T
  0.3338327865282072  0.7510139936379199  0.5015718502861949   T   T   T
  0.6659940277254394  0.0003872199528717  0.5056542859020388   T   T   T
  0.6684007724906146  0.4998826610116746  0.5007276860321419   T   T   T
  0.6669117003719014  0.2477968022704314  0.5031469884108560   T   T   T
  0.6653772111816412  0.7518022496889266  0.5021978382581055   T   T   T
  0.1661116123643283  0.0011609438006782  0.5064892834040847   T   T   T
  0.1661542268100930  0.2482576887007654  0.5064235562618292   T   T   T
  0.1633696336477087  0.4995843612819956  0.5021186550234406   T   T   T
  0.5001197836923299  0.9993797241610742  0.5054923408781630   T   T   T
  0.1645450980301322  0.7514361471009405  0.5033569295679375   T   T   T
  0.5010179003774792  0.7528352340612743  0.5039347912213304   T   T   T
  0.8343971606594670  0.9992335947334041  0.5057666829889516   T   T   T
  0.5012069827791161  0.4998688057803576  0.5003024959251845   T   T   T
  0.5010935391478494  0.2480109930142292  0.5020320909134008   T   T   T
  0.8350611790225718  0.2482706083824021  0.5028266225471746   T   T   T
  0.0001940087703622  0.7502190390018377  0.5066220241152274   T   T   T
  0.0006871134185928  0.2491157386087126  0.5053917149286543   T   T   T
  0.0001330614338874  0.9995668810195225  0.5059559055286902   T   T   T
  0.8333332538436267  0.8749999404036828  0.4070133268666680   F   F   F
  0.0000000000000000  0.6249999999803961  0.4070133268666680   F   F   F
  0.0000000000000000  0.8749999404036828  0.4070133268666680   F   F   F
  0.3333333432766779  0.1249999999871179  0.4070133268666680   F   F   F
  0.3333333432766779  0.3750000000061604  0.4070133268666680   F   F   F
  0.3333333432766779  0.6249999999803961  0.4070133268666680   F   F   F
  0.3333333432766779  0.8749999404036828  0.4070133268666680   F   F   F
  0.6666666865533486  0.1249999999871179  0.4070133268666680   F   F   F
  0.6666666865533486  0.3750000000061604  0.4070133268666680   F   F   F
  0.6666666865533486  0.6249999999803961  0.4070133268666680   F   F   F
  0.8357561808008959  0.4999001586986363  0.5029300349943282   T   T   T
  0.6666666865533486  0.8749999404036828  0.4070133268666680   F   F   F
  0.1666666716383389  0.3750000000061604  0.4070133268666680   F   F   F
  0.1666666716383389  0.6249999999803961  0.4070133268666680   F   F   F
  0.1666666716383389  0.8749999404036828  0.4070133268666680   F   F   F
  0.5000000000021103  0.1249999999871179  0.4070133268666680   F   F   F
  0.5000000000021103  0.3750000000061604  0.4070133268666680   F   F   F
  0.5000000000021103  0.6249999999803961  0.4070133268666680   F   F   F
  0.5000000000021103  0.8749999404036828  0.4070133268666680   F   F   F
  0.8333332538436267  0.1249999999871179  0.4070133268666680   F   F   F
  0.8333332538436267  0.3750000000061604  0.4070133268666680   F   F   F
  0.1666666716383389  0.1249999999871179  0.4070133268666680   F   F   F
  0.0000000000000000  0.3750000000061604  0.4070133268666680   F   F   F
  0.8357660168382632  0.7513478711034329  0.5025740597172194   T   T   T
  0.8363071944831005  0.3752224026446888  0.6038345229128795   T   T   T
  0.8320169259688817  0.8763556425110484  0.6197591498212595   T   T   T
  0.8394007863518099  0.6275285641260189  0.6028148259132459   T   T   T
  0.9998874882813846  0.8749976155511560  0.6215129225237619   T   T   T
  0.3315060233705306  0.1200388178099357  0.6135377919979750   T   T   T
  0.3341469710388890  0.6241672973095803  0.5953785411751897   T   T   T
  0.3257864673331577  0.3736543236454936  0.5928512675394509   T   T   T
  0.6707514983096944  0.3723680440055914  0.5941849854014942   T   T   T
  0.6663159280372791  0.1244979979662408  0.6124775358472277   T   T   T
  0.3343015741130429  0.8788733739364907  0.6030073735896162   T   T   T
  0.1591642978640808  0.6273241724713812  0.6014879500329252   T   T   T
  0.1659042395957954  0.8733371909010501  0.6175043184842510   T   T   T
  0.5017749488576868  0.3713801074431211  0.5950552404374908   T   T   T
  0.5002598837980341  0.1220219191167165  0.6061792032806858   T   T   T
  0.1669737328401270  0.1230069378424616  0.6220130364563855   T   T   T
  0.1628583761637379  0.3715665764439124  0.6079205808177820   T   T   T
  0.6650835484111816  0.8809043313657251  0.6071874767671690   T   T   T
  0.6660080156191889  0.6266840788191617  0.5934515070426177   T   T   T
 -0.0000606392700393  0.3786289381405358  0.6218103398143484   T   T   T
 -0.0001986712722313  0.6239497482884812  0.6400980184200604   T   T   T
  0.8348403850760614  0.1240921187697851  0.6097963439892125   T   T   T
  0.5005169847420274  0.8767715034105926  0.6096021879767989   T   T   T
  0.0000000000000000  0.1249999999871179  0.4070133268666680   F   F   F
  0.5037601113478922  0.6251731003731800  0.5939608476166667   T   T   T
  0.9166275650610805  0.9980856123981303  0.6031540073056407   T   T   T
  0.5844856220998605  0.7500838367436549  0.5996955349864880   T   T   T
  0.5904429846676889  0.5012621877385026  0.5937371346415302   T   T   T
  0.2422687107802100  0.4979676993820796  0.5939681276184887   T   T   T
  0.2494501516780195  0.7526429307224313  0.5921793198822558   T   T   T
  0.5841770346598261  0.2472015419404694  0.5972968766026816   T   T   T
  0.5826049526263319  0.0011306821736139  0.6042163375182825   T   T   T
  0.2494638073149295  0.9978954536976079  0.6042320249389382   T   T   T
  0.2487392102136360  0.2459765536928121  0.6036630642136501   T   T   T
  0.4170251321228416  0.0001427939670664  0.6046969139616672   T   T   T
  0.4146247356495710  0.2487821589449360  0.5911766676766906   T   T   T
  0.4161624644959443  0.7502236560409782  0.5944441683276814   T   T   T
  0.7560501318765404  0.5030296415322247  0.5955133631332394   T   T   T
  0.7518400232496710  0.7527820260969527  0.5905297794645514   T   T   T
  0.7536805185301350  0.2484798745543401  0.5943402072314581   T   T   T
  0.7498003413858467  0.0004296448133218  0.6039094285800882   T   T   T
  0.0832183307036927  0.2482512613810736  0.6037270918726898   T   T   T
  0.0814700854040477  0.5012169903247227  0.6033118018290066   T   T   T
  0.0807733408174436  0.7506628211493328  0.6033103156063667   T   T   T
  0.0832614154820924  0.9987400739795859  0.6033127178800912   T   T   T