Au  O Sr Ti  H                          
   1.00000000000000     
    23.6707801818999997    0.0000000000000000    0.0000000000000000
     0.0000000000000000   22.3170261383000010    0.0000000000000000
     0.0000000000000000    0.0000000000000000   30.0000000000000000
   Au   O    Sr   Ti   H 
    50   264    72    72     1
Selective dynamics
Direct
  0.7182658965858055  0.5262004737397497  0.7541407495806973   T   T   T
  0.6246124904733678  0.5671889272452353  0.7039913024848131   T   T   T
  0.7186143993235451  0.2587716813022772  0.6911474092055750   T   T   T
  0.2910055583169545  0.7454812169969434  0.6984482520443378   T   T   T
  0.5135774271446844  0.6044024235359178  0.7767376082402775   T   T   T
  0.5769855217639340  0.7254948886967240  0.7927161526991734   T   T   T
  0.5502978041321603  0.3843278375891871  0.8294536507651830   T   T   T
  0.2415253422720470  0.4673093536672669  0.7090963167875863   T   T   T
  0.2830426047534834  0.6604894233595058  0.7658718620581788   T   T   T
  0.6025469692658638  0.2885733748876794  0.7875848932938787   T   T   T
  0.5146966234965755  0.4831592679536720  0.6780182944139785   T   T   T
  0.5623253653896786  0.4861151446545186  0.7627743231921377   T   T   T
  0.4634280884135506  0.6952156245581178  0.8299992546493538   T   T   T
  0.7644106119296993  0.4319153399755383  0.7058908808143691   T   T   T
  0.7333590423935056  0.6159405650054558  0.6939800130720676   T   T   T
  0.6356154468488122  0.5836793306451825  0.8001463532255479   T   T   T
  0.5946721692192894  0.7847796154006392  0.7126161662958012   T   T   T
  0.4837499243180717  0.7793460549208046  0.7571499249695767   T   T   T
  0.3492853814579615  0.5005285966868633  0.6971904739138767   T   T   T
  0.4309545800615681  0.3722526664762101  0.8154144137620106   T   T   T
  0.3726330077828123  0.2986199992448356  0.7554227141478411   T   T   T
  0.4414166840818796  0.2282580216260912  0.6970621311610182   T   T   T
  0.3893653592505193  0.8158808446776504  0.7065778457613382   T   T   T
  0.2900431443112552  0.5361558173688549  0.7775142012371468   T   T   T
  0.5557178446982711  0.2076674783861610  0.7123358373793478   T   T   T
  0.4537714872224786  0.5798515472092290  0.7028406460351698   T   T   T
  0.6134677923235173  0.3186739411960052  0.6976660730953511   T   T   T
  0.7053951170867659  0.7576341499005856  0.6884762585684973   T   T   T
  0.6562369112383023  0.4411917761265803  0.8125150839496524   T   T   T
  0.3685416948957093  0.6180838902391033  0.8200549087791833   T   T   T
  0.5713311233126189  0.5101473977567385  0.8571113292518686   T   T   T
  0.6650545137590825  0.1936069295017464  0.7520254836056881   T   T   T
  0.4725432476212680  0.4509938850518211  0.8793430736808829   T   T   T
  0.5166376957086819  0.3771462729836680  0.7340517586102852   T   T   T
  0.2832159207556678  0.3376769204055324  0.7027011361916372   T   T   T
  0.6691559903691462  0.6811976669848706  0.7488721705954903   T   T   T
  0.3976274409837661  0.3818417620175621  0.6901292805625154   T   T   T
  0.3762105183740528  0.4925283946726754  0.8333105002850223   T   T   T
  0.4637405409464254  0.5733894629699960  0.8633470085050529   T   T   T
  0.3267207484868963  0.4138166833415891  0.7694047737725213   T   T   T
  0.4872900108604977  0.2685577636282518  0.7753325918200158   T   T   T
  0.4251687847323814  0.6982260556008822  0.6993081720892209   T   T   T
  0.7000789521189452  0.3460400239525142  0.7565463652207109   T   T   T
  0.7742557992895582  0.4294482627294468  0.7961619697571449   T   T   T
  0.2563063471511824  0.5919795253568382  0.6949311533084004   T   T   T
  0.6471356728037312  0.4407175832638803  0.6975487797924531   T   T   T
  0.5652858375823325  0.6402674911579810  0.8611134077519565   T   T   T
  0.5453065450151240  0.6650170823935804  0.7013084066355937   T   T   T
  0.4429629677520807  0.4744557126766567  0.7558994792577753   T   T   T
  0.3729036944538636  0.7371816374438572  0.7779905421696859   T   T   T
  0.2499873017852056  0.1886274993178276  0.4543678467677944   T   T   T
  0.7494162405105204  0.9387031876889868  0.4554371271934883   T   T   T
  0.7490621510067788  0.6887216531343624  0.4573392833193577   T   T   T
  0.7500522017855785  0.4384528347390842  0.4557692044149588   T   T   T
  0.7498836980199144  0.1899378566096973  0.4557465760544989   T   T   T
  0.4175078823921016  0.9356826853626682  0.4539000872804888   T   T   T
  0.4168793419267096  0.6845754738408194  0.4547689763725800   T   T   T
  0.4171017174692857  0.4353988333176626  0.4539893454541432   T   T   T
  0.0845569995495813  0.6868274779938958  0.4529996084205926   T   T   T
  0.0838017744674328  0.9365323463574132  0.4534548393274840   T   T   T
  0.0835264964033809  0.4371469519450213  0.4531732137546355   T   T   T
  0.0834323952428726  0.1870846812813975  0.4536409133356201   T   T   T
  0.9164539017897108  0.8123415584707178  0.4538980514844100   T   T   T
  0.9161974401779006  0.5623603950844749  0.4537850353982361   T   T   T
  0.2506381306809481  0.4391973427556524  0.4550763958637540   T   T   T
  0.9164637167837912  0.0634676722763250  0.4529053603932731   T   T   T
  0.9157143147768092  0.3133251418549003  0.4526902927654138   T   T   T
  0.4171726296160562  0.1870896386498158  0.4535656992705410   T   T   T
  0.2523945234809594  0.6872834045703101  0.4560734891112064   T   T   T
  0.9165989978498618  0.9377389282807530  0.4539177949467019   T   T   T
  0.5825416158938005  0.1890368014856510  0.4550384036512762   T   T   T
 -0.0002590601918514  0.1252301848476978  0.4989384496166341   T   T   T
  0.5835540224963804  0.8099346636875321  0.4554521885601256   T   T   T
 -0.0005342310880111  0.3747610627658871  0.4973020976178673   T   T   T
  0.9998620176700931  0.6270813473680201  0.4976751774121809   T   T   T
  0.3334095520485496  0.1256403926567014  0.4986728180507015   T   T   T
  0.0000969820829875  0.8745814331829040  0.4993199597287329   T   T   T
  0.3334776827297049  0.8737934730395263  0.4988384182148213   T   T   T
  0.6660529147817106  0.1257702352768699  0.4994977297026727   T   T   T
  0.3356199403218844  0.6251939377434881  0.5042432837998053   T   T   T
  0.3342240423441362  0.3785267772814416  0.5029443483451340   T   T   T
  0.6650610751141756  0.3799660276121922  0.5025765488955525   T   T   T
  0.9154228951652333  0.6866919439736644  0.4531842435362141   T   T   T
  0.9150834689177095  0.4369655745523994  0.4539955261884338   T   T   T
  0.9163510371612911  0.1880899914387378  0.4540897897076510   T   T   T
  0.5825757223608808  0.9361117784938571  0.4537766129976713   T   T   T
  0.5827689389112051  0.6859734287472516  0.4545702303058433   T   T   T
  0.5817059974709725  0.4389370415607408  0.4559616681173749   T   T   T
  0.2500191576990816  0.9359674888258630  0.4540720839626401   T   T   T
  0.6653164651325792  0.6260415129824007  0.5029979318461135   T   T   T
  0.5846449995452296  0.5624788048832994  0.4549939376562899   T   T   T
  0.5830207190258028  0.0625739083333223  0.4545471557440027   T   T   T
  0.9166666865332829  0.6874999999963620  0.3605200052333331   F   F   F
  0.9166666865332829  0.4374999701794380  0.3605200052333331   F   F   F
  0.9166666865332829  0.1875000000030838  0.3605200052333331   F   F   F
  0.5833333134730552  0.9375000000154046  0.3605200052333331   F   F   F
  0.5833333134730552  0.6874999999963620  0.3605200052333331   F   F   F
  0.5833333134730552  0.4374999701794380  0.3605200052333331   F   F   F
  0.5833333134730552  0.1875000000030838  0.3605200052333331   F   F   F
  0.2499999999799343  0.9375000000154046  0.3605200052333331   F   F   F
  0.9166666865332829  0.9375000000154046  0.3605200052333331   F   F   F
  0.2499999999799343  0.6874999999963620  0.3605200052333331   F   F   F
  0.2499999999799343  0.1875000000030838  0.3605200052333331   F   F   F
  0.7499999404149307  0.9375000000154046  0.3605200052333331   F   F   F
  0.7499999404149307  0.6874999999963620  0.3605200052333331   F   F   F
  0.7499999404149307  0.4374999701794380  0.3605200052333331   F   F   F
  0.7499999404149307  0.1875000000030838  0.3605200052333331   F   F   F
  0.4166666269218169  0.9375000000154046  0.3605200052333331   F   F   F
  0.4166666269218169  0.6874999999963620  0.3605200052333331   F   F   F
  0.4166666269218169  0.4374999701794380  0.3605200052333331   F   F   F
  0.2499999999799343  0.4374999701794380  0.3605200052333331   F   F   F
  0.0833333358191695  0.0625000000159659  0.3605200052333331   F   F   F
  0.0833333358191695  0.3124999999901945  0.3605200052333331   F   F   F
  0.0833333358191695  0.5625000000092442  0.3605200052333331   F   F   F
  0.9166666865332829  0.3124999999901945  0.3605200052333331   F   F   F
  0.9166666865332829  0.0625000000159659  0.3605200052333331   F   F   F
  0.5833333134730552  0.8124999999834799  0.3605200052333331   F   F   F
  0.5833333134730552  0.5625000000092442  0.3605200052333331   F   F   F
  0.5833333134730552  0.3124999999901945  0.3605200052333331   F   F   F
  0.5833333134730552  0.0625000000159659  0.3605200052333331   F   F   F
  0.2499999999799343  0.8124999999834799  0.3605200052333331   F   F   F
  0.2499999999799343  0.5625000000092442  0.3605200052333331   F   F   F
  0.2499999999799343  0.3124999999901945  0.3605200052333331   F   F   F
  0.2499999999799343  0.0625000000159659  0.3605200052333331   F   F   F
  0.7499999404149307  0.8124999999834799  0.3605200052333331   F   F   F
  0.7499999404149307  0.5625000000092442  0.3605200052333331   F   F   F
  0.7499999404149307  0.3124999999901945  0.3605200052333331   F   F   F
  0.7499999404149307  0.0625000000159659  0.3605200052333331   F   F   F
  0.4166666269218169  0.8124999999834799  0.3605200052333331   F   F   F
  0.4166666269218169  0.5625000000092442  0.3605200052333331   F   F   F
  0.4166666269218169  0.3124999999901945  0.3605200052333331   F   F   F
  0.4166666269218169  0.0625000000159659  0.3605200052333331   F   F   F
  0.0833333358191695  0.8124999999834799  0.3605200052333331   F   F   F
  0.4166666269218169  0.1875000000030838  0.3605200052333331   F   F   F
  0.0833333358191695  0.9375000000154046  0.3605200052333331   F   F   F
  0.0833333358191695  0.6874999999963620  0.3605200052333331   F   F   F
  0.0833333358191695  0.4374999701794380  0.3605200052333331   F   F   F
  0.8333332538436267  0.4999999999932783  0.4070133268666680   F   F   F
  0.8333332538436267  0.7500000000123208  0.4070133268666680   F   F   F
  0.0835746497834487  0.0618948931370996  0.4543000362595431   T   T   T
  0.0832898788085571  0.3120354447628019  0.4540205835372417   T   T   T
  0.0839576064904950  0.5624821652252404  0.4538873755327111   T   T   T
  0.0835544440547154  0.8120223179524712  0.4542027618514941   T   T   T
  0.4168192871667533  0.0615467742564563  0.4553385341520602   T   T   T
  0.4151938249757873  0.3112825746382925  0.4573436300232764   T   T   T
  0.4159298901237915  0.5594188775105329  0.4578682401549803   T   T   T
  0.4166613048820831  0.8097138012042497  0.4551647013701335   T   T   T
  0.7495483262667684  0.0647641821837267  0.4528072489662173   T   T   T
  0.7475220894342950  0.3141845440823909  0.4543390506349222   T   T   T
  0.7481259049908747  0.5643270273749726  0.4536870573951824   T   T   T
  0.7493429888750691  0.8133620069815168  0.4530978071998474   T   T   T
  0.2499527635304088  0.0620337498317418  0.4543317566150273   T   T   T
  0.9173265246763047  0.3093707346129415  0.5447534740105739   T   T   T
  0.2522385126652346  0.3142554692121659  0.4541437382988699   T   T   T
  0.2519308741961639  0.5645320148701383  0.4538011660763137   T   T   T
  0.2501791621682937  0.8104410017486415  0.4555265690468677   T   T   T
  0.8333332538436267  0.2500000000190425  0.4070133268666680   F   F   F
  0.5844138626688382  0.3144586897007595  0.4541607814245324   T   T   T
  0.8333332538436267  0.0000000000000000  0.4070133268666680   F   F   F
  0.5000000000021103  0.4999999999932783  0.4070133268666680   F   F   F
  0.0833333358191695  0.1875000000030838  0.3605200052333331   F   F   F
  0.0000000000000000  0.0000000000000000  0.4070133268666680   F   F   F
  0.0000000000000000  0.2500000000190425  0.4070133268666680   F   F   F
  0.0000000000000000  0.4999999999932783  0.4070133268666680   F   F   F
  0.0000000000000000  0.7500000000123208  0.4070133268666680   F   F   F
  0.3333333432766779  0.0000000000000000  0.4070133268666680   F   F   F
  0.3333333432766779  0.2500000000190425  0.4070133268666680   F   F   F
  0.3333333432766779  0.4999999999932783  0.4070133268666680   F   F   F
  0.3333333432766779  0.7500000000123208  0.4070133268666680   F   F   F
  0.6666666865533486  0.0000000000000000  0.4070133268666680   F   F   F
  0.6666666865533486  0.2500000000190425  0.4070133268666680   F   F   F
  0.6666666865533486  0.4999999999932783  0.4070133268666680   F   F   F
  0.6666666865533486  0.7500000000123208  0.4070133268666680   F   F   F
  0.1666666716383389  0.0000000000000000  0.4070133268666680   F   F   F
  0.1666666716383389  0.2500000000190425  0.4070133268666680   F   F   F
  0.1666666716383389  0.4999999999932783  0.4070133268666680   F   F   F
  0.1666666716383389  0.7500000000123208  0.4070133268666680   F   F   F
  0.5000000000021103  0.0000000000000000  0.4070133268666680   F   F   F
  0.5000000000021103  0.2500000000190425  0.4070133268666680   F   F   F
  0.5000000000021103  0.7500000000123208  0.4070133268666680   F   F   F
  0.1668980997340039  0.1248051309951047  0.4995804441244943   T   T   T
  0.9160262870031887  0.0600981432884755  0.5451404094178336   T   T   T
  0.1677743397836874  0.8732334156868757  0.4999284526399813   T   T   T
  0.2513774475702359  0.1884646348118567  0.5473365225818010   T   T   T
  0.7484088055213545  0.9336681799778985  0.5478920134052910   T   T   T
  0.7518466622080477  0.6804920226081427  0.5531760838588973   T   T   T
  0.7528145480113487  0.4344132768872984  0.5496837329436302   T   T   T
  0.4231593540923920  0.4437492991001400  0.5456590398248845   T   T   T
  0.4229768605636706  0.6878870868378317  0.5466905914009816   T   T   T
  0.7498375100921089  0.1832619349791690  0.5508870589244927   T   T   T
  0.4159112512263267  0.9368564120225350  0.5459469126816143   T   T   T
  0.0835988226077087  0.9388568586563065  0.5456855517319843   T   T   T
  0.4156215046347994  0.1913588238450872  0.5465281949239603   T   T   T
  0.0867865954047507  0.6897175182690284  0.5450594661165479   T   T   T
  0.0826314264610242  0.4382721210958441  0.5452100280837973   T   T   T
  0.0834320171645080  0.1881463575640626  0.5464863544686400   T   T   T
  0.4992683920604184  0.1253093723510117  0.4996832202053300   T   T   T
 -0.0003564435185722  0.4987346886749914  0.5945537825238729   T   T   T
  0.9997327469044087  0.7534361732846855  0.5922164673750723   T   T   T
  0.3344978056515098  0.2541449906963862  0.5928035340742955   T   T   T
  0.3339685515268959  0.9999008425233840  0.5920055673209854   T   T   T
 -0.0005393989507809  0.9972588453091348  0.5921141000787028   T   T   T
 -0.0016888624504437  0.2445119317873364  0.5931838489666679   T   T   T
  0.3332558748426270  0.4963195635849010  0.5910230549695201   T   T   T
  0.3354814736473066  0.7399144685373281  0.5909910197083803   T   T   T
  0.6632365041652803  0.2465667900662065  0.5905430127813813   T   T   T
  0.6660526725881308  0.0004740029801860  0.5921183878052478   T   T   T
  0.6657766429849651  0.7421475784637822  0.5901425349161223   T   T   T
  0.6668792879810287  0.4936917829347345  0.5909029325330190   T   T   T
  0.1670746912890865  0.9992849392031803  0.5925848789485160   T   T   T
  0.1673688347656536  0.2496417134661673  0.5932808009946334   T   T   T
  0.1707667256194863  0.7500523281655411  0.5950371694146485   T   T   T
  0.2480977540247968  0.4358939712374772  0.5490135461949184   T   T   T
  0.1653592223938884  0.5033618214578258  0.5876520106830980   T   T   T
  0.2490323624796610  0.6833825908514745  0.5519148518336301   T   T   T
  0.5802849792282464  0.1857805389159935  0.5491665833842038   T   T   T
  0.9154907372568658  0.8120013960246464  0.5465843862943299   T   T   T
  0.9168561906771344  0.5625265309123217  0.5458564427647563   T   T   T
  0.5812095751017758  0.5602835678236278  0.5493953300819037   T   T   T
  0.5861118091796406  0.8147181548258572  0.5504639412796443   T   T   T
  0.5834650133196455  0.3118534930595723  0.5457269897849337   T   T   T
  0.5826117357569914  0.0626847119311261  0.5464704035930031   T   T   T
  0.2537306483804349  0.8128452867145033  0.5513440131669809   T   T   T
  0.2523568291960711  0.5589900082461920  0.5439941481219194   T   T   T
  0.2496659702006640  0.3136158580112714  0.5460836508360296   T   T   T
  0.2509666847696811  0.0626417387576374  0.5473396964419441   T   T   T
  0.7484328719286492  0.8082339606667480  0.5456220111199249   T   T   T
  0.7464453219624175  0.5578081796467388  0.5444363770615737   T   T   T
  0.4138113387413965  0.8115152012371742  0.5479771445233467   T   T   T
  0.7502281014030063  0.0593609436260263  0.5437284742667543   T   T   T
  0.7447797554713514  0.3113381021343488  0.5469404741959731   T   T   T
  0.4155211458185329  0.3194178086327903  0.5526368159135255   T   T   T
  0.4202003246663631  0.5648396522602425  0.5555215832657436   T   T   T
  0.4163631146931911  0.0652182829687878  0.5472817166871901   T   T   T
  0.0849301316718249  0.8128916292797119  0.5473605662061218   T   T   T
  0.0824969299018743  0.5640724744532306  0.5462910426360464   T   T   T
  0.0827552245783873  0.3129279001269125  0.5469670988917740   T   T   T
  0.0826563223530861  0.0627764148480467  0.5472514048832301   T   T   T
  0.9162191796568090  0.9369015746843176  0.5465900544100010   T   T   T
  0.9130963565179091  0.6885065467333807  0.5455549749379104   T   T   T
  0.5835590842641324  0.9381039870266971  0.5456933550653327   T   T   T
  0.9142784674513836  0.1844988407882591  0.5481654807901852   T   T   T
  0.9154805198404204  0.4357069095499041  0.5464931619908352   T   T   T
  0.5763378600086245  0.4361825924324299  0.5516176492864227   T   T   T
  0.5795006824969169  0.6864928516491512  0.5470940974030674   T   T   T
  0.2515246731152895  0.9373296510699693  0.5452076206688045   T   T   T
  0.4976519395317810  0.5044422323152477  0.6090584535221282   T   T   T
  0.4986110393057059  0.2528020001485249  0.5903063805851584   T   T   T
  0.4995724436759973  0.0000223210137231  0.5909957651910412   T   T   T
  0.7536847328472425  0.6935642660375797  0.6574264916942290   T   T   T
  0.7479501581409256  0.9362312525059706  0.6407957255816034   T   T   T
  0.2526953282955736  0.1862742805430538  0.6409009611771722   T   T   T
  0.7469600885002469  0.1953519428034220  0.6458872837551720   T   T   T
  0.7555543041274397  0.4367939995851802  0.6394246126384984   T   T   T
  0.4172611309185137  0.9349226746508623  0.6396488898139926   T   T   T
  0.4216012208607164  0.6758878968684553  0.6337401996708829   T   T   T
  0.5898254436801529  0.8103153935237024  0.6458596136289129   T   T   T
  0.9152309326405131  0.0631307981119528  0.6379926194388801   T   T   T
  0.9130561051079242  0.5633457816364508  0.6415099755810315   T   T   T
  0.9156069752210535  0.3136410690701769  0.6376657355198988   T   T   T
  0.9145362835827913  0.8124496503179126  0.6416899803311050   T   T   T
  0.5822141335054816  0.0653298944727530  0.6397327289056629   T   T   T
  0.5830695579086329  0.3192553872739454  0.6342544488386338   T   T   T
  0.5920544350502318  0.5642985047700665  0.6396418236150562   T   T   T
  0.2475793230062669  0.5733814610122457  0.6289838967938500   T   T   T
  0.2617855010678057  0.7983681220450680  0.6470588340669540   T   T   T
  0.2488963308064164  0.3159207944600981  0.6416004348324591   T   T   T
  0.2509302262215906  0.0595095918449369  0.6423889075902448   T   T   T
  0.9166666865332829  0.5625000000092442  0.3605200052333331   F   F   F
  0.4993181452427618  0.3727952884901415  0.5004525025498570   T   T   T
  0.4999532739924493  0.8725402805065382  0.5008656541547069   T   T   T
  0.5003124025194137  0.6210145331241307  0.5000950512191225   T   T   T
  0.8322606199221898  0.6230687936600525  0.4999884423077047   T   T   T
  0.8326668324287926  0.8747861621699451  0.4985101788391217   T   T   T
  0.8324923561717696  0.3725070737824246  0.5001212796650558   T   T   T
  0.8327668342335565  0.1245859101494377  0.4993404257406019   T   T   T
  0.1661963023222786  0.3747526715746986  0.4983744457063687   T   T   T
  0.1677582035893325  0.6242754443819154  0.4999835338362668   T   T   T
  0.5817362000873386  0.4382311554012011  0.6458224288550966   T   T   T
  0.5800952798608192  0.6848330466962816  0.6383357890374698   T   T   T
  0.9075956547504935  0.1884672035724407  0.6433524464007465   T   T   T
  0.5816448826758811  0.9352829909708195  0.6392097220418991   T   T   T
  0.8305110302969814  0.7507695733120788  0.5929132750073638   T   T   T
  0.8310695806759808  0.2530962360079325  0.5887800317968580   T   T   T
  0.8328743057777408  0.5039216517747690  0.5890630515792918   T   T   T
  0.8325382621479868 -0.0028574303461821  0.5913968203922563   T   T   T
  0.5009017814872596  0.7563285116933354  0.5927460829317235   T   T   T
  0.4177085941346037  0.0652136881862866  0.6400193122466160   T   T   T
  0.4269699894587894  0.3049150284517976  0.6548150090267373   T   T   T
  0.4119048889801156  0.8125261933329907  0.6396969462160184   T   T   T
  0.3980952295926022  0.5509650975865407  0.6521760754373871   T   T   T
  0.7517827700092777  0.5712878288053206  0.6343033067587951   T   T   T
  0.7410306845308599  0.8100030758323349  0.6400023994933681   T   T   T
  0.7462999808603243  0.3133734826845406  0.6397080048589597   T   T   T
  0.7511323017424907  0.0673451325876313  0.6365628538056453   T   T   T
  0.0815469664164905  0.3122522422446008  0.6399442719806165   T   T   T
  0.6664642685644293  0.8744214388668743  0.4988540550742928   T   T   T
  0.0870120003734864  0.5622793197726265  0.6418905817375922   T   T   T
  0.0810249059626384  0.0617473943552869  0.6408114821327527   T   T   T
  0.0872614053099567  0.4371187081122909  0.6394248019914107   T   T   T
  0.0836755112488753  0.1860000498685411  0.6422108493152356   T   T   T
  0.4186624625306640  0.1878318234691098  0.6398675133509752   T   T   T
  0.4150630067314590  0.4188983727169722  0.6298966154578006   T   T   T
  0.0843737020730720  0.9358359999226964  0.6405127346844145   T   T   T
  0.0832765035941107  0.6873138866800883  0.6399167280665677   T   T   T
  0.9116284271238702  0.4382378985870674  0.6399751341788724   T   T   T
  0.9164365425216668  0.6878235337309012  0.6400347597346365   T   T   T
  0.9154547614013083  0.9360093500925188  0.6414936999244010   T   T   T
  0.2401320767496680  0.4415740927033716  0.6413808133257554   T   T   T
  0.2538731681078334  0.6765080322400889  0.6635461194266352   T   T   T
  0.5788147908331734  0.1904445572875817  0.6445531432966657   T   T   T
  0.2518378676744077  0.9302055769377475  0.6373527608499781   T   T   T
  0.0841656349389141  0.8118729870465000  0.6419485366758596   T   T   T
  0.9166666865332829  0.8124999999834799  0.3605200052333331   F   F   F
 -0.0016157574540291  0.1259872582022291  0.6194845454495983   T   T   T
  0.8333332538436267  0.6249999999803961  0.4070133268666680   F   F   F
 -0.0001100877734980  0.5007110656466919  0.5071330153479159   T   T   T
  0.3310088113531042  0.4991591760725290  0.5010311533476434   T   T   T
  0.3298043852546492  0.2481347027391016  0.5029590389804526   T   T   T
  0.3329263717296828  0.0010646118713508  0.5058424924157491   T   T   T
  0.3337488830759743  0.7508650629858411  0.5016208954125490   T   T   T
  0.6658637105630570  0.0002030198836632  0.5058577439891400   T   T   T
  0.6683277407914858  0.4999513838627720  0.5007278057171074   T   T   T
  0.6663327822899258  0.2475632450349004  0.5029123836684253   T   T   T
  0.6653960206432113  0.7518216889388014  0.5022566321692684   T   T   T
  0.1660088392578410  0.0011321823154079  0.5066570616284117   T   T   T
  0.1656899495886885  0.2484174883403199  0.5065674488028332   T   T   T
  0.1634075056351161  0.4996684900784787  0.5021388585010961   T   T   T
  0.4998740609555066  0.9992181940261884  0.5055215922939392   T   T   T
  0.1644606759043776  0.7513529351154716  0.5033601733378001   T   T   T
  0.5007466630264049  0.7526618891809922  0.5038865431398878   T   T   T
  0.8342438176811114 -0.0009946720563018  0.5055279355209916   T   T   T
  0.5009470348794951  0.4998047035500990  0.5003892680803423   T   T   T
  0.5009538275480904  0.2478958184147742  0.5020695983135304   T   T   T
  0.8351155269830628  0.2486742640389175  0.5021068785365576   T   T   T
  0.0001373657393326  0.7503373582699436  0.5065659905578882   T   T   T
  0.0008694530110811  0.2488838940258710  0.5056958502753006   T   T   T
  0.0000597983531867  0.9997821486605569  0.5060589678798587   T   T   T
  0.8333332538436267  0.8749999404036828  0.4070133268666680   F   F   F
  0.0000000000000000  0.6249999999803961  0.4070133268666680   F   F   F
  0.0000000000000000  0.8749999404036828  0.4070133268666680   F   F   F
  0.3333333432766779  0.1249999999871179  0.4070133268666680   F   F   F
  0.3333333432766779  0.3750000000061604  0.4070133268666680   F   F   F
  0.3333333432766779  0.6249999999803961  0.4070133268666680   F   F   F
  0.3333333432766779  0.8749999404036828  0.4070133268666680   F   F   F
  0.6666666865533486  0.1249999999871179  0.4070133268666680   F   F   F
  0.6666666865533486  0.3750000000061604  0.4070133268666680   F   F   F
  0.6666666865533486  0.6249999999803961  0.4070133268666680   F   F   F
  0.8357265730794474  0.5000332835677850  0.5029652445983678   T   T   T
  0.6666666865533486  0.8749999404036828  0.4070133268666680   F   F   F
  0.1666666716383389  0.3750000000061604  0.4070133268666680   F   F   F
  0.1666666716383389  0.6249999999803961  0.4070133268666680   F   F   F
  0.1666666716383389  0.8749999404036828  0.4070133268666680   F   F   F
  0.5000000000021103  0.1249999999871179  0.4070133268666680   F   F   F
  0.5000000000021103  0.3750000000061604  0.4070133268666680   F   F   F
  0.5000000000021103  0.6249999999803961  0.4070133268666680   F   F   F
  0.5000000000021103  0.8749999404036828  0.4070133268666680   F   F   F
  0.8333332538436267  0.1249999999871179  0.4070133268666680   F   F   F
  0.8333332538436267  0.3750000000061604  0.4070133268666680   F   F   F
  0.1666666716383389  0.1249999999871179  0.4070133268666680   F   F   F
  0.0000000000000000  0.3750000000061604  0.4070133268666680   F   F   F
  0.8358301334889514  0.7515002196551541  0.5025840543304801   T   T   T
  0.8361802706589628  0.3754261712710453  0.6037630651700877   T   T   T
  0.8322239854743675  0.8761455143607749  0.6192651957965221   T   T   T
  0.8399272862138339  0.6273799235055809  0.6028957289197194   T   T   T
  0.9996907617887536  0.8748061549825097  0.6218768831989767   T   T   T
  0.3313895494186201  0.1199284560496423  0.6134942021447357   T   T   T
  0.3342524451730792  0.6239702676705053  0.5955414066120573   T   T   T
  0.3255917380170277  0.3735069294540875  0.5928980549510382   T   T   T
  0.6701380247290436  0.3723586753031035  0.5940391457258207   T   T   T
  0.6661231691720600  0.1237708581408546  0.6125914179909149   T   T   T
  0.3343883620506634  0.8787751933724154  0.6029694117998500   T   T   T
  0.1590419816469179  0.6272390911026122  0.6015556428514943   T   T   T
  0.1659449534606151  0.8732883083520271  0.6181530069406763   T   T   T
  0.5016422539841631  0.3711053950409828  0.5950327307469241   T   T   T
  0.5002931249926091  0.1217630784266491  0.6062743309278287   T   T   T
  0.1668165416567250  0.1220722916404813  0.6217135283847081   T   T   T
  0.1626184269615691  0.3711293958455452  0.6080474989849817   T   T   T
  0.6648683332930035  0.8804019392783186  0.6071682538084274   T   T   T
  0.6659958506328705  0.6268814110953865  0.5935066719283270   T   T   T
 -0.0000858507502516  0.3783663210971255  0.6219588572581730   T   T   T
  0.0001196598369767  0.6230085403953542  0.6434963286822444   T   T   T
  0.8337884357413744  0.1215804277043941  0.6057476789955588   T   T   T
  0.5002227167931695  0.8764984739116531  0.6096939684290436   T   T   T
  0.0000000000000000  0.1249999999871179  0.4070133268666680   F   F   F
  0.5037332677593208  0.6249035658944589  0.5938212448988164   T   T   T
  0.9166474686771335  0.9979266618994669  0.6030083933657231   T   T   T
  0.5843596254162350  0.7500717596863132  0.5994107281722405   T   T   T
  0.5905430280934920  0.5010934863143198  0.5937690575139343   T   T   T
  0.2422271809911350  0.4978647668143577  0.5939813418314109   T   T   T
  0.2494317202749264  0.7525353996903360  0.5922453261532030   T   T   T
  0.5839904596166851  0.2468927596378288  0.5973491436406647   T   T   T
  0.5826065696257231  0.0007091697602487  0.6042607969543321   T   T   T
  0.2493473020585219  0.9978329032005989  0.6042706325811568   T   T   T
  0.2484006563799570  0.2457568099660956  0.6036863329779093   T   T   T
  0.4169943785636039  0.0001304706370144  0.6046274272717085   T   T   T
  0.4143874956384339  0.2486642172113462  0.5912222513521160   T   T   T
  0.4160514375378828  0.7499822296522380  0.5945953407358148   T   T   T
  0.7560417246240549  0.5030845257819809  0.5956154361958196   T   T   T
  0.7519352389240243  0.7527839554038711  0.5906073789176314   T   T   T
  0.7535264335729261  0.2489872553982777  0.5937090798174182   T   T   T
  0.7496198844505263 -0.0004786917409293  0.6039560938540661   T   T   T
  0.0831030449088389  0.2475871238214188  0.6041463414015756   T   T   T
  0.0815513896482534  0.5010060044457006  0.6034281893130559   T   T   T
  0.0805118339020838  0.7508918835843955  0.6032164092144983   T   T   T
  0.0826655418081109  0.9988799516705992  0.6033086388341331   T   T   T