Au  C  H  O Sr Ti 
 1.0000000000000000
    23.6707801818999997    0.0000000000000000    0.0000000000000000
     0.0000000000000000   22.3170261383000010    0.0000000000000000
     0.0000000000000000    0.0000000000000000   30.0000000000000000
 Au  C   H   O   Sr  Ti 
  50   1   3 264  72  72
Selective dynamics
Cartesian
 16.9810598404379789 11.7431552950029428 22.5927516871197511   T   T   T
 14.7470590058419884 12.7261123660099535 21.1211790618567825   T   T   T
 17.0600146071937182  5.8249057724948754 20.7353807550236588   T   T   T
  6.9226458911420998 16.6509236695409548 20.9426599063992143   T   T   T
 12.1323622563745044 13.4695242328618292 23.2916382407371394   T   T   T
 13.6863527716978837 16.1921350363585965 23.8032072658406868   T   T   T
  5.6907665402355745 10.4643314811852264 21.2655165989062205   T   T   T
  6.7234064159820521 14.7566415508234350 22.9507866452166596   T   T   T
 14.2517717711810885  6.3442462440223517 23.5284390194510387   T   T   T
 12.1737834981603559 10.8222703611817366 20.3446312211703670   T   T   T
 13.3373217677126128 10.8393338695725223 22.8647055237983103   T   T   T
 13.1984119467261909  4.7147690956649475 21.3259555952477626   T   T   T
 13.0532101643952263  8.5475948186193325 24.8017099665904261   T   T   T
  9.2525805857868413 18.2415108101685703 21.1931625624169655   T   T   T
 10.9696767844832106 15.5084238279789535 24.8954442069836617   T   T   T
 10.4280045210763888  5.0776951733718816 20.9256204129373273   T   T   T
  8.7950199302629155  6.6522431301846456 22.6459277187125743   T   T   T
  8.2689587899092629 11.1545595285731718 20.9377898626529770   T   T   T
 10.1892300509665610  8.2917521850569358 24.4235952587892662   T   T   T
 14.1045753507424649 17.5129712403733961 21.3913915128035335   T   T   T
 15.0358609472496685 13.0325740094230209 24.0011399249798600   T   T   T
 17.3702155558591684 13.7427505121998035 20.8106944437473231   T   T   T
 11.4805095355754965 17.3656078043754682 22.7012418118283890   T   T   T
 18.1020689104341344  9.6438634545764881 21.1435861315200775   T   T   T
 11.5200897854343403  6.0087586304691447 23.2597946997460312   T   T   T
  6.8374256183911317 11.9832982468130851 23.3315608393262472   T   T   T
 14.5958333049651934  7.1926615624165651 20.8836791492085041   T   T   T
  8.7193839286270993 13.7883082893734290 24.5988850440614435   T   T   T
 13.4972529675766832 11.3728770205784713 25.6946563521347997   T   T   T
 15.6752749171613033  4.2145861901376191 22.5296564217097703   T   T   T
 11.1825765649451174 10.0175527207833639 26.3406333683544105   T   T   T
 12.2318216099717887  8.4209140898904202 21.9682316669629110   T   T   T
  6.6984497620401724  7.5428932929919297 21.0722248240772956   T   T   T
 15.8524952659818670 15.2048356465271368 22.4644706907631893   T   T   T
  9.4149983964646164  8.5161633134179748 20.6997862784703166   T   T   T
 10.7084574406431301 12.9502306037399570 21.0817561558377804   T   T   T
  8.8905726687146434 10.9711054603771778 24.9766762257067114   T   T   T
  7.7115791236834887  9.2369392576671387 23.0657198429449650   T   T   T
  9.9820414585064601 15.5750840399189343 20.9746545633398078   T   T   T
 16.5694903515434575  7.7293544340613458 22.7191401045585906   T   T   T
 18.3417982420440175  9.5906610395240097 23.8476547998984323   T   T   T
  6.0708388012531476 13.2205606052860425 20.8337738060721200   T   T   T
 15.3689063164421942  9.9462838636906579 20.8358750839637317   T   T   T
 13.3614363924050394 14.2703866318951746 25.8251663044827531   T   T   T
 12.8494768151164891 14.8722025582114270 21.0369788093514423   T   T   T
 10.5098199183760226 10.5942694927698930 22.6844996102176815   T   T   T
  8.8361994130087815 16.4801545084287682 23.3417272387363965   T   T   T
 10.9610459229704507 12.7675720716714700 25.8831216136557920   T   T   T
 15.5523783603330266  9.8862730965926353 24.3774894871633592   T   T   T
 16.7103227460750325 16.9044525473825580 20.6494033732119959   T   T   T
 17.2174365346741034  2.9314102783283418 22.5195274515415029   T   T   T
 18.0001835416885037  3.1319536237455723 23.2543666922049717   T   T   T
 17.6653149943483463  2.8319755017199011 21.5283922334402291   T   T   T
 16.7017542440926370  2.0046958390996137 22.7806754044449029   T   T   T
  5.9060392885066291  7.0023275178935140 16.3791319117827143   T   T   T
 17.7681616614382065  4.2386539344854013 13.6745336635698020   T   T   T
  9.8738002574565833 20.8855752016673719 13.6214668804876737   T   T   T
  9.8692928394206323 15.2800110040145825 13.6438254460889308   T   T   T
  9.8583026581421436  9.7175668958526025 13.6149253359715026   T   T   T
  2.0022462397167882 15.3294486236822323 13.5905535392658301   T   T   T
  1.9856509444265558 20.9037678581905553 13.6042820176186510   T   T   T
  1.9602434609877355  9.7480038066040695 13.5867373775656155   T   T   T
  1.9850848271583283  4.1636863690362667 13.5894799077971999   T   T   T
 21.6969450676477926 18.1248651452759262 13.6232983432778827   T   T   T
 17.6690018075919681 12.4447666295207142 16.3385067345608910   T   T   T
 21.6870160717681024 12.5494730683092151 13.6173404729833774   T   T   T
 21.6851748293351285  1.3894719668903532 13.6233172414089871   T   T   T
 21.6868689105872896  6.9674481164170521 13.6159320360668836   T   T   T
  9.8757749595602942  4.1764839331314416 13.6064645643415787   T   T   T
  5.9736139035131428 15.3405935177554387 13.6857279043499336   T   T   T
 21.6933601109541243 20.9143941007528689 13.6091322107486228   T   T   T
 13.7911045358242976  4.2415711631075483 13.6649477038394309   T   T   T
  0.0013589213636707  2.7921756491081151 14.9531435068011742   T   T   T
 13.8123558002899358 18.0841269088842544 13.6628970036374859   T   T   T
 -0.0004625181900054  8.3348904131102781 14.9507951483587735   T   T   T
 -0.0016688608155441 13.9964292544836031 14.9307862238784441   T   T   T
  7.8970640112521240  2.8051879809794276 14.9551644917113578   T   T   T
  0.0013042466451235 19.5310975871973511 14.9865932143497194   T   T   T
  7.8923868723393449 19.5010280944153322 14.9836033106300999   T   T   T
 15.7651045316257434  2.8250624401584901 14.9761944937363563   T   T   T
  5.9453433504494262  9.8030019581094230 13.6480020027869848   T   T   T
  1.9725650740000149 12.5533272030000536 10.8156001569999933   F   F   F
 21.6982156369999721  1.3948141340000613 10.8156001569999933   F   F   F
 17.7337062237850667 18.1502855224644613 13.5933504783669328   T   T   T
 17.7401300908172139  9.7845176859289058 13.6808904264665596   T   T   T
  5.9302291277137966  1.3843269635988582 13.6277658190822919   T   T   T
 17.7312656350406499 15.3689264129951688 13.7230497513453393   T   T   T
  5.9145960719379174  4.2066410929489608 13.6230360128707648   T   T   T
  5.9193335503796192 20.8894318816359927 13.6242584358876488   T   T   T
 15.7519749379362253 13.9659493413067537 15.0891797755087094   T   T   T
 13.8388302740532190 12.5544726844666883 13.6503743416622072   T   T   T
 13.8054175692207490  1.4197877534978036 13.6168309637457483   T   T   T
 21.6982156369999721 15.3429554700000619 10.8156001569999933   F   F   F
 21.6982156369999721  9.7636982699999884 10.8156001569999933   F   F   F
 21.6982156369999721  4.1844424010000720 10.8156001569999933   F   F   F
 13.8079546360000549 20.9222120050000342 10.8156001569999933   F   F   F
 13.8079546360000549 15.3429554700000619 10.8156001569999933   F   F   F
 13.8079546360000549  9.7636982699999884 10.8156001569999933   F   F   F
 13.8079546360000549  4.1844424010000720 10.8156001569999933   F   F   F
  5.9176950450000287 20.9222120050000342 10.8156001569999933   F   F   F
 21.6982156369999721 20.9222120050000342 10.8156001569999933   F   F   F
  5.9176950450000287 15.3429554700000619 10.8156001569999933   F   F   F
  5.9176950450000287  4.1844424010000720 10.8156001569999933   F   F   F
 17.7530837259999217 20.9222120050000342 10.8156001569999933   F   F   F
 17.7530837259999217 15.3429554700000619 10.8156001569999933   F   F   F
 17.7530837259999217  9.7636982699999884 10.8156001569999933   F   F   F
 17.7530837259999217  4.1844424010000720 10.8156001569999933   F   F   F
  9.8628241350000643 20.9222120050000342 10.8156001569999933   F   F   F
  9.8628241350000643 15.3429554700000619 10.8156001569999933   F   F   F
  9.8628241350000643  9.7636982699999884 10.8156001569999933   F   F   F
  5.9176950450000287  9.7636982699999884 10.8156001569999933   F   F   F
  1.9725650740000149  1.3948141340000613 10.8156001569999933   F   F   F
 21.6678058099991873 15.3268008864370024 13.5925807330231088   T   T   T
 15.7515346929789484  8.4480113569310671 15.0987284959668902   T   T   T
  7.9147117105374178  8.4463504440896084 15.0898917922044529   T   T   T
  7.9495690126503575 13.9538344618569692 15.1316207879796067   T   T   T
 21.7204468963909747  1.4155070704921044 16.4249576406590663   T   T   T
 17.7404017752627858 20.9435919230638490 13.6598853503699438   T   T   T
 13.7943840112920739  9.8047534160842265 13.6915051960032201   T   T   T
 21.6661356522145887  6.9800913406305458 16.4015243839299565   T   T   T
  5.9639468452273707 12.6003602258046801 13.6164569484766442   T   T   T
 13.8079546360000549  1.3948141340000613 10.8156001569999933   F   F   F
  5.9176950450000287 18.1325837370000720 10.8156001569999933   F   F   F
  5.9176950450000287 12.5533272030000536 10.8156001569999933   F   F   F
  5.9176950450000287  6.9740706679999214 10.8156001569999933   F   F   F
  5.9176950450000287  1.3948141340000613 10.8156001569999933   F   F   F
 17.7530837259999217 12.5533272030000536 10.8156001569999933   F   F   F
 17.7530837259999217  6.9740706679999214 10.8156001569999933   F   F   F
 17.7530837259999217  1.3948141340000613 10.8156001569999933   F   F   F
  9.8628241350000643 18.1325837370000720 10.8156001569999933   F   F   F
  9.8628241350000643 12.5533272030000536 10.8156001569999933   F   F   F
  9.8628241350000643  6.9740706679999214 10.8156001569999933   F   F   F
 17.7530837259999217 18.1325837370000720 10.8156001569999933   F   F   F
  1.9767558798951208  6.9641742333923693 13.6191322805053581   T   T   T
  9.8628241350000643  1.3948141340000613 10.8156001569999933   F   F   F
  9.8679098411720005  1.3743227694615681 13.6605134522899920   T   T   T
  1.9755832867759844 18.1243066851018249 13.6258704139364628   T   T   T
  1.9871294933526664 12.5531193833732093 13.6162832173593813   T   T   T
  9.8490388381711540 12.4867000830975385 13.7364249013278634   T   T   T
  1.9808376151253901  1.3808308430898686 13.6264928995387855   T   T   T
  9.8358953870388657  6.9487691071564823 13.7219534702663015   T   T   T
 19.7256482699999580 16.7377696039999648 12.2103998060000407   F   F   F
  1.9725650740000149  9.7636982699999884 10.8156001569999933   F   F   F
  1.9725650740000149 15.3429554700000619 10.8156001569999933   F   F   F
  1.9725650740000149 20.9222120050000342 10.8156001569999933   F   F   F
  9.8628241350000643  4.1844424010000720 10.8156001569999933   F   F   F
  1.9725650740000149 18.1325837370000720 10.8156001569999933   F   F   F
 19.7256482699999580 11.1585130689999925 12.2103998060000407   F   F   F
  5.9433066796209371  1.3976078033432837 16.4177637054809296   T   T   T
  9.8188564610363045 18.1191666785223013 16.4425373699562449   T   T   T
 13.8079546360000549  6.9740706679999214 10.8156001569999933   F   F   F
  5.9712734081011227  7.0104304688922801 13.6252746380414909   T   T   T
 13.8079546360000549 18.1325837370000720 10.8156001569999933   F   F   F
 13.8079546360000549 12.5533272030000536 10.8156001569999933   F   F   F
  5.9298511985950686 18.0924711084886098 13.6634789295590906   T   T   T
 19.7256482699999580  5.5792565349999723 12.2103998060000407   F   F   F
 13.8297954090566950  7.0340983352679185 13.6151196340303411   T   T   T
 17.7185723594351145 18.0397536986875231 16.3701314199616803   T   T   T
 11.8353900909999528 11.1585130689999925 12.2103998060000407   F   F   F
  1.9725650740000149  4.1844424010000720 10.8156001569999933   F   F   F
  0.0000000000000000  0.0000000000000000 12.2103998060000407   F   F   F
  0.0000000000000000  5.5792565349999723 12.2103998060000407   F   F   F
  0.0000000000000000 11.1585130689999925 12.2103998060000407   F   F   F
 17.7103203687973192 12.5930269518852906 13.6129384684509347   T   T   T
  7.8902602960000570  0.0000000000000000 12.2103998060000407   F   F   F
  7.8902602960000570 11.1585130689999925 12.2103998060000407   F   F   F
  7.8902602960000570 16.7377696039999648 12.2103998060000407   F   F   F
 15.7805205919999434  0.0000000000000000 12.2103998060000407   F   F   F
 15.7805205919999434  5.5792565349999723 12.2103998060000407   F   F   F
 15.7805205919999434 11.1585130689999925 12.2103998060000407   F   F   F
 15.7805205919999434 16.7377696039999648 12.2103998060000407   F   F   F
  3.9451301480000271  0.0000000000000000 12.2103998060000407   F   F   F
  3.9451301480000271  5.5792565349999723 12.2103998060000407   F   F   F
  3.9451301480000271 11.1585130689999925 12.2103998060000407   F   F   F
  3.9451301480000271 16.7377696039999648 12.2103998060000407   F   F   F
 11.8353900909999528  0.0000000000000000 12.2103998060000407   F   F   F
 11.8353900909999528  5.5792565349999723 12.2103998060000407   F   F   F
 11.8353900909999528 16.7377696039999648 12.2103998060000407   F   F   F
 21.6982156369999721  6.9740706679999214 10.8156001569999933   F   F   F
  7.8902602960000570  5.5792565349999723 12.2103998060000407   F   F   F
 17.6894171670916585  7.0111897452288305 13.6463623561743983   T   T   T
  0.0000000000000000 16.7377696039999648 12.2103998060000407   F   F   F
  9.8612541684470383 18.0740484380742181 13.6560444280308246   T   T   T
 17.7410988543046315  1.4325820397232636 13.6012547546155087   T   T   T
 13.7951869788337724 15.3102803153700027 13.6377148270721289   T   T   T
 19.7256482699999580  0.0000000000000000 12.2103998060000407   F   F   F
 21.6776863354431555  4.1709627039500212 13.5970803111320340   T   T   T
  9.8463804252900360 20.9137103481619562 16.3826809138569800   T   T   T
 11.8065119638128486  5.6391318082021122 17.7087685004810886   T   T   T
  9.8396551014317559  4.2732253811255623 16.3955412969905829   T   T   T
  2.0504831277730071 15.3933385669627754 16.3540900267289651   T   T   T
  1.9525972089128492  9.7887180612792211 16.3516986073435824   T   T   T
  1.9782046939215876  4.2161551795327714 16.3672774844643314   T   T   T
 11.8225644448611753  2.8023411704930985 14.9877903179006982   T   T   T
 23.6618266489360281 11.1769940071144074 17.8344863577273145   T   T   T
 13.7457562412649086  4.1330264701548582 16.4981076394028285   T   T   T
 23.6613431789759154 16.8108183796007395 17.7675849203005249   T   T   T
  7.9060250693169642 22.3139250790216082 17.7601801080760104   T   T   T
 23.6678244123934256 22.2999839008678649 17.7962073937051954   T   T   T
  0.0139161510459944  5.5812292786797792 17.7586731926751149   T   T   T
  7.8900343171627618 11.0813055293480005 17.7267837364221279   T   T   T
  7.9550387998249414 16.5426878091227394 17.7174320073282523   T   T   T
 15.7022049228074767  5.5223077989501492 17.7173061960560183   T   T   T
 15.7639323104963935  0.0109023615929180 17.7562153158447664   T   T   T
 15.7676797476601269 16.5573130662118473 17.6987788914112834   T   T   T
 15.7842091680849528 11.0253059976176715 17.7503463861242565   T   T   T
  3.9630558564682663 22.2826013567745491 17.7693213063819542   T   T   T
  3.9852175250314588  5.5605313101997398 17.7920962635535176   T   T   T
  4.0419301313780336 16.7382919682767124 17.8526129429449583   T   T   T
  5.8821452696882774  9.7294008380054056 16.4702086947250876   T   T   T
  3.9173481883265913 11.2165927297131081 17.6224959376301342   T   T   T
  7.9257946439421811  5.6795011501228982 17.7865783719509807   T   T   T
 11.8275087835964356  0.0023785564755255 17.7315964151273668   T   T   T
 19.7124561889445040 19.5184674839652530 14.9567866786630610   T   T   T
 17.7192231227123500 20.9187440353088157 19.2068690928399839   T   T   T
 19.6978755823351079  0.0492052732605080 17.7677792545412210   T   T   T
 17.7150322678436751  4.0919899587568063 16.5280530882621477   T   T   T
 10.0234484238481745 15.3565803258323452 16.3995795955365509   T   T   T
 10.0164607748391870  9.9096115006506178 16.3686307595343976   T   T   T
 17.8050047396771554  9.7026598237789106 16.4818769842887392   T   T   T
 13.7982431797395382  6.9432784594619363 16.3556675819846937   T   T   T
  5.9908007469322664 18.1387566228242534 16.5363150854850538   T   T   T
 13.7942951827248645 20.9138360068710121 13.6294199739622641   T   T   T
 13.8022623029015250  1.3875537604997268 16.3670090009104072   T   T   T
 13.8774754565367164 18.1830408681926663 16.5141730986604145   T   T   T
 17.7036430099456332  6.9468658948491946 16.4473694577213045   T   T   T
 13.7627121835865545 12.4992285637299680 16.4792994939496396   T   T   T
  5.9703810537355784 12.4759857952035400 16.3202403541454260   T   T   T
  9.8470461775165674  7.1347040401111554 16.5794181237140492   T   T   T
 13.6499426755180622  9.7246891160919748 16.5695361885437578   T   T   T
  9.8591020694248872  1.4599680612490060 16.4212244845964612   T   T   T
  2.0095575005302138 18.1428803098276745 16.4203920300922164   T   T   T
  1.9525373778078694 12.5937075087097465 16.3879203916313365   T   T   T
  2.0421651362198561  6.9944745789978544 16.4060171467312763   T   T   T
 11.8769689746231553 16.8831385035360597 17.7908346576943579   T   T   T
  1.9479250670308847  1.4120952588458555 16.4270365990176970   T   T   T
 21.6210126899600930 15.3842402344984421 16.3528325782467441   T   T   T
 13.8147423119021706 20.9307534919835518 16.3846875334229978   T   T   T
 21.6969063742349739  4.2154322715949757 16.3630893232229013   T   T   T
 21.6829463636788660  9.7659961417923746 16.3751408465535278   T   T   T
 13.7205791793203016 15.3160325934945476 16.4175191310533606   T   T   T
  5.9532535129073549 20.9189168220340775 16.3597710336170223   T   T   T
 11.7801153765656537 11.2599218682173188 18.2707965497806448   T   T   T
 21.7085027386482174 12.5815539504318803 16.4021422725401571   T   T   T
  9.9507751538165703 12.6128425899094854 16.6693379986575572   T   T   T
 21.6686295098463617 18.1457563068403367 16.4082123583222241   T   T   T
  1.9796164006361843 20.9542604467010953 16.3742544359620972   T   T   T
  5.9031369584190809 15.2500167964478610 16.5650068876618235   T   T   T
 17.7393458171262708 20.8487460959931319 16.4323126293220838   T   T   T
 17.8000006300991380 15.1817335974407541 16.5960710107064457   T   T   T
 21.6777387948293914 20.9493942517897160 16.3915501396249361   T   T   T
  9.8862243049899039  1.4540614235249238 19.2034150589613795   T   T   T
  1.9725650740000149  6.9740706679999214 10.8156001569999933   F   F   F
  9.7899257074361472 18.1310508027508348 19.1975004234943114   T   T   T
 21.6796253016894838  1.3987064032642476 19.2439668037964644   T   T   T
 21.5988141913321741 12.5384237430022090 19.2625578503568420   T   T   T
 21.6455057522264624  6.9568501944230556 19.1925502109527386   T   T   T
 21.6386529791684197 18.1497144571954436 19.2454632209576175   T   T   T
 13.7957062582343521  1.4861188604865647 19.1647869950950636   T   T   T
 13.7983476963342842  7.1521646968171950 19.0142853204015481   T   T   T
 13.9948532509757246 12.6135722002640893 19.1828382611308541   T   T   T
  5.8576270419735099 12.8060832413615415 18.8580775903241360   T   T   T
 17.8490212132751331 15.4743374769259301 19.7100910564229110   T   T   T
  6.2030163933261031 17.8240971902724255 19.4068500570386107   T   T   T
  5.9406070295126536  1.3271225812182945 19.2700668121576371   T   T   T
 21.6982156369999721 12.5533272030000536 10.8156001569999933   F   F   F
 11.8252263102868156  8.3518723942232356 14.9955669946124246   T   T   T
 11.8465848998829362 13.8581259824797822 15.0023533241792411   T   T   T
 19.7021788118618950 13.9042704852561005 14.9997212098544370   T   T   T
  5.9623280521431141  4.2040957103284970 16.4139833959060191   T   T   T
 19.7037543971773772  8.3282971758320645 14.9938449089765928   T   T   T
 19.7131681577947973  2.7772133641399548 15.0027146896443178   T   T   T
  3.9464857209762152  8.3962423337575576 14.9356725772896475   T   T   T
  3.9720845391264503 13.9334097004421995 15.0004494734805256   T   T   T
 13.7541722949849969  9.7966796695071086 19.3997057884086459   T   T   T
 13.7417461578279969 15.2963146959900378 19.1743087301744488   T   T   T
 21.6882836114906503  4.1545620087384236 19.1977164986429472   T   T   T
  5.8966323615670113  7.0611271902676380 19.2386901345967942   T   T   T
  3.9705211934531692 19.4892318702064138 14.9970082163752512   T   T   T
 21.6774339955732280  9.7513059571316294 13.6100951670994661   T   T   T
  3.9543755132972960  2.7744128171982925 14.9797099749751936   T   T   T
 17.7069919507274527  1.3375683772472844 16.3356754307733141   T   T   T
 10.1573928224141294  6.8074269829446257 19.6539545131385722   T   T   T
 13.9959150153547096 18.0819708630791283 19.3849794432921527   T   T   T
  9.9740047736586366 15.0840943773265952 19.0038166366555679   T   T   T
 11.8366458040181364 19.4904812118427238 15.0245480848950823   T   T   T
 17.8780597020434335  9.6861832534448364 19.1464033275273877   T   T   T
 17.8275246690969809 12.7098096632813977 19.0476640770869246   T   T   T
  9.4005624861310384 12.2914985224709898 19.5688170190611750   T   T   T
  9.8782672088991781 20.8644829608192524 19.1913495532054696   T   T   T
 17.5427418679380516 18.0782338292166571 19.1990294234312628   T   T   T
 17.6749704699292067  6.9858504453569834 19.1966527477186375   T   T   T
 17.6959239159485442  1.5222994723741405 19.1722281821280269   T   T   T
  1.9815272743202736  6.9590337994464315 19.2125792633452512   T   T   T
 15.7785810067160330 19.5246725594706980 14.9749202486537669   T   T   T
  2.0700210691614775 12.5409629697393949 19.2394077188437400   T   T   T
  2.0511718631608891  9.7397453371380571 19.1812742008861008   T   T   T
  1.9757548539687042  4.1473133398034712 19.2289331774936834   T   T   T
  9.9080038350213595  4.1856845786975914 19.1933403768730209   T   T   T
  9.8225247531260376  9.3517273348774417 18.8958184993415870   T   T   T
  1.9963106012506999 20.8798053034923647 19.2204038316951156   T   T   T
  1.9669224084380768 15.3342477421554086 19.1871595802971200   T   T   T
  1.9928710116677626  1.3567468566354783 19.2616738216814554   T   T   T
 19.7257652976808053 11.2259625687915019 17.6646452608465978   T   T   T
 21.6022235109204175  9.7332762459756772 19.1908082847385337   T   T   T
 19.6599633205805553 16.7568754427902462 17.7858422834463212   T   T   T
 19.6783799487616555  5.5391918208986510 17.7329195721791457   T   T   T
 17.6444566326925525  4.3511860052888345 19.4165379383751429   T   T   T
 21.6982156369999721 18.1325837370000720 10.8156001569999933   F   F   F
 13.7775180435609315 20.8873568060261867 19.1852535788031631   T   T   T
  1.9906184469124708 18.1242423392991974 19.2601953207301655   T   T   T
 13.6933647489601995  4.2685196364846067 19.3430395523816436   T   T   T
  6.0230733666596974 15.1111170524330198 19.9028931672004994   T   T   T
  5.6959938978699309  9.8641710836337371 19.2454268522882934   T   T   T
 21.6442042730764470 20.9142629417750321 19.2306787464744531   T   T   T
 21.6902735520073513 15.3441397072018049 19.1835300097452439   T   T   T
  5.9635137402113738 20.7585451355863526 19.1210532156637818   T   T   T
  5.9963940640558278  4.1634559906504434 19.2315872342095844   T   T   T
  0.0144424617439194  2.7408931098711524 18.5872972141757309   T   T   T
  3.9451301480000271  8.3688848019999824 12.2103998060000407   F   F   F
 15.7522042074468978 16.7836529444389733 15.0667311416899476   T   T   T
 11.8625886508801628 16.8038464695461158 15.1184859766854647   T   T   T
 15.7615721084544980 22.3133946691158762 15.1640581624748112   T   T   T
  3.8905847075871538 16.7740351316817922 15.1002167334073825   T   T   T
 19.7256482699999580 13.9481413360000008 12.2103998060000407   F   F   F
 15.8214110276472120 11.1584046307884783 15.0198245219272923   T   T   T
  7.8377020103734649 11.1426592732179444 15.0284043397860305   T   T   T
  7.8133297119544185  5.5361759902944669 15.0842025731662428   T   T   T
  7.8845969753621548  0.0246883995356355 15.1748350364755531   T   T   T
 15.7821725722056563  5.5336332658626048 15.0740176516936746   T   T   T
 11.8643336098949099 11.1552548485294789 15.0092154370313864   T   T   T
 23.6648791940881651 11.1760356946271457 15.2131890420259790   T   T   T
 19.7969500020731033 11.1614561751873040 15.0830697108947511   T   T   T
 19.7849428876656575  5.5486552361867592 15.0825986212735526   T   T   T
 15.7805205919999434  8.3688848019999824 12.2103998060000407   F   F   F
  3.9291866779788358  0.0274084401277379 15.1964914877427653   T   T   T
  0.0000000000000000 19.5273965409999306 12.2103998060000407   F   F   F
 11.8560539047563154  5.5323644093490065 15.0618841307862521   T   T   T
 23.6663171199624109 16.7580039151164115 15.1980107430674174   T   T   T
  0.0176628621896491  5.5763874531261397 15.1783437369204179   T   T   T
  0.0014675316471812  0.0019429458204335 15.1992822439374855   T   T   T
 15.7805205919999434 13.9481413360000008 12.2103998060000407   F   F   F
 19.7256482699999580 19.5273965409999306 12.2103998060000407   F   F   F
  7.8902602960000570 13.9481413360000008 12.2103998060000407   F   F   F
  7.8902602960000570  2.7896282670000101 12.2103998060000407   F   F   F
  7.8902602960000570  8.3688848019999824 12.2103998060000407   F   F   F
 19.7492125240167944  0.0055143684468746 15.1946425082668863   T   T   T
  7.8902602960000570 19.5273965409999306 12.2103998060000407   F   F   F
 15.7805205919999434  2.7896282670000101 12.2103998060000407   F   F   F
  0.0000000000000000 13.9481413360000008 12.2103998060000407   F   F   F
  3.9356756870827176  5.5402804560968768 15.1841654641041544   T   T   T
  7.9005326200415418 16.7634067600150765 15.0467011055848801   T   T   T
 11.8390476462118457 22.3020444718660116 15.1658434810830620   T   T   T
 11.8549812892457247 19.5703851304838921 18.2836835851224357   T   T   T
  7.7135558278762133  8.3398081511449575 17.7804797420439975   T   T   T
  0.0000000000000000  8.3688848019999824 12.2103998060000407   F   F   F
  7.9110512833930544 13.9333083215320475 17.8593298284328874   T   T   T
 11.8353900909999528 19.5273965409999306 12.2103998060000407   F   F   F
 19.7256482699999580  2.7896282670000101 12.2103998060000407   F   F   F
  3.9451301480000271  2.7896282670000101 12.2103998060000407   F   F   F
 15.7437019570376506  2.7715581816014967 18.2408959378038347   T   T   T
 11.8353900909999528 13.9481413360000008 12.2103998060000407   F   F   F
 19.8874344019038674 13.9945045909987797 18.0954355557765432   T   T   T
  7.8486054328348516  2.6766660311880934 18.4022727163158422   T   T   T
 23.6502158273494985 19.5301846164323116 18.6599257204377444   T   T   T
 11.8353900909999528  2.7896282670000101 12.2103998060000407   F   F   F
  3.8677237812653793 11.1567551182698992 15.0608481267831706   T   T   T
 19.6954636751251329 19.5588830769131263 18.5397047818286822   T   T   T
 19.8317200248011680  8.3230927594763688 18.0909044958985881   T   T   T
 19.7902260637165490 16.7800837637399347 15.0790294924496067   T   T   T
  3.9451301480000271 19.5273965409999306 12.2103998060000407   F   F   F
 19.7256482699999580  8.3688848019999824 12.2103998060000407   F   F   F
  0.0000000000000000  2.7896282670000101 12.2103998060000407   F   F   F
 11.9335336964134910 13.9527659313238903 17.8170761519750798   T   T   T
  3.9451301480000271 13.9481413360000008 12.2103998060000407   F   F   F
 11.8353900909999528  8.3688848019999824 12.2103998060000407   F   F   F
 15.7805205919999434 19.5273965409999306 12.2103998060000407   F   F   F
 15.8649820339329590  8.3116937654863570 17.7872636623297637   T   T   T
  7.9192499359467448 19.6075495816365191 18.0918583631589236   T   T   T
  3.9297720894322241 19.4905973513202575 18.5337954039641808   T   T   T
 11.8700954756279646  8.2891147731648296 17.8495606366528214   T   T   T
  3.7647202299163509 13.9973682482206137 18.0447327180173644   T   T   T
  3.9679686336147437  2.7440082595831319 18.6509507248434012   T   T   T
  3.8616998924738826  8.2897791173992825 18.2265727485723623   T   T   T
 15.7506483644722870 19.6693393820754636 18.2128132673264886   T   T   T
 15.7759565921382059 13.9822280181606740 17.8026047043852884   T   T   T
 23.6653734936416846  8.3597335746708552 18.6970542849737491   T   T   T
 23.6639011945576208 13.8789242573791451 19.0645636042561009   T   T   T
 19.7472471986107898  2.7679861257364511 18.4566421178509650   T   T   T
 11.8411497107557508  2.7242762894746329 18.1834745040244172   T   T   T
 13.8387665202140830 16.7438169366785097 17.9905566999421218   T   T   T
  1.9708701202151364  5.5389574406068576 18.1064042871646151   T   T   T
 17.7421018510996511  0.0442943216313918 18.1305638697601879   T   T   T
 13.7893369303397311  0.0230801932190201 18.1280033624470676   T   T   T
 21.6947873289880739  0.0030945092027765 18.1140236376636850   T   T   T
 13.9758139962838239 11.1843911557277824 17.8106346537573863   T   T   T
  9.8139490215702860  5.5464029169188240 17.7409501044025504   T   T   T
  5.8975299082462254 16.7963673830581044 17.7658061770526920   T   T   T
 13.8308754920530657  5.5313839364793926 17.8918844865644715   T   T   T
  5.9103947693171692 22.2658629213374049 18.1274677998003071   T   T   T