Au  C  H  O Sr Ti                       
   1.00000000000000     
    23.6707801818999997    0.0000000000000000    0.0000000000000000
     0.0000000000000000   27.8962826732999716    0.0000000000000000
     0.0000000000000000    0.0000000000000000   30.0000000000000000
   Au   C    H    O    Sr   Ti
    50     7    15   330    90    90
Selective dynamics
Direct
  0.7177724878450934  0.6198075437709708  0.7532271293948789   T   T   T
  0.7052008420206890  0.8054167930158446  0.6887650965205135   T   T   T
  0.6564668341207215  0.5531905321164732  0.8123547211906410   T   T   T
  0.3680930486426304  0.6946345483706481  0.8201105819441111   T   T   T
  0.5701617654940914  0.6085797277960633  0.8572353516004949   T   T   T
  0.6692975256434038  0.3544824318177525  0.7543607949208488   T   T   T
  0.4716511297672969  0.5612202602220308  0.8797299905239137   T   T   T
  0.5177828038261360  0.5014067900191059  0.7336248506759895   T   T   T
  0.2828865691930317  0.4712336592468795  0.7026190712222593   T   T   T
  0.6692470715438945  0.7446773258279470  0.7496304257657981   T   T   T
  0.3978937655324007  0.5060903908685406  0.6907108748292757   T   T   T
  0.6162196859099590  0.4544239542220730  0.6971100338376718   T   T   T
  0.3757760430523184  0.5940448446876144  0.8337658734706238   T   T   T
  0.3265571895501567  0.5316881217248725  0.7696958433050973   T   T   T
  0.4858065726052083  0.4153627061332943  0.7758921323842769   T   T   T
  0.4265739958667782  0.7591935405907855  0.6992775456704579   T   T   T
  0.7007297968668430  0.4745913047296532  0.7575302663343428   T   T   T
  0.7744511100104966  0.5423299569534531  0.7947640921207622   T   T   T
  0.2561478030106450  0.6742052746995677  0.6949968889876394   T   T   T
  0.6470579556020459  0.5536762790178228  0.6960076184464580   T   T   T
  0.5655621877423828  0.7124196295076785  0.8611864345408013   T   T   T
  0.5455475607157665  0.7316857831109652  0.7014818762714806   T   T   T
  0.3729460813394362  0.7899282771903932  0.7778187509266306   T   T   T
  0.4630374758864864  0.6591465753344317  0.8639046421096395   T   T   T
  0.4538813035973744  0.6641257097768636  0.7034258975912095   T   T   T
  0.4434561579491457  0.5791855394674894  0.7564777562928925   T   T   T
  0.2895949410104078  0.6297124183873478  0.7781795470297389   T   T   T
  0.5546895663990468  0.3685217418640682  0.7113857198182033   T   T   T
  0.6238646148780570  0.6540462975569834  0.7042241375058803   T   T   T
  0.7217293136159008  0.4043394446736038  0.6920958390307981   T   T   T
  0.2904027266051818  0.7974336226639074  0.6983203675701557   T   T   T
  0.5137093345112945  0.6838680356491482  0.7773082246866824   T   T   T
  0.5772601453267371  0.7809701994345388  0.7932730316928732   T   T   T
  0.5498969706743551  0.5086852067483557  0.8294800340891342   T   T   T
  0.2418205252375544  0.5749133989696923  0.7095773340732043   T   T   T
  0.2825266716663296  0.7292615248645146  0.7659265518737187   T   T   T
  0.5143944793943332  0.5868235892837648  0.6784574083822027   T   T   T
  0.5624784338890322  0.5888277747551508  0.7629483616536044   T   T   T
  0.6007666103569660  0.4308599900996143  0.7860483075660286   T   T   T
  0.7629960745364606  0.5436246904012069  0.7047052847888742   T   T   T
  0.3898596804188506  0.8528030556614331  0.7065828608524022   T   T   T
  0.4389588477149644  0.3823929058854261  0.6980727131912738   T   T   T
  0.4629159569021289  0.7563584570068174  0.8303806287366937   T   T   T
  0.4305556203341158  0.4975765979072259  0.8159798362727280   T   T   T
  0.3497390586266988  0.6013449270794121  0.6979831907648706   T   T   T
  0.3711979547713357  0.4392922289148908  0.7560158519063441   T   T   T
  0.5941971199958522  0.8278393171416587  0.7127579515432243   T   T   T
  0.6358067016748387  0.6661260286517618  0.8003905594156364   T   T   T
  0.7331726760830810  0.6923220151995385  0.6944177153693056   T   T   T
  0.4839810126876222  0.8241236834780068  0.7577471690021810   T   T   T
  0.7177693025080103  0.2905561744535232  0.7560919551293120   T   T   T
  0.6463974122963193  0.2521444753951053  0.8101691327269924   T   T   T
  0.5751154399144904  0.2128570370624668  0.8629305534394365   T   T   T
  0.6088014667149976  0.2085753150547754  0.8194340933975798   T   T   T
  0.5028687244334731  0.1746315086639934  0.9154784482731841   T   T   T
  0.6790602167702200  0.2487644677213570  0.7660181866391358   T   T   T
  0.5367178289251854  0.1697579080353593  0.8721921264894796   T   T   T
  0.7480640713736825  0.2983683811754104  0.7826576372700023   T   T   T
  0.4756718325839932  0.2063490660205660  0.9146427017588843   T   T   T
  0.7067872702571810  0.2169259713500222  0.7670153082219315   T   T   T
  0.6763207627605716  0.2571416072784035  0.8377619559845396   T   T   T
  0.6195945063874496  0.2844608397834986  0.8096787772538266   T   T   T
  0.6501523269122511  0.2424659275906577  0.7380940129141810   T   T   T
  0.5308592849096970  0.1781060269781437  0.9443118853823034   T   T   T
  0.5795131809748614  0.2036266001672051  0.7914377841984679   T   T   T
  0.6351420608870559  0.1762125187884340  0.8205932076348084   T   T   T
  0.6044727796974515  0.2175035032098641  0.8909585038368141   T   T   T
  0.5492239488955748  0.2455470471976784  0.8617857169279116   T   T   T
  0.5075695029559306  0.1650526894958076  0.8441411497985936   T   T   T
  0.4758695404571672  0.1434360332336388  0.9209918726215531   T   T   T
  0.7383632647064170  0.2884588992600188  0.7236477666533950   T   T   T
  0.5624756035673725  0.1371186625186273  0.8735758496744258   T   T   T
  0.5010538224989148  0.8043472684417808  0.5927587225006682   T   T   T
  0.8330236388788468  0.6024480327514798  0.5898948547598635   T   T   T
  0.8315202351598574  0.3974255801521382  0.5912244046876505   T   T   T
  0.8301447353556952  0.8001430237013279  0.5930933757402922   T   T   T
  0.5815454132919861  0.9478067695345227  0.6380750003751591   T   T   T
  0.8325851305789966  0.2021605571179605  0.5922363965196381   T   T   T
  0.9163638752926544  0.3491115031956253  0.6404403374829691   T   T   T
  0.5807406854050552  0.7473984870337471  0.6386776770450410   T   T   T
  0.5804143642095474  0.5499291839948992  0.6459706011052927   T   T   T
  0.1678017166719406  0.6997349827378138  0.5001245260935904   T   T   T
  0.4179221211765587  0.2523591145522920  0.6389295705663161   T   T   T
  0.7403963147089629  0.8473490251598728  0.6404730219292545   T   T   T
  0.4125988821046105  0.8500166564554983  0.6397842663465766   T   T   T
  0.5836704028003932  0.0505910318954722  0.6416801991892841   T   T   T
  0.7462974000140696  0.4480207140614602  0.6420962465598135   T   T   T
  0.1665200981909823  0.5008161477771375  0.4977492473630010   T   T   T
  0.0867715970675098  0.5497311666083171  0.6397362326922650   T   T   T
  0.0840995518638104  0.2486454689345189  0.6419468465314732   T   T   T
  0.0859916470953932  0.6497781351049358  0.6418136705999036   T   T   T
  0.6663796796907736  0.8989783933213553  0.4988931815547027   T   T   T
  0.0843300069153203  0.4499132171444187  0.6403303132811307   T   T   T
  0.7477836072253649  0.2539141407055156  0.6389940181849256   T   T   T
  0.7524344629648575  0.6557156546565932  0.6354348518127673   T   T   T
  0.4273735479465702  0.4441342378017839  0.6565378932064166   T   T   T
  0.8324897221444185  0.3002415860734411  0.5000822613417893   T   T   T
  0.7474289345421089  0.9472119481523428  0.6395214978959385   T   T   T
  0.8324354286564006  0.8997863493009420  0.4996608067198807   T   T   T
  0.4985666615520781  0.4027256026148770  0.5910534594584589   T   T   T
  0.4974695261641105  0.6033182512911730  0.6092999472837984   T   T   T
  0.2517506092248686  0.9498903679367448  0.5450023381455306   T   T   T
  0.5793634795870279  0.7488209783267048  0.5469595850540173   T   T   T
  0.5765366280845075  0.5482530526396499  0.5520828740746515   T   T   T
  0.9152510520473909  0.5494134349442477  0.5463037646637541   T   T   T
  0.9171130756867161  0.3510296511514744  0.5456899266068508   T   T   T
  0.5838233207905020  0.9505635011376848  0.5457101968862197   T   T   T
  0.9135333563303913  0.7508469780871165  0.5459813655900460   T   T   T
  0.9164173720238438  0.9503527344083700  0.5462829105189775   T   T   T
  0.0827944443879229  0.2500075542507410  0.5473054760891032   T   T   T
  0.0860100810590669  0.4503805332116620  0.5466969870320257   T   T   T
  0.0826137427747724  0.6509446906761145  0.5460359021076281   T   T   T
  0.0854314059567954  0.8498681224786861  0.5475527492269638   T   T   T
  0.4166807281263036  0.2524236890842183  0.5472280030517180   T   T   T
  0.4198707001169610  0.6519437885869435  0.5558125507809106   T   T   T
  0.4156456869811362  0.4552813728064079  0.5524583435085293   T   T   T
  0.7483582202870434  0.4493509146680599  0.5491193169496306   T   T   T
  0.7486309684330255  0.2483599583277417  0.5450353782481310   T   T   T
  0.4141950253569026  0.8487917996610290  0.5482808751926170   T   T   T
  0.7468974070091555  0.6463488755112635  0.5449201516118364   T   T   T
  0.4999777372973253  0.1996808840661281  0.5916565363942428   T   T   T
  0.8326910354479825  0.4983398715997330  0.4995380339013310   T   T   T
  0.7534652001639279  0.7540951361394131  0.6576870030299766   T   T   T
  0.2537095878791910  0.3491270865421828  0.6407447403167522   T   T   T
  0.8322631148205255  0.6991288613266862  0.5000901673115328   T   T   T
  0.5001848940910379  0.6962094729186337  0.5002215024122991   T   T   T
  0.5000710956238955  0.8980143824922339  0.5010804493367711   T   T   T
  0.4995147367049522  0.4983219673873867  0.5001294429226584   T   T   T
  0.9166666865332829  0.6500000000127244  0.3605200052333331   F   F   F
  0.2509691909063194  0.2487490932962275  0.6411910906318875   T   T   T
  0.2487637366455867  0.4528094869356454  0.6418281007919349   T   T   T
  0.2615429860406134  0.8403751692854717  0.6467081732303409   T   T   T
  0.2475685484146053  0.6590784106483613  0.6290865818644606   T   T   T
  0.5917780364989474  0.6511188088373399  0.6397796862427473   T   T   T
  0.5845200433534590  0.4559154829126647  0.6341865460181115   T   T   T
  0.5828069161278281  0.2526032206001383  0.6388059407480908   T   T   T
  0.9143823344366728  0.8499981882849321  0.6415618272638539   T   T   T
  0.9146596965385966  0.4495428411588124  0.6391062807558997   T   T   T
  0.9136914895106160  0.6492030715526194  0.6422979600211567   T   T   T
  0.9161044715244311  0.2503902152516634  0.6415061207016531   T   T   T
  0.5893392777976882  0.8477409007933848  0.6459768115337828   T   T   T
  0.4215003660537526  0.7409483509268513  0.6338921734664879   T   T   T
  0.4173101117192882  0.9473038036116215  0.6391248597549298   T   T   T
  0.7544204264796747  0.5467893654717336  0.6382600797705489   T   T   T
  0.7461183885722863  0.3541679779400266  0.6465015620518806   T   T   T
  0.0839823168813702  0.3488764020505761  0.6415922137136043   T   T   T
  0.4182401492579803  0.3504974867317341  0.6401587481736465   T   T   T
  0.4166666269218169  0.1500000000001833  0.3605200052333331   F   F   F
  0.0844494990519606  0.9487995269282568  0.6405812035599593   T   T   T
  0.4174223076004965  0.0503457045276576  0.5475768858761683   T   T   T
  0.0837893396236262  0.0497582284208773  0.5466250923302679   T   T   T
  0.9162426341733565  0.1506594343673153  0.5463392845047501   T   T   T
  0.5828223260763147  0.1497790932725817  0.5475414009926481   T   T   T
  0.2502332860767303  0.1503509582972304  0.5463220173410226   T   T   T
  0.7500883498751080  0.1487887930198910  0.5478198471988368   T   T   T
  0.4164359672694587  0.1510054486747654  0.5462901614735240   T   T   T
  0.0835483602922399  0.1505071548576210  0.5462826451800833   T   T   T
  0.4999831835343565  0.1000673846101085  0.4987325477243127   T   T   T
  0.8333337699100225  0.1000667584858724  0.4987484553659389   T   T   T
  0.1667669923055423  0.0998687428136507  0.4987351495451734   T   T   T
  0.6664682171756036  0.1000090832813383  0.4991419589474038   T   T   T
  0.3335383528201126  0.0994929340969590  0.4988161800303016   T   T   T
  0.0000221426771637  0.1000000410319000  0.4991303695742128   T   T   T
  0.9166249845761706  0.1499211774199517  0.4537170152331724   T   T   T
  0.7503613442410164  0.0488136531406015  0.5461863937399287   T   T   T
  0.2499656801559767  0.0499382663782169  0.5468625080502306   T   T   T
  0.5825941644631011  0.0500391370040385  0.5472072132263600   T   T   T
  0.9162614247861036  0.0497870788587545  0.5465313485079377   T   T   T
  0.9156619588296618  0.0499520771499841  0.6402875330587290   T   T   T
  0.7501367219207414  0.1510483832109014  0.6415610290201457   T   T   T
  0.2508644053812610  0.1481864615426484  0.6408715678132940   T   T   T
  0.9157326266591097  0.1498703872231821  0.6403172419256062   T   T   T
  0.5831024247463412  0.1506413736188577  0.6428053968696963   T   T   T
  0.4164456538629548  0.1500247976274259  0.6416616284985599   T   T   T
  0.0830704228631801  0.1484884092620281  0.6404610200154286   T   T   T
  0.5831924301923612  0.1510553909479686  0.4545436238480305   T   T   T
  0.0831794047395217  0.0491578728864206  0.6406961886654059   T   T   T
  0.4175062024114797  0.0493322106522472  0.6428664296690768   T   T   T
  0.8325199551289246  0.9977077448281794  0.5921412730621444   T   T   T
  0.4998085931168464 -0.0000868046829056  0.5915967935474078   T   T   T
  0.1673739145213207  0.9983064276724379  0.5922017375547940   T   T   T
  0.6660691022194216 -0.0000142114549592  0.5918740187029937   T   T   T
  0.9998928818760968  0.9991727537223140  0.5922541415399172   T   T   T
  0.3340660236502754  0.0000156486855320  0.5918863673779863   T   T   T
  0.7500431206189578  0.0497623623163866  0.6407526933131216   T   T   T
  0.4153103166668364  0.5347992625668323  0.6300602244586483   T   T   T
  0.2501006583965670  0.1498589770669363  0.4537020149587387   T   T   T
  0.4166363311401557  0.1500732320089322  0.4537979948672136   T   T   T
  0.5833333134730552  0.1500000000001833  0.3605200052333331   F   F   F
  0.2499999999799343  0.1500000000001833  0.3605200052333331   F   F   F
  0.7499999404149307  0.1500000000001833  0.3605200052333331   F   F   F
  0.7479165791049469  0.8469037163722841  0.5462714490657496   T   T   T
  0.0833333358191695  0.1500000000001833  0.3605200052333331   F   F   F
  0.9166666865332829  0.8499999999890662  0.3605200052333331   F   F   F
  0.0844079972632767  0.8495809035276648  0.6420320424840656   T   T   T
  0.2521695584897223  0.9452801415832371  0.6372682489279491   T   T   T
  0.5800759555898932  0.3527816740834791  0.6452863626457729   T   T   T
  0.2541073635175142  0.7416220147418282  0.6636408426899425   T   T   T
  0.2404537165190882  0.5537464258770957  0.6419217757495614   T   T   T
  0.9159282089081603  0.9493256317040728  0.6411883385580762   T   T   T
  0.9154779358652787  0.7499827559421074  0.6404587237103048   T   T   T
  0.9125709955351805  0.5485871319104257  0.6395298770772555   T   T   T
  0.0838964741189592  0.7497985693095257  0.6410136420874558   T   T   T
  0.9166666865332829  0.1500000000001833  0.3605200052333331   F   F   F
  0.0833333358191695  0.0500000000120124  0.3605200052333331   F   F   F
  0.4166666269218169  0.0500000000120124  0.3605200052333331   F   F   F
  0.7499999404149307  0.0500000000120124  0.3605200052333331   F   F   F
  0.0834073184164998  0.1499109928076054  0.4536928325801060   T   T   T
  0.9166313768077212  0.0497228123911213  0.4538740773236996   T   T   T
  0.5836799216352173  0.0492965077191710  0.4543656732149859   T   T   T
  0.2500159591201246  0.0490682724466577  0.4541886828514743   T   T   T
  0.7499500634575816  0.0499345938675306  0.4536533765105535   T   T   T
  0.4167580667879155  0.0486503286236833  0.4546730694581065   T   T   T
  0.0832890687424954  0.0496120379414686  0.4539220849750638   T   T   T
  0.7499372607258673  0.1507191659279253  0.4544010377217904   T   T   T
  0.8333332538436267  0.0000000000000000  0.4070133268666680   F   F   F
  0.1666666716383389  0.0000000000000000  0.4070133268666680   F   F   F
  0.6666666865533486  0.0000000000000000  0.4070133268666680   F   F   F
  0.3333333432766779  0.0000000000000000  0.4070133268666680   F   F   F
  0.0000000000000000  0.0000000000000000  0.4070133268666680   F   F   F
  0.9166666865332829  0.0500000000120124  0.3605200052333331   F   F   F
  0.5833333134730552  0.0500000000120124  0.3605200052333331   F   F   F
  0.2499999999799343  0.0500000000120124  0.3605200052333331   F   F   F
  0.5000000000021103  0.0000000000000000  0.4070133268666680   F   F   F
  0.2512212535132550  0.2506309934192487  0.5473372680125639   T   T   T
  0.3983546549783326  0.6409067324897970  0.6524664114807105   T   T   T
  0.2523779337838798  0.6472254203301923  0.5442159128611821   T   T   T
  0.0833333358191695  0.4500000000005357  0.3605200052333331   F   F   F
  0.0833333358191695  0.2500000000242011  0.3605200052333331   F   F   F
  0.2499999999799343  0.5499999761504029  0.3605200052333331   F   F   F
  0.4166666269218169  0.5499999761504029  0.3605200052333331   F   F   F
  0.4166666269218169  0.7500000000008953  0.3605200052333331   F   F   F
  0.4166666269218169  0.9500000000130839  0.3605200052333331   F   F   F
  0.7499999404149307  0.3500000000123720  0.3605200052333331   F   F   F
  0.7499999404149307  0.5499999761504029  0.3605200052333331   F   F   F
  0.0833333358191695  0.6500000000127244  0.3605200052333331   F   F   F
  0.7499999404149307  0.7500000000008953  0.3605200052333331   F   F   F
  0.2499999999799343  0.3500000000123720  0.3605200052333331   F   F   F
  0.2499999999799343  0.7500000000008953  0.3605200052333331   F   F   F
  0.9166666865332829  0.9500000000130839  0.3605200052333331   F   F   F
  0.2499999999799343  0.9500000000130839  0.3605200052333331   F   F   F
  0.5833333134730552  0.3500000000123720  0.3605200052333331   F   F   F
  0.5833333134730552  0.5499999761504029  0.3605200052333331   F   F   F
  0.5833333134730552  0.7500000000008953  0.3605200052333331   F   F   F
  0.5833333134730552  0.9500000000130839  0.3605200052333331   F   F   F
  0.7499999404149307  0.9500000000130839  0.3605200052333331   F   F   F
  0.9166666865332829  0.3500000000123720  0.3605200052333331   F   F   F
  0.9166666865332829  0.4500000000005357  0.3605200052333331   F   F   F
  0.5833333134730552  0.8499999999890662  0.3605200052333331   F   F   F
  0.0833333358191695  0.9500000000130839  0.3605200052333331   F   F   F
  0.4166666269218169  0.3500000000123720  0.3605200052333331   F   F   F
  0.0833333358191695  0.8499999999890662  0.3605200052333331   F   F   F
  0.4166666269218169  0.2500000000242011  0.3605200052333331   F   F   F
  0.4166666269218169  0.4500000000005357  0.3605200052333331   F   F   F
  0.4166666269218169  0.6500000000127244  0.3605200052333331   F   F   F
  0.4166666269218169  0.8499999999890662  0.3605200052333331   F   F   F
  0.7499999404149307  0.2500000000242011  0.3605200052333331   F   F   F
  0.9166666865332829  0.2500000000242011  0.3605200052333331   F   F   F
  0.7499999404149307  0.4500000000005357  0.3605200052333331   F   F   F
  0.7499999404149307  0.8499999999890662  0.3605200052333331   F   F   F
  0.2499999999799343  0.2500000000242011  0.3605200052333331   F   F   F
  0.2499999999799343  0.4500000000005357  0.3605200052333331   F   F   F
  0.2499999999799343  0.6500000000127244  0.3605200052333331   F   F   F
  0.2499999999799343  0.8499999999890662  0.3605200052333331   F   F   F
  0.5833333134730552  0.2500000000242011  0.3605200052333331   F   F   F
  0.5833333134730552  0.4500000000005357  0.3605200052333331   F   F   F
  0.5833333134730552  0.6500000000127244  0.3605200052333331   F   F   F
  0.7499999404149307  0.6500000000127244  0.3605200052333331   F   F   F
  0.9166666865332829  0.5499999761504029  0.3605200052333331   F   F   F
  0.9166666865332829  0.7500000000008953  0.3605200052333331   F   F   F
  0.5831157390192906  0.2520685394178575  0.4537649521803514   T   T   T
  0.4168087774135874  0.3505225819499662  0.4542326869286905   T   T   T
  0.9161332652829308  0.4496613447061970  0.4539996648576113   T   T   T
  0.9160400817601695  0.2499074337269481  0.4542892680659517   T   T   T
  0.2510221585641858  0.5517795671973347  0.4552459074271215   T   T   T
  0.9162145175432643  0.6497853403614536  0.4539952734115133   T   T   T
  0.9161664553748318  0.8496121126742878  0.4542510580494776   T   T   T
  0.0837855016100296  0.3499511747995800  0.4537771353454249   T   T   T
  0.0832476323220823  0.5504069590000800  0.4537761564599435   T   T   T
  0.2516429277311627  0.7500678029450778  0.4560373342353813   T   T   T
  0.0837704646041796  0.9493832383009003  0.4536542328010645   T   T   T
  0.4171902157526834  0.5480328655601903  0.4540377470267033   T   T   T
  0.4171735714408551  0.7469833037673467  0.4544723803651026   T   T   T
  0.4173711434203043  0.9479218302978361  0.4542025733849399   T   T   T
  0.7502925197235183  0.3519050730304219  0.4556514983601639   T   T   T
  0.7497217713075097  0.5507993232198288  0.4561850490701623   T   T   T
  0.7486620816970280  0.7507471216538127  0.4571988756154042   T   T   T
  0.7494246274721887  0.9496923083445836  0.4547512572722420   T   T   T
  0.2499760291922933  0.3510912711611461  0.4544185862704400   T   T   T
  0.0846226281374891  0.7499847873706896  0.4535979272271068   T   T   T
  0.9164324081276853  0.9496072951976873  0.4537576744966008   T   T   T
  0.5828380023214754  0.3530854154137612  0.4561750919190213   T   T   T
  0.0000856518229572  0.2999366106423241  0.4987141864417675   T   T   T
  0.5845024332979089  0.6496299499404832  0.4550947975971841   T   T   T
  0.6653425903943847  0.7000623457572011  0.5031542605695850   T   T   T
  0.2506620206109810  0.9482054695010039  0.4536256849498629   T   T   T
  0.5826579531789429  0.5512606142960319  0.4563049991957557   T   T   T
  0.5827774340698393  0.7479817343801948  0.4543038833063006   T   T   T
  0.5827192121873168  0.9481271840612431  0.4537376163187563   T   T   T
  0.9158707222827551  0.3498282095278992  0.4536907639869270   T   T   T
  0.9158747768587563  0.5497591490539985  0.4539331305176038   T   T   T
  0.9150847790198724  0.7497189416797305  0.4535275332610836   T   T   T
  0.6657322788167861  0.5026285056573628  0.5034408809855971   T   T   T
  0.3340695259344397  0.5027832317163441  0.5030033583984416   T   T   T
  0.3354720175195707  0.7003692931361899  0.5040317225683649   T   T   T
  0.6659788694917760  0.3016871650671809  0.4998791806715068   T   T   T
  0.3335738702906073  0.8982066133294888  0.4995969761995508   T   T   T
  0.0001677374963058  0.8993438950935075  0.4993307575198503   T   T   T
  0.3335789756261954  0.3009101437905471  0.4988641664545092   T   T   T
  0.9998399005792687  0.7020508906893682  0.4975384861514791   T   T   T
 -0.0000414353658881  0.4992984908815837  0.4984265136678497   T   T   T
  0.5828792159838666  0.8470009889700297  0.4560585439724714   T   T   T
  0.0833333358191695  0.7500000000008953  0.3605200052333331   F   F   F
  0.2492803684606993  0.4512251173531580  0.5461782344828274   T   T   T
  0.2502321177792758  0.0481843587833545  0.6417562041431102   T   T   T
  0.3338201863829424  0.2000427606317697  0.5921192455557932   T   T   T
  0.9164148984116036  0.6503315216193581  0.5462667899295162   T   T   T
  0.5810004263101863  0.6476901734707906  0.5494388514652204   T   T   T
  0.5860074326341528  0.8517937858331605  0.5508521568756234   T   T   T
  0.5831468681708003  0.4485628661823231  0.5454263888319452   T   T   T
  0.5831228697252691  0.2496713144021677  0.5458981803229467   T   T   T
  0.2528968173951737  0.8497661726246821  0.5510773461605598   T   T   T
  0.4231459259496931  0.5547487042995973  0.5460866891779579   T   T   T
  0.7528341360114102  0.5477975887468660  0.5494774474568430   T   T   T
  0.7513304899911614  0.7446194944959241  0.5529187189950084   T   T   T
  0.7481576990110231  0.9477326157784605  0.5471706529433846   T   T   T
  0.9151937876946833  0.8497947029595687  0.5468648160219234   T   T   T
  0.2525524052289868  0.3510747062321920  0.5473073668111959   T   T   T
  0.9168841079812946  0.2506496981614367  0.5472495446606193   T   T   T
  0.1671596879640490  0.3001165604200324  0.4999247878621137   T   T   T
  0.5000000000021103  0.8000000000129006  0.4070133268666680   F   F   F
  0.5000000000021103  0.4000000000243773  0.4070133268666680   F   F   F
  0.5000000000021103  0.2000000000121887  0.4070133268666680   F   F   F
  0.1666666716383389  0.8000000000129006  0.4070133268666680   F   F   F
  0.1666666716383389  0.6000000000007191  0.4070133268666680   F   F   F
  0.1666666716383389  0.4000000000243773  0.4070133268666680   F   F   F
  0.1666666716383389  0.2000000000121887  0.4070133268666680   F   F   F
  0.6666666865533486  0.8000000000129006  0.4070133268666680   F   F   F
  0.1678194827773246  0.8987585151447202  0.4994753251170805   T   T   T
  0.5803947972146721  0.3476341688992894  0.5507801793999744   T   T   T
  0.2494724188230707  0.7466158858600938  0.5521194907822951   T   T   T
  0.1654198602080950  0.6026267164952435  0.5882241691234398   T   T   T
  0.0839250663415689  0.9504019325999271  0.5459492672332145   T   T   T
  0.4157258046911647  0.3527600498786544  0.5474674958534217   T   T   T
  0.0866345415158410  0.7511932720286474  0.5460220692011972   T   T   T
  0.0831078695424048  0.5502514839479785  0.5459687525156108   T   T   T
  0.0836510381614127  0.3506667663522746  0.5463728030534559   T   T   T
  0.4994753625333285  0.3011238802921083  0.4996448333422783   T   T   T
  0.9995152291562158  0.5990888647433901  0.5941761413041151   T   T   T
  0.9998236060405903  0.8020388479873941  0.5927994175890078   T   T   T
  0.3346962369252200  0.4040361428720854  0.5932709213574549   T   T   T
  0.4224088400600847  0.7502510758337536  0.5465973348474727   T   T   T
  0.9998763300201123  0.2001587820459284  0.5925248171947037   T   T   T
  0.0010439617092367  0.3998388450079892  0.5923124220460160   T   T   T
  0.3332865259610746  0.5969464709795064  0.5913666013532871   T   T   T
  0.3352605881892638  0.7922285462397464  0.5917647983645306   T   T   T
  0.6635838842797274  0.3977017916713350  0.5907494007633703   T   T   T
  0.0833333358191695  0.5499999761504029  0.3605200052333331   F   F   F
  0.6661789990566365  0.2000269151200026  0.5921222468495583   T   T   T
  0.6656145419792819  0.7932930999488234  0.5904668515507424   T   T   T
  0.6667806648279808  0.5950429276046195  0.5912339993592746   T   T   T
  0.1670642420572997  0.1994730837214234  0.5922625726712322   T   T   T
  0.1684473280120530  0.3985442320646823  0.5930495523017837   T   T   T
  0.1709216573861200  0.7992641685589109  0.5956523462762913   T   T   T
  0.2479509844744356  0.5487871256885698  0.5493268969566738   T   T   T
  0.6666666865533486  0.6000000000007191  0.4070133268666680   F   F   F
  0.6666666865533486  0.4000000000243773  0.4070133268666680   F   F   F
  0.6666666865533486  0.2000000000121887  0.4070133268666680   F   F   F
  0.3333333432766779  0.8000000000129006  0.4070133268666680   F   F   F
  0.4156253340883047  0.6469774378374885  0.4582023036385622   T   T   T
  0.4170874236283161  0.8470809889814933  0.4554918417843738   T   T   T
  0.7490157245277906  0.2515382471075042  0.4535389364571186   T   T   T
  0.7476187737480047  0.4511183251319095  0.4551864542801687   T   T   T
  0.7483722511440714  0.6513034755443091  0.4538744660762175   T   T   T
  0.7499724263490304  0.8499401377954838  0.4537450223431050   T   T   T
  0.4151681102552641  0.4490856716281734  0.4572383320299216   T   T   T
  0.2500967505553123  0.2503826718782727  0.4542999342552861   T   T   T
  0.2519366706827742  0.4517146364044436  0.4539175636133242   T   T   T
  0.2519440692994803  0.6518431665458351  0.4538051802270943   T   T   T
  0.2506176251588449  0.8482470177309931  0.4555645177053791   T   T   T
  0.8333332538436267  0.4000000000243773  0.4070133268666680   F   F   F
  0.5843816013898983  0.4524288830131939  0.4536797641298810   T   T   T
  0.8333332538436267  0.2000000000121887  0.4070133268666680   F   F   F
  0.4160649337125622  0.9484434895867301  0.5467040454003221   T   T   T
  0.4163525498352242  0.2502322157524536  0.4550461220849242   T   T   T
  0.9151652143825569  0.4496006366460289  0.5464871164474691   T   T   T
  0.0838718065671689  0.6504437280096715  0.4537595196750112   T   T   T
  0.0838714267897141  0.8493972926053498  0.4543776259648680   T   T   T
  0.3333333432766779  0.6000000000007191  0.4070133268666680   F   F   F
  0.3333333432766779  0.4000000000243773  0.4070133268666680   F   F   F
  0.3333333432766779  0.2000000000121887  0.4070133268666680   F   F   F
  0.0000000000000000  0.8000000000129006  0.4070133268666680   F   F   F
  0.0000000000000000  0.6000000000007191  0.4070133268666680   F   F   F
  0.0000000000000000  0.4000000000243773  0.4070133268666680   F   F   F
  0.7475026787338024  0.3470718286739400  0.5508635766202623   T   T   T
  0.0000000000000000  0.2000000000121887  0.4070133268666680   F   F   F
  0.0833333358191695  0.3500000000123720  0.3605200052333331   F   F   F
  0.5000000000021103  0.6000000000007191  0.4070133268666680   F   F   F
  0.8333332538436267  0.6000000000007191  0.4070133268666680   F   F   F
  0.8333332538436267  0.8000000000129006  0.4070133268666680   F   F   F
  0.0838835241978481  0.2498127997336600  0.4541924619225839   T   T   T
  0.0833047506087864  0.4498589076297843  0.4538561588389575   T   T   T
  0.8324795332570366  0.1002263945212609  0.6178299259837778   T   T   T
  0.3339972728995531  0.0984708749832740  0.6198681508594902   T   T   T
  0.6669900960663733  0.1006325132385541  0.6190176627986301   T   T   T