Au  C  H  O Sr Ti                       
   1.00000000000000     
    23.6707801818999997    0.0000000000000000    0.0000000000000000
     0.0000000000000000   27.8962826732999716    0.0000000000000000
     0.0000000000000000    0.0000000000000000   30.0000000000000000
   Au   C    H    O    Sr   Ti
    50     7    15   330    90    90
Selective dynamics
Direct
  0.7177909872043671  0.6198177961826705  0.7532173833508334   T   T   T
  0.7053088766147912  0.8056166711076453  0.6887563969819417   T   T   T
  0.6566503251917453  0.5531122082191130  0.8124697782063925   T   T   T
  0.3681418941117606  0.6943868160482446  0.8202283640159475   T   T   T
  0.5705777662105883  0.6084416998013301  0.8569214067300654   T   T   T
  0.6691639781032332  0.3538980089543732  0.7542965323273959   T   T   T
  0.4721666861381258  0.5610967274196237  0.8795945472013077   T   T   T
  0.5174565604302515  0.5013270102379006  0.7338380936711714   T   T   T
  0.2831408591696598  0.4706195697143915  0.7028928543327971   T   T   T
  0.6691759413287781  0.7447591637255210  0.7495216787202221   T   T   T
  0.3978862441609219  0.5060291901621348  0.6906816096515899   T   T   T
  0.6157734677204825  0.4542289770306742  0.6972442316722819   T   T   T
  0.3760411193090719  0.5939210909857775  0.8337827264276748   T   T   T
  0.3266869823803895  0.5315792661643939  0.7696918405152017   T   T   T
  0.4863878408333850  0.4149013277886347  0.7758340354591885   T   T   T
  0.4271099150102650  0.7589004509853340  0.6992788038010934   T   T   T
  0.7007550063867548  0.4745928876738965  0.7574437972617568   T   T   T
  0.7744514326727470  0.5423278133886216  0.7949045338098069   T   T   T
  0.2560415787038355  0.6742359250196200  0.6950198138628385   T   T   T
  0.6474864819340342  0.5532883621449307  0.6960424685585463   T   T   T
  0.5656772240214818  0.7123229814065631  0.8612027100604521   T   T   T
  0.5459193280655696  0.7314946017360110  0.7015950775178295   T   T   T
  0.3727963804414569  0.7898070648177230  0.7777883980406960   T   T   T
  0.4633957984902017  0.6591063677148015  0.8640143427271464   T   T   T
  0.4542948433303281  0.6639844745826076  0.7033099105789187   T   T   T
  0.4433147466978104  0.5794228483616954  0.7563290408586919   T   T   T
  0.2897921557191269  0.6293712539182937  0.7780914501851383   T   T   T
  0.5550418984636823  0.3681789102018490  0.7115358630245070   T   T   T
  0.6243584815162843  0.6538054864867126  0.7040717372739095   T   T   T
  0.7214527937548817  0.4041230946053108  0.6920929723565259   T   T   T
  0.2891288363739960  0.7972563613818267  0.6986100098229472   T   T   T
  0.5137818006959716  0.6838298734961232  0.7773420664026164   T   T   T
  0.5771021638943067  0.7810079228318343  0.7933054031686922   T   T   T
  0.5503375942186319  0.5081382625760533  0.8294625196243076   T   T   T
  0.2419795685543078  0.5747049310049365  0.7093710577570368   T   T   T
  0.2824293750362347  0.7290411113501986  0.7660823681828894   T   T   T
  0.5147171899157896  0.5864854355445445  0.6784309583432432   T   T   T
  0.5626250074927512  0.5887136878308113  0.7628781963059786   T   T   T
  0.6014944994060105  0.4305448720132132  0.7862244242433629   T   T   T
  0.7631096978161868  0.5434427077756179  0.7049957086378119   T   T   T
  0.3886481912291519  0.8518868506530912  0.7061202387261727   T   T   T
  0.4393703423887506  0.3823382711017188  0.6979492950844675   T   T   T
  0.4629730471900599  0.7563736872984792  0.8301314368719153   T   T   T
  0.4312086401022644  0.4976144821550106  0.8157437114265231   T   T   T
  0.3495971183462397  0.6016791405395722  0.6977062011032532   T   T   T
  0.3717285370605918  0.4392538349435986  0.7562166936619016   T   T   T
  0.5941943381494966  0.8278246738371112  0.7127651730976511   T   T   T
  0.6360548553713352  0.6662785161172555  0.8003800634184554   T   T   T
  0.7332562043948735  0.6924174768658493  0.6943740985908653   T   T   T
  0.4837204778331623  0.8241459768420158  0.7574422946851602   T   T   T
  0.7180752943942796  0.2902934386943660  0.7565839811826339   T   T   T
  0.6465125048890205  0.2518028549392891  0.8102476254010553   T   T   T
  0.5749878171108406  0.2127917098745823  0.8629442914235140   T   T   T
  0.6087097693915481  0.2083629591125025  0.8194486497440785   T   T   T
  0.5026969327623791  0.1746251594201215  0.9155204661932472   T   T   T
  0.6794546107754017  0.2483506621740157  0.7662243099313261   T   T   T
  0.5365525537867276  0.1697222484936241  0.8722354517955673   T   T   T
  0.7480486770154153  0.2981546184875040  0.7833127612077662   T   T   T
  0.4754950228440468  0.2063219552275356  0.9147188484704187   T   T   T
  0.7072260498319000  0.2165172990598905  0.7673386136444470   T   T   T
  0.6762608445151846  0.2567339757162775  0.8379229192149014   T   T   T
  0.6198504315895059  0.2841938690928855  0.8096397181460643   T   T   T
  0.6508005425134364  0.2420434511756789  0.7381727901209962   T   T   T
  0.5306975092130944  0.1780653624490135  0.9443718570654137   T   T   T
  0.5793561259454691  0.2034606384495794  0.7914587029696905   T   T   T
  0.6349004479077919  0.1759353197666678  0.8206285247427109   T   T   T
  0.6044128386985560  0.2173959494792947  0.8909739176887447   T   T   T
  0.5492479224900617  0.2454935545157431  0.8617681671225357   T   T   T
  0.5073113384848679  0.1651227546174073  0.8441816668025912   T   T   T
  0.4756898334281273  0.1434075658561940  0.9210404892805082   T   T   T
  0.7388471164916451  0.2883420033928036  0.7241847828410620   T   T   T
  0.5621623549197343  0.1370603015176023  0.8735775560399460   T   T   T
  0.5010640964058487  0.8044236345370168  0.5927016658975447   T   T   T
  0.8329792871598652  0.6024232871799479  0.5899753042954179   T   T   T
  0.8314943401559977  0.3975032294082846  0.5913783742402282   T   T   T
  0.8301648519678805  0.8001184107493668  0.5930964595497970   T   T   T
  0.5817485315750281  0.9479954215064810  0.6378229695526486   T   T   T
  0.8325719948859082  0.2022168209003374  0.5922822499207855   T   T   T
  0.9165494686619128  0.3491125123723062  0.6404054932702699   T   T   T
  0.5805870482076310  0.7473849121671370  0.6386247814055226   T   T   T
  0.5812793645523262  0.5498749090417383  0.6460371010704117   T   T   T
  0.1678018003951167  0.6997139457502006  0.5001265605164622   T   T   T
  0.4179695899154552  0.2522560972576193  0.6390646508105817   T   T   T
  0.7405055016681076  0.8476046205443982  0.6404041051854569   T   T   T
  0.4126367826293849  0.8500136228948046  0.6397185170500915   T   T   T
  0.5836461936206045  0.0506414176134976  0.6417204944498850   T   T   T
  0.7461287052033253  0.4479332158264680  0.6421417461277223   T   T   T
  0.1665167085278967  0.5007946772622758  0.4976878439148248   T   T   T
  0.0869231863940931  0.5497649142167417  0.6396912139572769   T   T   T
  0.0840887619312698  0.2486826373467262  0.6419776570580213   T   T   T
  0.0860390107183324  0.6497359908984184  0.6419068705990186   T   T   T
  0.6663589184326194  0.8990185440577214  0.4988680826993044   T   T   T
  0.0842863098606769  0.4499749339433074  0.6402998226187255   T   T   T
  0.7477720057932339  0.2537423363360267  0.6394468955919338   T   T   T
  0.7522801438784558  0.6557799630598287  0.6353499555384386   T   T   T
  0.4276046343099555  0.4441732052585266  0.6563832776146336   T   T   T
  0.8324802886592142  0.3002451291757033  0.5001206362060864   T   T   T
  0.7475970950452341  0.9474408160203235  0.6393804817146870   T   T   T
  0.8325161346611503  0.8997307606243404  0.4992576986834940   T   T   T
  0.4985173830746883  0.4028352811171053  0.5909795141631874   T   T   T
  0.4976394568086397  0.6031814455605751  0.6092405469647569   T   T   T
  0.2516779424476829  0.9499085539009173  0.5450456339463740   T   T   T
  0.5794552785710444  0.7488407963063344  0.5469764383462733   T   T   T
  0.5763558118536588  0.5483652372148814  0.5519693094751578   T   T   T
  0.9154198843714904  0.5494028632050006  0.5463524777438457   T   T   T
  0.9170462248634149  0.3511257418145334  0.5456411881352092   T   T   T
  0.5837652068481430  0.9507353541625363  0.5455654984184507   T   T   T
  0.9133949054667823  0.7508242594112527  0.5458981261123662   T   T   T
  0.9161164378418374  0.9505098711577926  0.5462222671313224   T   T   T
  0.0825647922527063  0.2502320165871418  0.5474969667357952   T   T   T
  0.0859780849176481  0.4503278421765535  0.5466719004645703   T   T   T
  0.0826307357784841  0.6509768391105318  0.5460612074417479   T   T   T
  0.0853692584407927  0.8499628038370769  0.5476137367600581   T   T   T
  0.4166928237110046  0.2522370962436322  0.5471446250047035   T   T   T
  0.4198573390266614  0.6519529574522223  0.5557812444556820   T   T   T
  0.4155857764186490  0.4552771810191140  0.5524545634444931   T   T   T
  0.7483170255521772  0.4492564569820689  0.5491073687132147   T   T   T
  0.7485663374824305  0.2483825926740627  0.5451286165052786   T   T   T
  0.4140992103609433  0.8489354573187246  0.5484649234160266   T   T   T
  0.7470087653407051  0.6462585678646616  0.5448673928052650   T   T   T
  0.4999922144963597  0.1998469992739294  0.5916624217574257   T   T   T
  0.8327345341874639  0.4984219286009927  0.4995899248648247   T   T   T
  0.7535287141398487  0.7542280886813606  0.6576959988061841   T   T   T
  0.2537050481123072  0.3491092522253069  0.6407250858498726   T   T   T
  0.8323071408603059  0.6989443585450398  0.5001463155250381   T   T   T
  0.5002633546220101  0.6962368913726258  0.5002116056068753   T   T   T
  0.5000222370535370  0.8980093505014813  0.5010367370299600   T   T   T
  0.4995531440184315  0.4982457382553862  0.5001088361264489   T   T   T
  0.9166666865332829  0.6500000000127244  0.3605200052333331   F   F   F
  0.2508238815501436  0.2487774394711968  0.6413859585714534   T   T   T
  0.2486889751610979  0.4527246448613641  0.6420171440973826   T   T   T
  0.2614840626733137  0.8403363814656271  0.6467878853345450   T   T   T
  0.2476458408180597  0.6591057652099379  0.6290820120313465   T   T   T
  0.5917237030207255  0.6510233126613895  0.6398351652142947   T   T   T
  0.5846092385683280  0.4558490395242535  0.6341491500754971   T   T   T
  0.5828408097276734  0.2525584249032314  0.6388359261430514   T   T   T
  0.9143531170352702  0.8500586787371829  0.6415047685589105   T   T   T
  0.9147422145554250  0.4496366094185931  0.6391188066203386   T   T   T
  0.9136013496301881  0.6490599464350689  0.6425492862359322   T   T   T
  0.9162045774354478  0.2504497136189640  0.6415347655515045   T   T   T
  0.5893748923879975  0.8478042058895158  0.6459340033268949   T   T   T
  0.4215894729539801  0.7409310112627211  0.6338045577906324   T   T   T
  0.4174401844421206  0.9474681020918089  0.6389925692754225   T   T   T
  0.7542692672806709  0.5468954505065297  0.6385878806960179   T   T   T
  0.7459763026404461  0.3539807029956035  0.6465156428855732   T   T   T
  0.0839791477085768  0.3488799229212279  0.6415756828514853   T   T   T
  0.4184798377632082  0.3503932349525150  0.6401152094186719   T   T   T
  0.4166666269218169  0.1500000000001833  0.3605200052333331   F   F   F
  0.0844473641312286  0.9487768063540392  0.6406634465999009   T   T   T
  0.4171213547402211  0.0501929756890348  0.5473876262416713   T   T   T
  0.0837266338720765  0.0498104542333604  0.5466492395314070   T   T   T
  0.9161734060251295  0.1507411458246363  0.5462940560019705   T   T   T
  0.5828480623267764  0.1498791204645142  0.5474740260784415   T   T   T
  0.2500508622913560  0.1501967641591596  0.5465191787795707   T   T   T
  0.7500329664408951  0.1486638593834289  0.5479507610195237   T   T   T
  0.4166186563326101  0.1508414052957583  0.5464226359018495   T   T   T
  0.0835820119847710  0.1505237861442109  0.5462999337135386   T   T   T
  0.4999640701110109  0.1000927963533319  0.4989474716882744   T   T   T
  0.8332496416291786  0.0999290636130057  0.4988427832899471   T   T   T
  0.1667491470075007  0.0998010376324164  0.4986906241762943   T   T   T
  0.6665527072120947  0.0999941743765752  0.4991506691290881   T   T   T
  0.3334857419830937  0.0998749191191801  0.4990932229709211   T   T   T
  0.0000371873517418  0.1000201269873591  0.4991004969392457   T   T   T
  0.9166296000094433  0.1500317397734605  0.4537614753628337   T   T   T
  0.7501062491068278  0.0486629658229345  0.5461886835301164   T   T   T
  0.2500053818642932  0.0499165074730164  0.5469707362760652   T   T   T
  0.5827039374541907  0.0502488172209403  0.5472062447859110   T   T   T
  0.9163294984731661  0.0499848488742291  0.5466100474202551   T   T   T
  0.9157603971722180  0.0500039579251988  0.6402553648524848   T   T   T
  0.7500769311143699  0.1510663464451980  0.6417214836807918   T   T   T
  0.2504988319111149  0.1484324397957516  0.6412493220552269   T   T   T
  0.9157334139886235  0.1499074042456378  0.6403798772317771   T   T   T
  0.5833354203525771  0.1504491282431186  0.6424708065647297   T   T   T
  0.4165154276148657  0.1499191646559287  0.6415736368953782   T   T   T
  0.0831586356202388  0.1484381644955494  0.6405295171121185   T   T   T
  0.5834187919327924  0.1508034088060995  0.4544862283528989   T   T   T
  0.0831540308054795  0.0491525795919676  0.6408006024267068   T   T   T
  0.4172195088526217  0.0496239277554274  0.6426201882115571   T   T   T
  0.8325488095553439 -0.0019012234031607  0.5921129886003966   T   T   T
  0.4997939397599090  0.0004087696042824  0.5915720635048223   T   T   T
  0.1673747801315151 -0.0012352277852412  0.5922853074737061   T   T   T
  0.6660401816662896  0.0000838999011340  0.5917976943108534   T   T   T
 -0.0001161811220730 -0.0008801615588218  0.5921997910305019   T   T   T
  0.3339861269481758 -0.0000670342789267  0.5919135989663213   T   T   T
  0.7497202008481733  0.0499624402591085  0.6407333788014977   T   T   T
  0.4153518417765446  0.5348569220766689  0.6301040310363364   T   T   T
  0.2500661849167046  0.1499048656042545  0.4537368314682812   T   T   T
  0.4167040824850388  0.1501437666760100  0.4538701733325802   T   T   T
  0.5833333134730552  0.1500000000001833  0.3605200052333331   F   F   F
  0.2499999999799343  0.1500000000001833  0.3605200052333331   F   F   F
  0.7499999404149307  0.1500000000001833  0.3605200052333331   F   F   F
  0.7479230873922352  0.8469564947636992  0.5462881169291260   T   T   T
  0.0833333358191695  0.1500000000001833  0.3605200052333331   F   F   F
  0.9166666865332829  0.8499999999890662  0.3605200052333331   F   F   F
  0.0842897812856882  0.8495409224054751  0.6420126132082563   T   T   T
  0.2520022158665367  0.9453161161966326  0.6373580703156541   T   T   T
  0.5798665084805391  0.3526516177107348  0.6451040316592861   T   T   T
  0.2514025537797485  0.7418068666504156  0.6644933053646099   T   T   T
  0.2405492220566960  0.5537388191949389  0.6417366161563364   T   T   T
  0.9157482320659887  0.9494839796618759  0.6410740413548371   T   T   T
  0.9155107253185699  0.7499454344188761  0.6404665861703681   T   T   T
  0.9124481672366836  0.5485995347673414  0.6394506179646829   T   T   T
  0.0834719041895514  0.7495854247421658  0.6406318388420287   T   T   T
  0.9166666865332829  0.1500000000001833  0.3605200052333331   F   F   F
  0.0833333358191695  0.0500000000120124  0.3605200052333331   F   F   F
  0.4166666269218169  0.0500000000120124  0.3605200052333331   F   F   F
  0.7499999404149307  0.0500000000120124  0.3605200052333331   F   F   F
  0.0833944892142538  0.1499300751390163  0.4537208977789606   T   T   T
  0.9166742918869099  0.0497780254490176  0.4538935091004251   T   T   T
  0.5836453165712204  0.0494266275562086  0.4543343524852385   T   T   T
  0.2502330734322626  0.0490445732755393  0.4542579835616519   T   T   T
  0.7499465009082813  0.0499556196478742  0.4536505356588880   T   T   T
  0.4167608065588628  0.0488842762676487  0.4545703495904989   T   T   T
  0.0832389539622002  0.0496302093481972  0.4539737085952376   T   T   T
  0.7499774569905693  0.1507626208361034  0.4545726868337677   T   T   T
  0.8333332538436267  0.0000000000000000  0.4070133268666680   F   F   F
  0.1666666716383389  0.0000000000000000  0.4070133268666680   F   F   F
  0.6666666865533486  0.0000000000000000  0.4070133268666680   F   F   F
  0.3333333432766779  0.0000000000000000  0.4070133268666680   F   F   F
  0.0000000000000000  0.0000000000000000  0.4070133268666680   F   F   F
  0.9166666865332829  0.0500000000120124  0.3605200052333331   F   F   F
  0.5833333134730552  0.0500000000120124  0.3605200052333331   F   F   F
  0.2499999999799343  0.0500000000120124  0.3605200052333331   F   F   F
  0.5000000000021103  0.0000000000000000  0.4070133268666680   F   F   F
  0.2512212195735657  0.2506356612409449  0.5473439320917532   T   T   T
  0.3986568393208690  0.6410360508707849  0.6523596472882141   T   T   T
  0.2524331789773750  0.6471970153952169  0.5441904430951352   T   T   T
  0.0833333358191695  0.4500000000005357  0.3605200052333331   F   F   F
  0.0833333358191695  0.2500000000242011  0.3605200052333331   F   F   F
  0.2499999999799343  0.5499999761504029  0.3605200052333331   F   F   F
  0.4166666269218169  0.5499999761504029  0.3605200052333331   F   F   F
  0.4166666269218169  0.7500000000008953  0.3605200052333331   F   F   F
  0.4166666269218169  0.9500000000130839  0.3605200052333331   F   F   F
  0.7499999404149307  0.3500000000123720  0.3605200052333331   F   F   F
  0.7499999404149307  0.5499999761504029  0.3605200052333331   F   F   F
  0.0833333358191695  0.6500000000127244  0.3605200052333331   F   F   F
  0.7499999404149307  0.7500000000008953  0.3605200052333331   F   F   F
  0.2499999999799343  0.3500000000123720  0.3605200052333331   F   F   F
  0.2499999999799343  0.7500000000008953  0.3605200052333331   F   F   F
  0.9166666865332829  0.9500000000130839  0.3605200052333331   F   F   F
  0.2499999999799343  0.9500000000130839  0.3605200052333331   F   F   F
  0.5833333134730552  0.3500000000123720  0.3605200052333331   F   F   F
  0.5833333134730552  0.5499999761504029  0.3605200052333331   F   F   F
  0.5833333134730552  0.7500000000008953  0.3605200052333331   F   F   F
  0.5833333134730552  0.9500000000130839  0.3605200052333331   F   F   F
  0.7499999404149307  0.9500000000130839  0.3605200052333331   F   F   F
  0.9166666865332829  0.3500000000123720  0.3605200052333331   F   F   F
  0.9166666865332829  0.4500000000005357  0.3605200052333331   F   F   F
  0.5833333134730552  0.8499999999890662  0.3605200052333331   F   F   F
  0.0833333358191695  0.9500000000130839  0.3605200052333331   F   F   F
  0.4166666269218169  0.3500000000123720  0.3605200052333331   F   F   F
  0.0833333358191695  0.8499999999890662  0.3605200052333331   F   F   F
  0.4166666269218169  0.2500000000242011  0.3605200052333331   F   F   F
  0.4166666269218169  0.4500000000005357  0.3605200052333331   F   F   F
  0.4166666269218169  0.6500000000127244  0.3605200052333331   F   F   F
  0.4166666269218169  0.8499999999890662  0.3605200052333331   F   F   F
  0.7499999404149307  0.2500000000242011  0.3605200052333331   F   F   F
  0.9166666865332829  0.2500000000242011  0.3605200052333331   F   F   F
  0.7499999404149307  0.4500000000005357  0.3605200052333331   F   F   F
  0.7499999404149307  0.8499999999890662  0.3605200052333331   F   F   F
  0.2499999999799343  0.2500000000242011  0.3605200052333331   F   F   F
  0.2499999999799343  0.4500000000005357  0.3605200052333331   F   F   F
  0.2499999999799343  0.6500000000127244  0.3605200052333331   F   F   F
  0.2499999999799343  0.8499999999890662  0.3605200052333331   F   F   F
  0.5833333134730552  0.2500000000242011  0.3605200052333331   F   F   F
  0.5833333134730552  0.4500000000005357  0.3605200052333331   F   F   F
  0.5833333134730552  0.6500000000127244  0.3605200052333331   F   F   F
  0.7499999404149307  0.6500000000127244  0.3605200052333331   F   F   F
  0.9166666865332829  0.5499999761504029  0.3605200052333331   F   F   F
  0.9166666865332829  0.7500000000008953  0.3605200052333331   F   F   F
  0.5832497231348286  0.2516308171656838  0.4539427459996079   T   T   T
  0.4168749392681060  0.3504731532520581  0.4541976314359170   T   T   T
  0.9161869863377011  0.4496814125463367  0.4539789217619130   T   T   T
  0.9159328557831506  0.2499327998925145  0.4543870900022358   T   T   T
  0.2510649408687068  0.5518512683301252  0.4552762493981953   T   T   T
  0.9162253222654337  0.6497653701588145  0.4540029301202096   T   T   T
  0.9162320782701808  0.8495336150226367  0.4542888321414923   T   T   T
  0.0838027761706194  0.3499533762605428  0.4537709169316975   T   T   T
  0.0832169455406089  0.5503691606490340  0.4538363116930912   T   T   T
  0.2516373585535872  0.7500799626727492  0.4560728786718387   T   T   T
  0.0838778841106104  0.9493033797189587  0.4535859727520271   T   T   T
  0.4172062567086820  0.5480918699261580  0.4540534198781762   T   T   T
  0.4171577823828701  0.7469850878429933  0.4544715390643032   T   T   T
  0.4172924078580479  0.9479160663430549  0.4541426441470482   T   T   T
  0.7503366959313931  0.3519422510451993  0.4556285366634255   T   T   T
  0.7497454269684873  0.5508216851190751  0.4562512243902551   T   T   T
  0.7489102400509542  0.7506888602386806  0.4571046336690406   T   T   T
  0.7491496919043900  0.9498005606479850  0.4548685815736132   T   T   T
  0.2500050385414647  0.3511101404677613  0.4544778468926406   T   T   T
  0.0848317555658918  0.7499388415105083  0.4535198413571971   T   T   T
  0.9165489078636584  0.9495498171642381  0.4537225272294206   T   T   T
  0.5828013898756338  0.3527315813990464  0.4559453649318457   T   T   T
  0.0000775857282586  0.2999807481985089  0.4986962737628250   T   T   T
  0.5844965296991871  0.6496341521154839  0.4551079177027966   T   T   T
  0.6654039992061966  0.7000349829701394  0.5031049357031159   T   T   T
  0.2506186134265310  0.9482298332196786  0.4536856175478404   T   T   T
  0.5827049524727195  0.5511291190219774  0.4562600495250972   T   T   T
  0.5827328023529577  0.7480262505554613  0.4543664953203635   T   T   T
  0.5826480985539465  0.9482214001975757  0.4537020359790316   T   T   T
  0.9158711531410554  0.3498547745980568  0.4536740619168835   T   T   T
  0.9159836865921810  0.5497598356343391  0.4540302461289819   T   T   T
  0.9151427216166325  0.7496931385451280  0.4535479794651726   T   T   T
  0.6658436219442467  0.5027829000846067  0.5034842690611355   T   T   T
  0.3340473166578006  0.5027511004324269  0.5030055467028813   T   T   T
  0.3355136536450971  0.7004043859779276  0.5040728571161984   T   T   T
  0.6659658936979898  0.3018285077079289  0.4997691026355571   T   T   T
  0.3335276841908013  0.8981924602192647  0.4995034508204259   T   T   T
  0.0001276130965221  0.8994233345360888  0.4994425557100787   T   T   T
  0.3336340722902585  0.3009261109988389  0.4988002394582045   T   T   T
  0.9999127099635083  0.7019904831348690  0.4974592576262019   T   T   T
  0.0000064175384572  0.4991645223531127  0.4986100685973987   T   T   T
  0.5829440521208389  0.8470603889426064  0.4560358157618998   T   T   T
  0.0833333358191695  0.7500000000008953  0.3605200052333331   F   F   F
  0.2492992428163000  0.4512196432517150  0.5461607830514986   T   T   T
  0.2504926910704472  0.0483366785497317  0.6417982193725578   T   T   T
  0.3338254930017353  0.2000245568955623  0.5921161899807005   T   T   T
  0.9164369585919762  0.6502680887483260  0.5463018541930201   T   T   T
  0.5809820575321399  0.6477860226623252  0.5494708268640944   T   T   T
  0.5860609943105680  0.8519003809584339  0.5508781815307275   T   T   T
  0.5833860091881277  0.4487680063516730  0.5456277355072484   T   T   T
  0.5832343838045446  0.2497294544049272  0.5459138442001698   T   T   T
  0.2531783442871851  0.8498043571080074  0.5512109388867547   T   T   T
  0.4232644963156903  0.5547789998460008  0.5459931784633413   T   T   T
  0.7528373509963813  0.5477302116645938  0.5496568366955837   T   T   T
  0.7512914023759345  0.7446537385821925  0.5528454263581125   T   T   T
  0.7482717744648953  0.9477432497335657  0.5470983790764399   T   T   T
  0.9149746666497545  0.8499523534608109  0.5468695176415016   T   T   T
  0.2524931096412103  0.3510679530746385  0.5472854737326547   T   T   T
  0.9170923115751151  0.2507330336366384  0.5473847208551589   T   T   T
  0.1671240871424531  0.3000631391992257  0.4999435156806138   T   T   T
  0.5000000000021103  0.8000000000129006  0.4070133268666680   F   F   F
  0.5000000000021103  0.4000000000243773  0.4070133268666680   F   F   F
  0.5000000000021103  0.2000000000121887  0.4070133268666680   F   F   F
  0.1666666716383389  0.8000000000129006  0.4070133268666680   F   F   F
  0.1666666716383389  0.6000000000007191  0.4070133268666680   F   F   F
  0.1666666716383389  0.4000000000243773  0.4070133268666680   F   F   F
  0.1666666716383389  0.2000000000121887  0.4070133268666680   F   F   F
  0.6666666865533486  0.8000000000129006  0.4070133268666680   F   F   F
  0.1678508831312803  0.8986982922852409  0.4994704795065143   T   T   T
  0.5799006806536009  0.3478949985669163  0.5504527113823919   T   T   T
  0.2492461754550240  0.7465595462988516  0.5522207975192682   T   T   T
  0.1654374970608806  0.6027156991018301  0.5881516000714322   T   T   T
  0.0840256356723187  0.9504312097478448  0.5459679559296108   T   T   T
  0.4157654397731217  0.3527029601702283  0.5474645623364534   T   T   T
  0.0868152149820853  0.7514483312296037  0.5458265512907382   T   T   T
  0.0831240513013548  0.5502193669652254  0.5460082164765964   T   T   T
  0.0836195382151387  0.3506806872728124  0.5464154947234807   T   T   T
  0.4994451345618819  0.3008496641283300  0.4995755109012412   T   T   T
  0.9995345915269602  0.5990767763639453  0.5942313577377031   T   T   T
  0.9997090591064568  0.8020071056999759  0.5926265109931859   T   T   T
  0.3346788556154658  0.4039701428595202  0.5932444075234538   T   T   T
  0.4225127773685032  0.7503341635390210  0.5465271595488274   T   T   T
  0.9998405048412008  0.2001207960842031  0.5925959237046181   T   T   T
  0.0009931669452725  0.3998430302727587  0.5923049809304918   T   T   T
  0.3333572074559196  0.5969383936749281  0.5913597120312141   T   T   T
  0.3352335288052481  0.7920242577389004  0.5918254931096493   T   T   T
  0.6635454379986628  0.3974800659307552  0.5906931866765226   T   T   T
  0.0833333358191695  0.5499999761504029  0.3605200052333331   F   F   F
  0.6662866711856527  0.2001523146798280  0.5921352571933595   T   T   T
  0.6656445315910529  0.7933512907576626  0.5905056638565087   T   T   T
  0.6667777290249370  0.5950218742417781  0.5910594587594964   T   T   T
  0.1670014557383086  0.1996444140664640  0.5921947290695525   T   T   T
  0.1684433542545009  0.3986412057540568  0.5930254086735378   T   T   T
  0.1708734035898572  0.7993935695349598  0.5957432120706978   T   T   T
  0.2479743988757715  0.5487710527699130  0.5492601486507933   T   T   T
  0.6666666865533486  0.6000000000007191  0.4070133268666680   F   F   F
  0.6666666865533486  0.4000000000243773  0.4070133268666680   F   F   F
  0.6666666865533486  0.2000000000121887  0.4070133268666680   F   F   F
  0.3333333432766779  0.8000000000129006  0.4070133268666680   F   F   F
  0.4157188375849010  0.6470230343500577  0.4581936987009521   T   T   T
  0.4170992735772814  0.8470648390191498  0.4554983134389508   T   T   T
  0.7491608975124247  0.2515155263493815  0.4535188320250945   T   T   T
  0.7475307941445622  0.4511977905880449  0.4551948493270782   T   T   T
  0.7483279955639333  0.6513023744387755  0.4537979949802970   T   T   T
  0.7499583687339840  0.8499434276845548  0.4537292706214482   T   T   T
  0.4151909099888798  0.4490855767696987  0.4572334405336305   T   T   T
  0.2501791103430906  0.2504301273950030  0.4542426214017850   T   T   T
  0.2519975948100946  0.4518062183070525  0.4538424735600292   T   T   T
  0.2519813695643793  0.6518753807824025  0.4538283553219477   T   T   T
  0.2505370769537014  0.8481830672838813  0.4556183925964372   T   T   T
  0.8333332538436267  0.4000000000243773  0.4070133268666680   F   F   F
  0.5844786014388184  0.4521726296827894  0.4539345965761767   T   T   T
  0.8333332538436267  0.2000000000121887  0.4070133268666680   F   F   F
  0.4160069005210854  0.9485156034452126  0.5466439211804529   T   T   T
  0.4164083423752676  0.2502253858798550  0.4549826687215385   T   T   T
  0.9150733842888409  0.4495911388852988  0.5464813257882881   T   T   T
  0.0840950847980244  0.6503627177735913  0.4537896031198109   T   T   T
  0.0837845729396691  0.8493228232812392  0.4544495049285087   T   T   T
  0.3333333432766779  0.6000000000007191  0.4070133268666680   F   F   F
  0.3333333432766779  0.4000000000243773  0.4070133268666680   F   F   F
  0.3333333432766779  0.2000000000121887  0.4070133268666680   F   F   F
  0.0000000000000000  0.8000000000129006  0.4070133268666680   F   F   F
  0.0000000000000000  0.6000000000007191  0.4070133268666680   F   F   F
  0.0000000000000000  0.4000000000243773  0.4070133268666680   F   F   F
  0.7475230361295984  0.3470858043269706  0.5508659367046912   T   T   T
  0.0000000000000000  0.2000000000121887  0.4070133268666680   F   F   F
  0.0833333358191695  0.3500000000123720  0.3605200052333331   F   F   F
  0.5000000000021103  0.6000000000007191  0.4070133268666680   F   F   F
  0.8333332538436267  0.6000000000007191  0.4070133268666680   F   F   F
  0.8333332538436267  0.8000000000129006  0.4070133268666680   F   F   F
  0.0839010776048673  0.2497974530511431  0.4542777623550401   T   T   T
  0.0832944357109352  0.4498378279349266  0.4538395128727531   T   T   T
  0.8325413884113200  0.1002074271700405  0.6179565493718180   T   T   T
  0.3336774838919554  0.0987788668036526  0.6191911619290622   T   T   T
  0.6670223936778876  0.1006415531846627  0.6184872845373360   T   T   T