Au  O Sr Ti                             
   1.00000000000000     
    23.6707801818999997    0.0000000000000000    0.0000000000000000
     0.0000000000000000   22.3170261383000010    0.0000000000000000
     0.0000000000000000    0.0000000000000000   30.0000000000000000
   Au   O    Sr   Ti
    50   264    72    72
Selective dynamics
Direct
  0.7192534753586770  0.5252366374776472  0.7539417741787346   F   F   F
  0.6258271438847700  0.5655452259025040  0.7038498476115009   F   F   F
  0.7188078528563153  0.2589371455221254  0.6916862842572442   F   F   F
  0.2881486733026861  0.7448847172005983  0.6993499164048345   F   F   F
  0.5151716261319450  0.6040857970629574  0.7770721051886724   F   F   F
  0.5770263822446111  0.7258634327339948  0.7922466974165943   F   F   F
  0.5504486490629219  0.3843972096123451  0.8296574423076066   F   F   F
  0.2429620268100905  0.4670256339772365  0.7091151212353708   F   F   F
  0.2820527826064563  0.6600531835439583  0.7665913539464739   F   F   F
  0.6023765451839296  0.2886385647888972  0.7880741658252859   F   F   F
  0.5149460449547618  0.4828252207890174  0.6780624142787843   F   F   F
  0.5625746479747207  0.4856622956333538  0.7627896376129399   F   F   F
  0.4637630023058321  0.6949396338042391  0.8297479594153288   F   F   F
  0.7644823502083113  0.4301781845405515  0.7055400597339627   F   F   F
  0.7338663331821280  0.6156263946883911  0.6940742361821819   F   F   F
  0.6366797017818016  0.5829484822543805  0.8001944478557235   F   F   F
  0.5944639165073085  0.7853438070161047  0.7124411327319180   F   F   F
  0.4830282791682947  0.7800896942549969  0.7575472229434226   F   F   F
  0.3500693780769240  0.5022442586717091  0.6973142092987814   F   F   F
  0.4313216529614934  0.3719014060376296  0.8158313961418244   F   F   F
  0.3729453290757974  0.2986850793355273  0.7558763178529517   F   F   F
  0.4406708611158479  0.2285276306274042  0.6970897548259316   F   F   F
  0.3868067600473211  0.8136961001872152  0.7060540722742630   F   F   F
  0.2901388062618935  0.5357342453376575  0.7778280701109139   F   F   F
  0.5550883654354877  0.2071065041476459  0.7117462628399949   F   F   F
  0.4551073203528944  0.5799933823424013  0.7031756070737458   F   F   F
  0.6131145078096552  0.3181179773992255  0.6979357227411640   F   F   F
  0.7052381773914647  0.7576163037557677  0.6884629745371527   F   F   F
  0.6565318040747030  0.4412433563820599  0.8124881807049533   F   F   F
  0.3686689754048160  0.6176664176907991  0.8201529707387252   F   F   F
  0.5714073054075328  0.5101826760279593  0.8570633516854329   F   F   F
  0.6644139448271034  0.1939009746910613  0.7515932875624096   T   T   T
  0.4726633171102108  0.4510534867672220  0.8794804202092905   F   F   F
  0.5161431488738870  0.3770158493664084  0.7342267866577643   F   F   F
  0.2839569361222303  0.3372127080556737  0.7026906425341792   F   F   F
  0.6695691963426924  0.6808962551085571  0.7490864641269326   F   F   F
  0.3981024806497118  0.3825809695529401  0.6906056972379986   F   F   F
  0.3762914123603167  0.4921460902463153  0.8336190042350538   F   F   F
  0.4641057650839286  0.5735440860306156  0.8633306685658013   F   F   F
  0.3270089698552354  0.4136617191825280  0.7696334676165364   F   F   F
  0.4874077356619679  0.2680720902691505  0.7752452728548604   F   F   F
  0.4296094636301433  0.6990977384775263  0.6987971453815192   F   F   F
  0.6999491413714267  0.3455235956616178  0.7568218666488349   F   F   F
  0.7744770530566711  0.4280894336569645  0.7960067871545533   F   F   F
  0.2554191053707839  0.5918582213053867  0.6953747642055248   F   F   F
  0.6474316512038456  0.4395155572116138  0.6975783531429443   F   F   F
  0.5663429677283460  0.6406065024051415  0.8608709920336253   F   F   F
  0.5478872908016470  0.6639635890267712  0.7016586532223386   F   F   F
  0.4431409893239149  0.4746826311756678  0.7561688178518935   F   F   F
  0.3726953628146106  0.7354249284962009  0.7774762489895934   F   F   F
  0.2499808989874523  0.1886295007674761  0.4542485050001730   F   F   F
  0.7494165660124139  0.9384903686994761  0.4553192499835461   F   F   F
  0.7490175538808472  0.6886218115889946  0.4572545885771717   F   F   F
  0.7494965500117203  0.4382960607680673  0.4557690151390972   F   F   F
  0.7500694252699844  0.1897251812524985  0.4555944350660397   F   F   F
  0.4174663298552659  0.9357210160580536  0.4540753798447028   F   F   F
  0.4168647278336124  0.6846149473511502  0.4547878583847975   F   F   F
  0.4170022407953198  0.4354998028661754  0.4540077968417364   F   F   F
  0.0843662728818018  0.6868992450748692  0.4531015096322761   F   F   F
  0.0837807034801870  0.9365162834064407  0.4534673199067640   F   F   F
  0.0832390267129881  0.4371273006090703  0.4531791840008168   F   F   F
  0.0838477748031963  0.1866779054460892  0.4530073989295857   F   F   F
  0.9165218121230936  0.8120172145277280  0.4540735889079244   F   F   F
  0.9161229398060513  0.5624602487420276  0.4536958183082120   F   F   F
  0.2511590352631572  0.4393490596957008  0.4550453109863000   F   F   F
  0.9161429660337745  0.0621129890515277  0.4541002868988215   F   F   F
  0.9162972467935475  0.3122786927529546  0.4538124434003095   F   F   F
  0.4169918843413356  0.1871853313264751  0.4536527231835237   F   F   F
  0.2524293836126361  0.6872825355232166  0.4561695616533683   F   F   F
  0.9168079266255660  0.9367539007950541  0.4532684628218675   F   F   F
  0.5826242169168481  0.1890852252936526  0.4551040105708992   F   F   F
  0.0001433596119682  0.1250988320211945  0.4983089242262153   F   F   F
  0.5835919138323362  0.8099206646774277  0.4554470461235880   F   F   F
  0.0000149001050431  0.3738111278865546  0.4986176305245991   F   F   F
  0.9997672096940136  0.6269443319275965  0.4976730674310730   F   F   F
  0.3335026318511751  0.1250514565947043  0.4983868707419887   F   F   F
  0.9999822636776017  0.8746606003394390  0.4996102472413568   F   F   F
  0.3335243152646683  0.8737449291337782  0.4987803475328789   F   F   F
  0.6659633022639753  0.1259020897851784  0.4991881111016738   F   F   F
  0.3357598560613155  0.6250988708316143  0.5044125094635277   F   F   F
  0.3343714539065843  0.3785003391874611  0.5029770971964140   F   F   F
  0.6655823814808883  0.3784670114687003  0.5032926147582231   F   F   F
  0.9153294419063513  0.6867301558696539  0.4529992819223025   F   F   F
  0.9161218129366731  0.4371961333837291  0.4537342507985969   F   F   F
  0.9158915315337097  0.1869539457033511  0.4532293119238844   F   F   F
  0.5825418704460503  0.9360602282623560  0.4538423007577919   F   F   F
  0.5828664354024298  0.6859456021618300  0.4545453182273960   F   F   F
  0.5824689052908596  0.4385800012087344  0.4559120533355525   F   F   F
  0.2499987226350981  0.9358360972555246  0.4539831975632964   F   F   F
  0.6654090051154000  0.6258805019281510  0.5029050764738372   F   F   F
  0.5845563702005236  0.5622662255150104  0.4550824122994186   F   F   F
  0.5829082020894418  0.0623635033483225  0.4547299965910838   F   F   F
  0.9166666865332829  0.6874999999963620  0.3605200052333331   F   F   F
  0.9166666865332829  0.4374999701794380  0.3605200052333331   F   F   F
  0.9166666865332829  0.1875000000030838  0.3605200052333331   F   F   F
  0.5833333134730552  0.9375000000154046  0.3605200052333331   F   F   F
  0.5833333134730552  0.6874999999963620  0.3605200052333331   F   F   F
  0.5833333134730552  0.4374999701794380  0.3605200052333331   F   F   F
  0.5833333134730552  0.1875000000030838  0.3605200052333331   F   F   F
  0.2499999999799343  0.9375000000154046  0.3605200052333331   F   F   F
  0.9166666865332829  0.9375000000154046  0.3605200052333331   F   F   F
  0.2499999999799343  0.6874999999963620  0.3605200052333331   F   F   F
  0.2499999999799343  0.1875000000030838  0.3605200052333331   F   F   F
  0.7499999404149307  0.9375000000154046  0.3605200052333331   F   F   F
  0.7499999404149307  0.6874999999963620  0.3605200052333331   F   F   F
  0.7499999404149307  0.4374999701794380  0.3605200052333331   F   F   F
  0.7499999404149307  0.1875000000030838  0.3605200052333331   F   F   F
  0.4166666269218169  0.9375000000154046  0.3605200052333331   F   F   F
  0.4166666269218169  0.6874999999963620  0.3605200052333331   F   F   F
  0.4166666269218169  0.4374999701794380  0.3605200052333331   F   F   F
  0.2499999999799343  0.4374999701794380  0.3605200052333331   F   F   F
  0.0833333358191695  0.0625000000159659  0.3605200052333331   F   F   F
  0.0833333358191695  0.3124999999901945  0.3605200052333331   F   F   F
  0.0833333358191695  0.5625000000092442  0.3605200052333331   F   F   F
  0.9166666865332829  0.3124999999901945  0.3605200052333331   F   F   F
  0.9166666865332829  0.0625000000159659  0.3605200052333331   F   F   F
  0.5833333134730552  0.8124999999834799  0.3605200052333331   F   F   F
  0.5833333134730552  0.5625000000092442  0.3605200052333331   F   F   F
  0.5833333134730552  0.3124999999901945  0.3605200052333331   F   F   F
  0.5833333134730552  0.0625000000159659  0.3605200052333331   F   F   F
  0.2499999999799343  0.8124999999834799  0.3605200052333331   F   F   F
  0.2499999999799343  0.5625000000092442  0.3605200052333331   F   F   F
  0.2499999999799343  0.3124999999901945  0.3605200052333331   F   F   F
  0.2499999999799343  0.0625000000159659  0.3605200052333331   F   F   F
  0.7499999404149307  0.8124999999834799  0.3605200052333331   F   F   F
  0.7499999404149307  0.5625000000092442  0.3605200052333331   F   F   F
  0.7499999404149307  0.3124999999901945  0.3605200052333331   F   F   F
  0.7499999404149307  0.0625000000159659  0.3605200052333331   F   F   F
  0.4166666269218169  0.8124999999834799  0.3605200052333331   F   F   F
  0.4166666269218169  0.5625000000092442  0.3605200052333331   F   F   F
  0.4166666269218169  0.3124999999901945  0.3605200052333331   F   F   F
  0.4166666269218169  0.0625000000159659  0.3605200052333331   F   F   F
  0.0833333358191695  0.8124999999834799  0.3605200052333331   F   F   F
  0.4166666269218169  0.1875000000030838  0.3605200052333331   F   F   F
  0.0833333358191695  0.9375000000154046  0.3605200052333331   F   F   F
  0.0833333358191695  0.6874999999963620  0.3605200052333331   F   F   F
  0.0833333358191695  0.4374999701794380  0.3605200052333331   F   F   F
  0.8333332538436267  0.4999999999932783  0.4070133268666680   F   F   F
  0.8333332538436267  0.7500000000123208  0.4070133268666680   F   F   F
  0.0836591662501789  0.0618801335767287  0.4541425976571176   F   F   F
  0.0834824509252599  0.3123226672063097  0.4537939260389265   F   F   F
  0.0839583590913975  0.5625371907277739  0.4538844904824231   F   F   F
  0.0835343915669498  0.8120699905651989  0.4541971762685719   F   F   F
  0.4169738104389467  0.0616751175405241  0.4551531323256555   F   F   F
  0.4156079454952675  0.3114954525998286  0.4571991878332113   F   F   F
  0.4159487987049602  0.5593963949522021  0.4578517632933483   F   F   F
  0.4166889734572905  0.8097659731729294  0.4551544124567997   F   F   F
  0.7496212756161640  0.0641635651917909  0.4532981138745029   F   F   F
  0.7473820356261598  0.3140551520109511  0.4545805316836606   F   F   F
  0.7481471550442436  0.5642227643808368  0.4536883001120486   F   F   F
  0.7495378858429405  0.8132080519255922  0.4530391023692104   F   F   F
  0.2502270699238949  0.0619460706541943  0.4541381887144169   F   F   F
  0.9155206740757009  0.3122861389360381  0.5466603858681722   F   F   F
  0.2522273597970468  0.3143175266460005  0.4540671614399301   F   F   F
  0.2519371205467493  0.5645447486885828  0.4538285710382226   F   F   F
  0.2501978847475357  0.8103960085823658  0.4555408581145954   F   F   F
  0.8333332538436267  0.2500000000190425  0.4070133268666680   F   F   F
  0.5842764182934559  0.3145141508020970  0.4541518713745631   F   F   F
  0.8333332538436267  0.0000000000000000  0.4070133268666680   F   F   F
  0.5000000000021103  0.4999999999932783  0.4070133268666680   F   F   F
  0.0833333358191695  0.1875000000030838  0.3605200052333331   F   F   F
  0.0000000000000000  0.0000000000000000  0.4070133268666680   F   F   F
  0.0000000000000000  0.2500000000190425  0.4070133268666680   F   F   F
  0.0000000000000000  0.4999999999932783  0.4070133268666680   F   F   F
  0.0000000000000000  0.7500000000123208  0.4070133268666680   F   F   F
  0.3333333432766779  0.0000000000000000  0.4070133268666680   F   F   F
  0.3333333432766779  0.2500000000190425  0.4070133268666680   F   F   F
  0.3333333432766779  0.4999999999932783  0.4070133268666680   F   F   F
  0.3333333432766779  0.7500000000123208  0.4070133268666680   F   F   F
  0.6666666865533486  0.0000000000000000  0.4070133268666680   F   F   F
  0.6666666865533486  0.2500000000190425  0.4070133268666680   F   F   F
  0.6666666865533486  0.4999999999932783  0.4070133268666680   F   F   F
  0.6666666865533486  0.7500000000123208  0.4070133268666680   F   F   F
  0.1666666716383389  0.0000000000000000  0.4070133268666680   F   F   F
  0.1666666716383389  0.2500000000190425  0.4070133268666680   F   F   F
  0.1666666716383389  0.4999999999932783  0.4070133268666680   F   F   F
  0.1666666716383389  0.7500000000123208  0.4070133268666680   F   F   F
  0.5000000000021103  0.0000000000000000  0.4070133268666680   F   F   F
  0.5000000000021103  0.2500000000190425  0.4070133268666680   F   F   F
  0.5000000000021103  0.7500000000123208  0.4070133268666680   F   F   F
  0.1670360308734189  0.1243045819406490  0.4993099175874889   F   F   F
  0.9177390164109696  0.0632223377153025  0.5474277176829148   F   F   F
  0.1677869266634104  0.8732737579453982  0.4998999181539219   F   F   F
  0.2519302127733951  0.1879499372563487  0.5472898554298737   F   F   F
  0.7490447907808075  0.9342065128094319  0.5475441449062473   F   F   F
  0.7518389914353207  0.6804494265623475  0.5530700265060204   F   F   F
  0.7531185876096984  0.4345038228218314  0.5493822100662058   F   F   F
  0.4232328760233841  0.4435119747163796  0.5458196345695185   F   F   F
  0.4228964107518607  0.6877776823236061  0.5467254327426829   F   F   F
  0.7484753526815666  0.1836064980326526  0.5506940934010558   F   F   F
  0.4157618924175281  0.9365193341230622  0.5461783470044850   F   F   F
  0.0835762757379328  0.9389635769309379  0.5456532060322203   F   F   F
  0.4155237107926624  0.1909938270897555  0.5465244448133006   F   F   F
  0.0865629973446786  0.6895827172739359  0.5451946842760407   F   F   F
  0.0832156311262509  0.4383476506370343  0.5454374041689576   F   F   F
  0.0837246445447164  0.1888108229828731  0.5456885359527845   F   F   F
  0.4994106829356539  0.1254910173181898  0.4995911942550180   F   F   F
  0.9996499988632550  0.4980719439293111  0.5943441578872495   F   F   F
  0.9992592803203095  0.7542507079217131  0.5919824237787452   F   F   F
  0.3346768213728240  0.2541338509430062  0.5926363220427717   F   F   F
  0.3340194229244560  0.9998522750556020  0.5920137739536884   F   F   F
  0.9996501693023063  0.9980762712636917  0.5928136371031130   F   F   F
  0.0011140054780086  0.2498581268134998  0.5919281883608605   F   F   F
  0.3336982967356619  0.4969281788112099  0.5909732815822224   F   F   F
  0.3352791936892103  0.7393609310226807  0.5916729791534223   F   F   F
  0.6634899994164982  0.2471126259398986  0.5907884412562154   F   F   F
  0.6658327121414302  0.0004473637198075  0.5918764802838723   F   F   F
  0.6658871987318093  0.7421159766693179  0.5899867347623768   F   F   F
  0.6671501003747409  0.4930750071184207  0.5909965470901994   F   F   F
  0.1674066084693564  0.9983080795158088  0.5922558727741176   F   F   F
  0.1685502226915929  0.2491619532744735  0.5930515181896183   F   F   F
  0.1706474436754704  0.7498799117899395  0.5949966966627116   F   F   F
  0.2481256280025832  0.4360041983719896  0.5493264391135426   F   F   F
  0.1654420438633224  0.5036084610447205  0.5882014986689512   F   F   F
  0.2490064123329390  0.6832320003122803  0.5520377195992268   F   F   F
  0.5806667814673290  0.1859847539618613  0.5491823473241553   F   F   F
  0.9143997020261594  0.8131053866019471  0.5469364565174288   F   F   F
  0.9166416723545368  0.5629871205783630  0.5462756100645620   F   F   F
  0.5815032961636248  0.5602809362559640  0.5495420174043772   F   F   F
  0.5861577839063443  0.8146248800162610  0.5503559763576504   F   F   F
  0.5832554027992387  0.3116852274424957  0.5457777145667038   F   F   F
  0.5826700819448050  0.0632043267911371  0.5469088685059660   F   F   F
  0.2538899052703840  0.8126460606067809  0.5513806240870665   F   F   F
  0.2523715221875165  0.5589860585474611  0.5440555640850278   F   F   F
  0.2495736547498950  0.3137481041832757  0.5459645488114688   F   F   F
  0.2510232756265793  0.0624258108661593  0.5471996529442080   F   F   F
  0.7486664663421010  0.8083252545246893  0.5456720806353133   F   F   F
  0.7464732269166632  0.5577207119515109  0.5445739746898184   F   F   F
  0.4134206245426171  0.8113595915511382  0.5481447317751957   F   F   F
  0.7482839824699923  0.0596269826342279  0.5444828569583962   F   F   F
  0.7480946840855225  0.3111870906989793  0.5479030597689913   F   F   F
  0.4159046721077431  0.3189959023840885  0.5522598996301298   F   F   F
  0.4208994613954431  0.5647129721389703  0.5554222857008355   F   F   F
  0.4166175854584395  0.0647315617958455  0.5470200901060949   F   F   F
  0.0850427477812516  0.8128007797419770  0.5473800965700519   F   F   F
  0.0826040500209331  0.5638114827159555  0.5464781547299182   F   F   F
  0.0862988253993109  0.3132686059663072  0.5468632620668714   F   F   F
  0.0822682295947885  0.0632551901997047  0.5475177050346858   F   F   F
  0.9157462281341679  0.9388148940630643  0.5459901694162994   F   F   F
  0.9130656722985648  0.6892816839735758  0.5449955944251101   F   F   F
  0.5836790699024093  0.9381026906813474  0.5457570992408662   F   F   F
  0.9170880781610080  0.1886788100085468  0.5455168559092698   F   F   F
  0.9152904283747958  0.4370955821050302  0.5459613326987451   F   F   F
  0.5766933251138227  0.4360954679462665  0.5515695015636197   F   F   F
  0.5795062395876798  0.6865119838641505  0.5469455707166588   F   F   F
  0.2517569012578065  0.9373639863942458  0.5450533881751696   F   F   F
  0.4984130282403640  0.5039243682233874  0.6089360789749847   F   F   F
  0.4985575181191493  0.2528714190731165  0.5903297955391693   F   F   F
  0.4996488765634197  0.9999560827144052  0.5910018726199482   F   F   F
  0.7534314895316427  0.6934513042580974  0.6575114032387859   F   F   F
  0.7486212247035269  0.9367079053337548  0.6398123080518232   F   F   F
  0.2533850323327087  0.1864640052765267  0.6411462295388972   F   F   F
  0.7457025533637633  0.1941903590814107  0.6467339930492386   F   F   F
  0.7558964631604894  0.4360471842220264  0.6390702578012792   F   F   F
  0.4172948267754961  0.9350513303633150  0.6397525671995723   F   F   F
  0.4218825964680235  0.6757503687756383  0.6336265463635300   F   F   F
  0.5899496598766731  0.8105634041145109  0.6456342355479947   F   F   F
  0.9162094357492876  0.0623182114302523  0.6413494187844861   F   F   F
  0.9137908622742188  0.5614766504532298  0.6426164975614199   F   F   F
  0.9153740706818994  0.3119975798492405  0.6394838975421351   F   F   F
  0.9142516946821928  0.8124700440328496  0.6419002670595688   F   F   F
  0.5821808455619149  0.0655152388225204  0.6398436874700053   F   F   F
  0.5831302299306529  0.3192834189486220  0.6342881739429274   F   F   F
  0.5927672214282893  0.5642121869667278  0.6397306063153465   F   F   F
  0.2478574827243065  0.5739309041783685  0.6291118579933936   F   F   F
  0.2610703183057552  0.7980981078625575  0.6473633832362040   F   F   F
  0.2496440934866087  0.3164241651721866  0.6414330531988526   F   F   F
  0.2508223448240514  0.0594489682128057  0.6419962537669477   F   F   F
  0.9166666865332829  0.5625000000092442  0.3605200052333331   F   F   F
  0.4995375599807872  0.3735329355473738  0.5003980225988087   F   F   F
  0.4999496131975221  0.8726641722651678  0.5009869460207170   F   F   F
  0.5004098804215857  0.6210251939092899  0.4999989112676460   F   F   F
  0.8322448979831947  0.6230475829340634  0.4999306181676104   F   F   F
  0.8326703950760361  0.8751705882704428  0.4982835896434636   F   F   F
  0.8326934153613479  0.3729284248155693  0.4993385836725892   F   F   F
  0.8328970308801402  0.1244857247374185  0.4997317659044285   F   F   F
  0.1667526343625667  0.3759931922688082  0.4977367591222830   F   F   F
  0.1677254702576789  0.6242530168848148  0.5000258600883427   F   F   F
  0.5819827375724387  0.4380987503941256  0.6458132491168698   F   F   F
  0.5802688553519104  0.6848844818909683  0.6381565861699841   F   F   F
  0.9171680156691266  0.1865475210201950  0.6405817378402929   F   F   F
  0.5820139148488153  0.9355040730396098  0.6392570341150901   F   F   F
  0.8303567877412448  0.7503390312053924  0.5934034440378966   F   F   F
  0.8317355800860753  0.2478409481110191  0.5914836095895168   F   F   F
  0.8333134841511480  0.5037550715477082  0.5895136322081811   F   F   F
  0.8322050476686087  0.0020070722692722  0.5922143102232127   F   F   F
  0.5008724111123755  0.7563628610491833  0.5927460697486850   F   F   F
  0.4177475075138233  0.0652856907867161  0.6398861952613970   F   F   F
  0.4265281351188150  0.3049606900819768  0.6552040043033642   F   F   F
  0.4118741093677443  0.8124393070624834  0.6397595133516560   F   F   F
  0.3997414873621636  0.5512404191040901  0.6520569100224094   F   F   F
  0.7520951679823966  0.5710888899879052  0.6342847053394181   F   F   F
  0.7409490265526202  0.8099819331692188  0.6400711702519573   F   F   F
  0.7467516151149098  0.3126407106752538  0.6400760213029741   F   F   F
  0.7476633607021128  0.0669352030383692  0.6390753433748344   F   F   F
  0.0840563665129679  0.3118918102308328  0.6404048630583077   F   F   F
  0.6665629715109560  0.8743961988807101  0.4988700822614405   F   F   F
  0.0860884946967175  0.5617168905663945  0.6424796040297878   F   F   F
  0.0834912989429526  0.0604231855863588  0.6414510704143623   F   F   F
  0.0870973295194588  0.4365458580965011  0.6396707317578390   F   F   F
  0.0836514794626524  0.1856372976194365  0.6409706347736730   F   F   F
  0.4185115376786683  0.1879029297250199  0.6398610782487779   F   F   F
  0.4151875209883187  0.4189045665592914  0.6299600766737683   F   F   F
  0.0843915991191935  0.9351689027650707  0.6408926887569351   F   F   F
  0.0824645528979033  0.6872994068159244  0.6399436991426981   F   F   F
  0.9125152259201741  0.4361200810663277  0.6397131595836854   F   F   F
  0.9166976948019752  0.6873793230678871  0.6399000097843768   F   F   F
  0.9138906864432954  0.9366000577282634  0.6408475776953253   F   F   F
  0.2410331843999529  0.4422078715532791  0.6416200223662898   F   F   F
  0.2486988944439474  0.6767187893377979  0.6654461729191254   F   F   F
  0.5786668175246490  0.1903233624432303  0.6442241862763396   F   F   F
  0.2520361978447454  0.9300325397946381  0.6373503683787050   F   F   F
  0.0838003038633985  0.8115185881877665  0.6420890488682431   F   F   F
  0.9166666865332829  0.8124999999834799  0.3605200052333331   F   F   F
  0.0006599646912306  0.1228134125928335  0.6188976383716209   F   F   F
  0.8333332538436267  0.6249999999803961  0.4070133268666680   F   F   F
  0.9996066691982577  0.5003496619732104  0.5071747825281534   F   F   F
  0.3311834138378558  0.4992586079352819  0.5010222972454486   F   F   F
  0.3301702927373498  0.2479969170950085  0.5028181824078928   F   F   F
  0.3330950786397082  0.0009228859112014  0.5056598856562147   F   F   F
  0.3337544195661124  0.7507246722742735  0.5017309188560262   F   F   F
  0.6658619603563167  0.0001595040256035  0.5055774509386026   F   F   F
  0.6686120507271553  0.4996396713850757  0.5007836912967392   F   F   F
  0.6671092591578969  0.2477388719132847  0.5030718451438005   F   F   F
  0.6655805435357678  0.7519333636075274  0.5020852219781133   F   F   F
  0.1659630632795768  0.0010360747972626  0.5065052470863733   F   F   F
  0.1664221916522663  0.2482878636555270  0.5061945440966156   F   F   F
  0.1633944824540450  0.4998989854059346  0.5023251848693278   F   F   F
  0.5001656192852337  0.9990796239625794  0.5054939965417518   F   F   F
  0.1641906706842420  0.7512053286858844  0.5034954144781025   F   F   F
  0.5008822894399572  0.7526235246114581  0.5039131455401673   F   F   F
  0.8342048786642380  0.0003991925842186  0.5064059926885704   F   F   F
  0.5012575446864602  0.4997121172854619  0.5003823317635394   F   F   F
  0.5011247162791435  0.2478640864189998  0.5020417276475939   F   F   F
  0.8354063311139157  0.2482992143493234  0.5032841462368012   F   F   F
  0.9994985467674269  0.7505809947802504  0.5065707591860686   F   F   F
  0.0008924385656996  0.2497799868989574  0.5059080739744246   F   F   F
  0.0000438070768780  0.9998930776643462  0.5064802145665439   F   F   F
  0.8333332538436267  0.8749999404036828  0.4070133268666680   F   F   F
  0.0000000000000000  0.6249999999803961  0.4070133268666680   F   F   F
  0.0000000000000000  0.8749999404036828  0.4070133268666680   F   F   F
  0.3333333432766779  0.1249999999871179  0.4070133268666680   F   F   F
  0.3333333432766779  0.3750000000061604  0.4070133268666680   F   F   F
  0.3333333432766779  0.6249999999803961  0.4070133268666680   F   F   F
  0.3333333432766779  0.8749999404036828  0.4070133268666680   F   F   F
  0.6666666865533486  0.1249999999871179  0.4070133268666680   F   F   F
  0.6666666865533486  0.3750000000061604  0.4070133268666680   F   F   F
  0.6666666865533486  0.6249999999803961  0.4070133268666680   F   F   F
  0.8360197710395454  0.4998299585912065  0.5030973200777353   F   F   F
  0.6666666865533486  0.8749999404036828  0.4070133268666680   F   F   F
  0.1666666716383389  0.3750000000061604  0.4070133268666680   F   F   F
  0.1666666716383389  0.6249999999803961  0.4070133268666680   F   F   F
  0.1666666716383389  0.8749999404036828  0.4070133268666680   F   F   F
  0.5000000000021103  0.1249999999871179  0.4070133268666680   F   F   F
  0.5000000000021103  0.3750000000061604  0.4070133268666680   F   F   F
  0.5000000000021103  0.6249999999803961  0.4070133268666680   F   F   F
  0.5000000000021103  0.8749999404036828  0.4070133268666680   F   F   F
  0.8333332538436267  0.1249999999871179  0.4070133268666680   F   F   F
  0.8333332538436267  0.3750000000061604  0.4070133268666680   F   F   F
  0.1666666716383389  0.1249999999871179  0.4070133268666680   F   F   F
  0.0000000000000000  0.3750000000061604  0.4070133268666680   F   F   F
  0.8357427417258094  0.7515637630291394  0.5025753253913336   F   F   F
  0.8370696633204915  0.3725858795856212  0.6043010659847567   F   F   F
  0.8319868185625054  0.8753028110566206  0.6184244755042556   F   F   F
  0.8409523372565886  0.6264719459583503  0.6029704232500279   F   F   F
  0.9989546341417679  0.8748021700239406  0.6223395778205827   F   F   F
  0.3314793484833771  0.1198528649363411  0.6132704492833696   F   F   F
  0.3346986205942244  0.6235850253325026  0.5953879473253423   F   F   F
  0.3260231687686499  0.3737874429545016  0.5929040133258496   F   F   F
  0.6710792795827771  0.3718668499389821  0.5943384576681936   F   F   F
  0.6654392104480422  0.1244372856823617  0.6117386189964549   F   F   F
  0.3346014842581937  0.8788558089033955  0.6028608173803676   F   F   F
  0.1583503578002166  0.6271583656177668  0.6024095491987396   F   F   F
  0.1664032062105250  0.8721034267181551  0.6195767007172819   F   F   F
  0.5018344319129753  0.3710887589577538  0.5949630406756583   F   F   F
  0.5003007357103897  0.1218921854456809  0.6059900617952039   F   F   F
  0.1675156063300065  0.1225466670124078  0.6213045920754183   F   F   F
  0.1635609038629227  0.3717141227440095  0.6077768515270208   F   F   F
  0.6652205784816516  0.8809554149116607  0.6069078858956374   F   F   F
  0.6663453799988304  0.6266865910138861  0.5935243180748486   F   F   F
  0.0002137610383883  0.3749384005426037  0.6225306780478022   F   F   F
  0.9996025362499878  0.6226280564874855  0.6469739432009547   F   F   F
  0.8337336631532182  0.1247082138979394  0.6192669906585522   F   F   F
  0.5003610766521831  0.8766659360046773  0.6098753476233156   F   F   F
  0.0000000000000000  0.1249999999871179  0.4070133268666680   F   F   F
  0.5040391717567800  0.6247578920166177  0.5939339921510509   F   F   F
  0.9162212254612569  0.9997614388477345  0.6036824151969498   F   F   F
  0.5844672892227436  0.7502613898420663  0.5993408727307923   F   F   F
  0.5908952373951237  0.5006658248676601  0.5937683116739834   F   F   F
  0.2422281464340088  0.4984426694993900  0.5939761287944449   F   F   F
  0.2494484342791168  0.7524485054255692  0.5921774254364180   F   F   F
  0.5843498805530345  0.2471708329707027  0.5972203701812475   F   F   F
  0.5825429880165487  0.0009380080299977  0.6042752483309712   F   F   F
  0.2494358410178563  0.9974342998603021  0.6041285124855449   F   F   F
  0.2492567279714635  0.2459469643697574  0.6037160873839511   F   F   F
  0.4170677646209242  0.0000925602941493  0.6046224144195946   F   F   F
  0.4147882241130034  0.2485171852918953  0.5910175376991234   F   F   F
  0.4161661439188222  0.7498513681605914  0.5946824063696710   F   F   F
  0.7564967169815446  0.5026463966189283  0.5957332967898736   F   F   F
  0.7517655975390909  0.7525584801972229  0.5905945736749061   F   F   F
  0.7540848180123518  0.2479505706154299  0.5943881595080711   F   F   F
  0.7496363993039239  0.0016927012578947  0.6041401173383179   F   F   F
  0.0838433480885428  0.2480959830719769  0.6036807060700227   F   F   F
  0.0810735110995608  0.5004481616693042  0.6036957201009869   F   F   F
  0.0799685225262721  0.7507632531741706  0.6030712412153321   F   F   F
  0.0832475761712743  0.9980310127273597  0.6034810598367457   F   F   F