 C  H 
 1.0000000000000000
    23.6707801818999997    0.0000000000000000    0.0000000000000000
     0.0000000000000000   22.3170261383000010    0.0000000000000000
     0.0000000000000000    0.0000000000000000   30.0000000000000000
 C   H  
   2   6
Cartesian
 11.8353900909499998 11.1585130691500005 15.7622090000000004
 11.8353900909499998 11.1585130691500005 14.2377909999999996
 11.8353900909499998 12.1774700691500009 16.1572290000000010
 10.9529470909499995 10.6490340691499998 16.1572290000000010
 12.7178330909500001 10.6490340691499998 16.1572290000000010
 11.8353900909499998 10.1395560691500002 13.8427709999999990
 10.9529470909499995 11.6679920691500012 13.8427709999999990
 12.7178330909500001 11.6679920691500012 13.8427709999999990
