Au  C  H  O Sr Ti                       
   1.00000000000000     
    23.6707800000000006    0.0000000000000000    0.0000000000000000
     0.0000000000000000   22.3170259999999985    0.0000000000000000
     0.0000000000000000    0.0000000000000000   30.0000000000000000
   Au   C    H    O    Sr   Ti
    50     2     4   265    72    72
Selective dynamics
Direct
  0.7158368691575318  0.5242020933440505  0.7522179672507967   T   T   T
  0.5535727621489392  0.2128612709931903  0.7097341105156805   T   T   T
  0.7186579290416562  0.2576198228817770  0.6907928555095459   T   T   T
  0.2932332270466502  0.7462697307337960  0.6968645491611716   T   T   T
  0.5118786881295871  0.6030353052398830  0.7767714889331609   T   T   T
  0.5788305213771846  0.7256974279463705  0.7939002772355045   T   T   T
  0.2402186680917702  0.4692626225224831  0.7089421854376862   T   T   T
  0.2862245129407645  0.6619560907026355  0.7643164720148691   T   T   T
  0.6012911300781896  0.2817293456185768  0.7831130150921920   T   T   T
  0.5141074950741685  0.4848702939191110  0.6779720511915764   T   T   T
  0.4850372975416136  0.2703182780926254  0.7751800155963930   T   T   T
  0.7633598128306234  0.4295240741108686  0.7038618734706762   T   T   T
  0.2894371413569911  0.5378445257034573  0.7775440818516357   T   T   T
  0.3915053734725817  0.8167978399716600  0.7065294882720748   T   T   T
  0.4642326539990895  0.6947119029678177  0.8302736612712084   T   T   T
  0.4369814339456818  0.2275698843402620  0.6978468926507169   T   T   T
  0.3698203639071900  0.2988295075650611  0.7552980802006212   T   T   T
  0.4284821627484833  0.3711273072642453  0.8153027500448797   T   T   T
  0.5970073545743546  0.7844999662929318  0.7128644524372870   T   T   T
  0.6353732011673274  0.5838138003339199  0.7997086205096389   T   T   T
  0.7327881863494953  0.6146519802845336  0.6938233933190390   T   T   T
  0.4860704071077786  0.7742554251607584  0.7537282351273576   T   T   T
  0.5495583171074980  0.3815318342647326  0.8260785383116269   T   T   T
  0.5629374287943878  0.4856821219686541  0.7621260288478345   T   T   T
  0.7068240683881505  0.7569790709469835  0.6882356460974426   T   T   T
  0.3491922399286961  0.4993972862831111  0.6977470926545145   T   T   T
  0.3249945793477352  0.4146516390889486  0.7693192487279258   T   T   T
  0.6206999661260673  0.5713826780753579  0.7040082459429835   T   T   T
  0.6558440766397495  0.4405700755685756  0.8123103159471431   T   T   T
  0.3690009078620073  0.6179659181946532  0.8203486078143338   T   T   T
  0.6613961451683585  0.1840557633728245  0.7479187754379145   T   T   T
  0.4723182021506481  0.4490364201202333  0.8776855597991783   T   T   T
  0.5162919506011622  0.3775116864035235  0.7318651515310389   T   T   T
  0.2819240314178050  0.3398369749666449  0.7023338282027248   T   T   T
  0.4520008699124383  0.5796908791724031  0.7026652129259850   T   T   T
  0.3975027873696749  0.3817869261765098  0.6901140482174026   T   T   T
  0.6159548404700788  0.3216476524438257  0.6961188031542986   T   T   T
  0.4634556733998551  0.5722673539197868  0.8641439916610413   T   T   T
  0.5704898574375999  0.5089757249572797  0.8560835508270779   T   T   T
  0.3745795913445291  0.7397185330693575  0.7792872580058119   T   T   T
  0.3752198488033383  0.4922253257817663  0.8332333078338331   T   T   T
  0.5396959037626701  0.6681409988890181  0.7019938619684926   T   T   T
  0.5650065260716804  0.6389817266654114  0.8607794432876836   T   T   T
  0.6484491271762589  0.4458986610136222  0.6945249396495620   T   T   T
  0.4434711851698048  0.4743626050451731  0.7565712058003127   T   T   T
  0.2569029920660056  0.5928882270961007  0.6944916514101822   T   T   T
  0.7736329059349700  0.4279667559698637  0.7938630944148902   T   T   T
  0.6993561644544594  0.3435019442919440  0.7575342736309443   T   T   T
  0.4142469682637271  0.6947657230460935  0.6995488295668305   T   T   T
  0.6696803065565382  0.6812849645402653  0.7486264782867147   T   T   T
  0.7151141301621409  0.1132933869505165  0.7401697355174175   T   T   T
  0.6943807394594013  0.0512509695555868  0.7351026577374656   T   T   T
  0.6813608135789695  0.0361705744400814  0.7685111009919445   T   T   T
  0.7826753436372760  0.1592801114909310  0.7432013091636280   T   T   T
  0.6562954518608091  0.0500979115446030  0.7144013808638401   T   T   T
  0.7267580001378420  0.0214463889203313  0.7216849416200510   T   T   T
  0.4171897230987884  0.6851473646515875  0.4550102518476964   T   T   T
  0.5829729998709999  0.0625219403875537  0.5460212010345756   T   T   T
  0.4164433537559149  0.4354685790334785  0.4538281706369873   T   T   T
  0.0843877553154174  0.6869563958360126  0.4531602965840817   T   T   T
  0.0841227545949670  0.9367725375383102  0.4535995089503985   T   T   T
  0.0828004846290254  0.4368238733563978  0.4528364631469862   T   T   T
  0.0838411739120082  0.1865565564375559  0.4529643339690897   T   T   T
  0.9165487404936917  0.8123289528980389  0.4540591255475878   T   T   T
  0.0833333400000029  0.3125000000000000  0.3605200100000019   F   F   F
  0.5828006009944228  0.3111363686381703  0.5451032297497705   T   T   T
  0.9160550134591894  0.3121323593836246  0.4539103560272647   T   T   T
  0.4169238623961805  0.1872702077476443  0.4536409689183131   T   T   T
  0.2520516591277144  0.6876030706167793  0.4561045177067753   T   T   T
  0.9161592339478319  0.9371240461519104  0.4537685393723196   T   T   T
  0.5831825804540279  0.1902876276212724  0.4556602916053824   T   T   T
  0.5832811309497795  0.8104830150666645  0.4553815676096169   T   T   T
  0.9999254611473322  0.3737455069710628  0.4981657664564090   T   T   T
  0.9996762281256993  0.6271983154635764  0.4975810379256161   T   T   T
  0.3335911068227412  0.1256014507163062  0.4985856481892179   T   T   T
  0.0000579618542650  0.8751882887910243  0.4995367859995825   T   T   T
  0.3335350227470767  0.8741523067792109  0.4991905430793432   T   T   T
  0.6658717383330172  0.1273867543660573  0.5009146164924514   T   T   T
  0.2511343940478032  0.4392952083425477  0.4548982037725748   T   T   T
  0.0833333400000029  0.5625000000000000  0.3605200100000019   F   F   F
  0.7698598138975371  0.1178550497106744  0.7407486734765398   T   T   T
  0.9166666899999996  0.0625000000000000  0.3605200100000019   F   F   F
  0.7494252375876045  0.8132134062197884  0.4530616215400047   T   T   T
  0.2505206554114067  0.0620439781736274  0.4542630590345756   T   T   T
  0.6654282604462723  0.6258135388405844  0.5029778446231916   T   T   T
  0.9999518169892537  0.1251720467078220  0.4985074619611233   T   T   T
  0.9156843017322094  0.3124982627876627  0.5467169833564576   T   T   T
  0.5833333100000004  0.9375000000000000  0.3605200100000019   F   F   F
  0.7500272487980411  0.1898572595915744  0.4557481422553006   T   T   T
  0.5837868096155485  0.0637856645551996  0.4541903816244256   T   T   T
  0.9166666899999996  0.6875000000000000  0.3605200100000019   F   F   F
  0.9166666899999996  0.4374999699999975  0.3605200100000019   F   F   F
  0.9166666899999996  0.1875000000000000  0.3605200100000019   F   F   F
  0.2518337306537298  0.5646090039646448  0.4538388718704555   T   T   T
  0.5833333100000004  0.6875000000000000  0.3605200100000019   F   F   F
  0.5833333100000004  0.4374999699999975  0.3605200100000019   F   F   F
  0.5833333100000004  0.1875000000000000  0.3605200100000019   F   F   F
  0.2500000000000000  0.9375000000000000  0.3605200100000019   F   F   F
  0.9166666899999996  0.9375000000000000  0.3605200100000019   F   F   F
  0.2500000000000000  0.6875000000000000  0.3605200100000019   F   F   F
  0.2500000000000000  0.1875000000000000  0.3605200100000019   F   F   F
  0.7499999400000021  0.9375000000000000  0.3605200100000019   F   F   F
  0.4172750886952000  0.9359998316953855  0.4540857145056545   T   T   T
  0.2522211062852607  0.3143840621675254  0.4539307530683036   T   T   T
  0.7499999400000021  0.6875000000000000  0.3605200100000019   F   F   F
  0.4166666300000017  0.9375000000000000  0.3605200100000019   F   F   F
  0.4166666300000017  0.6875000000000000  0.3605200100000019   F   F   F
  0.4166666300000017  0.4374999699999975  0.3605200100000019   F   F   F
  0.2500000000000000  0.4374999699999975  0.3605200100000019   F   F   F
  0.0833333400000029  0.0625000000000000  0.3605200100000019   F   F   F
  0.9153083721358667  0.6868852021852827  0.4533546179099797   T   T   T
  0.6654328401199917  0.3785711854700565  0.5032492834370276   T   T   T
  0.3342740144930017  0.3784216977809114  0.5029817463473278   T   T   T
  0.3356728220266159  0.6258246129561341  0.5037664761515767   T   T   T
  0.9171085827690945  0.0634843038459669  0.5474587975807288   T   T   T
  0.2499809788693921  0.1887414966761667  0.4543360481979579   T   T   T
  0.7503731403391369  0.9386324523738839  0.4556755225381197   T   T   T
  0.7490788791060479  0.6885998053835137  0.4575178396986264   T   T   T
  0.7499999400000021  0.4374999699999975  0.3605200100000019   F   F   F
  0.7499999400000021  0.1875000000000000  0.3605200100000019   F   F   F
  0.0848908523591402  0.8128634126325983  0.5473290558287021   T   T   T
  0.5833333100000004  0.5625000000000000  0.3605200100000019   F   F   F
  0.5844045010289689  0.3154490148800713  0.4537060287788804   T   T   T
  0.2500000000000000  0.8125000000000000  0.3605200100000019   F   F   F
  0.2500000000000000  0.3125000000000000  0.3605200100000019   F   F   F
  0.7499999400000021  0.5625000000000000  0.3605200100000019   F   F   F
  0.7499999400000021  0.3125000000000000  0.3605200100000019   F   F   F
  0.7499999400000021  0.0625000000000000  0.3605200100000019   F   F   F
  0.4166666300000017  0.8125000000000000  0.3605200100000019   F   F   F
  0.4166666300000017  0.5625000000000000  0.3605200100000019   F   F   F
  0.4166666300000017  0.3125000000000000  0.3605200100000019   F   F   F
  0.0834594600004865  0.3119906605424629  0.4540204253486113   T   T   T
  0.4166666300000017  0.0625000000000000  0.3605200100000019   F   F   F
  0.4168345052078488  0.0615857107460006  0.4553306557682115   T   T   T
  0.0834452136240255  0.8121449869493114  0.4541674830361060   T   T   T
  0.0839600195519789  0.5625023532246619  0.4539706799611639   T   T   T
  0.4160676296865822  0.5595425463551476  0.4578740885436391   T   T   T
  0.7499999400000021  0.8125000000000000  0.3605200100000019   F   F   F
  0.8333332500000026  0.5000000000000000  0.4070133299999981   F   F   F
  0.4155651126107169  0.3114092469370602  0.4573639446522665   T   T   T
  0.8333332500000026  0.7500000000000000  0.4070133299999981   F   F   F
  0.0833333400000029  0.4374999699999975  0.3605200100000019   F   F   F
  0.0833333400000029  0.6875000000000000  0.3605200100000019   F   F   F
  0.0833333400000029  0.9375000000000000  0.3605200100000019   F   F   F
  0.4166666300000017  0.1875000000000000  0.3605200100000019   F   F   F
  0.0833333400000029  0.8125000000000000  0.3605200100000019   F   F   F
  0.4142017299729692  0.8117498913845285  0.5479412829009759   T   T   T
  0.2492269158618411  0.3137066449946896  0.5458177622510592   T   T   T
  0.7474710425370924  0.8071198020108521  0.5453220442011961   T   T   T
  0.7464587112879928  0.5576874170529981  0.5446494085910207   T   T   T
  0.0836543467358700  0.0618714204400816  0.4542321705471390   T   T   T
  0.2510423586012620  0.0625127815155229  0.5472725915129047   T   T   T
  0.2500000000000000  0.0625000000000000  0.3605200100000019   F   F   F
  0.2500000000000000  0.5625000000000000  0.3605200100000019   F   F   F
  0.5844507204555146  0.5628040141577986  0.4548939641778997   T   T   T
  0.5833333100000004  0.0625000000000000  0.3605200100000019   F   F   F
  0.8333332500000026  0.0000000000000000  0.4070133299999981   F   F   F
  0.5000000000000000  0.5000000000000000  0.4070133299999981   F   F   F
  0.0833333400000029  0.1875000000000000  0.3605200100000019   F   F   F
  0.2532873996406504  0.8125759278921822  0.5506787825570324   T   T   T
  0.0000000000000000  0.2500000000000000  0.4070133299999981   F   F   F
  0.0000000000000000  0.5000000000000000  0.4070133299999981   F   F   F
  0.7483189633878515  0.5641421996956102  0.4538591921070708   T   T   T
  0.3333333400000029  0.0000000000000000  0.4070133299999981   F   F   F
  0.3333333400000029  0.5000000000000000  0.4070133299999981   F   F   F
  0.3333333400000029  0.7500000000000000  0.4070133299999981   F   F   F
  0.6666666899999996  0.0000000000000000  0.4070133299999981   F   F   F
  0.6666666899999996  0.2500000000000000  0.4070133299999981   F   F   F
  0.6666666899999996  0.5000000000000000  0.4070133299999981   F   F   F
  0.5833333100000004  0.3125000000000000  0.3605200100000019   F   F   F
  0.8333332500000026  0.2500000000000000  0.4070133299999981   F   F   F
  0.6666666899999996  0.7500000000000000  0.4070133299999981   F   F   F
  0.1666666699999979  0.7500000000000000  0.4070133299999981   F   F   F
  0.5000000000000000  0.0000000000000000  0.4070133299999981   F   F   F
  0.5000000000000000  0.2500000000000000  0.4070133299999981   F   F   F
  0.5000000000000000  0.7500000000000000  0.4070133299999981   F   F   F
  0.9166666899999996  0.3125000000000000  0.3605200100000019   F   F   F
  0.3333333400000029  0.2500000000000000  0.4070133299999981   F   F   F
  0.7472989074530654  0.3140071159820112  0.4552392097927875   T   T   T
  0.0000000000000000  0.7500000000000000  0.4070133299999981   F   F   F
  0.4168634249567570  0.8103902705237451  0.4550060576052946   T   T   T
  0.7496477652908922  0.4382179943200809  0.4558407446488282   T   T   T
  0.7486191499883686  0.0646039852685060  0.4533451196376012   T   T   T
  0.5833333100000004  0.8125000000000000  0.3605200100000019   F   F   F
  0.2505292700818009  0.8108114563379263  0.4553307772701441   T   T   T
  0.1666666699999979  0.2500000000000000  0.4070133299999981   F   F   F
  0.1666666699999979  0.5000000000000000  0.4070133299999981   F   F   F
  0.1666666699999979  0.0000000000000000  0.4070133299999981   F   F   F
  0.9160971655274333  0.5621853482587500  0.4540788536962926   T   T   T
  0.0000000000000000  0.0000000000000000  0.4070133299999981   F   F   F
  0.0830885934564449  0.4384747836835871  0.5449439081513190   T   T   T
  0.0837165025903574  0.1889120005774156  0.5455157554615094   T   T   T
  0.4994272048095499  0.1255903995911494  0.4991594570523248   T   T   T
  0.9995855127689544  0.4981454617049954  0.5938749345265192   T   T   T
  0.5796056264717223  0.1851144952168471  0.5503088596841613   T   T   T
  0.9995929138665417  0.7537039649538985  0.5928721739277232   T   T   T
  0.3340667021152237  0.9998672721981195  0.5920029075455955   T   T   T
  0.9997824940624567  0.9990781278557670  0.5931845389007280   T   T   T
  0.0007697872592722  0.2483105543967998  0.5922484244685332   T   T   T
  0.3331504003397982  0.4963635798421421  0.5907447457265337   T   T   T
  0.3353934203257692  0.7412242379356357  0.5904864231268084   T   T   T
  0.6632460963216457  0.2473196036734839  0.5905831283017540   T   T   T
  0.6661651158754013  0.0009487908317592  0.5919622333703047   T   T   T
  0.9159918766368433  0.1887121533880650  0.5455985093355367   T   T   T
  0.6656569711127187  0.7407764806276731  0.5910209763221128   T   T   T
  0.1683634896727969  0.2486486186954805  0.5931293310810961   T   T   T
  0.1706914040101912  0.7502999588891551  0.5947625666743946   T   T   T
  0.2480906052328784  0.4358789165376403  0.5489669717109722   T   T   T
  0.1654122805475949  0.5034104499618769  0.5872696710696758   T   T   T
  0.3346569326398169  0.2545487655885786  0.5926778704353729   T   T   T
  0.4998844368825286  0.0000868542982703  0.5912173787355072   T   T   T
  0.8325307641539064  0.8735082428905901  0.4996237239670139   T   T   T
  0.7481809218164619  0.9400096987035460  0.6425761063276006   T   T   T
  0.8320267517271916  0.0016240644614676  0.5921919328518785   T   T   T
  0.5006642034119660  0.7565055046395113  0.5925714963397645   T   T   T
  0.4178121194002899  0.0650801985210826  0.6401199479450251   T   T   T
  0.4273681677873095  0.3047727749317765  0.6553156636748014   T   T   T
  0.4159838601934937  0.1914989253183293  0.5464860561533509   T   T   T
  0.6666203151791533  0.4946484073388933  0.5914941904970932   T   T   T
  0.0853951063132324  0.6892392000664543  0.5454116223605119   T   T   T
  0.4984732981020421  0.2533638185816977  0.5907980879048136   T   T   T
  0.4160162952374578  0.9371508627947512  0.5461107514235350   T   T   T
  0.7490485447892260  0.1840946681203517  0.5509533866926802   T   T   T
  0.5830698137413166  0.3208683515299996  0.6336332513408709   T   T   T
  0.9145101789796484  0.6885809484498036  0.5459264046654319   T   T   T
  0.9157123289508871  0.9386001195965966  0.5464305082244605   T   T   T
  0.0823145232996602  0.0632359802072455  0.5475796380049230   T   T   T
  0.0857217757733832  0.3132870100334026  0.5469859556224810   T   T   T
  0.0807910726079828  0.5643297739413644  0.5463230963737433   T   T   T
  0.4166276217611059  0.0654335209527192  0.5473575244565914   T   T   T
  0.5766648043937833  0.4358592373262100  0.5522413259096857   T   T   T
  0.2500083563218022  0.9360530497398661  0.4540114416197576   T   T   T
  0.4159484112768879  0.3196757702934322  0.5525180011246446   T   T   T
  0.2525420081368419  0.5590988873962954  0.5438560948250769   T   T   T
  0.5812051347006083  0.5600510302349674  0.5489396014675155   T   T   T
  0.7475316487093279  0.3122563380016598  0.5492067434054347   T   T   T
  0.4129948035246977  0.8126508360946562  0.6397626118046296   T   T   T
  0.3970514022948813  0.5501767389424742  0.6519593417455912   T   T   T
  0.5839265087161604  0.9376558718351635  0.5463384563538398   T   T   T
  0.5795739233255611  0.6861209161911124  0.5474837194696918   T   T   T
  0.2515235597770145  0.9372853384937945  0.5452685292728112   T   T   T
  0.4974395866949753  0.5043871585876832  0.6088886082502735   T   T   T
  0.9180177918476892  0.5637522761304986  0.5470658667886780   T   T   T
  0.4199360664123418  0.5649699891310156  0.5553429978850657   T   T   T
  0.9157718285534854  0.8126257320469492  0.5468827197160002   T   T   T
  0.0836948047110990  0.9388245374149082  0.5458680444346892   T   T   T
  0.2491391771495992  0.6832252837631106  0.5519595289775736   T   T   T
  0.7487388372713969  0.9330647275685341  0.5485316571714965   T   T   T
  0.7516923954977107  0.6798104943577450  0.5534229113602112   T   T   T
  0.7520153889143337  0.4354651951741612  0.5489490768907950   T   T   T
  0.4231256770282060  0.4439049346007007  0.5455579920492787   T   T   T
  0.4230872033170943  0.6879536874280309  0.5468046998030780   T   T   T
  0.5862051019720886  0.8143057695269551  0.5504481587861919   T   T   T
  0.9153975969164734  0.4373002136435035  0.5457210345924529   T   T   T
  0.7412558667755134  0.8101845823914099  0.6398063773645383   T   T   T
  0.1674520718140803  0.9983484461045902  0.5923139934845399   T   T   T
  0.9154459664371288  0.0627552263387991  0.6410770376400444   T   T   T
  0.5834862281103228  0.0663199948311833  0.6395829126891470   T   T   T
  0.5904772828153956  0.5662119257043980  0.6388133781194618   T   T   T
  0.2474825543335436  0.5736244590148359  0.6287426980242558   T   T   T
  0.7543082162699117  0.6918325510415918  0.6571387646595006   T   T   T
  0.2618559231913387  0.7995030378399984  0.6463914874803359   T   T   T
  0.2510405913613278  0.0593664909660241  0.6423216074911129   T   T   T
  0.9166666899999996  0.5625000000000000  0.3605200100000019   F   F   F
  0.4995702641528543  0.3743041472167751  0.4997836477222907   T   T   T
  0.5000577150613029  0.8733145821632812  0.5010402369331555   T   T   T
  0.5003151928388599  0.6210936758875648  0.5000935151727401   T   T   T
  0.8324962861795322  0.6231002387318610  0.5002042806071891   T   T   T
  0.8322800923602015  0.3729995858840324  0.4999541403334687   T   T   T
  0.8325868604424845  0.1244673942187240  0.5000284000424703   T   T   T
  0.9160992119901707  0.0622774439638211  0.4541417421897490   T   T   T
  0.9129493986525719  0.8135431789075392  0.6420318942355316   T   T   T
  0.5827688333123299  0.4396266037929610  0.4564504218169391   T   T   T
  0.5768775892744017  0.6864489189859214  0.6397856470760334   T   T   T
  0.9154354252489286  0.1858015705716638  0.6400000783962470   T   T   T
  0.2490819844857177  0.3162218661024715  0.6412446627887272   T   T   T
  0.1677414483299491  0.8732435608929903  0.4999130246135159   T   T   T
  0.5827566333193216  0.6861200296278499  0.4546255425535759   T   T   T
  0.5825641043114566  0.9372779328129399  0.4544904806370296   T   T   T
  0.9157555125149242  0.1868224483995775  0.4532594280888770   T   T   T
  0.9157102506332715  0.4369004765171737  0.4536506972597839   T   T   T
  0.1670777162547886  0.1243211595798270  0.4993174785556748   T   T   T
  0.7482356596626456  0.0600306742686137  0.5443170125653157   T   T   T
  0.7533682662586496  0.5680036590254438  0.6357538464692073   T   T   T
  0.9152847767857991  0.3118031393923150  0.6397044896217549   T   T   T
  0.9140638741598941  0.5627795436182430  0.6407500447435149   T   T   T
  0.1675112331262317  0.6243111148350684  0.5002780070831203   T   T   T
  0.5810914224068361  0.4391761071507072  0.6464201590233583   T   T   T
  0.2519517327083892  0.1881170741160929  0.5473406401620053   T   T   T
  0.1665717315748149  0.3758989386244227  0.4976601501973904   T   T   T
  0.7482402217317800  0.0700074872392913  0.6382031227385557   T   T   T
  0.0836495047437341  0.3112937656331205  0.6405356844898300   T   T   T
  0.5912941831011456  0.8104978808519723  0.6459590012943782   T   T   T
  0.6665552647886613  0.8745912209167721  0.4986449792461248   T   T   T
  0.0857321743124590  0.5628380579364688  0.6398504461244068   T   T   T
  0.0840829723032474  0.0602726644144810  0.6421786190996879   T   T   T
  0.0873865561464190  0.4365670236411924  0.6397120579659392   T   T   T
  0.0839748824891577  0.1852609264786564  0.6412536318480646   T   T   T
  0.4179742814454904  0.1873140470199849  0.6395891910407816   T   T   T
  0.0842764346228081  0.9354646495766558  0.6408413190549171   T   T   T
  0.9124303911338942  0.4361245991095369  0.6399649359538032   T   T   T
  0.9161749843497780  0.6878447742047534  0.6392005306468030   T   T   T
  0.9142609181125363  0.9371700527013371  0.6414767767260554   T   T   T
  0.4148288482190023  0.4187865696157567  0.6297913558053513   T   T   T
  0.7550981987245071  0.4324212275678262  0.6372513282042603   T   T   T
  0.4175445442735866  0.9348983005909255  0.6397957749234282   T   T   T
  0.0832683242372226  0.6871520061895635  0.6388602912422795   T   T   T
  0.2404326038382960  0.4419359401284220  0.6413126531845540   T   T   T
  0.4203511882676634  0.6755804104695139  0.6335965023339410   T   T   T
  0.8333623973706452  0.5030405275352601  0.5888507240713494   T   T   T
  0.2547725715804386  0.6772784767745959  0.6626290053482253   T   T   T
  0.5785507672657155  0.1913194521571177  0.6447807375369913   T   T   T
  0.7456006494583063  0.3118427424269266  0.6418992004468886   T   T   T
  0.0845752302746158  0.8126480497817409  0.6424391750848477   T   T   T
  0.9166666899999996  0.8125000000000000  0.3605200100000019   F   F   F
  0.2520687284127112  0.9301855715312705  0.6374100009778599   T   T   T
  0.5825674167924330  0.9363075335614736  0.6399622715828703   T   T   T
  0.8313863252169647  0.2494440875583349  0.5913445026903771   T   T   T
  0.8303195003880370  0.7507147844596105  0.5925907694625285   T   T   T
  0.2535264402496649  0.1864250003604263  0.6412430517801304   T   T   T
  0.7457061464720726  0.1939965683256296  0.6468769180965760   T   T   T
  0.6666666899999996  0.3750000000000000  0.4070133299999981   F   F   F
  0.6659350633912143  0.9996607112395770  0.5055935678114437   T   T   T
  0.8333332500000026  0.6250000000000000  0.4070133299999981   F   F   F
  0.5011169682704438  0.7528659082000326  0.5038369063406215   T   T   T
  0.1642697388235957  0.7514429855120108  0.5034354200641865   T   T   T
  0.3257235900380389  0.3735140389134176  0.5926311503564138   T   T   T
  0.1666666699999979  0.3750000000000000  0.4070133299999981   F   F   F
  0.6684437167974709  0.4999897246784604  0.5005771739740384   T   T   T
  0.3300868370531622  0.2480557155624751  0.5027850819020182   T   T   T
  0.3331537255759236  0.0010494504328563  0.5058145796475976   T   T   T
  0.3338725732206911  0.7511621370076887  0.5015239060298373   T   T   T
  0.9996061863560572  0.4998519496166446  0.5066851116733921   T   T   T
  0.5011722259793941  0.4998526191182617  0.5002070994565689   T   T   T
  0.8362668506236082  0.5001375068618553  0.5027287862372777   T   T   T
  0.6652804602495850  0.7517794750163914  0.5022238810838067   T   T   T
  0.0006346643003895  0.1228045177670310  0.6199639325703653   T   T   T
  0.6667400780724571  0.2483589496557660  0.5023798529150376   T   T   T
  0.0000169746099543  0.0000214473479257  0.5067344800212612   T   T   T
  0.0000000000000000  0.8749999400000021  0.4070133299999981   F   F   F
  0.3333333400000029  0.3750000000000000  0.4070133299999981   F   F   F
  0.5009275449362507  0.2479764883518378  0.5020556860764184   T   T   T
  0.9998689898037136  0.7511220021901160  0.5067513233887050   T   T   T
  0.0007461193345698  0.2496726774298050  0.5061404054946071   T   T   T
  0.6666666899999996  0.6250000000000000  0.4070133299999981   F   F   F
  0.8333332500000026  0.8749999400000021  0.4070133299999981   F   F   F
  0.3333333400000029  0.6250000000000000  0.4070133299999981   F   F   F
  0.3333333400000029  0.1250000000000000  0.4070133299999981   F   F   F
  0.6666666899999996  0.1250000000000000  0.4070133299999981   F   F   F
  0.8342203512749751  0.9998864121595284  0.5064122777157077   T   T   T
  0.3333333400000029  0.8749999400000021  0.4070133299999981   F   F   F
  0.0000000000000000  0.6250000000000000  0.4070133299999981   F   F   F
  0.1659772982342188  0.0011345837813443  0.5065497047619800   T   T   T
  0.3311087994882545  0.4992367324728454  0.5008568750258408   T   T   T
  0.1634002917041564  0.4997825727524168  0.5019876617065814   T   T   T
  0.8358824990521179  0.2486274391892520  0.5025837963443156   T   T   T
  0.5012061902917737  0.8770881126368648  0.6097586847630164   T   T   T
  0.8361851245719358  0.7517257253991427  0.5027382690278016   T   T   T
  0.0000000000000000  0.3750000000000000  0.4070133299999981   F   F   F
  0.9989203794375595  0.8748433537423911  0.6232738877799695   T   T   T
  0.0000000000000000  0.1250000000000000  0.4070133299999981   F   F   F
  0.8333332500000026  0.1250000000000000  0.4070133299999981   F   F   F
  0.5000000000000000  0.6250000000000000  0.4070133299999981   F   F   F
  0.8395137794593559  0.6271219302843647  0.6041211292999197   T   T   T
  0.3316312479169918  0.1197103370273901  0.6131032392586950   T   T   T
  0.3347098710758657  0.8786406733755899  0.6030255805220751   T   T   T
  0.6651564122261309  0.1243273509545112  0.6051508802893037   T   T   T
  0.3339254286713150  0.6244848240537033  0.5949601332789440   T   T   T
  0.1666666699999979  0.8749999400000021  0.4070133299999981   F   F   F
  0.8333332500000026  0.3750000000000000  0.4070133299999981   F   F   F
  0.8384611185291971  0.3726417946169568  0.6025829187730014   T   T   T
  0.8311472038227220  0.8776157270919041  0.6186464439876347   T   T   T
  0.1666666699999979  0.1250000000000000  0.4070133299999981   F   F   F
  0.5000000000000000  0.1250000000000000  0.4070133299999981   F   F   F
  0.0002009528799876  0.3753342936572677  0.6241277753949090   T   T   T
  0.1662892648677533  0.2481643496005340  0.5061726102576800   T   T   T
  0.5014515640775694  0.3716086608685360  0.5947406144001670   T   T   T
  0.1666666699999979  0.6250000000000000  0.4070133299999981   F   F   F
  0.5000000000000000  0.3750000000000000  0.4070133299999981   F   F   F
  0.6666666899999996  0.8749999400000021  0.4070133299999981   F   F   F
  0.5003130538197731  0.9992442926816325  0.5056946834275994   T   T   T
  0.1594796907025207  0.6273014950641460  0.6015916055126403   T   T   T
  0.6701651532644590  0.3727031658582694  0.5930584456935433   T   T   T
  0.5004869652145169  0.1220229182285082  0.6064819468119264   T   T   T
  0.1663142229145247  0.8736619414565929  0.6177549928884245   T   T   T
  0.5037043280700683  0.6250648033310241  0.5939853592662830   T   T   T
  0.1631486193876948  0.3710553897538303  0.6075656522039700   T   T   T
  0.6658709885592093  0.8819996986837570  0.6075481519431708   T   T   T
  0.6665449090334130  0.6258222458373326  0.5932118084545295   T   T   T
  0.8351261983156507  0.1236265955029232  0.6109047712206224   T   T   T
  0.9995670445263788  0.6239309220632386  0.6234704705112041   T   T   T
  0.5000000000000000  0.8749999400000021  0.4070133299999981   F   F   F
  0.1677788646399075  0.1225180555762975  0.6217171805589236   T   T   T
  0.9166919368550159  0.9997187914374754  0.6038240284321726   T   T   T
  0.5833333100000004  0.2500000000000000  0.4070133299999981   F   F   F
  0.0835585431372458  0.2476026672685469  0.6037448285356484   T   T   T
  0.7497625251257448  0.0026147733208805  0.6047758492746522   T   T   T
  0.5826667928191261  0.0012281918903348  0.6045865224647426   T   T   T
  0.5848908816331949  0.7500805743337035  0.5997123088024991   T   T   T
  0.5902057114845581  0.5014223241088117  0.5934976099083301   T   T   T
  0.0820080564887649  0.3743717274346115  0.5060524851566885   T   T   T
  0.2496727509101014  0.7528151657938567  0.5919397699853030   T   T   T
  0.2497526450300137  0.9976612726000126  0.6042093486153411   T   T   T
  0.7539681500676125  0.2481883328561084  0.5925990383946580   T   T   T
  0.2491197699616094  0.2456157858328353  0.6036272289097444   T   T   T