 C  O Sr Ti                             
   1.00000000000000     
    23.6707801818999997    0.0000000000000000    0.0000000000000000
     0.0000000000000000   22.3170261383000010    0.0000000000000000
     0.0000000000000000    0.0000000000000000   30.0000000000000000
   C    O    Sr   Ti
     1   265    72    72
Selective dynamics
Direct
  0.4999495112490061  0.3744498855884349  0.7227925059928860   T   T   T
  0.1666841191041160  0.6245143901138150  0.4983636295103154   T   T   T
  0.1667130364397850  0.8754947099643300  0.4986262176337592   T   T   T
  0.6666080266470650  0.8754676100370181  0.4983953994412877   T   T   T
  0.1666686984808223  0.1245094378307061  0.4984238301381015   T   T   T
  0.6666665349737650  0.6244425582876453  0.4984289627095292   T   T   T
  0.6666186863085322  0.3755129763966614  0.4984900450817065   T   T   T
  0.3333272102121663  0.3755559670659049  0.4986007522262300   T   T   T
  0.3333084685643117  0.6244302517500713  0.4984611657597151   T   T   T
  0.6666559027672322  0.1244621938383727  0.4983958316694544   T   T   T
  0.3334081018574939  0.8754791966706110  0.4984021953128533   T   T   T
  0.0000083502884872  0.8749800979166402  0.4986979925172024   T   T   T
  0.3333468698128852  0.1245300761465195  0.4983721885749527   T   T   T
 -0.0000411046512202  0.6250803144837656  0.4986606860799516   T   T   T
 -0.0000096209423748  0.3749062644238000  0.4987168716059864   T   T   T
 -0.0000025828905085  0.1251009018822099  0.4986404636049876   T   T   T
  0.9168800981132188  0.9371839930129570  0.4531258037870241   T   T   T
  0.9167683484293373  0.6873431598876566  0.4533242475207019   T   T   T
  0.9168681782283086  0.4372457406460302  0.4531399896972786   T   T   T
  0.9168436206279578  0.1873256748660024  0.4533349020750327   T   T   T
  0.5830941938406221  0.9373534678186621  0.4532112597623663   T   T   T
  0.5832873551965521  0.6872813470941710  0.4533031951879234   T   T   T
  0.1666466281750298  0.3754859004211936  0.4983833331272404   T   T   T
  0.8333425577693380  0.1244571128674712  0.4983765627623437   T   T   T
  0.8333294833403867  0.3753877155412494  0.4984171693192255   T   T   T
  0.8332937284655835  0.8755228032521801  0.4984408072064485   T   T   T
  0.5833186139425918  0.1877979962807590  0.5458494430318658   T   T   T
  0.2502826402016487  0.9381795801013867  0.5460874437388599   T   T   T
  0.2501500670432460  0.6881729697433101  0.5458062931850055   T   T   T
  0.2498736578376310  0.4380734373356777  0.5461449634337185   T   T   T
  0.2499551544891615  0.1881332313580756  0.5457075612913741   T   T   T
  0.7497798237253184  0.9381536084153890  0.5460232896192917   T   T   T
  0.7497544118491367  0.6881052280710617  0.5458257356144608   T   T   T
  0.7499665472069683  0.4379160930119749  0.5461893182116905   T   T   T
  0.4166803291304594  0.4383916712960296  0.5456177156381639   T   T   T
  0.4165277233901161  0.6878057546700532  0.5458671128648455   T   T   T
  0.5830839540731669  0.4372237720959642  0.4531216784304035   T   T   T
  0.7501546988287907  0.1876844333312167  0.5459392610873016   T   T   T
  0.0832137378123153  0.9384145790596758  0.5456846902224095   T   T   T
  0.4166144211281786  0.1876948213206435  0.5459021387402709   T   T   T
  0.0834238072617412  0.6878342575371893  0.5458709116735299   T   T   T
  0.0832828838960186  0.4383612499743608  0.5456983235776004   T   T   T
  0.0834250550153139  0.1878593922482772  0.5458414593593826   T   T   T
  0.4999564618230177  0.1251000812299743  0.4986352086851933   T   T   T
  0.4999729752358997  0.3748535044963986  0.4985572487759098   T   T   T
  0.4999804354872482  0.8748735141269106  0.4986334286842565   T   T   T
  0.4999967023326899  0.6251419359719755  0.4986533113341959   T   T   T
  0.8333238889919701  0.6245145665112101  0.4983630817684030   T   T   T
  0.4167989256344775  0.9383028951379061  0.5457009731721791   T   T   T
  0.5831871971297448  0.1873386968017534  0.4533403661647614   T   T   T
  0.2500131832900353  0.9373486292424701  0.4533801877655355   T   T   T
  0.2499986034259898  0.6870313938973568  0.4531786843566282   T   T   T
  0.7499838684337083  0.8126445016271663  0.4533831972128529   T   T   T
  0.7500035976136592  0.5623122902344372  0.4535212570341318   T   T   T
  0.7499770864468583  0.3128772651480201  0.4532264747316629   T   T   T
  0.7500125805544776  0.0625636366518865  0.4533198524590302   T   T   T
  0.4167568002919442  0.8126422975991490  0.4533221090037910   T   T   T
  0.4168287235398553  0.5627336848721740  0.4531617243527938   T   T   T
  0.4166286263440085  0.3126906755619489  0.4533064940284997   T   T   T
  0.4168312979980043  0.0627731310176739  0.4531148829980290   T   T   T
  0.0832782796240879  0.8126839531372212  0.4533634927466860   T   T   T
  0.0831007079015902  0.5628528183363551  0.4530617435253528   T   T   T
  0.2499125650725275  0.0623434852041202  0.4534960952622543   T   T   T
  0.0830786516431983  0.3127302170704769  0.4533499239850145   T   T   T
  0.8333332538436267  0.7500000000123208  0.4070133268666680   F   F   F
  0.8333332538436267  0.4999999999932783  0.4070133268666680   F   F   F
  0.8333332538436267  0.2500000000190425  0.4070133268666680   F   F   F
  0.8333332538436267  0.0000000000000000  0.4070133268666680   F   F   F
  0.5000000000021103  0.7500000000123208  0.4070133268666680   F   F   F
  0.5000000000021103  0.4999999999932783  0.4070133268666680   F   F   F
  0.5000000000021103  0.2500000000190425  0.4070133268666680   F   F   F
  0.5000000000021103  0.0000000000000000  0.4070133268666680   F   F   F
  0.1666666716383389  0.7500000000123208  0.4070133268666680   F   F   F
  0.1666666716383389  0.4999999999932783  0.4070133268666680   F   F   F
  0.0831486387095723  0.0627266105740402  0.4531739080726376   T   T   T
  0.5834207082409640  0.6878656702979475  0.5458351691025238   T   T   T
  0.2500101978599338  0.3127157293299236  0.4533236403472337   T   T   T
  0.2500028613355473  0.8126278184649811  0.4533846710699369   T   T   T
  0.2501566853134460  0.4375202214237398  0.4534455439774758   T   T   T
  0.2499801757237585  0.1871446261759860  0.4531986845576503   T   T   T
  0.7500044389903556  0.9374110409131408  0.4533424411867120   T   T   T
  0.7500050711567525  0.6869281700857683  0.4531300970109710   T   T   T
  0.7499879624779530  0.4374493257273288  0.4534674312994101   T   T   T
  0.7499685693958602  0.1873790447063631  0.4533510024791684   T   T   T
  0.4168299410446274  0.9372324620891889  0.4531692956611567   T   T   T
  0.4168052606540801  0.6872872772110550  0.4533406544949814   T   T   T
  0.4167865484757727  0.4371647391486596  0.4531010702836151   T   T   T
  0.4166972598598215  0.1873035974927006  0.4533067564933279   T   T   T
  0.2501735254505070  0.5624294410717372  0.4534022139660048   T   T   T
  0.0832133199737177  0.9371736216534811  0.4531698291071937   T   T   T
  0.0831266510224913  0.4372781705956964  0.4531585151749014   T   T   T
  0.0831938757982353  0.1873178613795746  0.4533256125646790   T   T   T
  0.9168299801671705  0.8127032847739285  0.4533241510903425   T   T   T
  0.9168111164552319  0.5628233251885582  0.4531022995166986   T   T   T
  0.9167971617677065  0.3126667930779112  0.4533482889399230   T   T   T
  0.9168565435237410  0.0627477370115342  0.4531431932935007   T   T   T
  0.5830894015846980  0.8127096787310435  0.4533481001995222   T   T   T
  0.5831070127707040  0.5626792544436607  0.4531843293484247   T   T   T
  0.5834019919481307  0.3127212956475584  0.4532614484209948   T   T   T
  0.5830116989825965  0.0629535983786574  0.4530176060835250   T   T   T
  0.0831457529946411  0.6873358972401074  0.4533434441103491   T   T   T
  0.1666666716383389  0.2500000000190425  0.4070133268666680   F   F   F
  0.1666666716383389  0.0000000000000000  0.4070133268666680   F   F   F
  0.9165426025360692  0.1878879659422795  0.5458697137611602   T   T   T
  0.2502204583552962  0.4373881767732773  0.6400700597503107   T   T   T
  0.9165868537330559  0.9375610133416602  0.6401522815203282   T   T   T
  0.9171206808680841  0.6874803174752326  0.6401039797087004   T   T   T
  0.9163766697614609  0.4374907436403871  0.6401038414035403   T   T   T
  0.0829068492755747  0.6874608007014339  0.6400951799572139   T   T   T
  0.0834250221815693  0.9375318179502614  0.6401413180826492   T   T   T
  0.4154300174008277  0.4373598697665989  0.6400541955818613   T   T   T
  0.4171209758798236  0.1873655259929940  0.6402626357390702   T   T   T
  0.0829389039453674  0.1874724125767034  0.6400987990431383   T   T   T
  0.0835070913927964  0.4374962595710786  0.6401044304878393   T   T   T
  0.0832936725661778  0.0624989810284547  0.6402275625515483   T   T   T
  0.0829342977635176  0.8125308127809456  0.6400274530853363   T   T   T
  0.0833503240925166  0.5625305892031516  0.6402179370637572   T   T   T
  0.0829334606366831  0.3125461564562443  0.6400742784827901   T   T   T
  0.7499254874572323  0.0626534634019077  0.6403078516894321   T   T   T
  0.7495578024449991  0.3121783619335222  0.6400824704520978   T   T   T
  0.7500549963145722  0.8126204885179673  0.6402364120816282   T   T   T
  0.7500021867737003  0.5626326008947374  0.6404967232107176   T   T   T
  0.4172386796905838  0.5622362469160330  0.6401022234689974   T   T   T
  0.4170630286015708  0.8126290290422977  0.6401514031516454   T   T   T
  0.4161489776490845  0.3121166423989288  0.6404037124345133   T   T   T
  0.2505538846946815  0.6875964314800666  0.6401991035264323   T   T   T
  0.5829104567004315  0.1873971447680143  0.6402309322969040   T   T   T
  0.2501670475587188  0.9377918982672090  0.6404318967675294   T   T   T
  0.5834046861303177  0.9375133264973736  0.6401554966611394   T   T   T
  0.2500924868525414  0.0626257586746157  0.6404450194097571   T   T   T
  0.2501772515318643  0.3123011100473796  0.6400980764107794   T   T   T
  0.2499374880193121  0.8126308289303795  0.6402271948250343   T   T   T
  0.2500263084887225  0.5626049900010068  0.6405597642430387   T   T   T
  0.5832128738043760  0.5623646061085749  0.6400717720156059   T   T   T
  0.5836035921816725  0.3122128267074289  0.6403232439617947   T   T   T
  0.5833751120493413  0.0625028516594771  0.6401700933883103   T   T   T
  0.9170720070116797  0.8125240545612983  0.6400711710475753   T   T   T
  0.9170862578030291  0.3124854574520252  0.6400244960643751   T   T   T
  0.9165596534055579  0.5625743225183153  0.6401733561488747   T   T   T
  0.4168062870471314  0.0625912376142606  0.6402532993417162   T   T   T
  0.9166404354454815  0.0624990870682901  0.6401817521025730   T   T   T
  0.4170925138195521  0.6874992839811493  0.6399688484036402   T   T   T
  0.4167289687324372  0.9376273986141977  0.6400914140724975   T   T   T
  0.7498557932705102  0.4373530190322027  0.6400479469605689   T   T   T
  0.7500076744968104  0.1873253069052552  0.6402475941175257   T   T   T
  0.2499861042278917  0.1873131639244758  0.6402247594533864   T   T   T
  0.7499315877393543  0.9374427100657269  0.6401791338133226   T   T   T
  0.7494895622999653  0.6876948996078053  0.6401597740714686   T   T   T
  0.5846289420564434  0.4374846404286928  0.6401848022753500   T   T   T
  0.5829591489262989  0.6875047880318580  0.6399718771390548   T   T   T
  0.9170572868818270  0.1874648081050887  0.6401203230593143   T   T   T
  0.5828870157703353  0.8126488430296649  0.6402177042294226   T   T   T
  0.4999771804554103  0.7501284552252173  0.5908672931574818   T   T   T
  0.8333620934098055  0.0001893830350978  0.5914019538222568   T   T   T
  0.8333273129550365  0.5002733349201932  0.5914367496634200   T   T   T
  0.5833394349219849  0.8121829989352111  0.5458650785195692   T   T   T
  0.5835481644001669  0.3121087306404172  0.5458863335492469   T   T   T
  0.5831618150035227  0.0616312141443376  0.5456051273693461   T   T   T
  0.2501206928847668  0.8121846622984753  0.5459797781153102   T   T   T
  0.2498293060693840  0.5620389959387116  0.5461862151637118   T   T   T
  0.2502554878064859  0.3121868844478181  0.5459957005737732   T   T   T
  0.2500982651035871  0.0620131522018267  0.5461348031908454   T   T   T
  0.7499023125366469  0.8122075015985981  0.5459770518024714   T   T   T
  0.7502299698027866  0.5620702165298560  0.5461797553566513   T   T   T
  0.4166319975881084  0.8121554722114706  0.5458548970849010   T   T   T
  0.5831095013592733  0.5617173704152038  0.5456912613701458   T   T   T
  0.7499525511700198  0.0618199671887698  0.5460222180977499   T   T   T
  0.4164513860981153  0.3120678942559613  0.5459140382027057   T   T   T
  0.4170124023159275  0.5616769587699240  0.5457002170887572   T   T   T
  0.4168563165388016  0.0615512478469759  0.5455969584845567   T   T   T
  0.0834489314252017  0.8121377859486124  0.5458795711763613   T   T   T
  0.0832571918794640  0.5616471015467174  0.5456181578912677   T   T   T
  0.0834496663145967  0.3121233818892116  0.5458945030800998   T   T   T
  0.0832836579529045  0.0617294502401258  0.5456754466861147   T   T   T
  0.9167335417479380  0.9384038959223004  0.5456571055098037   T   T   T
  0.9165688140163611  0.6878698464196529  0.5458795683816466   T   T   T
  0.5832441063670337  0.9382986156930488  0.5457228702846723   T   T   T
  0.7496530153411013  0.3119485042505489  0.5457975639537361   T   T   T
  0.9167026017457699  0.4383666523224450  0.5457132706662882   T   T   T
  0.9167228187903902  0.5616819561077183  0.5456836459239749   T   T   T
  0.9165528127927153  0.3121605188766667  0.5458793705485980   T   T   T
  0.8332142467352474  0.2499360850552168  0.5913182664053848   T   T   T
  0.8331950331482313  0.7499661308124040  0.5913272448656974   T   T   T
  0.5000569012345794  0.0000619705073948  0.5914016791313353   T   T   T
  0.4999591087606796  0.2499553168810950  0.5910007738373948   T   T   T
  0.5001016582080500  0.4994304011755002  0.5916219933930942   T   T   T
  0.1666224235343152  0.5003334043869584  0.5915126119901055   T   T   T
  0.1668305163517236  0.7498233810015408  0.5913880972480945   T   T   T
  0.1667429048232838  0.2497051462517561  0.5913039697694302   T   T   T
  0.1666479342754084  0.0001717191937526  0.5914322918076425   T   T   T
  0.6667829078234512  0.5004255741101992  0.5912685388095555   T   T   T
  0.9165763348927534  0.8121542403714277  0.5458696760267640   T   T   T
  0.6666104211197744  0.7504975096633123  0.5912952794659904   T   T   T
  0.6666045850033201  0.2495034596780386  0.5912175592361252   T   T   T
  0.3333714561605001  0.7503956684452251  0.5913210633300557   T   T   T
  0.3333539377557521  0.5004939112380317  0.5913681453784788   T   T   T
  0.0000037710972537  0.2500037304006598  0.5908368806179611   T   T   T
 -0.0000275827311465  0.0000792753223621  0.5914418391178516   T   T   T
  0.3334708923862962  0.0003158462856310  0.5914361348249457   T   T   T
  0.3332898359054746  0.2494856718323412  0.5912960062072579   T   T   T
  0.0000148299573653  0.7499768209671797  0.5908608136773063   T   T   T
 -0.0000186601669104  0.5000340680810144  0.5914278099586977   T   T   T
  0.9166959042983405  0.0617057781387647  0.5456363181741706   T   T   T
  0.6665712890123374  0.0001795540995430  0.5913398132868545   T   T   T
  0.5833894831240088  0.4383319846921536  0.5456341818840915   T   T   T
  0.4998792273921864  0.3730784389488065  0.7607294190117440   T   T   T
  0.6666666865533486  0.4999999999932783  0.4070133268666680   F   F   F
  0.0833333358191695  0.5625000000092442  0.3605200052333331   F   F   F
  0.0833333358191695  0.3124999999901945  0.3605200052333331   F   F   F
  0.0833333358191695  0.0625000000159659  0.3605200052333331   F   F   F
  0.9166666865332829  0.9375000000154046  0.3605200052333331   F   F   F
  0.9166666865332829  0.6874999999963620  0.3605200052333331   F   F   F
  0.9166666865332829  0.4374999701794380  0.3605200052333331   F   F   F
  0.9166666865332829  0.1875000000030838  0.3605200052333331   F   F   F
  0.5833333134730552  0.9375000000154046  0.3605200052333331   F   F   F
  0.5833333134730552  0.6874999999963620  0.3605200052333331   F   F   F
  0.5833333134730552  0.4374999701794380  0.3605200052333331   F   F   F
  0.5833333134730552  0.1875000000030838  0.3605200052333331   F   F   F
  0.2499999999799343  0.9375000000154046  0.3605200052333331   F   F   F
  0.2499999999799343  0.6874999999963620  0.3605200052333331   F   F   F
  0.2499999999799343  0.4374999701794380  0.3605200052333331   F   F   F
  0.7499999404149307  0.9375000000154046  0.3605200052333331   F   F   F
  0.7499999404149307  0.6874999999963620  0.3605200052333331   F   F   F
  0.7499999404149307  0.4374999701794380  0.3605200052333331   F   F   F
  0.7499999404149307  0.1875000000030838  0.3605200052333331   F   F   F
  0.4166666269218169  0.9375000000154046  0.3605200052333331   F   F   F
  0.4166666269218169  0.6874999999963620  0.3605200052333331   F   F   F
  0.4166666269218169  0.4374999701794380  0.3605200052333331   F   F   F
  0.4166666269218169  0.1875000000030838  0.3605200052333331   F   F   F
  0.0833333358191695  0.9375000000154046  0.3605200052333331   F   F   F
  0.0833333358191695  0.6874999999963620  0.3605200052333331   F   F   F
  0.0833333358191695  0.4374999701794380  0.3605200052333331   F   F   F
  0.0833333358191695  0.1875000000030838  0.3605200052333331   F   F   F
  0.6666666865533486  0.7500000000123208  0.4070133268666680   F   F   F
  0.0833333358191695  0.8124999999834799  0.3605200052333331   F   F   F
  0.4166666269218169  0.0625000000159659  0.3605200052333331   F   F   F
  0.2499999999799343  0.1875000000030838  0.3605200052333331   F   F   F
  0.4166666269218169  0.5625000000092442  0.3605200052333331   F   F   F
  0.6666666865533486  0.2500000000190425  0.4070133268666680   F   F   F
  0.4166666269218169  0.3124999999901945  0.3605200052333331   F   F   F
  0.6666666865533486  0.0000000000000000  0.4070133268666680   F   F   F
  0.3333333432766779  0.7500000000123208  0.4070133268666680   F   F   F
  0.3333333432766779  0.4999999999932783  0.4070133268666680   F   F   F
  0.3333333432766779  0.2500000000190425  0.4070133268666680   F   F   F
  0.3333333432766779  0.0000000000000000  0.4070133268666680   F   F   F
  0.0000000000000000  0.7500000000123208  0.4070133268666680   F   F   F
  0.0000000000000000  0.2500000000190425  0.4070133268666680   F   F   F
  0.0000000000000000  0.0000000000000000  0.4070133268666680   F   F   F
  0.9166666865332829  0.8124999999834799  0.3605200052333331   F   F   F
  0.9166666865332829  0.5625000000092442  0.3605200052333331   F   F   F
  0.9166666865332829  0.3124999999901945  0.3605200052333331   F   F   F
  0.0000000000000000  0.4999999999932783  0.4070133268666680   F   F   F
  0.7499999404149307  0.8124999999834799  0.3605200052333331   F   F   F
  0.5833333134730552  0.8124999999834799  0.3605200052333331   F   F   F
  0.5833333134730552  0.5625000000092442  0.3605200052333331   F   F   F
  0.5833333134730552  0.3124999999901945  0.3605200052333331   F   F   F
  0.5833333134730552  0.0625000000159659  0.3605200052333331   F   F   F
  0.2499999999799343  0.8124999999834799  0.3605200052333331   F   F   F
  0.4166666269218169  0.8124999999834799  0.3605200052333331   F   F   F
  0.2499999999799343  0.5625000000092442  0.3605200052333331   F   F   F
  0.2499999999799343  0.3124999999901945  0.3605200052333331   F   F   F
  0.2499999999799343  0.0625000000159659  0.3605200052333331   F   F   F
  0.7499999404149307  0.5625000000092442  0.3605200052333331   F   F   F
  0.7499999404149307  0.3124999999901945  0.3605200052333331   F   F   F
  0.7499999404149307  0.0625000000159659  0.3605200052333331   F   F   F
  0.9166666865332829  0.0625000000159659  0.3605200052333331   F   F   F
  0.8332255435593812  0.7500322875249875  0.5052682806784269   T   T   T
  0.1666684186792981  0.5000031023090896  0.5053443908991081   T   T   T
  0.0000080968314204  0.6247626698673029  0.6199809007962580   T   T   T
  0.8333442361640362  0.5000208696870814  0.5052655214517482   T   T   T
  0.0000222571146050  0.3753110796948173  0.6200283594165124   T   T   T
  0.0000132174489549  0.1247183254362317  0.6200307142747792   T   T   T
  0.8332193145705806  0.2500187629428360  0.5052632452836128   T   T   T
  0.1667977737696960  0.7500378175192004  0.5052996856418048   T   T   T
  0.5000496626091502  0.4999252048956929  0.5053206513578929   T   T   T
  0.8333313770103065 -0.0000111311301078  0.5052922862620314   T   T   T
  0.4999573987485423  0.7499746861939943  0.5051416248753898   T   T   T
  0.5000078323553147 -0.0000331204871308  0.5051718290408771   T   T   T
  0.6664862600426945  0.6250124522883097  0.6203686341417461   T   T   T
  0.4999428347483447  0.2501100423477916  0.5052801858945556   T   T   T
  0.6666360316281515  0.8748841792189319  0.6204627875106068   T   T   T
  0.8332213973190163  0.6253710261834940  0.6207289408263159   T   T   T
  0.1665533578952058  0.1250674020498145  0.6206227918960121   T   T   T
  0.1667704105600133  0.2499935773216149  0.5052794163560733   T   T   T
  0.8332075832105063  0.3746001921827510  0.6206685841766580   T   T   T
  0.8333968301407674  0.1251118582713550  0.6204919783146228   T   T   T
  0.8333571018028548  0.8749379534499896  0.6205171229548065   T   T   T
 -0.0000183989171543  0.8753102977160606  0.6199120516310390   T   T   T
  0.3334290106846549  0.1251318364104582  0.6204977713593937   T   T   T
  0.3336389880322186  0.6248022629548133  0.6204108949759252   T   T   T
  0.3331657742860764  0.3746205040546216  0.6188333080886086   T   T   T
  0.6668280218276801  0.3745782469757591  0.6187549602179518   T   T   T
  0.6665894586077916  0.1251553880504128  0.6204235737396249   T   T   T
  0.3333850829896520  0.8750028753392748  0.6205397260974553   T   T   T
  0.1667797021086239  0.6252776405350504  0.6207418013959072   T   T   T
  0.1667221266647742  0.8750145688770801  0.6205773228993123   T   T   T
  0.5000476738535957  0.3753468603405810  0.6235502730387416   T   T   T
  0.5000487049580834  0.1246652357845521  0.6197463775669251   T   T   T
  0.1667547671175662  0.3748089990321630  0.6205535816902225   T   T   T
  0.1666905974525139  0.0000037653117144  0.5053441603737684   T   T   T
  0.3333333432766779  0.8749999404036828  0.4070133268666680   F   F   F
  0.6667373097841691  0.2498985428192789  0.5052047873581337   T   T   T
  0.1666666716383389  0.6249999999803961  0.4070133268666680   F   F   F
  0.1666666716383389  0.3750000000061604  0.4070133268666680   F   F   F
  0.1666666716383389  0.1249999999871179  0.4070133268666680   F   F   F
  0.6666666865533486  0.8749999404036828  0.4070133268666680   F   F   F
  0.6666666865533486  0.6249999999803961  0.4070133268666680   F   F   F
  0.6666666865533486  0.3750000000061604  0.4070133268666680   F   F   F
  0.1666666716383389  0.8749999404036828  0.4070133268666680   F   F   F
  0.6666666865533486  0.1249999999871179  0.4070133268666680   F   F   F
  0.3333333432766779  0.6249999999803961  0.4070133268666680   F   F   F
  0.3333333432766779  0.3750000000061604  0.4070133268666680   F   F   F
  0.3333333432766779  0.1249999999871179  0.4070133268666680   F   F   F
  0.0000000000000000  0.8749999404036828  0.4070133268666680   F   F   F
  0.0000000000000000  0.6249999999803961  0.4070133268666680   F   F   F
  0.0000000000000000  0.3750000000061604  0.4070133268666680   F   F   F
  0.5000419562771723  0.8753453579450958  0.6199533849832782   T   T   T
  0.5000000000021103  0.1249999999871179  0.4070133268666680   F   F   F
  0.5000000000021103  0.3750000000061604  0.4070133268666680   F   F   F
  0.5000000000021103  0.6249999999803961  0.4070133268666680   F   F   F
  0.6666529721273969  0.5000474585163268  0.5052223294463278   T   T   T
  0.6666195057771522  0.0000024034606965  0.5053215569415747   T   T   T
  0.3332648786246770  0.7500307047614022  0.5052499922852584   T   T   T
  0.3333985358935969 -0.0000033811727900  0.5053188846557026   T   T   T
  0.3332423429830655  0.2499403328477896  0.5051994425617883   T   T   T
  0.3333128677049620  0.5000318062106788  0.5052131427691180   T   T   T
  0.0000002931894287  0.4999859072269051  0.5051998963242667   T   T   T
  0.0000159336193865  0.7500306169055119  0.5051103602262165   T   T   T
  0.0000104479300615  0.2500305999927688  0.5051191457755121   T   T   T
  0.0000058686838843  0.0000037511498316  0.5051940948560064   T   T   T
  0.8333332538436267  0.8749999404036828  0.4070133268666680   F   F   F
  0.8333332538436267  0.6249999999803961  0.4070133268666680   F   F   F
  0.8333332538436267  0.3750000000061604  0.4070133268666680   F   F   F
  0.8333332538436267  0.1249999999871179  0.4070133268666680   F   F   F
  0.5000000000021103  0.8749999404036828  0.4070133268666680   F   F   F
  0.6666863906186431  0.7500269206359892  0.5052599868392283   T   T   T
  0.5000794876300485  0.6248135755204384  0.6196162995834666   T   T   T
  0.0000000000000000  0.1249999999871179  0.4070133268666680   F   F   F
  0.0833333358191695  0.2500000000190425  0.4070133268666680   F   F   F
  0.7499956374928111  0.2497013641728186  0.6022535195929130   T   T   T
  0.7499661782092994  0.0001641292463077  0.6024320829867329   T   T   T
  0.0832000365231851  0.2499609186047472  0.6022919431829756   T   T   T
  0.0834562343780904  0.5000967078246965  0.6022845286759572   T   T   T
  0.0832537161299868  0.7499368514136746  0.6022932688250203   T   T   T
  0.0834050681774515  0.0000821061563994  0.6022900029187128   T   T   T
  0.7499490381472069  0.7502185756587775  0.6023377546812511   T   T   T
  0.9167259606076823  0.8750837523048886  0.5060872656111951   T   T   T
  0.5832214030706337  0.8750570720494185  0.5059943880655673   T   T   T
  0.9167345946512215  0.1249430283603109  0.5060092450980188   T   T   T
  0.9167407534020691  0.3750960973425632  0.5061138768533372   T   T   T
  0.5831645222596270  0.3749819270524218  0.5061388388554018   T   T   T
  0.5832354716057904  0.6249503883048481  0.5060514626171265   T   T   T
  0.5832488626024955  0.1249605086949514  0.5059730612530847   T   T   T
  0.9167420092966494  0.6249546250585882  0.5060636979483207   T   T   T
  0.2501175853003494  0.8752932860146443  0.5061438300474979   T   T   T
  0.7500989440118147  0.5002236123470535  0.6025635272230745   T   T   T
  0.4167820637902815  0.7502070197135353  0.6023261240658196   T   T   T
  0.9165788954847165  0.5000961302480951  0.6022885034145795   T   T   T
  0.9167705029155054  0.7499876510857632  0.6022821283239297   T   T   T
  0.9165583570468466  0.0000754686729812  0.6022647352130162   T   T   T
  0.9168248229261933  0.2498133576177760  0.6022786243011344   T   T   T
  0.5831731838136049  0.7502933815818507  0.6023008561810607   T   T   T
  0.5835516526628027  0.4997518994391225  0.6022423619330920   T   T   T
  0.4167908647970919  0.4997052049203549  0.6021616561229409   T   T   T
  0.2500413020560052  0.5002483970928193  0.6025310543928910   T   T   T
  0.5831332790574384  0.2498466224704098  0.6023169687142099   T   T   T
  0.5834359493703494  0.0000093110284095  0.6022759047180769   T   T   T
  0.2500215058099636  0.0001793986312325  0.6024906174349502   T   T   T
  0.2500039375916385  0.2497262512009531  0.6023392468304554   T   T   T
  0.4165980167285272  0.0001430687714566  0.6022911628324009   T   T   T
  0.4168653022795469  0.2498351070463343  0.6023673928133242   T   T   T
  0.2500913199665439  0.7501045779782680  0.6024107987841001   T   T   T
  0.4167327954532698  0.8750845348016928  0.5060810721282918   T   T   T
  0.7500264938010706  0.1246612966671302  0.5060538061803347   T   T   T
  0.7500222758451935  0.6248133827851435  0.5061443736443398   T   T   T
  0.2499999999799343  0.7500000000123208  0.4070133268666680   F   F   F
  0.2499999999799343  0.4999999999932783  0.4070133268666680   F   F   F
  0.2499999999799343  0.2500000000190425  0.4070133268666680   F   F   F
  0.2499999999799343  0.0000000000000000  0.4070133268666680   F   F   F
  0.7499999404149307  0.7500000000123208  0.4070133268666680   F   F   F
  0.7499999404149307  0.4999999999932783  0.4070133268666680   F   F   F
  0.5833333134730552  0.0000000000000000  0.4070133268666680   F   F   F
  0.7499999404149307  0.2500000000190425  0.4070133268666680   F   F   F
  0.4166666269218169  0.7500000000123208  0.4070133268666680   F   F   F
  0.4166666269218169  0.4999999999932783  0.4070133268666680   F   F   F
  0.4166666269218169  0.2500000000190425  0.4070133268666680   F   F   F
  0.4166666269218169  0.0000000000000000  0.4070133268666680   F   F   F
  0.0833333358191695  0.7500000000123208  0.4070133268666680   F   F   F
  0.0833333358191695  0.4999999999932783  0.4070133268666680   F   F   F
  0.7499999404149307  0.0000000000000000  0.4070133268666680   F   F   F
  0.5833333134730552  0.2500000000190425  0.4070133268666680   F   F   F
  0.5833333134730552  0.4999999999932783  0.4070133268666680   F   F   F
  0.5833333134730552  0.7500000000123208  0.4070133268666680   F   F   F
  0.7500125529424493  0.3752361191642656  0.5061133829306906   T   T   T
  0.2499704580356536  0.3752897390942461  0.5061314188995669   T   T   T
  0.2500038917619830  0.6248216214881446  0.5061354378402836   T   T   T
  0.2500195584812610  0.1247655264890830  0.5060922967848064   T   T   T
  0.7499354770521441  0.8753045142713494  0.5061124964709195   T   T   T
  0.4167507020072205  0.1249301934552985  0.5059862475484392   T   T   T
  0.4167610785321704  0.6249339234661404  0.5060640617443385   T   T   T
  0.0832357327972150  0.6249445703404579  0.5060009855560905   T   T   T
  0.0833391145446259  0.8751110671077780  0.5061044626116679   T   T   T
  0.0832629929148312  0.3750680729242193  0.5060792095260337   T   T   T
  0.0832519124871106  0.1249667003016363  0.5060333162889227   T   T   T
  0.9166666865332829  0.7500000000123208  0.4070133268666680   F   F   F
  0.9166666865332829  0.4999999999932783  0.4070133268666680   F   F   F