Au  C  H  O Sr Ti                       
   1.00000000000000     
    23.6707801818999997    0.0000000000000000    0.0000000000000000
     0.0000000000000000   22.3170261383000010    0.0000000000000000
     0.0000000000000000    0.0000000000000000   30.0000000000000000
   Au   C    H    O    Sr   Ti
    50     3     5   265    72    72
Selective dynamics
Direct
  0.7124039753907865  0.5248322085006334  0.7525421939111850   T   T   T
  0.4507954043884330  0.5795660540638512  0.7036160518596533   T   T   T
  0.6495892613292793  0.4411416965916558  0.8123299453528314   T   T   T
  0.3680368140898794  0.6210606749714183  0.8202355330343749   T   T   T
  0.5678803187448291  0.5115572008093873  0.8576290636513171   T   T   T
  0.4671203353927348  0.4542108906133514  0.8806009759970266   T   T   T
  0.5202054144414564  0.3792416780831421  0.7335642818400002   T   T   T
  0.2812262238703232  0.3411278583170420  0.7021912438058806   T   T   T
  0.6678319877833293  0.6815013091720612  0.7487820129148841   T   T   T
  0.3971626898364582  0.3820629012350678  0.6908100079733472   T   T   T
  0.6181073388684768  0.3178258267844559  0.6966674645221262   T   T   T
  0.4613861278665640  0.5764118908715036  0.8657390286113664   T   T   T
  0.6760349682902580  0.2205758379198417  0.7439053056154024   T   T   T
  0.3736562297187020  0.7415127754677150  0.7794654833860183   T   T   T
  0.3734472705873037  0.4959049956181619  0.8333369073367006   T   T   T
  0.4403831221302828  0.4715946212703721  0.7557725440960392   T   T   T
  0.5389732281509595  0.6678700883073859  0.7018054546795368   T   T   T
  0.6441779275881623  0.4427506732978098  0.6979222136611510   T   T   T
  0.5634097019367966  0.6416976954024495  0.8620623199746137   T   T   T
  0.2569697581541630  0.5942834851676474  0.6940513336234956   T   T   T
  0.7705138248745197  0.4316204995190889  0.7963520401263737   T   T   T
  0.6975789033996748  0.3475572184544266  0.7602064862517599   T   T   T
  0.4141976390819896  0.6953225671257215  0.7000833593567397   T   T   T
  0.3232050381328723  0.4164449619858635  0.7699912049575427   T   T   T
  0.3907616248944977  0.8169711935477536  0.7064276150578740   T   T   T
  0.7059124053338630  0.7570444474565627  0.6885569627390741   T   T   T
  0.5424204474758167  0.3873822011073856  0.8303121397075309   T   T   T
  0.5535547040874000  0.2137601814750741  0.7119835425646884   T   T   T
  0.6191872123016952  0.5702558747614379  0.7035960389573113   T   T   T
  0.7884736106776412  0.2891397917052796  0.6965490931726817   T   T   T
  0.2926627445454709  0.7467760779555178  0.6965609473592204   T   T   T
  0.5077682302790288  0.6082358740783324  0.7778415461732382   T   T   T
  0.5773706368588117  0.7263798892893372  0.7943368907116841   T   T   T
  0.2392096757738673  0.4701729647198608  0.7095510187804908   T   T   T
  0.2852238541547924  0.6634899190137615  0.7641553070633151   T   T   T
  0.4822533369388244  0.2729224981369987  0.7751281191827075   T   T   T
  0.5122794792047607  0.4842185657611183  0.6777301730213311   T   T   T
  0.2886581220033796  0.5396139926677286  0.7770772408738863   T   T   T
  0.5966341412087907  0.2946729287671787  0.7867593526639761   T   T   T
  0.7616986822434439  0.4295520064269987  0.7058430635833194   T   T   T
  0.4849754091357942  0.7765885299819282  0.7549294689117131   T   T   T
  0.5578912413206391  0.4906471922819357  0.7632872945343755   T   T   T
  0.6313253753716245  0.5853317919204638  0.7993871111467314   T   T   T
  0.5953360774339824  0.7845178691455318  0.7129940438137060   T   T   T
  0.7300218540430100  0.6150635649019177  0.6934977934485725   T   T   T
  0.3475126669833749  0.5003129831632589  0.6967400087822635   T   T   T
  0.3680157705957373  0.3002065781515910  0.7560116509815494   T   T   T
  0.4378435728526462  0.2287062307707369  0.6977982148286679   T   T   T
  0.4619042703790090  0.6991432692866140  0.8329493962746896   T   T   T
  0.4239158374623900  0.3732049892146178  0.8181940211582918   T   T   T
  0.7031237875404349  0.0954285548613841  0.7821551759329820   T   T   T
  0.8342525933698159  0.2674239843584574  0.7457624526870140   T   T   T
  0.7283285994701789  0.1447230396777459  0.7538819365542240   T   T   T
  0.7351793417866187  0.0600997842809458  0.7860562351595310   T   T   T
  0.6918957606191503  0.1109011874432080  0.8155701635325177   T   T   T
  0.6661252106672725  0.0748896068091599  0.7667211160781887   T   T   T
  0.7655229779747889  0.1648116589752927  0.7693927122415822   T   T   T
  0.7378222234558329  0.1310938445892020  0.7197088009834622   T   T   T
  0.4169641734910554  0.9360495873603070  0.4540092395520511   T   T   T
  0.5824093442488522  0.0618481758251213  0.5456676212349304   T   T   T
  0.5856491648900466  0.8142227387972462  0.5503346552286827   T   T   T
  0.7474532836669653  0.3138463256502625  0.5463973692987981   T   T   T
  0.5817502032367942  0.5598415069544088  0.5486497298463612   T   T   T
  0.2524311205762389  0.5589478880096190  0.5438776076251796   T   T   T
  0.4164757921757530  0.3189037561069655  0.5528695422312987   T   T   T
  0.0837914935809854  0.9389902252804841  0.5454698353861310   T   T   T
  0.5759518086935073  0.4357377345843635  0.5517413688678506   T   T   T
  0.7494696039857199  0.4389442406804368  0.4548357757163056   T   T   T
  0.0807289511318982  0.5642634215611564  0.5463827478462729   T   T   T
  0.0845690701442541  0.3130927190987849  0.5470777134468752   T   T   T
  0.0822914299586207  0.0632341150953816  0.5474861657526682   T   T   T
  0.9159576665966614  0.9380916150396175  0.5460689871437272   T   T   T
  0.9142822676406956  0.6887236964417128  0.5456303936662188   T   T   T
  0.5838153887891981  0.9375917820466692  0.5462053912372475   T   T   T
  0.9164134508261421  0.1878688407565053  0.5457075185073356   T   T   T
  0.9152534476384077  0.4375551509386171  0.5455632641876756   T   T   T
  0.5790665885181295  0.6859336438881224  0.5475776800887406   T   T   T
  0.2515352931874414  0.9372742333911397  0.5451942444853924   T   T   T
  0.4972284855531101  0.5047349176684711  0.6086999791387122   T   T   T
  0.9179288123789856  0.5638237937216704  0.5472873201926772   T   T   T
  0.4196714653584930  0.5645194815506364  0.5552061473327919   T   T   T
  0.4168739476250451  0.0649524568607810  0.5473834522421051   T   T   T
  0.8326427963113319  0.8741467604739283  0.4988583825139616   T   T   T
  0.8626872231629488  0.2536070073701553  0.7750682877982957   T   T   T
  0.8321791782597834  0.9978439154155365  0.5922720476752814   T   T   T
  0.7556085342015512  0.4371235711220307  0.6389149080301455   T   T   T
  0.4172534506344835  0.9349811719319201  0.6397630126616928   T   T   T
  0.4202150547369765  0.6761122936749362  0.6338635426281607   T   T   T
  0.2528532572658213  0.8124996287845953  0.5506074750612282   T   T   T
  0.5905299377422962  0.8097806066569014  0.6460160194229440   T   T   T
  0.5855404700582931  0.3107602870638052  0.5451834401464424   T   T   T
  0.7481268855258242  0.8084181961474788  0.5458895620435558   T   T   T
  0.0827922989749593  0.4384332517071455  0.5448303450121866   T   T   T
  0.0829957683599444  0.1889309780151978  0.5455309745143890   T   T   T
  0.4998157980002216  0.1257931501458242  0.4994390687476599   T   T   T
  0.9991877792213573  0.4976438173439470  0.5942545392180733   T   T   T
  0.5816912138104366  0.1853024758332516  0.5503659895744450   T   T   T
  0.7483857743118633  0.9349609355158978  0.5467845281645680   T   T   T
  0.0000265274691556  0.7532971759717318  0.5923616814223008   T   T   T
  0.9996801398584321  0.9974944702214449  0.5923329142067149   T   T   T
  0.9990027572001376  0.2484709220907695  0.5927671297231892   T   T   T
  0.3331381892670215  0.4955962729228204  0.5910358767895408   T   T   T
  0.3349616495305961  0.7410345320417302  0.5902325758122159   T   T   T
  0.6663010495531281  0.2456553793625636  0.5918966842309302   T   T   T
  0.6657782516762454  0.0001472680383068  0.5920858602842028   T   T   T
  0.6653979443985419  0.7415464485539257  0.5906643875733593   T   T   T
  0.6668234093076651  0.4930270723169912  0.5908961828562134   T   T   T
  0.1672658518116592  0.9985539394060402  0.5923729051148708   T   T   T
  0.1679131582848944  0.2493375362013652  0.5931626092236277   T   T   T
  0.1704964858107599  0.7499753602636986  0.5947311016779406   T   T   T
  0.2482972413494989  0.4355406899843320  0.5491492882507704   T   T   T
  0.1653211998497258  0.5024627109522670  0.5869507421555712   T   T   T
  0.3353142880190501  0.2537844810866927  0.5927655942954538   T   T   T
  0.3339792191793223 -0.0000079559259378  0.5919420748743225   T   T   T
  0.4995438254266171  0.9998005716349546  0.5910968066391581   T   T   T
  0.2488918207164827  0.6832480151722132  0.5517327199405884   T   T   T
  0.9155454149268708  0.8124330785959526  0.5468663668949248   T   T   T
  0.1669483826514510  0.1247460126308786  0.4995688218034550   T   T   T
  0.4142250530137265  0.8114324989501751  0.5475639787240349   T   T   T
  0.2509375102548894  0.0625517648630316  0.5472383984285950   T   T   T
  0.7461728234913715  0.5587976149871313  0.5445588341642797   T   T   T
  0.2498011979731469  0.3134738974351292  0.5459904572807689   T   T   T
  0.9164773918214404  0.0607174432099150  0.6405209509833809   T   T   T
  0.9139094113258264  0.5616734527018812  0.6413685045760519   T   T   T
  0.9127361826390245  0.3110556278896116  0.6406497109688662   T   T   T
  0.7411124863191075  0.8095521793198053  0.6401896740559261   T   T   T
  0.7487493330831008  0.3127308194286315  0.6412100707101656   T   T   T
  0.0826988616034368  0.3112536305641607  0.6403825406051635   T   T   T
  0.6664185640165300  0.8743051845557059  0.4988000047516054   T   T   T
  0.0862966066748962  0.5616483611487472  0.6398368811511103   T   T   T
  0.0826305910501618  0.0604252882219888  0.6415100229374222   T   T   T
  0.0867533282544659  0.4355787135080145  0.6396004688170125   T   T   T
  0.0833223314786590  0.1853398137533052  0.6409126742912203   T   T   T
  0.7489653063759264  0.0613082412094517  0.6415100165192017   T   T   T
  0.5801051688030757  0.1913433965325333  0.6459201417013826   T   T   T
  0.4186754145215466  0.1875794657346347  0.6400539588612719   T   T   T
  0.9166666865332829  0.8124999999834799  0.3605200052333331   F   F   F
  0.0852422521874135  0.8117780389946418  0.6427713759047941   T   T   T
  0.2520653239171752  0.9303473013006922  0.6373068289989835   T   T   T
  0.2539411269967767  0.6782837058440527  0.6618670797370744   T   T   T
  0.8330599111663369  0.5039907060067647  0.5890080283676898   T   T   T
  0.2392965828518702  0.4423101383650995  0.6419970729972160   T   T   T
  0.8317162611682715  0.2497353841456110  0.5904636959397551   T   T   T
  0.9166358728625543  0.6869796097342876  0.6387459513426859   T   T   T
  0.9109661241402954  0.4348679787852596  0.6396411227978843   T   T   T
  0.0830484647983287  0.6864682166293757  0.6387704929022409   T   T   T
  0.0845897226659978  0.9355222792190713  0.6407889399285337   T   T   T
  0.4158430972867536  0.4185476016540567  0.6303656467882873   T   T   T
  0.9154031386406141  0.9357440230464907  0.6416078347846592   T   T   T
  0.0843074713563916  0.6869587012159180  0.4531334587096694   T   T   T
  0.0827868142441478  0.4367704253273989  0.4528447521645778   T   T   T
  0.0833333358191695  0.3124999999901945  0.3605200052333331   F   F   F
  0.0838284254876675  0.1865382499354026  0.4529603340511467   T   T   T
  0.0837953615829839  0.9366389068269469  0.4534229061945370   T   T   T
  0.7515596959004583  0.5708770681170980  0.6344574845464946   T   T   T
  0.3971734413442768  0.5505689856820510  0.6517866608909318   T   T   T
  0.4118588033689868  0.8128832299780573  0.6392075429813845   T   T   T
  0.4260989914702886  0.3043009976174408  0.6553986380818139   T   T   T
  0.9146668804739613  0.8121610617305718  0.6425897318828661   T   T   T
  0.5820001139662621  0.0650887181634223  0.6396093756806261   T   T   T
  0.5884239737364078  0.3207022218542468  0.6329826961920582   T   T   T
  0.5912962803186409  0.5658881082597610  0.6378135146752723   T   T   T
  0.4171716440710076  0.6851607991771086  0.4550647732498349   T   T   T
  0.7535685459685336  0.6923635658682263  0.6575304250316344   T   T   T
  0.2615538929777425  0.8000413909642520  0.6460698578671320   T   T   T
  0.7513190320663811  0.1850509375084780  0.6400820538633768   T   T   T
  0.9166666865332829  0.5625000000092442  0.3605200052333331   F   F   F
  0.4999659535127802  0.8734870973984850  0.5008168335998461   T   T   T
  0.5002078565202891  0.6208822147070731  0.5000982658819455   T   T   T
  0.8324395620496721  0.6230866098130950  0.5001304265708584   T   T   T
  0.2518203898339332  0.1884439907567730  0.5471193268386054   T   T   T
  0.8331561533020108  0.3733950196652992  0.4988447273457777   T   T   T
  0.0857361543627250  0.6891120902848089  0.5452548691041966   T   T   T
  0.8329608673346249  0.1240550347729781  0.4988943092262582   T   T   T
  0.1675283917965646  0.6240634081516210  0.5001190549210639   T   T   T
  0.5799981590118866  0.4389555043567669  0.6460194621767010   T   T   T
  0.5767252193602418  0.6859248489678659  0.6395961463740938   T   T   T
  0.9132481422699162  0.1850054646814271  0.6402292264874496   T   T   T
  0.2498197889599164  0.3166581209238106  0.6407534525854349   T   T   T
  0.1676647753687662  0.8733473873883261  0.4998181437839840   T   T   T
  0.7473182183567642  0.9334888532906571  0.6399533618258942   T   T   T
  0.4999187041686894  0.3722686947246477  0.5007009154530828   T   T   T
  0.2529782140517330  0.1864181249635280  0.6409175190421764   T   T   T
  0.2509584432399585  0.0595004014492063  0.6423188214240728   T   T   T
  0.8305644322643532  0.7511477180283219  0.5931105518976024   T   T   T
  0.4176806024353185  0.0651914048834600  0.6400497283870540   T   T   T
  0.5815378577849647  0.9349005691756003  0.6393316690347211   T   T   T
  0.5002208814642909  0.7565162712711195  0.5926006499573511   T   T   T
  0.1665297350846844  0.3755408055439240  0.4980788735436823   T   T   T
  0.4176416455636718  0.1907414465366173  0.5474641543151568   T   T   T
  0.2474903486421724  0.5734046533318989  0.6285347538105754   T   T   T
  0.4157971171987798  0.9368388568381255  0.5461020188538911   T   T   T
  0.5833333134730552  0.9375000000154046  0.3605200052333331   F   F   F
  0.5833333134730552  0.6874999999963620  0.3605200052333331   F   F   F
  0.5833333134730552  0.4374999701794380  0.3605200052333331   F   F   F
  0.5833333134730552  0.1875000000030838  0.3605200052333331   F   F   F
  0.9160668689515892  0.0622784064457013  0.5468103191121465   T   T   T
  0.2499999999799343  0.9375000000154046  0.3605200052333331   F   F   F
  0.2499999999799343  0.6874999999963620  0.3605200052333331   F   F   F
  0.2499999999799343  0.1875000000030838  0.3605200052333331   F   F   F
  0.7499999404149307  0.9375000000154046  0.3605200052333331   F   F   F
  0.7499999404149307  0.6874999999963620  0.3605200052333331   F   F   F
  0.7499999404149307  0.4374999701794380  0.3605200052333331   F   F   F
  0.7499999404149307  0.1875000000030838  0.3605200052333331   F   F   F
  0.4166666269218169  0.9375000000154046  0.3605200052333331   F   F   F
  0.4166666269218169  0.6874999999963620  0.3605200052333331   F   F   F
  0.4166666269218169  0.4374999701794380  0.3605200052333331   F   F   F
  0.2499999999799343  0.4374999701794380  0.3605200052333331   F   F   F
  0.0833333358191695  0.0625000000159659  0.3605200052333331   F   F   F
  0.9153022395790128  0.6868779454195989  0.4533129238557112   T   T   T
  0.6656122960013625  0.3801963738830298  0.5025418001411914   T   T   T
  0.3346338991367547  0.3782852405506917  0.5031131058150272   T   T   T
  0.9166666865332829  0.9375000000154046  0.3605200052333331   F   F   F
  0.9166666865332829  0.0625000000159659  0.3605200052333331   F   F   F
  0.1666666716383389  0.4999999999932783  0.4070133268666680   F   F   F
  0.2505070016264912  0.0620985063952549  0.4542633947988289   T   T   T
  0.5833333134730552  0.8124999999834799  0.3605200052333331   F   F   F
  0.5833333134730552  0.3124999999901945  0.3605200052333331   F   F   F
  0.5833333134730552  0.0625000000159659  0.3605200052333331   F   F   F
  0.2499999999799343  0.8124999999834799  0.3605200052333331   F   F   F
  0.2499999999799343  0.5625000000092442  0.3605200052333331   F   F   F
  0.9166666865332829  0.1875000000030838  0.3605200052333331   F   F   F
  0.9166666865332829  0.4374999701794380  0.3605200052333331   F   F   F
  0.9166666865332829  0.6874999999963620  0.3605200052333331   F   F   F
  0.5846029708353683  0.5629199698629886  0.4547789962834954   T   T   T
  0.7498083026901921  0.1876781266250127  0.4535509032922559   T   T   T
  0.9161155289564958  0.5622014673404137  0.4541007531788193   T   T   T
  0.7492560554608035  0.6889906866981852  0.4571479352774760   T   T   T
  0.4176262386754003  0.4353524790966575  0.4541774313364683   T   T   T
  0.9162478060207636  0.0622604257189511  0.4538719464651129   T   T   T
  0.5009913968945849  0.2537008038860805  0.5915866413486275   T   T   T
  0.6661716607477299  0.1254420870719100  0.4994623188979681   T   T   T
  0.4168858684130142  0.1872751203526435  0.4538771121615634   T   T   T
  0.2520057243274819  0.6874898814415991  0.4559885494987460   T   T   T
  0.9163944388106677  0.9371495297964658  0.4536186962049480   T   T   T
  0.5832438347772503  0.1902394055087256  0.4556053368532214   T   T   T
  0.9997686926382741  0.1249850180315721  0.4984860948434209   T   T   T
  0.5832697700238908  0.8104901691760671  0.4553146673492846   T   T   T
  0.9998794312336421  0.3737520397457026  0.4981091124811505   T   T   T
  0.2499999999799343  0.3124999999901945  0.3605200052333331   F   F   F
  0.9996421326904817  0.6271070543067638  0.4976411583026428   T   T   T
  0.0000902567685059  0.8746393070101566  0.4993601329169036   T   T   T
  0.3333493141500620  0.8736048739730674  0.4990691823557882   T   T   T
  0.2510750906999015  0.4391549708991075  0.4550354540828073   T   T   T
  0.0833333358191695  0.5625000000092442  0.3605200052333331   F   F   F
  0.7498884307739346  0.9372323821787774  0.4546514326401095   T   T   T
  0.9164263227198381  0.3123033751383728  0.4536847878517274   T   T   T
  0.2502580167661835  0.1884278139593586  0.4541136269163180   T   T   T
  0.5832592287309210  0.0636275268460735  0.4539033324251439   T   T   T
  0.3354553866942934  0.6256510692251492  0.5036766751070989   T   T   T
  0.5827550451438609  0.9371112758816965  0.4542901658242820   T   T   T
  0.5826470105863196  0.6861061969205826  0.4546060993443296   T   T   T
  0.5821393551851580  0.4395878699622409  0.4561405109173268   T   T   T
  0.2500201752707334  0.9360649199209875  0.4540029204589699   T   T   T
  0.6653942748645717  0.6267505414539950  0.5027953232103086   T   T   T
  0.3338966539194231  0.1255947828164614  0.4991614868670021   T   T   T
  0.2499999999799343  0.0625000000159659  0.3605200052333331   F   F   F
  0.0852178018236551  0.8129178298943569  0.5474937621327967   T   T   T
  0.7499999404149307  0.3124999999901945  0.3605200052333331   F   F   F
  0.0000000000000000  0.2500000000190425  0.4070133268666680   F   F   F
  0.0000000000000000  0.4999999999932783  0.4070133268666680   F   F   F
  0.7481821709949839  0.5646919262202994  0.4536249111317382   T   T   T
  0.3333333432766779  0.0000000000000000  0.4070133268666680   F   F   F
  0.7493121210307948  0.8130728608193334  0.4531728543752855   T   T   T
  0.3333333432766779  0.4999999999932783  0.4070133268666680   F   F   F
  0.6666666865533486  0.0000000000000000  0.4070133268666680   F   F   F
  0.6666666865533486  0.2500000000190425  0.4070133268666680   F   F   F
  0.6666666865533486  0.4999999999932783  0.4070133268666680   F   F   F
  0.6666666865533486  0.7500000000123208  0.4070133268666680   F   F   F
  0.1666666716383389  0.0000000000000000  0.4070133268666680   F   F   F
  0.1666666716383389  0.2500000000190425  0.4070133268666680   F   F   F
  0.9159143739284790  0.1868750555848760  0.4531610396582938   T   T   T
  0.5000000000021103  0.0000000000000000  0.4070133268666680   F   F   F
  0.5000000000021103  0.2500000000190425  0.4070133268666680   F   F   F
  0.5000000000021103  0.7500000000123208  0.4070133268666680   F   F   F
  0.9166666865332829  0.3124999999901945  0.3605200052333331   F   F   F
  0.3333333432766779  0.2500000000190425  0.4070133268666680   F   F   F
  0.7475144735634162  0.3138821071819766  0.4540487668523668   T   T   T
  0.3333333432766779  0.7500000000123208  0.4070133268666680   F   F   F
  0.9162794779404789  0.4371867463272654  0.4535044051682325   T   T   T
  0.9164887969795656  0.8121024830006794  0.4540476297736141   T   T   T
  0.7502837858003826  0.1878570050549442  0.5458670458464528   T   T   T
  0.4228268493428451  0.6874690060801945  0.5469120256762664   T   T   T
  0.4232803348596682  0.4432659465154491  0.5458933363337484   T   T   T
  0.7533128638115341  0.4365800936962231  0.5481534422506174   T   T   T
  0.7519273674459287  0.6809675572560615  0.5530633531760901   T   T   T
  0.7494828974669959  0.0621487620104620  0.5466001300487284   T   T   T
  0.7499999404149307  0.5625000000092442  0.3605200052333331   F   F   F
  0.0000000000000000  0.0000000000000000  0.4070133268666680   F   F   F
  0.0833333358191695  0.1875000000030838  0.3605200052333331   F   F   F
  0.1666666716383389  0.7500000000123208  0.4070133268666680   F   F   F
  0.8333332538436267  0.0000000000000000  0.4070133268666680   F   F   F
  0.4166666269218169  0.8124999999834799  0.3605200052333331   F   F   F
  0.7499999404149307  0.0625000000159659  0.3605200052333331   F   F   F
  0.5000000000021103  0.4999999999932783  0.4070133268666680   F   F   F
  0.4166666269218169  0.5625000000092442  0.3605200052333331   F   F   F
  0.4166666269218169  0.3124999999901945  0.3605200052333331   F   F   F
  0.7499999404149307  0.8124999999834799  0.3605200052333331   F   F   F
  0.0835019682976506  0.3119323095806103  0.4540386432760463   T   T   T
  0.4166666269218169  0.0625000000159659  0.3605200052333331   F   F   F
  0.4170396331611433  0.0616891166588288  0.4553660182241501   T   T   T
  0.0835520739088100  0.8120383576529332  0.4541924779628164   T   T   T
  0.4158999116252422  0.5595429370522934  0.4577342544470049   T   T   T
  0.0836904758901096  0.0618853539241156  0.4542282577755206   T   T   T
  0.4155085016631568  0.3113367464318105  0.4573574796911100   T   T   T
  0.8333332538436267  0.7500000000123208  0.4070133268666680   F   F   F
  0.0833333358191695  0.4374999701794380  0.3605200052333331   F   F   F
  0.0839582950716739  0.5624894933298601  0.4539044897543716   T   T   T
  0.2502372870146999  0.8106862584432555  0.4552884781487968   T   T   T
  0.8333332538436267  0.2500000000190425  0.4070133268666680   F   F   F
  0.0833333358191695  0.6874999999963620  0.3605200052333331   F   F   F
  0.2518072150742311  0.5645998748214742  0.4536685428829097   T   T   T
  0.2522890971674373  0.3141084899198643  0.4541440776645596   T   T   T
  0.0000000000000000  0.7500000000123208  0.4070133268666680   F   F   F
  0.4168973837417745  0.8104301850392079  0.4548418943637542   T   T   T
  0.9157997380429942  0.3129588027617759  0.5468559590608650   T   T   T
  0.7491694580427033  0.0625188535023199  0.4539885939322358   T   T   T
  0.8333332538436267  0.4999999999932783  0.4070133268666680   F   F   F
  0.0833333358191695  0.8124999999834799  0.3605200052333331   F   F   F
  0.4166666269218169  0.1875000000030838  0.3605200052333331   F   F   F
  0.0833333358191695  0.9375000000154046  0.3605200052333331   F   F   F
  0.5833333134730552  0.5625000000092442  0.3605200052333331   F   F   F
  0.5843831139084782  0.3154980943081639  0.4535868156025531   T   T   T
  0.8360330387246336  0.7513190486601617  0.5027233490545098   T   T   T
  0.8326128318859860  0.8749337572330780  0.6194666394925187   T   T   T
  0.6664802798985835  0.1218650827034236  0.6141226435869804   T   T   T
  0.5000381065133779  0.8764931537200785  0.6095678279493315   T   T   T
  0.5002130679754480  0.9991930343534112  0.5054910323066735   T   T   T
  0.8357716365656551  0.3725028922542008  0.6009181915845783   T   T   T
  0.8333332538436267  0.3750000000061604  0.4070133268666680   F   F   F
  0.3315313771548676  0.1200208384989958  0.6132973908788181   T   T   T
  0.8395796714439915  0.6266529801291527  0.6041975111030821   T   T   T
  0.5000000000021103  0.6249999999803961  0.4070133268666680   F   F   F
  0.1666666716383389  0.1249999999871179  0.4070133268666680   F   F   F
  0.5032869657562373  0.6243645902362619  0.5941612264499774   T   T   T
  0.5000000000021103  0.1249999999871179  0.4070133268666680   F   F   F
  0.5000000000021103  0.3750000000061604  0.4070133268666680   F   F   F
  0.0000000000000000  0.1249999999871179  0.4070133268666680   F   F   F
  0.6735042431451373  0.3718220962491809  0.5948047153595006   T   T   T
  0.8333332538436267  0.1249999999871179  0.4070133268666680   F   F   F
  0.1671424181848619  0.1222427065367938  0.6217853589132398   T   T   T
  0.8333758012103525  0.1201808773290925  0.6130375936143221   T   T   T
  0.9997638208299968  0.6223695092508937  0.6242724638177348   T   T   T
  0.9985660886547700  0.3739930290518532  0.6234143950601586   T   T   T
  0.6662798714670836  0.6263447402856821  0.5929167863324402   T   T   T
  0.1666666716383389  0.6249999999803961  0.4070133268666680   F   F   F
  0.6642589873404805  0.8794094537475196  0.6066897810117217   T   T   T
  0.1665030655872709  0.8734366116136781  0.6180863886226706   T   T   T
  0.5004113633546542  0.1217722885511872  0.6068115594254653   T   T   T
  0.5028035967890776  0.3707066098683218  0.5957182095453495   T   T   T
  0.1666666716383389  0.8749999404036828  0.4070133268666680   F   F   F
  0.1593196126487593  0.6265793311200297  0.6012208603423973   T   T   T
  0.3343536924516672  0.8787596913460750  0.6027212326480823   T   T   T
  0.1629674265788751  0.3705809366268221  0.6076720680811755   T   T   T
  0.5000000000021103  0.8749999404036828  0.4070133268666680   F   F   F
  0.9999974832804213  0.8738711496044576  0.6239873930236637   T   T   T
  0.0000000000000000  0.3750000000061604  0.4070133268666680   F   F   F
  0.8337444340899967  0.2484233482972831  0.5044199678668201   T   T   T
  0.5012102656705052  0.4995927132230276  0.5003852026086393   T   T   T
  0.3311658526646418  0.4990270516593376  0.5010037833118680   T   T   T
  0.6689319575983208  0.4995519055101569  0.5005959213055492   T   T   T
  0.3337805431848044  0.7510836153339662  0.5015427413612066   T   T   T
  0.3331527462665486  0.0011322094118314  0.5057161118039735   T   T   T
  0.3303503618724095  0.2478891978371272  0.5027699177149526   T   T   T
  0.6666666865533486  0.6249999999803961  0.4070133268666680   F   F   F
  0.6679854428268563  0.2474638323244927  0.5039407103769271   T   T   T
  0.1643813948313941  0.7513417309164434  0.5033353856907414   T   T   T
  0.3340376191510212  0.6242977769209855  0.5949110751207125   T   T   T
  0.5008110591393703  0.7527558527473156  0.5039476804937659   T   T   T
  0.8333332538436267  0.6249999999803961  0.4070133268666680   F   F   F
  0.1659423039775355  0.0011866298265421  0.5065032952097789   T   T   T
  0.1666666716383389  0.3750000000061604  0.4070133268666680   F   F   F
  0.9993192802856372  0.1234327101407062  0.6192905313210839   T   T   T
  0.9992939392090970  0.4997381143514288  0.5067345800229391   T   T   T
  0.1660004474252456  0.2481181010703060  0.5062670336217552   T   T   T
  0.6663157195124930  0.0007340265997345  0.5058461112050378   T   T   T
  0.5015743026159151  0.2479297943656341  0.5025454170797365   T   T   T
  0.6666666865533486  0.3750000000061604  0.4070133268666680   F   F   F
  0.0000000000000000  0.8749999404036828  0.4070133268666680   F   F   F
  0.1635064805371592  0.4995372419736826  0.5019152602840302   T   T   T
  0.6654725690931254  0.7517392940432166  0.5021769210941941   T   T   T
  0.6666666865533486  0.8749999404036828  0.4070133268666680   F   F   F
  0.3265037128986108  0.3732105420869781  0.5926017525709412   T   T   T
  0.6666666865533486  0.1249999999871179  0.4070133268666680   F   F   F
  0.3333333432766779  0.8749999404036828  0.4070133268666680   F   F   F
  0.8355196752401618  0.4996745550573876  0.5027936255147061   T   T   T
  0.3333333432766779  0.3750000000061604  0.4070133268666680   F   F   F
  0.3333333432766779  0.1249999999871179  0.4070133268666680   F   F   F
  0.3333333432766779  0.6249999999803961  0.4070133268666680   F   F   F
  0.0000000000000000  0.6249999999803961  0.4070133268666680   F   F   F
  0.8333332538436267  0.8749999404036828  0.4070133268666680   F   F   F
  0.9999228274894024  0.9998169471299727  0.5062194999022549   T   T   T
  0.0000017323577856  0.7507999385128257  0.5066029987066687   T   T   T
  0.9997447182720395  0.2495028184248841  0.5062428940455685   T   T   T
  0.8339059730620427  0.9999968417365173  0.5062241659875172   T   T   T
  0.4166666269218169  0.4999999999932783  0.4070133268666680   F   F   F
  0.2499999999799343  0.2500000000190425  0.4070133268666680   F   F   F
  0.5836050382966917  0.1233752136985082  0.5049514188640739   T   T   T
  0.0833333358191695  0.7500000000123208  0.4070133268666680   F   F   F
  0.0833333358191695  0.4999999999932783  0.4070133268666680   F   F   F
  0.9166666865332829  0.7500000000123208  0.4070133268666680   F   F   F
  0.0833333358191695  0.0000000000000000  0.4070133268666680   F   F   F
  0.9166666865332829  0.4999999999932783  0.4070133268666680   F   F   F
  0.7523422765627186  0.6244305379506701  0.5027776969738953   T   T   T
  0.4166666269218169  0.0000000000000000  0.4070133268666680   F   F   F