Au  C  H  O Sr Ti                       
   1.00000000000000     
    23.6707801818999997    0.0000000000000000    0.0000000000000000
     0.0000000000000000   22.3170261383000010    0.0000000000000000
     0.0000000000000000    0.0000000000000000   30.0000000000000000
   Au   C    H    O    Sr   Ti
    50     1     3   265    72    72
Selective dynamics
Direct
  0.7162507962674387  0.5250984498871750  0.7533548489408251   T   T   T
  0.6224430740903261  0.5702678183551408  0.7040499945585309   T   T   T
  0.7201840565259232  0.2567381328422677  0.6913852560474838   T   T   T
  0.2935460636849515  0.7462800534410755  0.6974498762053492   T   T   T
  0.5123503145032543  0.6033289081554427  0.7764488297881885   T   T   T
  0.5784564683449274  0.7253763414825144  0.7938288509910182   T   T   T
  0.2405867001957839  0.4691169834060125  0.7089248848923092   T   T   T
  0.2851782214009461  0.6618274870006219  0.7648655635667112   T   T   T
  0.6039109283545635  0.2867231361450245  0.7847780041232822   T   T   T
  0.5144879779885887  0.4846645419773746  0.6779438814428422   T   T   T
  0.5633857917033742  0.4857255699586214  0.7621523831432955   T   T   T
  0.5580556373828035  0.2107585666101147  0.7116480071906205   T   T   T
  0.5493506318817145  0.3825924568819525  0.8268859779759050   T   T   T
  0.3913911158706339  0.8174689399254936  0.7065335198092993   T   T   T
  0.4638058263962357  0.6947875330217440  0.8300298856530195   T   T   T
  0.4423345827489780  0.2281223187474002  0.6970946000660572   T   T   T
  0.3717697830114965  0.2978819635950250  0.7547514999699211   T   T   T
  0.3496173084894205  0.4994144207418076  0.6976888040430114   T   T   T
  0.4296419864619948  0.3709938320390077  0.8146522862283597   T   T   T
  0.5964699957090677  0.7845084362617364  0.7130690474384631   T   T   T
  0.6350943194022599  0.5841382214364599  0.8000332495482816   T   T   T
  0.7333531885936666  0.6148909769993902  0.6940001016217493   T   T   T
  0.4858960385129362  0.7763912060483709  0.7551731013700280   T   T   T
  0.7638076427503983  0.4312604216426142  0.7043971091391784   T   T   T
  0.4881070753374357  0.2704052076646210  0.7747909356312558   T   T   T
  0.2897384632349304  0.5373737880237447  0.7773476052538737   T   T   T
  0.6163200568557720  0.3202296225352380  0.6964706201226338   T   T   T
  0.3689300775294090  0.6178672879317098  0.8200724790304457   T   T   T
  0.5706261840067712  0.5089206931376747  0.8561568560815258   T   T   T
  0.6723190890880947  0.1947237170621514  0.7567547425117054   T   T   T
  0.4722093716148420  0.4490732154302197  0.8780367049207611   T   T   T
  0.5173239044495345  0.3774896392103823  0.7317266136107555   T   T   T
  0.2829346465224624  0.3380680569803758  0.7023532463048686   T   T   T
  0.6696143859586424  0.6811834101020046  0.7486988224790830   T   T   T
  0.3977792913660280  0.3813654872595277  0.6900475779499304   T   T   T
  0.4523731651339016  0.5799919691505986  0.7024681778277083   T   T   T
  0.3757340107600274  0.4918864557884707  0.8325818576688712   T   T   T
  0.3258958063948414  0.4139179253874695  0.7688601304847066   T   T   T
  0.4186355310431049  0.6968755842280144  0.6992256988155163   T   T   T
  0.7024543751069491  0.3429785659107839  0.7569893279774974   T   T   T
  0.7743312237312989  0.4286289034826166  0.7944041390264894   T   T   T
  0.2569098102643908  0.5928172533273874  0.6945376266715939   T   T   T
  0.6486318887917357  0.4447856388937533  0.6947289836673063   T   T   T
  0.5646352204782463  0.6392023622008891  0.8610185162764783   T   T   T
  0.5415361325506850  0.6669935427794694  0.7013212887687393   T   T   T
  0.4440787397107149  0.4741594167134685  0.7561618632956693   T   T   T
  0.3742449792553102  0.7393683709948701  0.7786716560199239   T   T   T
  0.4635618953100831  0.5719119126846648  0.8632969578343412   T   T   T
  0.6561457833848158  0.4400796089366366  0.8121190959912413   T   T   T
  0.7065890466254355  0.7569479248563868  0.6883083164524982   T   T   T
  0.7624498716038274  0.0969872858573540  0.7515807124707367   T   T   T
  0.7949986065899005  0.1222425334955841  0.7696029732730841   T   T   T
  0.7684600685950926  0.1006894656538141  0.7154755824239247   T   T   T
  0.7665737318299836  0.0492349841928673  0.7600553518879357   T   T   T
  0.2494670305431273  0.3137573143121823  0.5459679967499103   T   T   T
  0.7508073239290708  0.1899401932976466  0.4557811112579199   T   T   T
  0.4170675718713190  0.9357108708345885  0.4538669979638181   T   T   T
  0.4171337868991150  0.6846971302590362  0.4546960455765721   T   T   T
  0.4164645465644581  0.4354515163393941  0.4538161786081833   T   T   T
  0.0845872800047837  0.6869036936082702  0.4530447674369565   T   T   T
  0.0839079232985031  0.9366754769900552  0.4534901897986128   T   T   T
  0.0827867614445246  0.4367876436174175  0.4528440447181714   T   T   T
  0.0838556870023904  0.1865926172048695  0.4529779294977939   T   T   T
  0.9165714903277618  0.8121303440024058  0.4540717871495575   T   T   T
  0.0833333358191695  0.3124999999901945  0.3605200052333331   F   F   F
  0.7464909194044649  0.5576970543513438  0.5446557415193635   T   T   T
  0.9160943561959467  0.0622421472067170  0.4541129082682586   T   T   T
  0.9162023465802804  0.3121855848348560  0.4538777639703376   T   T   T
  0.4171315312830534  0.1871296296717260  0.4535428488026504   T   T   T
  0.2520942377030487  0.6876375335073662  0.4561437228482510   T   T   T
  0.9164589339780795  0.9371414195674703  0.4536470791637721   T   T   T
  0.5826487651527653  0.1902901108937256  0.4555363407605620   T   T   T
  0.0001031486903442  0.1251229422493944  0.4983189721054353   T   T   T
  0.5832479789681524  0.8104848410721310  0.4553562378449879   T   T   T
  0.9999848671794030  0.3734545685326030  0.4983960599304375   T   T   T
  0.9998999322079538  0.6271306130187889  0.4977004702340594   T   T   T
  0.3336401439592970  0.1256636452110361  0.4984903940431162   T   T   T
  0.0000677713781324  0.8751438897548072  0.4995131747514249   T   T   T
  0.3334476030875049  0.8737592417013009  0.4993449426496037   T   T   T
  0.6661478850900724  0.1266021535327660  0.4990068393304877   T   T   T
  0.2511744597432232  0.4392733649330245  0.4548768191814154   T   T   T
  0.0833333358191695  0.5625000000092442  0.3605200052333331   F   F   F
  0.9166666865332829  0.0625000000159659  0.3605200052333331   F   F   F
  0.7494789273660859  0.8131832573529036  0.4530845282118036   T   T   T
  0.7497017525544722  0.4383559146872283  0.4557808259892297   T   T   T
  0.2505351908751893  0.0620283010781650  0.4542590634086174   T   T   T
  0.7491273358872964  0.6886279854074101  0.4574321888720045   T   T   T
  0.2498840807106859  0.1884702820028788  0.4541002083221023   T   T   T
  0.2500707565357778  0.9360518107536184  0.4540953274131676   T   T   T
  0.6655046575388541  0.6260823977996686  0.5029872227332546   T   T   T
  0.5845978112462921  0.5628663544499658  0.4548423994469612   T   T   T
  0.5832473179644738  0.0636977005434952  0.4538311680867990   T   T   T
  0.9166666865332829  0.6874999999963620  0.3605200052333331   F   F   F
  0.9166666865332829  0.4374999701794380  0.3605200052333331   F   F   F
  0.9166666865332829  0.1875000000030838  0.3605200052333331   F   F   F
  0.5833333134730552  0.9375000000154046  0.3605200052333331   F   F   F
  0.5833333134730552  0.6874999999963620  0.3605200052333331   F   F   F
  0.5833333134730552  0.4374999701794380  0.3605200052333331   F   F   F
  0.5833333134730552  0.1875000000030838  0.3605200052333331   F   F   F
  0.2499999999799343  0.9375000000154046  0.3605200052333331   F   F   F
  0.9166666865332829  0.9375000000154046  0.3605200052333331   F   F   F
  0.2499999999799343  0.6874999999963620  0.3605200052333331   F   F   F
  0.2499999999799343  0.1875000000030838  0.3605200052333331   F   F   F
  0.7499999404149307  0.9375000000154046  0.3605200052333331   F   F   F
  0.7499999404149307  0.6874999999963620  0.3605200052333331   F   F   F
  0.7499999404149307  0.4374999701794380  0.3605200052333331   F   F   F
  0.7499999404149307  0.1875000000030838  0.3605200052333331   F   F   F
  0.4166666269218169  0.9375000000154046  0.3605200052333331   F   F   F
  0.4166666269218169  0.6874999999963620  0.3605200052333331   F   F   F
  0.4166666269218169  0.4374999701794380  0.3605200052333331   F   F   F
  0.2499999999799343  0.4374999701794380  0.3605200052333331   F   F   F
  0.0833333358191695  0.0625000000159659  0.3605200052333331   F   F   F
  0.9153648902589061  0.6867515128879621  0.4531315087978754   T   T   T
  0.6655683820403364  0.3784965824283701  0.5030918025001455   T   T   T
  0.3343780120405004  0.3784712716752472  0.5029883348582748   T   T   T
  0.3356734763178252  0.6257646568096313  0.5038014532153109   T   T   T
  0.9175531110045144  0.0634041808876883  0.5474201437928118   T   T   T
  0.7495136226193513  0.9384377954769046  0.4553194000740752   T   T   T
  0.9154120980185295  0.3127048312325244  0.5467065458186812   T   T   T
  0.2522649275754077  0.3141301117172672  0.4541689280022037   T   T   T
  0.2519080146778682  0.5645937668702150  0.4538347171056487   T   T   T
  0.2499999999799343  0.8124999999834799  0.3605200052333331   F   F   F
  0.2499999999799343  0.5625000000092442  0.3605200052333331   F   F   F
  0.2499999999799343  0.3124999999901945  0.3605200052333331   F   F   F
  0.2499999999799343  0.0625000000159659  0.3605200052333331   F   F   F
  0.7499999404149307  0.5625000000092442  0.3605200052333331   F   F   F
  0.7499999404149307  0.3124999999901945  0.3605200052333331   F   F   F
  0.7499999404149307  0.0625000000159659  0.3605200052333331   F   F   F
  0.4166666269218169  0.8124999999834799  0.3605200052333331   F   F   F
  0.4166666269218169  0.5625000000092442  0.3605200052333331   F   F   F
  0.4166666269218169  0.3124999999901945  0.3605200052333331   F   F   F
  0.7499999404149307  0.8124999999834799  0.3605200052333331   F   F   F
  0.0835492945409661  0.3120620376420102  0.4539841351191756   T   T   T
  0.4166666269218169  0.0625000000159659  0.3605200052333331   F   F   F
  0.4168904805433220  0.0615645215019683  0.4553762654950988   T   T   T
  0.0835237275115438  0.8121060976290061  0.4541912668370315   T   T   T
  0.0839465544266911  0.5624787924052764  0.4538746882083399   T   T   T
  0.4160823207344385  0.5595184826828493  0.4578739877103641   T   T   T
  0.0837310023291876  0.0618740555490331  0.4541781749879023   T   T   T
  0.4155586170430725  0.3113419138851874  0.4573758017365302   T   T   T
  0.8333332538436267  0.7500000000123208  0.4070133268666680   F   F   F
  0.0833333358191695  0.4374999701794380  0.3605200052333331   F   F   F
  0.0833333358191695  0.6874999999963620  0.3605200052333331   F   F   F
  0.0833333358191695  0.9375000000154046  0.3605200052333331   F   F   F
  0.4166666269218169  0.1875000000030838  0.3605200052333331   F   F   F
  0.0833333358191695  0.8124999999834799  0.3605200052333331   F   F   F
  0.8333332538436267  0.4999999999932783  0.4070133268666680   F   F   F
  0.7067661396135195  0.1130667400521541  0.7645358840318862   T   T   T
  0.2510969317203080  0.0625594882934732  0.5472582711265960   T   T   T
  0.4146905170863550  0.8119107163643035  0.5479913244327534   T   T   T
  0.5833333134730552  0.0625000000159659  0.3605200052333331   F   F   F
  0.5833333134730552  0.3124999999901945  0.3605200052333331   F   F   F
  0.5833333134730552  0.8124999999834799  0.3605200052333331   F   F   F
  0.7496549346669468  0.0642756698444918  0.4532463131251689   T   T   T
  0.2505137244204356  0.8108158232817182  0.4553605875412611   T   T   T
  0.8333332538436267  0.2500000000190425  0.4070133268666680   F   F   F
  0.5843625348488592  0.3154282873793972  0.4535690405006074   T   T   T
  0.8333332538436267  0.0000000000000000  0.4070133268666680   F   F   F
  0.7482945874524348  0.8081127376839532  0.5456530536378907   T   T   T
  0.0833333358191695  0.1875000000030838  0.3605200052333331   F   F   F
  0.0000000000000000  0.0000000000000000  0.4070133268666680   F   F   F
  0.0000000000000000  0.2500000000190425  0.4070133268666680   F   F   F
  0.0000000000000000  0.4999999999932783  0.4070133268666680   F   F   F
  0.7482183670406316  0.5642673395514479  0.4537981726810546   T   T   T
  0.3333333432766779  0.0000000000000000  0.4070133268666680   F   F   F
  0.3333333432766779  0.4999999999932783  0.4070133268666680   F   F   F
  0.3333333432766779  0.7500000000123208  0.4070133268666680   F   F   F
  0.6666666865533486  0.0000000000000000  0.4070133268666680   F   F   F
  0.5827879526962837  0.4396403385421574  0.4563723908223499   T   T   T
  0.6666666865533486  0.2500000000190425  0.4070133268666680   F   F   F
  0.6666666865533486  0.7500000000123208  0.4070133268666680   F   F   F
  0.1666666716383389  0.0000000000000000  0.4070133268666680   F   F   F
  0.1666666716383389  0.2500000000190425  0.4070133268666680   F   F   F
  0.1666666716383389  0.4999999999932783  0.4070133268666680   F   F   F
  0.1666666716383389  0.7500000000123208  0.4070133268666680   F   F   F
  0.5000000000021103  0.0000000000000000  0.4070133268666680   F   F   F
  0.5000000000021103  0.2500000000190425  0.4070133268666680   F   F   F
  0.5000000000021103  0.7500000000123208  0.4070133268666680   F   F   F
  0.9166666865332829  0.3124999999901945  0.3605200052333331   F   F   F
  0.3333333432766779  0.2500000000190425  0.4070133268666680   F   F   F
  0.7474086333180607  0.3141388837578863  0.4547916310986482   T   T   T
  0.0000000000000000  0.7500000000123208  0.4070133268666680   F   F   F
  0.4166533895429888  0.8099128859053504  0.4551680608760567   T   T   T
  0.5833333134730552  0.5625000000092442  0.3605200052333331   F   F   F
  0.6666666865533486  0.4999999999932783  0.4070133268666680   F   F   F
  0.5827921694618113  0.6861237730178287  0.4545946950410736   T   T   T
  0.5000000000021103  0.4999999999932783  0.4070133268666680   F   F   F
  0.9157859593875576  0.1869032761043786  0.4532109818033708   T   T   T
  0.4158326803881965  0.9372674029982837  0.5459388002995135   T   T   T
  0.4990481724971410  0.2526789102445267  0.5905738338337591   T   T   T
  0.4157853500757553  0.1914632203759771  0.5465293985861475   T   T   T
  0.0863359203745134  0.6895619925955804  0.5452046142398214   T   T   T
  0.0826155292416964  0.4388645541089423  0.5448825421965833   T   T   T
  0.0836374238551595  0.1889630953861964  0.5454970617073404   T   T   T
  0.4995061157927937  0.1256248159208564  0.4995863934494939   T   T   T
  0.9996711718623055  0.5003986382316525  0.5943446054407411   T   T   T
  0.5807493855762855  0.1852608120458331  0.5498389193868977   T   T   T
  0.9996785744045070  0.7533391232879049  0.5923761356038143   T   T   T
  0.3340151472443549  0.9998456111113995  0.5920149733722651   T   T   T
  0.9999338421266344  0.9991605877253833  0.5932382476617440   T   T   T
  0.0008787205244092  0.2499127715135033  0.5919191707342512   T   T   T
  0.3332927380581602  0.4963924044369927  0.5908693471450295   T   T   T
  0.3359137942631245  0.7412012355268920  0.5904418375347222   T   T   T
  0.6636716185143947  0.2474251111523396  0.5902811778764546   T   T   T
  0.6661572358088264  0.0008152490733795  0.5919734191209549   T   T   T
  0.6658894681655658  0.7415978107617938  0.5902248741603141   T   T   T
  0.6668655064014443  0.4941892248585366  0.5913155413968760   T   T   T
  0.1674913891572990  0.9983185559581952  0.5922920131985913   T   T   T
  0.1684372538181902  0.2484336186538977  0.5931246200862911   T   T   T
  0.1707320503850650  0.7500726775381752  0.5950344662108987   T   T   T
  0.2485267998490525  0.4359949979293469  0.5489468979296496   T   T   T
  0.1656194740899536  0.5026917575861257  0.5874072291643586   T   T   T
  0.3349624561569623  0.2544654726628643  0.5929138150701225   T   T   T
  0.4996278179632409  0.0000192781680379  0.5909670960322346   T   T   T
  0.8328130171057878  0.8744502986591006  0.4986125487058044   T   T   T
  0.7486659205627529  0.9373452882788630  0.6402474958269051   T   T   T
  0.8324978536520629  0.0014407758326574  0.5919250558209070   T   T   T
  0.7486255318097114  0.1833409144851539  0.5509306815967032   T   T   T
  0.4232121896383860  0.6880957598549097  0.5466062726882230   T   T   T
  0.4231454918155286  0.4438919372135842  0.5455251898203726   T   T   T
  0.7520145736637801  0.4351297676195602  0.5489256152913335   T   T   T
  0.5829359791049016  0.3110886621653545  0.5449608727186217   T   T   T
  0.2531271975866990  0.8126583908723646  0.5510039920687068   T   T   T
  0.5830402326892917  0.0620159764000109  0.5454539455642321   T   T   T
  0.5827088281661275  0.9371802895175756  0.4542967077374095   T   T   T
  0.5861516841398948  0.8145310396915507  0.5503993061195175   T   T   T
  0.7481247268478970  0.3116435350063955  0.5484548625143488   T   T   T
  0.5814855351396057  0.5599739837016178  0.5489847524788025   T   T   T
  0.2524638485738865  0.5591170655108194  0.5439232145305645   T   T   T
  0.4161369624383658  0.3195543262518803  0.5525719374940452   T   T   T
  0.5767173640172140  0.4357412516943142  0.5521865817700695   T   T   T
  0.4165194731989405  0.0654316793746272  0.5473796226610482   T   T   T
  0.0848869518646041  0.8129258586656370  0.5473369696476064   T   T   T
  0.0823180202059758  0.5643605737668146  0.5462973561130328   T   T   T
  0.0864376004139736  0.3134797224517659  0.5469001855655143   T   T   T
  0.5012412833749001  0.7563547043436556  0.5930111448870264   T   T   T
  0.0823189732601198  0.0632409249060701  0.5475823914083596   T   T   T
  0.9139199012950994  0.6891840949895066  0.5452482709166731   T   T   T
  0.5838684361672321  0.9378502074683903  0.5461207046928814   T   T   T
  0.9167069985157962  0.1888109850328084  0.5454542714462560   T   T   T
  0.9159856149179356  0.4375495489671113  0.5457917458175769   T   T   T
  0.5795999281457584  0.6861974453581514  0.5473081390827746   T   T   T
  0.2515232439098219  0.9372975623087382  0.5452756327076089   T   T   T
  0.4976151021544210  0.5044887933359818  0.6088570739576297   T   T   T
  0.9172754371885838  0.5638010451943403  0.5469724557511276   T   T   T
  0.4200747574286156  0.5650651401092288  0.5554137319487531   T   T   T
  0.9155296672474592  0.8129039495408882  0.5468469624220273   T   T   T
  0.0836292767047453  0.9389120676420768  0.5457783982654377   T   T   T
  0.2493086029066409  0.6832463864393482  0.5520757497329322   T   T   T
  0.7492763944557287  0.9339974750446796  0.5476299522365994   T   T   T
  0.7519125300663037  0.6801270835812124  0.5533414187868615   T   T   T
  0.9159404841960886  0.9385758861251039  0.5463696907472873   T   T   T
  0.4177854512998420  0.0651484855768292  0.6400638253028859   T   T   T
  0.9161770528740181  0.5623152130276934  0.4539469065635767   T   T   T
  0.4128924790515326  0.8127752699948992  0.6396833516460512   T   T   T
  0.9157474495367950  0.0626409315956487  0.6411809830447641   T   T   T
  0.9126316378578379  0.5617373439927507  0.6418238550345599   T   T   T
  0.9150733930032943  0.3119030453318333  0.6396414454648239   T   T   T
  0.9141030698921508  0.8132529174263640  0.6415343460578043   T   T   T
  0.5820920547928637  0.0664269138005853  0.6387259381152516   T   T   T
  0.5840654714426500  0.3207158007312255  0.6335598745174641   T   T   T
  0.5913297476277132  0.5650583420694787  0.6392051322403717   T   T   T
  0.2475167425646463  0.5737770637568644  0.6287685799810394   T   T   T
  0.7539528134566142  0.6921990993831201  0.6569431777278371   T   T   T
  0.2620864327197084  0.7989368604530931  0.6466021180320036   T   T   T
  0.2509895289159388  0.0594427761650621  0.6423294567531662   T   T   T
  0.9166666865332829  0.5625000000092442  0.3605200052333331   F   F   F
  0.4996316902568732  0.3742552437395566  0.4997583510038051   T   T   T
  0.5003856315061753  0.6210480615780284  0.5001132338946408   T   T   T
  0.8324122442432859  0.6230374518190123  0.5000269304713214   T   T   T
  0.2520214031999846  0.1883263096914001  0.5471744065416601   T   T   T
  0.8324798066538152  0.3730986201661638  0.4997614818414908   T   T   T
  0.8329605302092666  0.1245928777149721  0.5001560578227784   T   T   T
  0.1667634148675222  0.3762630565673931  0.4977524588789151   T   T   T
  0.1677932346085075  0.6243370990014545  0.5000112111156121   T   T   T
  0.5811800386145110  0.4385826680301051  0.6462734701430310   T   T   T
  0.5796863643702891  0.6854482589086932  0.6392564594148281   T   T   T
  0.9162942750389970  0.1862382623190109  0.6398741718693567   T   T   T
  0.2490980687016471  0.3162129436839653  0.6412361578975448   T   T   T
  0.9157781595316093  0.4369368292159614  0.4536624301033111   T   T   T
  0.1670745231177103  0.1243108199600056  0.4993338945935015   T   T   T
  0.7486193733947255  0.0596013036447026  0.5441707363890171   T   T   T
  0.1677324769979251  0.8732675759223102  0.4998878303631886   T   T   T
  0.4294435506913808  0.3049903301081986  0.6550120861124354   T   T   T
  0.5911940531628194  0.8101134517429439  0.6461142375114951   T   T   T
  0.4209770491230778  0.6758072732536847  0.6334216154461836   T   T   T
  0.4999955247535947  0.8734486192551126  0.5008875762640725   T   T   T
  0.7543444395000671  0.4328743920413008  0.6378003271649705   T   T   T
  0.7535496377380144  0.5681227185764547  0.6357318363748081   T   T   T
  0.3972054759050276  0.5505696280680403  0.6519146003055822   T   T   T
  0.4175216528953361  0.9349092688348450  0.6397100706903956   T   T   T
  0.7411586604349142  0.8098903455516651  0.6399748503569174   T   T   T
  0.7456605943098950  0.3106227664628572  0.6412629077976248   T   T   T
  0.7495438849488572  0.0683298670829395  0.6379197860228191   T   T   T
  0.0840116902352106  0.3116221324949338  0.6403947393442994   T   T   T
  0.6665881354517563  0.8744961879830465  0.4987933257444058   T   T   T
  0.0872793447771535  0.5622304528020272  0.6409543763875850   T   T   T
  0.0868948822505142  0.4364828907384559  0.6394709297700080   T   T   T
  0.0835054356610200  0.1856417406144611  0.6410356334490640   T   T   T
  0.4185974857752905  0.1877203079796988  0.6398928631198083   T   T   T
  0.4150204168798128  0.4188262328931070  0.6298720690251424   T   T   T
  0.0844104454658753  0.9355268241398718  0.6407320021681372   T   T   T
  0.0831315179886023  0.6870186589695434  0.6392103090369083   T   T   T
  0.0842850071692062  0.0604889915182349  0.6421615476944642   T   T   T
  0.8332171132394992  0.5021964488528394  0.5889488695688041   T   T   T
  0.9125485143309103  0.4359705367478939  0.6397643292955342   T   T   T
  0.8305155917921745  0.7507614667723600  0.5927943588389692   T   T   T
  0.8315411425539796  0.2486897067840028  0.5910209251122405   T   T   T
  0.7459158882244438  0.1939371324798325  0.6466516881994091   T   T   T
  0.9166666865332829  0.8124999999834799  0.3605200052333331   F   F   F
  0.5820904578004770  0.9358727420426912  0.6393091307787460   T   T   T
  0.0842905923740116  0.8122854539167638  0.6421314062651590   T   T   T
  0.5800486284920386  0.1914620512483245  0.6449463326372664   T   T   T
  0.2549868037757209  0.6773515937292275  0.6630463373121630   T   T   T
  0.2407772300924935  0.4419417445512859  0.6414561076946877   T   T   T
  0.9145257042910390  0.9369641340540892  0.6412338436080426   T   T   T
  0.9162704631352027  0.6874828313639719  0.6392553525764053   T   T   T
  0.2519877980405266  0.9301616680815303  0.6373861198205154   T   T   T
  0.2535607326565850  0.1865018176173073  0.6412098276907795   T   T   T
  0.0006923460118855  0.1226015666873822  0.6201630952039098   T   T   T
  0.1666666716383389  0.3750000000061604  0.4070133268666680   F   F   F
  0.6654316688692267  0.7519656252177567  0.5022235102148898   T   T   T
  0.5011641507469048  0.7528741512843982  0.5039340384855253   T   T   T
  0.6659819584678363  0.0000119399933596  0.5055804417538514   T   T   T
  0.1644226156546331  0.7515277832614222  0.5033632170449256   T   T   T
  0.8333332538436267  0.6249999999803961  0.4070133268666680   F   F   F
  0.6685241623995133  0.4998421400609091  0.5006661942645843   T   T   T
  0.3312036107633450  0.4992271606546169  0.5009186468445688   T   T   T
  0.3301492941125015  0.2480591220295768  0.5028136322334146   T   T   T
  0.3338452157052931  0.7511390012312636  0.5015554478410172   T   T   T
  0.6668713927090205  0.2479388630325823  0.5026358838442970   T   T   T
  0.5013529984384258  0.4997698736270164  0.5002896868797699   T   T   T
  0.9997050338076233  0.5005374509685950  0.5070012387292175   T   T   T
  0.8361837559344867  0.5000211513486846  0.5028121657737887   T   T   T
  0.8358077503949576  0.2486156010378697  0.5026810885798689   T   T   T
  0.6666666865533486  0.3750000000061604  0.4070133268666680   F   F   F
  0.1660457955514078  0.0011411967647327  0.5065604949591642   T   T   T
  0.0000000000000000  0.8749999404036828  0.4070133268666680   F   F   F
  0.5010273039498478  0.2479395254187919  0.5021240161893358   T   T   T
  0.9999242224825865  0.7508811558610925  0.5066304985296666   T   T   T
  0.0008523125104494  0.2498230148669301  0.5059429964790177   T   T   T
  0.0000982722931483  0.0000312940525589  0.5066896970827554   T   T   T
  0.6666666865533486  0.6249999999803961  0.4070133268666680   F   F   F
  0.8333332538436267  0.8749999404036828  0.4070133268666680   F   F   F
  0.3333333432766779  0.6249999999803961  0.4070133268666680   F   F   F
  0.3333333432766779  0.1249999999871179  0.4070133268666680   F   F   F
  0.3333333432766779  0.3750000000061604  0.4070133268666680   F   F   F
  0.8344088617451135  0.0000984814574132  0.5062034108310489   T   T   T
  0.3333333432766779  0.8749999404036828  0.4070133268666680   F   F   F
  0.6666666865533486  0.1249999999871179  0.4070133268666680   F   F   F
  0.0000000000000000  0.6249999999803961  0.4070133268666680   F   F   F
  0.1663568052536426  0.2482310427522034  0.5061927154493853   T   T   T
  0.3330884002337048  0.0010968415162397  0.5058035770419402   T   T   T
  0.5002239897102920  0.9993498354618746  0.5054765938260039   T   T   T
  0.5008106970902809  0.8767466019413849  0.6096862662565378   T   T   T
  0.3258659216820752  0.3736350422334217  0.5927250685302363   T   T   T
  0.0000000000000000  0.3750000000061604  0.4070133268666680   F   F   F
  0.3341674101891088  0.6243874979420536  0.5951892847329550   T   T   T
  0.5000000000021103  0.8749999404036828  0.4070133268666680   F   F   F
  0.8333332538436267  0.3750000000061604  0.4070133268666680   F   F   F
  0.1666666716383389  0.1249999999871179  0.4070133268666680   F   F   F
  0.6653705890783441  0.1242832370946219  0.6114220476237617   T   T   T
  0.5000000000021103  0.6249999999803961  0.4070133268666680   F   F   F
  0.8397738700277665  0.6268973006864118  0.6035924477983472   T   T   T
  0.3317230340756273  0.1198808953157554  0.6136874056444224   T   T   T
  0.9992256043295881  0.8749619182025080  0.6223753905513741   T   T   T
  0.1635876853649837  0.4998661934182889  0.5020510639642438   T   T   T
  0.5000000000021103  0.1249999999871179  0.4070133268666680   F   F   F
  0.8320730376128707  0.8763056989970154  0.6182776237325410   T   T   T
  0.8376819756568699  0.3725312896433326  0.6033226170439784   T   T   T
  0.8360816129677388  0.7517799538283050  0.5025971641574158   T   T   T
  0.1666666716383389  0.8749999404036828  0.4070133268666680   F   F   F
  0.8333332538436267  0.1249999999871179  0.4070133268666680   F   F   F
  0.0000000000000000  0.1249999999871179  0.4070133268666680   F   F   F
  0.5039707195702791  0.6250278045216556  0.5938811689387294   T   T   T
  0.6708225572001502  0.3722752734173673  0.5933729077623513   T   T   T
  0.5000000000021103  0.3750000000061604  0.4070133268666680   F   F   F
  0.6666666865533486  0.8749999404036828  0.4070133268666680   F   F   F
  0.3345242816162918  0.8785567521397865  0.6029920552518813   T   T   T
  0.1593447073250451  0.6272347292728707  0.6014506779662090   T   T   T
  0.1662396993114482  0.8733790597788235  0.6179770758345140   T   T   T
  0.5017848357215621  0.3712083956420586  0.5950309041811478   T   T   T
  0.1666666716383389  0.6249999999803961  0.4070133268666680   F   F   F
  0.1677327970326043  0.1228538488878783  0.6218903685915484   T   T   T
  0.5002015795572836  0.1223930347976067  0.6062724135294916   T   T   T
  0.9996214561235831  0.6221470061026316  0.6314494650225363   T   T   T
  0.0001312350540768  0.3747853874018497  0.6234727819537618   T   T   T
  0.8350006816529232  0.1243160531560349  0.6134035805350320   T   T   T
  0.6654811949361109  0.8813246698295644  0.6074761388766057   T   T   T
  0.1633120501993221  0.3713525899729793  0.6076808452343427   T   T   T
  0.6665187953214894  0.6262590429529185  0.5934980371770427   T   T   T
  0.0834643062198493  0.2479713741111936  0.6035632691310014   T   T   T
  0.7499527530472061  0.0016894025102827  0.6040577575877240   T   T   T
  0.5825352515913963  0.0010097665853438  0.6041189793715140   T   T   T
  0.9165940107441001  0.9997333634383659  0.6037918260725788   T   T   T
  0.5847424413401896  0.7499787348499906  0.5997732998612448   T   T   T
  0.5904906790113010  0.5011826710389120  0.5935972084882623   T   T   T
  0.2425366848592028  0.4978429638937594  0.5939196095488620   T   T   T
  0.5846370414816507  0.2474244080525129  0.5969071413486727   T   T   T
  0.2497441970579617  0.9976926201873419  0.6042397037259811   T   T   T
  0.7539350532464225  0.2479891586528646  0.5928235370801840   T   T   T
  0.2490342121970031  0.2456911300494913  0.6035934031557408   T   T   T
  0.4171409333577519  0.0000567919010828  0.6046468437375079   T   T   T
  0.2493205488347638  0.7526424126236063  0.5921118301431357   T   T   T
  0.0815803041844765  0.5000528721980827  0.6032118399114068   T   T   T