Au  C  H  O Sr Ti                       
   1.00000000000000     
    23.6707801818999997    0.0000000000000000    0.0000000000000000
     0.0000000000000000   22.3170261383000010    0.0000000000000000
     0.0000000000000000    0.0000000000000000   30.0000000000000000
   Au   C    H    O    Sr   Ti
    50     1     3   265    72    72
Selective dynamics
Direct
  0.7162608015554640  0.5250894021258408  0.7533483716634127   T   T   T
  0.6224477477345937  0.5702568520862801  0.7040494630882301   T   T   T
  0.7201935829077960  0.2567011159721997  0.6914122746812337   T   T   T
  0.2935544685761592  0.7462782772513256  0.6974518321918513   T   T   T
  0.5123423214418237  0.6033343777050595  0.7764430667588268   T   T   T
  0.5784557023084756  0.7253610872610864  0.7938265672680916   T   T   T
  0.2405864372173908  0.4691294954813617  0.7089228863668853   T   T   T
  0.2851771173301012  0.6618230237868615  0.7648556607362076   T   T   T
  0.6040028902118735  0.2866518218745092  0.7847799367125352   T   T   T
  0.5144808063816739  0.4846895550037502  0.6779431378503477   T   T   T
  0.5633916881538321  0.4857321466428070  0.7621518114460073   T   T   T
  0.5580821042983428  0.2107305696719221  0.7116359978782842   T   T   T
  0.5494170690969969  0.3825286477825016  0.8268430555259383   T   T   T
  0.3913868353687374  0.8174365460024529  0.7065564288351004   T   T   T
  0.4638154104880120  0.6947682272216696  0.8300300859831569   T   T   T
  0.4423715798497699  0.2281332462000507  0.6971028581825310   T   T   T
  0.3718068878095563  0.2978810998396614  0.7547580523593745   T   T   T
  0.3496093414220668  0.4994232052591088  0.6976925101650054   T   T   T
  0.4296383804215857  0.3709777259363645  0.8146422117641990   T   T   T
  0.5964598292638242  0.7844959082967286  0.7130644274934823   T   T   T
  0.6350859003473547  0.5841460650835154  0.8000445235971746   T   T   T
  0.7333592608062190  0.6148971792796055  0.6939975237341014   T   T   T
  0.4858693357133482  0.7763952635780368  0.7551975728902847   T   T   T
  0.7638588490991298  0.4313132429762718  0.7044031993611927   T   T   T
  0.4881273564202418  0.2703899091232635  0.7747900682442228   T   T   T
  0.2897564866391953  0.5373719239752694  0.7773464921912167   T   T   T
  0.6163183212907352  0.3202321023058428  0.6964472504141734   T   T   T
  0.3689371217265172  0.6178670155689270  0.8200748019682276   T   T   T
  0.5706405459412708  0.5089164285565748  0.8561593791633941   T   T   T
  0.6722992197193283  0.1947052936930227  0.7567111098449323   T   T   T
  0.4722214824423312  0.4490908105070407  0.8779967835615266   T   T   T
  0.5173319762845859  0.3774969390649925  0.7317166984038120   T   T   T
  0.2829317509117614  0.3380729160784636  0.7023515530751508   T   T   T
  0.6696014384422375  0.6811938794957817  0.7487010030971980   T   T   T
  0.3977847146078589  0.3813641195291352  0.6900539837721696   T   T   T
  0.4523871914269692  0.5799836413341165  0.7024819932241255   T   T   T
  0.3757389098616148  0.4918904932029981  0.8325857915811903   T   T   T
  0.3258924932440041  0.4139318890845663  0.7688679027700291   T   T   T
  0.4187267983049140  0.6968707184141693  0.6992481627739703   T   T   T
  0.7024791857444656  0.3430236729396967  0.7569739981866245   T   T   T
  0.7743257881649664  0.4286546862612571  0.7944031998957026   T   T   T
  0.2569148365853348  0.5928063561493304  0.6945366776855235   T   T   T
  0.6486203169230192  0.4447793454748241  0.6947229679442555   T   T   T
  0.5646261657210221  0.6391879078502671  0.8610249482409347   T   T   T
  0.5415438029815504  0.6669904527895213  0.7013176723511657   T   T   T
  0.4440947429989340  0.4741608814323859  0.7561549200271031   T   T   T
  0.3742574763117894  0.7393552674149628  0.7786630005530646   T   T   T
  0.4635735640331139  0.5718825347234865  0.8632838875014178   T   T   T
  0.6561582056102701  0.4400794323684495  0.8121110552603008   T   T   T
  0.7065872941605271  0.7569146325315262  0.6883151633824384   T   T   T
  0.7625036722979399  0.0969396661063116  0.7515747007413406   T   T   T
  0.7950581800389586  0.1221483721140365  0.7696216924887896   T   T   T
  0.7684857686614599  0.1006730739521366  0.7155214893972479   T   T   T
  0.7666147031827820  0.0492498659213691  0.7600144523685229   T   T   T
  0.2494564851102163  0.3137552542711263  0.5459665590272844   T   T   T
  0.7507881676575870  0.1899730506620732  0.4557856459699565   T   T   T
  0.4170674617558615  0.9357132057600047  0.4538757253380499   T   T   T
  0.4171403968324092  0.6846807877322664  0.4546925402891054   T   T   T
  0.4164549927671225  0.4354405936244134  0.4538147377659230   T   T   T
  0.0845895896646913  0.6869021078885095  0.4530469707711320   T   T   T
  0.0839180599909317  0.9366815745475967  0.4534859098405755   T   T   T
  0.0827830884118620  0.4367803584553349  0.4528556911011301   T   T   T
  0.0838680182718328  0.1865652584627803  0.4529681685888535   T   T   T
  0.9165842935376391  0.8121068936528948  0.4540764708512092   T   T   T
  0.0833333358191695  0.3124999999901945  0.3605200052333331   F   F   F
  0.7464558000360476  0.5577359296214552  0.5446556033064117   T   T   T
  0.9161040254305421  0.0622503899525516  0.4541181057734069   T   T   T
  0.9162215047511457  0.3121838472583952  0.4538803324837755   T   T   T
  0.4171393302179521  0.1871419606229886  0.4535439385429557   T   T   T
  0.2520949582347714  0.6876378474100829  0.4561329770381846   T   T   T
  0.9164833826857944  0.9371365483048657  0.4536386042804577   T   T   T
  0.5826615336756961  0.1902731984423831  0.4555341404403371   T   T   T
  0.0001139320044614  0.1251404440780018  0.4983232250566924   T   T   T
  0.5832796140164658  0.8104985321308364  0.4553565500418410   T   T   T
 -0.0000019990339269  0.3734379045719270  0.4984028805980333   T   T   T
  0.9999190776336951  0.6271081781328453  0.4976968498375850   T   T   T
  0.3336432289384838  0.1256736852415367  0.4985013973156376   T   T   T
  0.0000744030072990  0.8751472212944359  0.4995103269368166   T   T   T
  0.3334247413140912  0.8737469787107749  0.4993430630192381   T   T   T
  0.6661443937674334  0.1266166708784758  0.4990050784869981   T   T   T
  0.2511740165145955  0.4392820240230975  0.4548709651295442   T   T   T
  0.0833333358191695  0.5625000000092442  0.3605200052333331   F   F   F
  0.9166666865332829  0.0625000000159659  0.3605200052333331   F   F   F
  0.7494728539003975  0.8131493569790089  0.4530717496464239   T   T   T
  0.7496867725851504  0.4383571549754973  0.4557872941788545   T   T   T
  0.2505195875995355  0.0620221919317766  0.4542593434014913   T   T   T
  0.7491456777691864  0.6886453967361504  0.4574306604193252   T   T   T
  0.2498815383626127  0.1885151705536435  0.4540927535660564   T   T   T
  0.2500849617820743  0.9360513440280017  0.4540961570287356   T   T   T
  0.6654899222421681  0.6260572413042935  0.5029842471953164   T   T   T
  0.5845944804522248  0.5628736320604654  0.4548431275047358   T   T   T
  0.5832466863765994  0.0637072580692457  0.4538337952238506   T   T   T
  0.9166666865332829  0.6874999999963620  0.3605200052333331   F   F   F
  0.9166666865332829  0.4374999701794380  0.3605200052333331   F   F   F
  0.9166666865332829  0.1875000000030838  0.3605200052333331   F   F   F
  0.5833333134730552  0.9375000000154046  0.3605200052333331   F   F   F
  0.5833333134730552  0.6874999999963620  0.3605200052333331   F   F   F
  0.5833333134730552  0.4374999701794380  0.3605200052333331   F   F   F
  0.5833333134730552  0.1875000000030838  0.3605200052333331   F   F   F
  0.2499999999799343  0.9375000000154046  0.3605200052333331   F   F   F
  0.9166666865332829  0.9375000000154046  0.3605200052333331   F   F   F
  0.2499999999799343  0.6874999999963620  0.3605200052333331   F   F   F
  0.2499999999799343  0.1875000000030838  0.3605200052333331   F   F   F
  0.7499999404149307  0.9375000000154046  0.3605200052333331   F   F   F
  0.7499999404149307  0.6874999999963620  0.3605200052333331   F   F   F
  0.7499999404149307  0.4374999701794380  0.3605200052333331   F   F   F
  0.7499999404149307  0.1875000000030838  0.3605200052333331   F   F   F
  0.4166666269218169  0.9375000000154046  0.3605200052333331   F   F   F
  0.4166666269218169  0.6874999999963620  0.3605200052333331   F   F   F
  0.4166666269218169  0.4374999701794380  0.3605200052333331   F   F   F
  0.2499999999799343  0.4374999701794380  0.3605200052333331   F   F   F
  0.0833333358191695  0.0625000000159659  0.3605200052333331   F   F   F
  0.9153771194667593  0.6867452947225999  0.4531272098704303   T   T   T
  0.6655596632926440  0.3784942343540013  0.5031014858177316   T   T   T
  0.3344274875393939  0.3784604537507804  0.5029943244099732   T   T   T
  0.3356642048854890  0.6257520470459514  0.5038308936597943   T   T   T
  0.9175392685813415  0.0633956724590798  0.5474319797088264   T   T   T
  0.7494964355846504  0.9384486703669113  0.4553252150092737   T   T   T
  0.9154160644465534  0.3126995106308846  0.5467134856458193   T   T   T
  0.2522718617880249  0.3141473796601574  0.4541693012989801   T   T   T
  0.2519039275547948  0.5645954064475882  0.4538389223523514   T   T   T
  0.2499999999799343  0.8124999999834799  0.3605200052333331   F   F   F
  0.2499999999799343  0.5625000000092442  0.3605200052333331   F   F   F
  0.2499999999799343  0.3124999999901945  0.3605200052333331   F   F   F
  0.2499999999799343  0.0625000000159659  0.3605200052333331   F   F   F
  0.7499999404149307  0.5625000000092442  0.3605200052333331   F   F   F
  0.7499999404149307  0.3124999999901945  0.3605200052333331   F   F   F
  0.7499999404149307  0.0625000000159659  0.3605200052333331   F   F   F
  0.4166666269218169  0.8124999999834799  0.3605200052333331   F   F   F
  0.4166666269218169  0.5625000000092442  0.3605200052333331   F   F   F
  0.4166666269218169  0.3124999999901945  0.3605200052333331   F   F   F
  0.7499999404149307  0.8124999999834799  0.3605200052333331   F   F   F
  0.0835493424787490  0.3120541965464930  0.4539696578920636   T   T   T
  0.4166666269218169  0.0625000000159659  0.3605200052333331   F   F   F
  0.4168766017016206  0.0615406615248295  0.4553598743855442   T   T   T
  0.0835189657773280  0.8120948451072981  0.4541993508727118   T   T   T
  0.0839562851918604  0.5624874519737929  0.4538701963620371   T   T   T
  0.4160350279209947  0.5595232845849373  0.4578594797517243   T   T   T
  0.0837672749411715  0.0618768180982947  0.4541938571511872   T   T   T
  0.4155514824683267  0.3113477343469355  0.4573680449782872   T   T   T
  0.8333332538436267  0.7500000000123208  0.4070133268666680   F   F   F
  0.0833333358191695  0.4374999701794380  0.3605200052333331   F   F   F
  0.0833333358191695  0.6874999999963620  0.3605200052333331   F   F   F
  0.0833333358191695  0.9375000000154046  0.3605200052333331   F   F   F
  0.4166666269218169  0.1875000000030838  0.3605200052333331   F   F   F
  0.0833333358191695  0.8124999999834799  0.3605200052333331   F   F   F
  0.8333332538436267  0.4999999999932783  0.4070133268666680   F   F   F
  0.7068682979104174  0.1129345645841218  0.7645267235012350   T   T   T
  0.2510695042105757  0.0625810054935413  0.5472681441057416   T   T   T
  0.4146890213534239  0.8119153597184453  0.5479828435279062   T   T   T
  0.5833333134730552  0.0625000000159659  0.3605200052333331   F   F   F
  0.5833333134730552  0.3124999999901945  0.3605200052333331   F   F   F
  0.5833333134730552  0.8124999999834799  0.3605200052333331   F   F   F
  0.7496717323795374  0.0642620636970003  0.4532306136762259   T   T   T
  0.2504990927852166  0.8107940218657924  0.4553710072282162   T   T   T
  0.8333332538436267  0.2500000000190425  0.4070133268666680   F   F   F
  0.5843317154574686  0.3154385376988424  0.4535830768769622   T   T   T
  0.8333332538436267  0.0000000000000000  0.4070133268666680   F   F   F
  0.7482702511567009  0.8081081505502591  0.5456436064914094   T   T   T
  0.0833333358191695  0.1875000000030838  0.3605200052333331   F   F   F
  0.0000000000000000  0.0000000000000000  0.4070133268666680   F   F   F
  0.0000000000000000  0.2500000000190425  0.4070133268666680   F   F   F
  0.0000000000000000  0.4999999999932783  0.4070133268666680   F   F   F
  0.7482220805134788  0.5642632826653278  0.4537927898272169   T   T   T
  0.3333333432766779  0.0000000000000000  0.4070133268666680   F   F   F
  0.3333333432766779  0.4999999999932783  0.4070133268666680   F   F   F
  0.3333333432766779  0.7500000000123208  0.4070133268666680   F   F   F
  0.6666666865533486  0.0000000000000000  0.4070133268666680   F   F   F
  0.5827976986834112  0.4396245268904167  0.4563762408194714   T   T   T
  0.6666666865533486  0.2500000000190425  0.4070133268666680   F   F   F
  0.6666666865533486  0.7500000000123208  0.4070133268666680   F   F   F
  0.1666666716383389  0.0000000000000000  0.4070133268666680   F   F   F
  0.1666666716383389  0.2500000000190425  0.4070133268666680   F   F   F
  0.1666666716383389  0.4999999999932783  0.4070133268666680   F   F   F
  0.1666666716383389  0.7500000000123208  0.4070133268666680   F   F   F
  0.5000000000021103  0.0000000000000000  0.4070133268666680   F   F   F
  0.5000000000021103  0.2500000000190425  0.4070133268666680   F   F   F
  0.5000000000021103  0.7500000000123208  0.4070133268666680   F   F   F
  0.9166666865332829  0.3124999999901945  0.3605200052333331   F   F   F
  0.3333333432766779  0.2500000000190425  0.4070133268666680   F   F   F
  0.7473961484399719  0.3141082779526255  0.4547885734381577   T   T   T
  0.0000000000000000  0.7500000000123208  0.4070133268666680   F   F   F
  0.4166495665550989  0.8099035465855242  0.4551631666989194   T   T   T
  0.5833333134730552  0.5625000000092442  0.3605200052333331   F   F   F
  0.6666666865533486  0.4999999999932783  0.4070133268666680   F   F   F
  0.5827932472474218  0.6861043904785784  0.4545868634822672   T   T   T
  0.5000000000021103  0.4999999999932783  0.4070133268666680   F   F   F
  0.9157903222469609  0.1869012993782152  0.4532186504688449   T   T   T
  0.4158363113210339  0.9372645754667404  0.5459496023673929   T   T   T
  0.4990326709216505  0.2526794998115376  0.5905692006663901   T   T   T
  0.4158008379943051  0.1914799632484563  0.5465414494623781   T   T   T
  0.0863227960424175  0.6895531345603605  0.5452152666826191   T   T   T
  0.0825958597405446  0.4388410903010854  0.5448664128768310   T   T   T
  0.0836436380574985  0.1889815875497069  0.5454954207775176   T   T   T
  0.4994987330983193  0.1256447143126920  0.4995759342824205   T   T   T
  0.9996882659148065  0.5003990604646503  0.5943506001309268   T   T   T
  0.5807473922492273  0.1852802984825465  0.5498496413955117   T   T   T
  0.9996782815998558  0.7533196390957819  0.5923805960026852   T   T   T
  0.3340217750005218  0.9998482451211238  0.5920257790056773   T   T   T
  0.9999296292227867  0.9991449478052583  0.5932395912704918   T   T   T
  0.0008878899189638  0.2499190919731631  0.5919209752900074   T   T   T
  0.3332936403444253  0.4963973587064175  0.5908709245856175   T   T   T
  0.3359061803573944  0.7412102857083060  0.5904496118759412   T   T   T
  0.6636224640644597  0.2474352166850745  0.5902621941317637   T   T   T
  0.6660802322217871  0.0008206050585931  0.5919782978452288   T   T   T
  0.6659152106231292  0.7416165186170388  0.5902396633743764   T   T   T
  0.6668459547572564  0.4941806743720271  0.5913201301579712   T   T   T
  0.1675068688171985  0.9983197785866704  0.5922875227731221   T   T   T
  0.1684525733297375  0.2484523442682576  0.5931444239611166   T   T   T
  0.1707613863758541  0.7500727065046739  0.5950276154501806   T   T   T
  0.2485138643327769  0.4359964816679248  0.5489303800717993   T   T   T
  0.1656257350530191  0.5027108245122385  0.5874209227737275   T   T   T
  0.3349667389042484  0.2544669495208200  0.5929092715734814   T   T   T
  0.4996608658298297 -0.0000057893255767  0.5909854169771670   T   T   T
  0.8328028451250826  0.8744399843414277  0.4985987239433610   T   T   T
  0.7486619800441450  0.9373591343404177  0.6402383751479239   T   T   T
  0.8325129375560314  0.0014319390145668  0.5919343792346855   T   T   T
  0.7486143925136280  0.1833360079203893  0.5509087750489122   T   T   T
  0.4232252426880573  0.6881111067572130  0.5465972051038618   T   T   T
  0.4231180168136947  0.4439000199113248  0.5455371114905261   T   T   T
  0.7520083920146150  0.4351394157041409  0.5489036037663384   T   T   T
  0.5829362777990674  0.3111007927856174  0.5449640562067212   T   T   T
  0.2531257103544846  0.8126297746724014  0.5510179543910170   T   T   T
  0.5830521903106309  0.0620217190683030  0.5454628872378533   T   T   T
  0.5826970102470989  0.9371618121363251  0.4543262148022881   T   T   T
  0.5861614162648141  0.8145302311956139  0.5503926163927948   T   T   T
  0.7481384380097884  0.3116470436937726  0.5484555488473418   T   T   T
  0.5814895734771285  0.5599715949416191  0.5489830107332760   T   T   T
  0.2524811212038676  0.5590896036000862  0.5439394226143621   T   T   T
  0.4161193813476349  0.3195630534678331  0.5525641036122174   T   T   T
  0.5767230671086717  0.4357439296501470  0.5521770034972283   T   T   T
  0.4165271323239391  0.0654262328700777  0.5473709660674657   T   T   T
  0.0848923460000300  0.8129169620383349  0.5473152732432567   T   T   T
  0.0823235639905552  0.5643796575233596  0.5463018755460807   T   T   T
  0.0864417699901958  0.3134919928282904  0.5468731658435854   T   T   T
  0.5012640910184559  0.7563584710078433  0.5929991947974187   T   T   T
  0.0823215946636765  0.0632317578219893  0.5475892737007549   T   T   T
  0.9139016022756967  0.6891905264570588  0.5452514204914074   T   T   T
  0.5838794266449551  0.9378470898196455  0.5461190791774789   T   T   T
  0.9167010120089019  0.1888166432208769  0.5454696264977137   T   T   T
  0.9159621377156595  0.4375563625527488  0.5457899382111903   T   T   T
  0.5795903518789056  0.6861785231794419  0.5472957741338742   T   T   T
  0.2515165834167427  0.9372901548969245  0.5452748645813121   T   T   T
  0.4975673784157192  0.5045096586272164  0.6088579100315052   T   T   T
  0.9172913727014844  0.5638032986185411  0.5469831235203247   T   T   T
  0.4200944671744558  0.5650655832767040  0.5554165860362057   T   T   T
  0.9155455300417804  0.8128812656747780  0.5468515952047137   T   T   T
  0.0836232234475645  0.9389212952001789  0.5457782389949172   T   T   T
  0.2492908735018209  0.6832339403676889  0.5520653544847530   T   T   T
  0.7492694495196165  0.9340092373459126  0.5476302398538933   T   T   T
  0.7519192877808075  0.6800987722744211  0.5533584063590279   T   T   T
  0.9159148543034592  0.9385836016550256  0.5463826552467450   T   T   T
  0.4178025239398975  0.0651568570991232  0.6400572840521674   T   T   T
  0.9161702483719333  0.5622963908309373  0.4539454576561445   T   T   T
  0.4128865506701237  0.8127911855993353  0.6396919760664584   T   T   T
  0.9157338311830835  0.0626401990139813  0.6411752617895714   T   T   T
  0.9126445889905614  0.5617216208912851  0.6418334305309920   T   T   T
  0.9150562113007530  0.3119009008601830  0.6396319882458643   T   T   T
  0.9141042149280926  0.8132349788988039  0.6415375879110951   T   T   T
  0.5821168184604852  0.0664113179976576  0.6387254766984198   T   T   T
  0.5840622050133801  0.3206779415832074  0.6335769382002738   T   T   T
  0.5913352863311325  0.5650686862321685  0.6391982855103571   T   T   T
  0.2475224376468166  0.5737819915453013  0.6287708372238668   T   T   T
  0.7539316326386148  0.6922175157200036  0.6569365633377391   T   T   T
  0.2620955648863650  0.7989200783088740  0.6466042732272679   T   T   T
  0.2509863580631678  0.0594432515143497  0.6423306376597426   T   T   T
  0.9166666865332829  0.5625000000092442  0.3605200052333331   F   F   F
  0.4996314047206560  0.3742802138307799  0.4997506769809024   T   T   T
  0.5003952538497138  0.6210508345602611  0.5001225332315637   T   T   T
  0.8323941252318823  0.6230635552235284  0.5000138437607535   T   T   T
  0.2520291363901037  0.1883071958232243  0.5471668258069240   T   T   T
  0.8324721673491186  0.3731090744896631  0.4997791486312160   T   T   T
  0.8329461762529238  0.1246322674324048  0.5001640558039689   T   T   T
  0.1667607474724009  0.3762703192401112  0.4977610746381932   T   T   T
  0.1677712848328885  0.6243315825894917  0.4999989378559891   T   T   T
  0.5811793380034278  0.4385855714628958  0.6462834201835949   T   T   T
  0.5796608529860274  0.6854638963185057  0.6392611364158697   T   T   T
  0.9162778662232152  0.1862033693365448  0.6398782033155292   T   T   T
  0.2490964163720539  0.3161950316390568  0.6412377041316181   T   T   T
  0.9157814003182712  0.4369440023182514  0.4536687163071544   T   T   T
  0.1670900958826315  0.1243222819094651  0.4993368994500071   T   T   T
  0.7485990075040524  0.0596180291562774  0.5441487945282646   T   T   T
  0.1677654539793459  0.8732826049431699  0.4999073456713372   T   T   T
  0.4294381282947815  0.3049925971594741  0.6550101009111382   T   T   T
  0.5911905139643302  0.8101159898837210  0.6461111463254970   T   T   T
  0.4209907173376097  0.6758103288713414  0.6334286911796593   T   T   T
  0.5000212313010742  0.8734339898981207  0.5008898647285156   T   T   T
  0.7543238347662276  0.4328753795845428  0.6378061415518660   T   T   T
  0.7535765765248239  0.5681500123000731  0.6357420418807649   T   T   T
  0.3971926258950986  0.5505553874760246  0.6519088749146309   T   T   T
  0.4175189262375786  0.9348937463317092  0.6397101692866829   T   T   T
  0.7411568284603408  0.8098948747626802  0.6399739577624719   T   T   T
  0.7456186707284058  0.3106500442760873  0.6413042803883178   T   T   T
  0.7495170383940579  0.0683169670282124  0.6378913513784940   T   T   T
  0.0840048008595589  0.3116514331541907  0.6404134468348723   T   T   T
  0.6665997111407809  0.8744887856204598  0.4987911030081237   T   T   T
  0.0873028193743071  0.5622288893153010  0.6409529935792261   T   T   T
  0.0868915993388723  0.4364864728288394  0.6394638287497215   T   T   T
  0.0835271972152864  0.1856492620994031  0.6410335580124690   T   T   T
  0.4185855235187600  0.1877490721514587  0.6398965208627660   T   T   T
  0.4150119395928794  0.4188463919642192  0.6298851872809933   T   T   T
  0.0844097482318778  0.9355102074983143  0.6407195927206087   T   T   T
  0.0831522721407998  0.6870428521241629  0.6392207403243042   T   T   T
  0.0843164075533534  0.0604839344155803  0.6421542940560454   T   T   T
  0.8331811979683811  0.5021778077367890  0.5889264187339359   T   T   T
  0.9125331263646816  0.4359834138820028  0.6397688846759992   T   T   T
  0.8305138798328101  0.7507696790350568  0.5927815351772797   T   T   T
  0.8315537757036554  0.2487371681732963  0.5909970047676396   T   T   T
  0.7458845003965244  0.1939928896693385  0.6466295119829060   T   T   T
  0.9166666865332829  0.8124999999834799  0.3605200052333331   F   F   F
  0.5820920742615384  0.9358767291498319  0.6393067114438168   T   T   T
  0.0842701570000051  0.8122628106565695  0.6421352081088999   T   T   T
  0.5800497890498374  0.1914546011960953  0.6449238684987002   T   T   T
  0.2549809720403652  0.6773370221608394  0.6630510741274102   T   T   T
  0.2407782822629791  0.4419425850240509  0.6414512285972238   T   T   T
  0.9145252361463680  0.9369797607518660  0.6412264897148705   T   T   T
  0.9162684991639967  0.6874742015202500  0.6392478389411141   T   T   T
  0.2519919500252850  0.9301784415159734  0.6373767452112318   T   T   T
  0.2535453933133368  0.1864795580883833  0.6412082565965452   T   T   T
  0.0007069008564641  0.1226263606727672  0.6201631832261875   T   T   T
  0.1666666716383389  0.3750000000061604  0.4070133268666680   F   F   F
  0.6654123987567641  0.7519647963151040  0.5022203221670490   T   T   T
  0.5011718008075295  0.7528687701152956  0.5039176298832119   T   T   T
  0.6659520096538207  0.0000179792044411  0.5055731496009372   T   T   T
  0.1644102500692061  0.7515242884389043  0.5033621709202936   T   T   T
  0.8333332538436267  0.6249999999803961  0.4070133268666680   F   F   F
  0.6685128100692700  0.4998424593941651  0.5006566572843120   T   T   T
  0.3312109060074157  0.4992387893968159  0.5009178470801202   T   T   T
  0.3301510136509352  0.2480697960871265  0.5028264898724126   T   T   T
  0.3338576946670338  0.7511263088627599  0.5015649201228194   T   T   T
  0.6668473609389298  0.2479604508000330  0.5026276604111953   T   T   T
  0.5013598283060618  0.4997667692642970  0.5002821162779673   T   T   T
  0.9997116137585753  0.5005503213748770  0.5069939872425773   T   T   T
  0.8361787554422205  0.5000273772465520  0.5028128908287266   T   T   T
  0.8358022037648545  0.2486407425970840  0.5026948411825595   T   T   T
  0.6666666865533486  0.3750000000061604  0.4070133268666680   F   F   F
  0.1660273032703347  0.0011273702474686  0.5065621821976843   T   T   T
  0.0000000000000000  0.8749999404036828  0.4070133268666680   F   F   F
  0.5010575743271082  0.2479419420472955  0.5021202184193584   T   T   T
  0.9999374504782662  0.7508672615348235  0.5066273617235475   T   T   T
  0.0008576121229962  0.2498256080814165  0.5059411607634741   T   T   T
  0.0001232443485249  0.0000398389961494  0.5066843620062623   T   T   T
  0.6666666865533486  0.6249999999803961  0.4070133268666680   F   F   F
  0.8333332538436267  0.8749999404036828  0.4070133268666680   F   F   F
  0.3333333432766779  0.6249999999803961  0.4070133268666680   F   F   F
  0.3333333432766779  0.1249999999871179  0.4070133268666680   F   F   F
  0.3333333432766779  0.3750000000061604  0.4070133268666680   F   F   F
  0.8344015725291538  0.0001135752318554  0.5061994742339536   T   T   T
  0.3333333432766779  0.8749999404036828  0.4070133268666680   F   F   F
  0.6666666865533486  0.1249999999871179  0.4070133268666680   F   F   F
  0.0000000000000000  0.6249999999803961  0.4070133268666680   F   F   F
  0.1663405841351666  0.2482441805500093  0.5061916555829025   T   T   T
  0.3330987694445032  0.0010884830849484  0.5058137578864165   T   T   T
  0.5002488791072449  0.9993536978244952  0.5054801143409505   T   T   T
  0.5008224099249262  0.8767360361096979  0.6096829670816665   T   T   T
  0.3258645023406321  0.3736494462655818  0.5927294562550115   T   T   T
  0.0000000000000000  0.3750000000061604  0.4070133268666680   F   F   F
  0.3341732722966209  0.6243865283650464  0.5951968628488014   T   T   T
  0.5000000000021103  0.8749999404036828  0.4070133268666680   F   F   F
  0.8333332538436267  0.3750000000061604  0.4070133268666680   F   F   F
  0.1666666716383389  0.1249999999871179  0.4070133268666680   F   F   F
  0.6653381129847421  0.1243062746475194  0.6114261521306618   T   T   T
  0.5000000000021103  0.6249999999803961  0.4070133268666680   F   F   F
  0.8397854853060290  0.6268771229004325  0.6035851691282984   T   T   T
  0.3317196860443467  0.1198929856183868  0.6136996534450369   T   T   T
  0.9992399266604222  0.8749465376731230  0.6223649838383466   T   T   T
  0.1635871405879255  0.4998689099510839  0.5020483966582525   T   T   T
  0.5000000000021103  0.1249999999871179  0.4070133268666680   F   F   F
  0.8320632197471688  0.8762758426712105  0.6182836748721466   T   T   T
  0.8376720036633284  0.3725284282730371  0.6033252408303295   T   T   T
  0.8360812580306641  0.7517639387720614  0.5026003924964462   T   T   T
  0.1666666716383389  0.8749999404036828  0.4070133268666680   F   F   F
  0.8333332538436267  0.1249999999871179  0.4070133268666680   F   F   F
  0.0000000000000000  0.1249999999871179  0.4070133268666680   F   F   F
  0.5039687873121217  0.6250342548291680  0.5938777004204286   T   T   T
  0.6708217287969584  0.3722824655213980  0.5933787012107952   T   T   T
  0.5000000000021103  0.3750000000061604  0.4070133268666680   F   F   F
  0.6666666865533486  0.8749999404036828  0.4070133268666680   F   F   F
  0.3345282332897022  0.8785292127107689  0.6029962417897067   T   T   T
  0.1593468493850813  0.6272288590631803  0.6014510553099096   T   T   T
  0.1662364295029209  0.8733705368182210  0.6179723514554384   T   T   T
  0.5017917551442443  0.3712153236441026  0.5950232944954089   T   T   T
  0.1666666716383389  0.6249999999803961  0.4070133268666680   F   F   F
  0.1677363439016249  0.1228491909744782  0.6218914942252871   T   T   T
  0.5002168066586441  0.1223964468595148  0.6062687582035527   T   T   T
  0.9996210760824434  0.6221434503906772  0.6315078336659700   T   T   T
  0.0001111974066377  0.3747959674878831  0.6234652520793168   T   T   T
  0.8349883902415564  0.1243625305315697  0.6134175716024319   T   T   T
  0.6654542620803722  0.8813153220868202  0.6074700327593684   T   T   T
  0.1633092048988217  0.3713635956780658  0.6076849751868996   T   T   T
  0.6664981126644594  0.6262662062486007  0.5934904754462207   T   T   T
  0.0834535057389112  0.2479770767316782  0.6035606908676577   T   T   T
  0.7499368046480985  0.0017053373444271  0.6040562747822316   T   T   T
  0.5825208506796271  0.0010167730736450  0.6041223202135381   T   T   T
  0.9166354193935289 -0.0002743448394903  0.6037839458725384   T   T   T
  0.5847423184323867  0.7499722848553076  0.5997723794953200   T   T   T
  0.5904912247065232  0.5011763132334301  0.5936037654038924   T   T   T
  0.2425360447242678  0.4978510482034113  0.5939299728251336   T   T   T
  0.5846374405278926  0.2474269539127799  0.5969126473385468   T   T   T
  0.2497448433369581  0.9977007810219699  0.6042517742078422   T   T   T
  0.7539440794782994  0.2480251707914189  0.5928207602552096   T   T   T
  0.2490348636346771  0.2456938292753329  0.6036065680399239   T   T   T
  0.4171514411873333  0.0000581696663049  0.6046459627494305   T   T   T
  0.2493108660266823  0.7526613256308924  0.5921159550988278   T   T   T
  0.0815752831866901  0.5000569086778535  0.6032082888921686   T   T   T