Au  C  H  O Sr Ti                       
   1.00000000000000     
    23.6707801818999997    0.0000000000000000    0.0000000000000000
     0.0000000000000000   22.3170261383000010    0.0000000000000000
     0.0000000000000000    0.0000000000000000   30.0000000000000000
   Au   C    H    O    Sr   Ti
    50     3     6   264    72    72
Selective dynamics
Direct
  0.7159646545338646  0.5238126749842736  0.7522161156806977   T   T   T
  0.6560211409429606  0.4404459868333751  0.8124349399829793   T   T   T
  0.3690278303675456  0.6184614033438032  0.8206450543895820   T   T   T
  0.5706010834615656  0.5088592812813907  0.8560842207793594   T   T   T
  0.6589585510556257  0.1809073960129044  0.7449486798661005   T   T   T
  0.4725435625565120  0.4489256612206151  0.8777190202347307   T   T   T
  0.5167718721477343  0.3770513003007958  0.7317651076337798   T   T   T
  0.2821794253282125  0.3398629962625778  0.7023134221799721   T   T   T
  0.4521025470109845  0.5800999009327197  0.7027799542545207   T   T   T
  0.3978444878737367  0.3812003745078572  0.6901696059062660   T   T   T
  0.6164360684057676  0.3212736950615488  0.6960828749642350   T   T   T
  0.4636609666396432  0.5722910011013317  0.8641049243933154   T   T   T
  0.6696981855300486  0.6813055828955051  0.7486725601888506   T   T   T
  0.3747104150315991  0.7397644609115399  0.7792483613524345   T   T   T
  0.3759583651832266  0.4925082962306765  0.8328138923751979   T   T   T
  0.5402268604057144  0.6679799076403524  0.7016430134587964   T   T   T
  0.5652711639465420  0.6388953751684033  0.8607136751990351   T   T   T
  0.4440077164092812  0.4741512490946110  0.7561709303047102   T   T   T
  0.2569303178744888  0.5929288635055582  0.6945240012376160   T   T   T
  0.7735076126184052  0.4268759256748116  0.7938534219825316   T   T   T
  0.6990868690271570  0.3426248760393900  0.7576412553905799   T   T   T
  0.4156448103850762  0.6957442911255096  0.6994543745926828   T   T   T
  0.6483174011281434  0.4456838141475078  0.6942756308317188   T   T   T
  0.3255490006456205  0.4146977857264109  0.7691916084601051   T   T   T
  0.6208499583636256  0.5711121630280577  0.7041946099276810   T   T   T
  0.7067139728524855  0.7569450125816837  0.6882145431176044   T   T   T
  0.7629510295583967  0.4286665977576400  0.7040361898759638   T   T   T
  0.5535681742238373  0.2128968916042190  0.7092960967952757   T   T   T
  0.7192845828638068  0.2564009346788257  0.6910951992063648   T   T   T
  0.2936276343809689  0.7466022114192764  0.6972352073653533   T   T   T
  0.5123847855173360  0.6031375812273796  0.7766388193448397   T   T   T
  0.5787994310028162  0.7256904280021246  0.7939041924761253   T   T   T
  0.2405897588622826  0.4694800087123928  0.7090190230305579   T   T   T
  0.2862816334012222  0.6620270964165964  0.7644542337408990   T   T   T
  0.6015994969219145  0.2807316699263685  0.7830348101070088   T   T   T
  0.5143046825823659  0.4851696701134141  0.6780558236030176   T   T   T
  0.4850906087381497  0.2697004418947395  0.7752090973586599   T   T   T
  0.2897273282078354  0.5379428423107900  0.7776375396974716   T   T   T
  0.5632183930156813  0.4851668237907519  0.7622837987428029   T   T   T
  0.3917218516048313  0.8175378791799446  0.7066785138517857   T   T   T
  0.4643256046368016  0.6946569937150511  0.8303066980536141   T   T   T
  0.4364392518504289  0.2267522478149614  0.6981978366181847   T   T   T
  0.3698515016049168  0.2984428930848119  0.7554081940885230   T   T   T
  0.3495970421943335  0.4994123395024296  0.6977055388318808   T   T   T
  0.4290511286062001  0.3713149844698508  0.8147860126837996   T   T   T
  0.5968795767316756  0.7846411067367983  0.7129890096927992   T   T   T
  0.6355905012931742  0.5837010100614832  0.7996536993657065   T   T   T
  0.7327603289714951  0.6144917900520329  0.6939166116870300   T   T   T
  0.4860415537363109  0.7753006073465430  0.7545123036312777   T   T   T
  0.5499721011833103  0.3808282923964590  0.8261130520084129   T   T   T
  0.6446143947311418  0.0326794015595142  0.7639176580041959   T   T   T
  0.7151666842307669  0.1152224904324316  0.7416872035681080   T   T   T
  0.7041035357836589  0.0522621862003880  0.7510071909362112   T   T   T
  0.7200477995573865  0.0278414301917316  0.7214544628586593   T   T   T
  0.7360209175123826  0.0399643432098412  0.7765589803276766   T   T   T
  0.7582812480171305  0.1255619659968442  0.7315904568342708   T   T   T
  0.6303458869709114  0.0556218985856833  0.7941449371536612   T   T   T
  0.6150279999128945  0.0421240478974578  0.7368254540029610   T   T   T
  0.6437682888265926  0.9845203364043573  0.7701673557052733   T   T   T
  0.4136078500400397  0.8123872743806680  0.6399305035135142   T   T   T
  0.9140294121200127  0.6889848031686867  0.5453769115080707   T   T   T
  0.9158708533576251  0.9387226831393324  0.5464572614358666   T   T   T
  0.0823303118005016  0.0632310332480572  0.5476117732199044   T   T   T
  0.0866149799581959  0.3133988097143510  0.5469171193823095   T   T   T
  0.0849353037836539  0.8128061113627998  0.5473384494007075   T   T   T
  0.4165636965620089  0.0654203282897232  0.5474025236402391   T   T   T
  0.5766759982328949  0.4357726392160720  0.5522284232562373   T   T   T
  0.2500426099724991  0.9360672257503913  0.4541214414339264   T   T   T
  0.4159523848128009  0.3197233039905721  0.5525730548601845   T   T   T
  0.2525076241189397  0.5591399710231896  0.5439016292765881   T   T   T
  0.5814459927283181  0.5599794161263493  0.5489954237381101   T   T   T
  0.5840713085825208  0.9379497434597094  0.5461684935722712   T   T   T
  0.9156942971151099  0.4374243922976856  0.5456998871139823   T   T   T
  0.5795796978509814  0.6861245637727310  0.5474262438256087   T   T   T
  0.2514955681637229  0.9373123375134219  0.5453345159175134   T   T   T
  0.4974523575522121  0.5043768411931798  0.6088967262617409   T   T   T
  0.9176298458470420  0.5637891744408645  0.5470870923626927   T   T   T
  0.4200627595889534  0.5650704884243094  0.5554457376681083   T   T   T
  0.9154773428510723  0.8129124138346566  0.5468276988348422   T   T   T
  0.0837406319253948  0.9387352849705223  0.5459473381555129   T   T   T
  0.2493234470249118  0.6832667646925826  0.5521064427426080   T   T   T
  0.7487052022414935  0.9333847675475777  0.5483446681084487   T   T   T
  0.7517095568793213  0.6797705388245211  0.5534050178413299   T   T   T
  0.7518791385926753  0.4353931244050613  0.5488494425805809   T   T   T
  0.4231070833676144  0.4439579565556478  0.5456235667689237   T   T   T
  0.4231329481734610  0.6879843124191765  0.5467374844370542   T   T   T
  0.9164078888674746  0.1888246075094551  0.5455921437643624   T   T   T
  0.7476937987951688  0.3123985442305532  0.5493060717108862   T   T   T
  0.5861578982385170  0.8146417518896578  0.5505442295838625   T   T   T
  0.7489203746327535  0.1844254639894294  0.5507517257360959   T   T   T
  0.4160054532622732  0.9371671877082358  0.5461334369884858   T   T   T
  0.0826529865332955  0.4385341483446391  0.5451395186039216   T   T   T
  0.0836254608412472  0.1889664167300568  0.5455055221924848   T   T   T
  0.4997536097798567  0.1255503928476081  0.4997357145507818   T   T   T
  0.9997525798046907  0.4994311879072911  0.5940957062074183   T   T   T
  0.5807769042110891  0.1853755007027501  0.5500959564495391   T   T   T
  0.9993136983499302  0.7533664434949070  0.5925216777417891   T   T   T
  0.3340333573871978  0.9998011437868747  0.5920538755926692   T   T   T
  0.9998325277639843  0.9991991706589568  0.5932865154248496   T   T   T
  0.0010055304055759  0.2498139500789223  0.5919132385658149   T   T   T
  0.3332912203895345  0.4964298873805346  0.5908880241260072   T   T   T
  0.3357618192510824  0.7417065033898385  0.5905531127517638   T   T   T
  0.6635023902663152  0.2474502116161989  0.5908243402584232   T   T   T
  0.6664401118505119  0.0013839262864098  0.5924703439368887   T   T   T
  0.6657718741661734  0.7411996167661808  0.5905446296077772   T   T   T
  0.3971918138670886  0.5505936130951506  0.6520144293150654   T   T   T
  0.6666765359991642  0.4942038764221448  0.5917025453057234   T   T   T
  0.1684708730661378  0.2483433652126235  0.5931237396228621   T   T   T
  0.1706467990572886  0.7501283451633973  0.5949718290427517   T   T   T
  0.2484947306622473  0.4359886694659961  0.5489853791574021   T   T   T
  0.1656114290123043  0.5027591609156774  0.5873279577125510   T   T   T
  0.3347716100507039  0.2548985906819504  0.5928831181649620   T   T   T
  0.4999389606061610  0.0001049138398434  0.5911796938762611   T   T   T
  0.8326599840494199  0.8746636486766347  0.4991039016099618   T   T   T
  0.7482102760642607  0.9397090320850062  0.6424728865777425   T   T   T
  0.8319449728647055  0.0019877390288666  0.5923965021522883   T   T   T
  0.5010892890595492  0.7563200846950411  0.5927759501631935   T   T   T
  0.4176998241179939  0.0650784754350780  0.6401425077170806   T   T   T
  0.4290184497514792  0.3046629433903584  0.6553685435893706   T   T   T
  0.4157101382181748  0.1914995932966294  0.5465051577741806   T   T   T
  0.4986221282897404  0.2529338409344611  0.5904233380284697   T   T   T
  0.1674603263974132  0.9983329610428382  0.5923061330618236   T   T   T
  0.9161228306560908  0.0622667086453114  0.4541436429669408   T   T   T
  0.7412250655906634  0.8100025807619710  0.6397460296998538   T   T   T
  0.9130100191558049  0.8134858161167525  0.6418712857392062   T   T   T
  0.9156850503001047  0.0626745134497387  0.6414427564449721   T   T   T
  0.0840990574693165  0.3116293013859855  0.6403725894681821   T   T   T
  0.6665248327682293  0.8743434842060754  0.4986764422038923   T   T   T
  0.0867919610738916  0.5628179291710625  0.6402481283653245   T   T   T
  0.0842553944686174  0.0603483592899208  0.6422366090959286   T   T   T
  0.0871979720489150  0.4366405069005385  0.6397276075162199   T   T   T
  0.0834832866532929  0.1855242539802286  0.6410745866604178   T   T   T
  0.4179130991422739  0.1872450632949531  0.6395245671659843   T   T   T
  0.0842533801556451  0.9354375367103118  0.6408907661439727   T   T   T
  0.0830580571196983  0.6871053243066818  0.6390040951210364   T   T   T
  0.9125661454479093  0.4360794946581392  0.6397701853138166   T   T   T
  0.9159417335239796  0.6876573429555241  0.6390437921451344   T   T   T
  0.9141409792262799  0.9370351964683085  0.6413449968363021   T   T   T
  0.4149773906269301  0.4187632438091016  0.6299803621644868   T   T   T
  0.7550135882828918  0.4322955176422433  0.6374005905169112   T   T   T
  0.4175131991505389  0.9348329290184034  0.6398198855553587   T   T   T
  0.2408532410733189  0.4422694944613811  0.6415215831404033   T   T   T
  0.7459005087396736  0.1937931790879874  0.6465673480795847   T   T   T
  0.2535877469838129  0.1865065970369456  0.6411644943917034   T   T   T
  0.8302374146151501  0.7506518767434540  0.5924659104048027   T   T   T
  0.8313993580482052  0.2494594134050756  0.5913859412130282   T   T   T
  0.5825517387825737  0.9360760173280205  0.6397705536291816   T   T   T
  0.9166666865332829  0.8124999999834799  0.3605200052333331   F   F   F
  0.0840022775896483  0.8124898105353923  0.6422612985234459   T   T   T
  0.2520204465465309  0.9301648413293867  0.6374135005036402   T   T   T
  0.5785504716155629  0.1912725039771588  0.6447305959657623   T   T   T
  0.2549478845680027  0.6774522987338596  0.6630149468915448   T   T   T
  0.8331851790242458  0.5024242811915343  0.5888776262182256   T   T   T
  0.4203964419284444  0.6756717311890733  0.6335793063903860   T   T   T
  0.7454689444270612  0.3114507491082901  0.6425093693202217   T   T   T
  0.0857570848887446  0.6893570158097192  0.5454053158064859   T   T   T
  0.7486168097545147  0.0699852979390536  0.6400148192075852   T   T   T
  0.2520354937509949  0.1882860124025923  0.5471744230094424   T   T   T
  0.5830221253998151  0.0662963476314871  0.6398707721693688   T   T   T
  0.5830917155712552  0.3207171158703959  0.6336603830673616   T   T   T
  0.2475564116968157  0.5739395156463600  0.6287201591326657   T   T   T
  0.7540261287551928  0.6916811087413012  0.6571602678793829   T   T   T
  0.2619959585239294  0.7993034271528066  0.6465406470683506   T   T   T
  0.2510172954460924  0.0594294597288339  0.6422955554468998   T   T   T
  0.9166666865332829  0.5625000000092442  0.3605200052333331   F   F   F
  0.4995842894860769  0.3741498419823834  0.4999721300222355   T   T   T
  0.5000123734464883  0.8734302366010323  0.5009007157887834   T   T   T
  0.5003636831121209  0.6210179484637720  0.5001153676250674   T   T   T
  0.8323884133497594  0.6230108447673584  0.5000405708216688   T   T   T
  0.8323218186770567  0.3730677719427192  0.4999132979060444   T   T   T
  0.8328215604242653  0.1245134055700680  0.5002839304910798   T   T   T
  0.1667566346855396  0.3762417977337832  0.4977426819192081   T   T   T
  0.1677240423141242  0.6243234817277176  0.5001216682209056   T   T   T
  0.5808798560521820  0.4387882783533401  0.6463870779984626   T   T   T
  0.5784534687147228  0.6858502089650186  0.6396090376008710   T   T   T
  0.9161893619475779  0.1862322817674260  0.6398647094387794   T   T   T
  0.2490670321497201  0.3164314817708211  0.6412470234619392   T   T   T
  0.1677448422017238  0.8732683030586610  0.4998958668092047   T   T   T
  0.5827451215903156  0.6860457086591769  0.4546272650004217   T   T   T
  0.5827035947852272  0.9372094024521315  0.4543493150789938   T   T   T
  0.9157808057775940  0.1868370482350910  0.4532513589721854   T   T   T
  0.9157435794753650  0.4368872751626606  0.4536755218265938   T   T   T
  0.1670834851080469  0.1244531217168254  0.4994554718607702   T   T   T
  0.7481361597903626  0.0605519402120568  0.5451343488735645   T   T   T
  0.7532953510053628  0.5679558702688687  0.6357137914377808   T   T   T
  0.9153571146277013  0.3119850907148059  0.6397447554114989   T   T   T
  0.9131999749025402  0.5622826169627996  0.6412390577201578   T   T   T
  0.5912850760182493  0.8104243797621297  0.6460380091297500   T   T   T
  0.5826542762814928  0.4392659939957019  0.4563940882223831   T   T   T
  0.5905562595745009  0.5656701407218401  0.6390196468738443   T   T   T
  0.6654198071778074  0.6258155355477580  0.5029547084858592   T   T   T
  0.5836111228460424  0.0635365633952932  0.4543165403799204   T   T   T
  0.9166666865332829  0.6874999999963620  0.3605200052333331   F   F   F
  0.9166666865332829  0.4374999701794380  0.3605200052333331   F   F   F
  0.9166666865332829  0.1875000000030838  0.3605200052333331   F   F   F
  0.5833333134730552  0.9375000000154046  0.3605200052333331   F   F   F
  0.5833333134730552  0.6874999999963620  0.3605200052333331   F   F   F
  0.5833333134730552  0.4374999701794380  0.3605200052333331   F   F   F
  0.5833333134730552  0.1875000000030838  0.3605200052333331   F   F   F
  0.2499999999799343  0.9375000000154046  0.3605200052333331   F   F   F
  0.9166666865332829  0.9375000000154046  0.3605200052333331   F   F   F
  0.2499999999799343  0.6874999999963620  0.3605200052333331   F   F   F
  0.2499999999799343  0.1875000000030838  0.3605200052333331   F   F   F
  0.7499999404149307  0.9375000000154046  0.3605200052333331   F   F   F
  0.7499999404149307  0.6874999999963620  0.3605200052333331   F   F   F
  0.7496425045789976  0.4381985011726829  0.4558067029246671   T   T   T
  0.7499999404149307  0.4374999701794380  0.3605200052333331   F   F   F
  0.4166666269218169  0.9375000000154046  0.3605200052333331   F   F   F
  0.4166666269218169  0.6874999999963620  0.3605200052333331   F   F   F
  0.4166666269218169  0.4374999701794380  0.3605200052333331   F   F   F
  0.2499999999799343  0.4374999701794380  0.3605200052333331   F   F   F
  0.0833333358191695  0.0625000000159659  0.3605200052333331   F   F   F
  0.9153265344256569  0.6867292344963007  0.4532135913042393   T   T   T
  0.6653774662524801  0.3784962062431783  0.5031194327797466   T   T   T
  0.3343452218738739  0.3785116342307915  0.5029422676182080   T   T   T
  0.3356674304884915  0.6258450996187265  0.5037775518639045   T   T   T
  0.9170875779428391  0.0634182555539502  0.5475170987818578   T   T   T
  0.2498956317412858  0.1884622689976616  0.4541115755406047   T   T   T
  0.7494994722442485  0.9384279041969890  0.4554345267563398   T   T   T
  0.7490083582307462  0.6886070814564680  0.4574886397125397   T   T   T
  0.7505796882240831  0.1896732724205760  0.4556616342111427   T   T   T
  0.7499999404149307  0.1875000000030838  0.3605200052333331   F   F   F
  0.2519185147221117  0.5646580544579647  0.4538314586733581   T   T   T
  0.4170912808215004  0.9359057862408368  0.4540327604737526   T   T   T
  0.4172546317736007  0.6847120190402817  0.4547473638516495   T   T   T
  0.0000000000000000  0.0000000000000000  0.4070133268666680   F   F   F
  0.5835956840095210  0.0626827594109762  0.5462470111338421   T   T   T
  0.4167513144027029  0.4354323942545306  0.4538892371521146   T   T   T
  0.0845122707012597  0.6868867513082791  0.4531118240375014   T   T   T
  0.0841138398646165  0.9367728117127272  0.4536165105144008   T   T   T
  0.0827948004093286  0.4368058137546925  0.4528878753361714   T   T   T
  0.0838529002892074  0.1865442380573095  0.4529724695652498   T   T   T
  0.9165468177482896  0.8121546845371735  0.4541099377811685   T   T   T
  0.0833333358191695  0.3124999999901945  0.3605200052333331   F   F   F
  0.9161179746997957  0.5621687053640363  0.4540732201289575   T   T   T
  0.5830112834015536  0.3110099261592938  0.5451977702212939   T   T   T
  0.9161578575969719  0.3121890560821978  0.4538512700508172   T   T   T
  0.4172831235465106  0.1871304050523392  0.4535790492539538   T   T   T
  0.2520984999162826  0.6876334191561887  0.4561741884805359   T   T   T
  0.2522739294810929  0.3141119403084302  0.4541651996144360   T   T   T
  0.9164624694844391  0.9371212815522900  0.4536784102011037   T   T   T
  0.0000084012330256  0.1251277815263083  0.4985118832515296   T   T   T
  0.5831570350763691  0.8104068436941176  0.4554335918403375   T   T   T
  0.0000068476468901  0.3734343881626289  0.4984040047860443   T   T   T
  0.9998008455582844  0.6271060545551529  0.4976938042889442   T   T   T
  0.3336984353788815  0.1256462248524254  0.4985305852087936   T   T   T
  0.0000923245548548  0.8752038697701522  0.4995703501602780   T   T   T
  0.3334363279334944  0.8739009533502465  0.4994129090276327   T   T   T
  0.6664480736363121  0.1268891051534382  0.4997842445448429   T   T   T
  0.2511562862772233  0.4392716745615002  0.4549058372002082   T   T   T
  0.0833333358191695  0.5625000000092442  0.3605200052333331   F   F   F
  0.9166666865332829  0.0625000000159659  0.3605200052333331   F   F   F
  0.7498220898415418  0.8131946863196907  0.4529719382706101   T   T   T
  0.2504886366703566  0.0620450172469903  0.4543032616859776   T   T   T
  0.9154062126425522  0.3126785296228295  0.5466355226491134   T   T   T
  0.5830673016554699  0.1902036005219740  0.4556523023697010   T   T   T
  0.2505208002990692  0.8108131090003167  0.4553519613165810   T   T   T
  0.0818860640651714  0.5643717286777412  0.5462896885689258   T   T   T
  0.2499999999799343  0.3124999999901945  0.3605200052333331   F   F   F
  0.8333332538436267  0.0000000000000000  0.4070133268666680   F   F   F
  0.5000000000021103  0.4999999999932783  0.4070133268666680   F   F   F
  0.0833333358191695  0.1875000000030838  0.3605200052333331   F   F   F
  0.2529672187560649  0.8125430595765568  0.5507846711492925   T   T   T
  0.0000000000000000  0.2500000000190425  0.4070133268666680   F   F   F
  0.0000000000000000  0.4999999999932783  0.4070133268666680   F   F   F
  0.7482822337283863  0.5641493943074706  0.4538350824568728   T   T   T
  0.3333333432766779  0.0000000000000000  0.4070133268666680   F   F   F
  0.3333333432766779  0.4999999999932783  0.4070133268666680   F   F   F
  0.3333333432766779  0.7500000000123208  0.4070133268666680   F   F   F
  0.6666666865533486  0.0000000000000000  0.4070133268666680   F   F   F
  0.6666666865533486  0.2500000000190425  0.4070133268666680   F   F   F
  0.6666666865533486  0.4999999999932783  0.4070133268666680   F   F   F
  0.5845688372799928  0.5626023316217617  0.4549867947233612   T   T   T
  0.5842357133988894  0.3152353001126975  0.4538209769944366   T   T   T
  0.1666666716383389  0.2500000000190425  0.4070133268666680   F   F   F
  0.1666666716383389  0.7500000000123208  0.4070133268666680   F   F   F
  0.5000000000021103  0.0000000000000000  0.4070133268666680   F   F   F
  0.5000000000021103  0.2500000000190425  0.4070133268666680   F   F   F
  0.5000000000021103  0.7500000000123208  0.4070133268666680   F   F   F
  0.9166666865332829  0.3124999999901945  0.3605200052333331   F   F   F
  0.3333333432766779  0.2500000000190425  0.4070133268666680   F   F   F
  0.7472900624024847  0.3139546587907467  0.4552507280619325   T   T   T
  0.0000000000000000  0.7500000000123208  0.4070133268666680   F   F   F
  0.4166500260868308  0.8100071675832455  0.4551310134042502   T   T   T
  0.5833333134730552  0.5625000000092442  0.3605200052333331   F   F   F
  0.7495946705525933  0.0639454517072299  0.4537267079362572   T   T   T
  0.5833333134730552  0.8124999999834799  0.3605200052333331   F   F   F
  0.1666666716383389  0.0000000000000000  0.4070133268666680   F   F   F
  0.8333332538436267  0.2500000000190425  0.4070133268666680   F   F   F
  0.1666666716383389  0.4999999999932783  0.4070133268666680   F   F   F
  0.5833333134730552  0.3124999999901945  0.3605200052333331   F   F   F
  0.6666666865533486  0.7500000000123208  0.4070133268666680   F   F   F
  0.2499999999799343  0.8124999999834799  0.3605200052333331   F   F   F
  0.7499999404149307  0.5625000000092442  0.3605200052333331   F   F   F
  0.5833333134730552  0.0625000000159659  0.3605200052333331   F   F   F
  0.2499999999799343  0.0625000000159659  0.3605200052333331   F   F   F
  0.7499999404149307  0.3124999999901945  0.3605200052333331   F   F   F
  0.7499999404149307  0.0625000000159659  0.3605200052333331   F   F   F
  0.4166666269218169  0.8124999999834799  0.3605200052333331   F   F   F
  0.4166666269218169  0.5625000000092442  0.3605200052333331   F   F   F
  0.4166666269218169  0.3124999999901945  0.3605200052333331   F   F   F
  0.7499999404149307  0.8124999999834799  0.3605200052333331   F   F   F
  0.4166666269218169  0.0625000000159659  0.3605200052333331   F   F   F
  0.4170239085877441  0.0616574564052352  0.4553596698529310   T   T   T
  0.0834913669416712  0.8121133487348648  0.4542184456719439   T   T   T
  0.0839750443921081  0.5624970699725077  0.4539021472447047   T   T   T
  0.4160762287940049  0.5595388613776529  0.4579034256903491   T   T   T
  0.0836853010703678  0.0618893777519654  0.4542342634334546   T   T   T
  0.0834376241519673  0.3120230685646710  0.4539750440255987   T   T   T
  0.2492492081865673  0.3137849899981163  0.5459535949830447   T   T   T
  0.8333332538436267  0.7500000000123208  0.4070133268666680   F   F   F
  0.0833333358191695  0.4374999701794380  0.3605200052333331   F   F   F
  0.0833333358191695  0.6874999999963620  0.3605200052333331   F   F   F
  0.0833333358191695  0.9375000000154046  0.3605200052333331   F   F   F
  0.4166666269218169  0.1875000000030838  0.3605200052333331   F   F   F
  0.0833333358191695  0.8124999999834799  0.3605200052333331   F   F   F
  0.8333332538436267  0.4999999999932783  0.4070133268666680   F   F   F
  0.2499999999799343  0.5625000000092442  0.3605200052333331   F   F   F
  0.7477446471302206  0.8073770128984937  0.5451902385015414   T   T   T
  0.7464649408217408  0.5576215274554711  0.5446625113367108   T   T   T
  0.2511383556542495  0.0625650049130308  0.5472681039485822   T   T   T
  0.4155777551110355  0.3113698499169719  0.4573777330683777   T   T   T
  0.4145412392725549  0.8118497496487386  0.5479716102559666   T   T   T
  0.8312377958137677  0.8773012795338725  0.6181103879936555   T   T   T
  0.8383640654878957  0.3727172044104765  0.6026904462810471   T   T   T
  0.8333332538436267  0.3750000000061604  0.4070133268666680   F   F   F
  0.1666666716383389  0.8749999404036828  0.4070133268666680   F   F   F
  0.3340866974539518  0.6245998891033018  0.5950498931201101   T   T   T
  0.8360763032585611  0.7518640884304517  0.5025552461597600   T   T   T
  0.5000000000021103  0.1249999999871179  0.4070133268666680   F   F   F
  0.6651365061512740  0.1243145567572251  0.6070675044540751   T   T   T
  0.3315844746138092  0.1196894332704388  0.6129671939613733   T   T   T
  0.1663750668902677  0.2481961067184707  0.5061796338801908   T   T   T
  0.8394104645971934  0.6269738294681458  0.6038486489316370   T   T   T
  0.5000000000021103  0.6249999999803961  0.4070133268666680   F   F   F
  0.8333332538436267  0.1249999999871179  0.4070133268666680   F   F   F
  0.0000000000000000  0.1249999999871179  0.4070133268666680   F   F   F
  0.9987801340687565  0.8750040634240281  0.6225178197640316   T   T   T
  0.3346688181553034  0.8784571022834463  0.6030980059983709   T   T   T
  0.0003329317420582  0.3751226596595215  0.6235144393941712   T   T   T
  0.1666666716383389  0.6249999999803961  0.4070133268666680   F   F   F
  0.5014985272337343  0.3714944087936687  0.5948652712499682   T   T   T
  0.5000000000021103  0.8749999404036828  0.4070133268666680   F   F   F
  0.9994640281373931  0.6230060584201232  0.6267154475689186   T   T   T
  0.8351255902137774  0.1241153954039890  0.6124715499156146   T   T   T
  0.6664442879748407  0.6260061725068553  0.5933975088424845   T   T   T
  0.6658481671496981  0.8818090158838794  0.6071645642524921   T   T   T
  0.1633626647916284  0.3714918814075749  0.6075888132331051   T   T   T
  0.1676977610032272  0.1228453285770766  0.6218339917135901   T   T   T
  0.5003504012823563  0.1220502014087744  0.6062469940292646   T   T   T
  0.6703887732226205  0.3726009593505138  0.5931459953392531   T   T   T
  0.1661717352347594  0.8734153607936715  0.6180230014979970   T   T   T
  0.1594858599241986  0.6274833599914125  0.6015196631238606   T   T   T
  0.5003843923718831  0.9992165673605904  0.5057440880018700   T   T   T
  0.6666666865533486  0.8749999404036828  0.4070133268666680   F   F   F
  0.5000000000021103  0.3750000000061604  0.4070133268666680   F   F   F
  0.5038241555223708  0.6251182971582971  0.5939925038486844   T   T   T
  0.0000000000000000  0.3750000000061604  0.4070133268666680   F   F   F
  0.1666666716383389  0.1249999999871179  0.4070133268666680   F   F   F
  0.5011852929830489  0.8769742194097196  0.6096166451486197   T   T   T
  0.5009980752832607  0.2479245886518684  0.5019816842732981   T   T   T
  0.8362437901562956  0.5000872348255816  0.5027478659373303   T   T   T
  0.9996553562919682  0.5002549448454024  0.5068645734439750   T   T   T
  0.5011972057794389  0.4998317853839420  0.5002221408659892   T   T   T
  0.6685182302004106  0.4999097073973268  0.5006238388400931   T   T   T
  0.3338347809123342  0.7512005227984925  0.5015696333242796   T   T   T
  0.3331434106273385  0.0010091450335464  0.5058529326862374   T   T   T
  0.3301073755548451  0.2481064110776310  0.5028360103263640   T   T   T
  0.0006864787668832  0.1225469647139436  0.6198754504939964   T   T   T
  0.1666666716383389  0.3750000000061604  0.4070133268666680   F   F   F
  0.1643245781264620  0.7515279979547872  0.5034219067695762   T   T   T
  0.5011265686839946  0.7528797033774368  0.5038920289322641   T   T   T
  0.8333332538436267  0.6249999999803961  0.4070133268666680   F   F   F
  0.6661130266027675  0.9997613066783479  0.5058667098149365   T   T   T
  0.3258694343649359  0.3736892513807779  0.5926713582092216   T   T   T
  0.6666666865533486  0.3750000000061604  0.4070133268666680   F   F   F
  0.6652291347450654  0.7518575204000891  0.5021444862488497   T   T   T
  0.6669099648602482  0.2480966960215701  0.5023809833238522   T   T   T
  0.8359270302155211  0.2485108529187126  0.5026568445133384   T   T   T
  0.0000000000000000  0.8749999404036828  0.4070133268666680   F   F   F
  0.1635015570266404  0.4998474874037412  0.5020212355028975   T   T   T
  0.3312147603812959  0.4992550289005517  0.5008815749575152   T   T   T
  0.1659983306303418  0.0011467100288621  0.5065805679179365   T   T   T
  0.0000000000000000  0.6249999999803961  0.4070133268666680   F   F   F
  0.3333333432766779  0.8749999404036828  0.4070133268666680   F   F   F
  0.8340834953862598  0.0000509010491293  0.5066766578518013   T   T   T
  0.6666666865533486  0.1249999999871179  0.4070133268666680   F   F   F
  0.3333333432766779  0.1249999999871179  0.4070133268666680   F   F   F
  0.3333333432766779  0.6249999999803961  0.4070133268666680   F   F   F
  0.8333332538436267  0.8749999404036828  0.4070133268666680   F   F   F
  0.6666666865533486  0.6249999999803961  0.4070133268666680   F   F   F
  0.0000441745858577  0.0000581157144122  0.5067830244454758   T   T   T
  0.0008788239044597  0.2497557130043694  0.5059408941142228   T   T   T
  0.9997756550587731  0.7510327270180233  0.5066359829740147   T   T   T
  0.3333333432766779  0.3750000000061604  0.4070133268666680   F   F   F
  0.0833333358191695  0.2500000000190425  0.4070133268666680   F   F   F
  0.4165170247740242  0.7504325441270857  0.5942802709842187   T   T   T
  0.7524329280050457  0.6247362269882377  0.5023188387211079   T   T   T
  0.0833333358191695  0.7500000000123208  0.4070133268666680   F   F   F
  0.0833333358191695  0.4999999999932783  0.4070133268666680   F   F   F
  0.0833333358191695  0.0000000000000000  0.4070133268666680   F   F   F
  0.5835084061498350  0.3736296549534584  0.5016563378523642   T   T   T
  0.9166666865332829  0.7500000000123208  0.4070133268666680   F   F   F
  0.5831545768779680  0.1231205625366554  0.5043141923910545   T   T   T
  0.5838722284328031  0.8759503152902870  0.5057834430663991   T   T   T