Au  C  H  O Sr Ti                       
   1.00000000000000     
    23.6707801818999997    0.0000000000000000    0.0000000000000000
     0.0000000000000000   22.3170261383000010    0.0000000000000000
     0.0000000000000000    0.0000000000000000   30.0000000000000000
   Au   C    H    O    Sr   Ti
    50     2     5   265    72    72
Selective dynamics
Direct
  0.7156724354577608  0.5255454459318484  0.7533319319702966   T   T   T
  0.6631198349237032  0.1922229947515864  0.7493365142738989   T   T   T
  0.4710543905230345  0.4502517905059625  0.8781315964423376   T   T   T
  0.5170538873077445  0.3777358537793499  0.7324783011900965   T   T   T
  0.2827986227677412  0.3397860766899479  0.7022868737345380   T   T   T
  0.6695037010014900  0.6812419167700781  0.7488594479525815   T   T   T
  0.3980769137827502  0.3816134807677722  0.6901660200289333   T   T   T
  0.4625965806916696  0.5731915388457363  0.8639964580623253   T   T   T
  0.7011208223717184  0.3470451954244041  0.7567510786614423   T   T   T
  0.4521079581533279  0.5801006316303668  0.7028066780099046   T   T   T
  0.4176827808320926  0.6968325829471596  0.6994116382980562   T   T   T
  0.5697000967671401  0.5098224502438954  0.8564869193776393   T   T   T
  0.7749158459421429  0.4302526297556618  0.7946692303721103   T   T   T
  0.6500118250921268  0.4480687819739764  0.6933050453932110   T   T   T
  0.5643446830095580  0.6397238751891783  0.8613701381029725   T   T   T
  0.5404527593774441  0.6678208713122643  0.7018072078650688   T   T   T
  0.4438966037117515  0.4745795195170247  0.7568516699593302   T   T   T
  0.3741610383881914  0.7398501354462923  0.7787037621917230   T   T   T
  0.3749034650551317  0.4930422646624517  0.8329137507647015   T   T   T
  0.6174009224737174  0.3241244200836291  0.6960023889793329   T   T   T
  0.3258649326280402  0.4145033642719361  0.7691078768134283   T   T   T
  0.3683195716705860  0.6189769838965812  0.8202909690138775   T   T   T
  0.6560316369770237  0.4411000150901433  0.8128461714224516   T   T   T
  0.2568648651564106  0.5930170558303443  0.6944927801956693   T   T   T
  0.4858023080750029  0.7765426274374713  0.7548961995431041   T   T   T
  0.7065656292673074  0.7568997688846412  0.6883688138671125   T   T   T
  0.7205130112629596  0.2598588634465896  0.6912002289963984   T   T   T
  0.2935652636191348  0.7466435478788884  0.6970103199696368   T   T   T
  0.5783136751521926  0.7256648890280222  0.7939437255225072   T   T   T
  0.2406060089699919  0.4694707804793324  0.7090787240624453   T   T   T
  0.2851873425078850  0.6623167594198752  0.7645407546929265   T   T   T
  0.6016709775783587  0.2895388459518648  0.7847584867611819   T   T   T
  0.5140716723757699  0.4846408420032114  0.6782256567423112   T   T   T
  0.2893448685995996  0.5381197714608873  0.7773442762697084   T   T   T
  0.5487705202629314  0.3838354935290083  0.8281333535702682   T   T   T
  0.5118755323442830  0.6034227658061118  0.7768565609928249   T   T   T
  0.7330104268105978  0.6149350085511732  0.6939934273087063   T   T   T
  0.4866558191299041  0.2702430430059447  0.7751354515228206   T   T   T
  0.5635684219129605  0.4858576788198388  0.7622093918247660   T   T   T
  0.4285965508751773  0.3713150780419209  0.8154218893657103   T   T   T
  0.3496593243027173  0.4994388246189344  0.6977543014467525   T   T   T
  0.5964680112028574  0.7845805547001720  0.7130429672788829   T   T   T
  0.3713955881036153  0.2983249105768346  0.7549108139702999   T   T   T
  0.4412366412440741  0.2276832717435058  0.6974329607605075   T   T   T
  0.4636345222509488  0.6952913278919776  0.8301075784462315   T   T   T
  0.3912989143346478  0.8176879889444355  0.7064676233461374   T   T   T
  0.7649209281003840  0.4326543350832619  0.7044704744328167   T   T   T
  0.6209525316565536  0.5717846830038901  0.7040129510115233   T   T   T
  0.5587157374665603  0.2133857122347686  0.7110307587989110   T   T   T
  0.6345424851657617  0.5843028146287909  0.8001886358548564   T   T   T
  0.8153294194118527  0.1466982492709642  0.8207891235073793   T   T   T
  0.7544073578160755  0.1682551116597933  0.8147448804658272   T   T   T
  0.8448704878875999  0.1753649384252883  0.8027631899754345   T   T   T
  0.7261544222207534  0.1422131504853644  0.8363981147728752   T   T   T
  0.8201088419615549  0.1008664698141107  0.8086819334546648   T   T   T
  0.7514135851767673  0.2156597292505427  0.8246201196267430   T   T   T
  0.8258597056123366  0.1476151445788438  0.8562928801110727   T   T   T
  0.7507097376324670  0.1898745810908539  0.4556581353684473   T   T   T
  0.0849074382253756  0.8129095354865699  0.5473206712964780   T   T   T
  0.4165458957514878  0.0654080841687105  0.5473734576176492   T   T   T
  0.4161442399962216  0.3194713187811118  0.5525620760695407   T   T   T
  0.2531004827082108  0.8125570773751856  0.5506933118657488   T   T   T
  0.5811442835272325  0.5600414713640652  0.5489048259399967   T   T   T
  0.7483348436142057  0.3118471322660196  0.5484066285570227   T   T   T
  0.5859110892812258  0.8143226816137138  0.5503639684228993   T   T   T
  0.5828409030749240  0.0616615628754184  0.5453123544934027   T   T   T
  0.0822717212390428  0.0633052003343020  0.5475738649994659   T   T   T
  0.2490991733017562  0.6831390182491710  0.5520846167873922   T   T   T
  0.7492750311195453  0.9340374963596242  0.5475909785284517   T   T   T
  0.5828035389706900  0.4396108455475571  0.4564322884091017   T   T   T
  0.9140868870061931  0.6890985130048205  0.5453907451475757   T   T   T
  0.9157723145045100  0.4377121986051309  0.5457199898889139   T   T   T
  0.5795501676568233  0.6861123518955448  0.5474308928639697   T   T   T
  0.2515116860584962  0.9373296623987221  0.5452569106188478   T   T   T
  0.4974644999691601  0.5044108851590888  0.6090083710444432   T   T   T
  0.9178481458650438  0.5639629743111273  0.5471558230221043   T   T   T
  0.4200676780116478  0.5650605791788534  0.5554196839075297   T   T   T
  0.9155891683621655  0.8128777544033771  0.5468272260283685   T   T   T
  0.0835969669805360  0.9390059737593474  0.5457413920181174   T   T   T
  0.0866444297554286  0.3135376477330227  0.5470225062697048   T   T   T
  0.8321573610919322  0.0020724768566959  0.5922839428013954   T   T   T
  0.9158457550333635  0.1868812533381778  0.4531564937623759   T   T   T
  0.9156693580574946  0.9385585651195392  0.5464359212489294   T   T   T
  0.2495273206140605  0.3137032442677094  0.5459864797243732   T   T   T
  0.5837654167842106  0.9375967077682094  0.5461584940544275   T   T   T
  0.5766696112480494  0.4357667499136483  0.5522266877377836   T   T   T
  0.5906869928546340  0.5660788007661354  0.6387789941528849   T   T   T
  0.7483890420657223  0.9368350381401958  0.6398750460963291   T   T   T
  0.4995129277553943  0.1256718366569505  0.4995769980276972   T   T   T
  0.9997932335046706  0.4994516777866673  0.5941622284334608   T   T   T
  0.5806934728833764  0.1846696065228528  0.5504714593761000   T   T   T
  0.9998596884550729  0.7531624938957338  0.5923346538539342   T   T   T
  0.3340372744808248  0.9998833388359153  0.5919882664870074   T   T   T
  0.9997442001200820  0.9993750127007140  0.5931851947907174   T   T   T
  0.0010819427138416  0.2502061479060051  0.5918786506100341   T   T   T
  0.3332691981727562  0.4963928563162743  0.5908857940823024   T   T   T
  0.3354757237416042  0.7412593027864373  0.5904112681564698   T   T   T
  0.6634511861013564  0.2480265553426154  0.5903180317754994   T   T   T
  0.6658490503876809  0.0003835963513204  0.5917968947677440   T   T   T
  0.4158955637196921  0.1914145073074052  0.5465321641225892   T   T   T
  0.6657920165451983  0.7415169205326794  0.5904086797167959   T   T   T
  0.4990717987396059  0.2526178370833136  0.5905454818605537   T   T   T
  0.4300292500854138  0.3050993793230697  0.6554806590296391   T   T   T
  0.9173771157643221  0.1892367879601601  0.5452341652902809   T   T   T
  0.1706951580939718  0.7502934713160065  0.5949576342099387   T   T   T
  0.1656595020378101  0.5027400471144317  0.5873767896004068   T   T   T
  0.3350946214343031  0.2544486943035437  0.5930273687180029   T   T   T
  0.4996357066937768 -0.0000025346743229  0.5909751479788856   T   T   T
  0.8327432056168483  0.8742979021961806  0.4986270840590847   T   T   T
  0.4231204394907981  0.4439143018335469  0.5455436337800215   T   T   T
  0.7520696768888483  0.4353845522120994  0.5489510225688564   T   T   T
  0.7518839249373714  0.6805053498699043  0.5531752677406629   T   T   T
  0.7482978179717384  0.8081328644092272  0.5456972000173804   T   T   T
  0.4178512664220933  0.0651797520237772  0.6400840660068311   T   T   T
  0.2492578095858472  0.3161997605668405  0.6413313169169590   T   T   T
  0.6666726460525660  0.4946287399462002  0.5913910644048467   T   T   T
  0.5911131110288619  0.8100272532670947  0.6460658348455833   T   T   T
  0.1674273144347378  0.9983860850045798  0.5923123552910030   T   T   T
  0.1685138709031878  0.2484478061085142  0.5931572418754911   T   T   T
  0.2484157411123367  0.4358651193840012  0.5490854624910992   T   T   T
  0.9161206279979234  0.5622361598956936  0.4540612922319564   T   T   T
  0.9161203890012298  0.0621765856802965  0.4540983088680551   T   T   T
  0.9142217635850731  0.8132821840490875  0.6415874249785273   T   T   T
  0.0828287098705165  0.4389343530849670  0.5448633105650574   T   T   T
  0.9160412344709338  0.0624790009494468  0.6420593623640929   T   T   T
  0.7472009804060339  0.0671170148532024  0.6390776612692531   T   T   T
  0.0842115113636519  0.3114835553981640  0.6406467842414478   T   T   T
  0.0868579793201260  0.5628018576411858  0.6402269259751694   T   T   T
  0.0842460054963822  0.0606591723325405  0.6420960403778287   T   T   T
  0.0871602386161862  0.4365642982573433  0.6397212181667010   T   T   T
  0.0834779144411296  0.1856132359212237  0.6409995445502018   T   T   T
  0.6665297447500130  0.8743818360935397  0.4989320038852151   T   T   T
  0.8317723514741796  0.2479961641224813  0.5914146356222423   T   T   T
  0.8305726357456352  0.7509304682332205  0.5928453466223930   T   T   T
  0.0842662630072789  0.9356814791006617  0.6406419625279663   T   T   T
  0.8333818672050646  0.5030784928013968  0.5887748069517547   T   T   T
  0.4187229213504930  0.1875461036300065  0.6398678550388484   T   T   T
  0.4149598737575091  0.4188620967207988  0.6298342890753926   T   T   T
  0.2535539915708442  0.1865024511960968  0.6412055913499620   T   T   T
  0.2520297330266816  0.9302799913736423  0.6373384697555754   T   T   T
  0.5801362793945047  0.1917241296350312  0.6455093245196983   T   T   T
  0.0842476918737718  0.8125805524171362  0.6423054693999943   T   T   T
  0.2407340760632574  0.4420373592200169  0.6415797408094487   T   T   T
  0.9143457787760507  0.9372308257405343  0.6409671356752839   T   T   T
  0.9163592360521392  0.6875740393127777  0.6390393999070498   T   T   T
  0.9124677796023030  0.4360673400778649  0.6398273100691002   T   T   T
  0.4126957387594612  0.8128887981980218  0.6395507121386693   T   T   T
  0.2548817308572694  0.6774837962201169  0.6629488681659859   T   T   T
  0.5820054408252502  0.9356108881738955  0.6392738999392445   T   T   T
  0.7454555558554361  0.1950609380742048  0.6466294318838558   T   T   T
  0.0831970679120818  0.6871297396686566  0.6389952995642795   T   T   T
  0.9166666865332829  0.8124999999834799  0.3605200052333331   F   F   F
  0.7411143714395704  0.8098886094328814  0.6400082969355825   T   T   T
  0.7468825114406263  0.3125530307041463  0.6407044484730040   T   T   T
  0.5814345073208994  0.4396236106163441  0.6465663525973714   T   T   T
  0.4996089071080759  0.3742802601845847  0.4997476882448184   T   T   T
  0.5824766583543203  0.0662799610246842  0.6387105876139894   T   T   T
  0.5832358750508976  0.3209295033240554  0.6334878523758739   T   T   T
  0.2476030556580112  0.5737345236782877  0.6287630566367260   T   T   T
  0.7539481757454403  0.6922368291038059  0.6569297093210297   T   T   T
  0.2509810314521635  0.0594728597505999  0.6423254985516650   T   T   T
  0.9166666865332829  0.5625000000092442  0.3605200052333331   F   F   F
  0.4173737565557115  0.9349963203129995  0.6397958441124207   T   T   T
  0.4999898450916133  0.8734110991024887  0.5008769439568305   T   T   T
  0.4204485690789717  0.6760520489404691  0.6335681048673634   T   T   T
  0.8324366324469382  0.6230517467866648  0.5000502354369729   T   T   T
  0.8326216245731399  0.3733306986448544  0.4995777729271830   T   T   T
  0.9151237309201158  0.3118887601481760  0.6395864778799986   T   T   T
  0.1667625832012842  0.3762511367774007  0.4977372965283010   T   T   T
  0.9133582733515979  0.5623158470028425  0.6412034903409285   T   T   T
  0.0833333358191695  0.3124999999901945  0.3605200052333331   F   F   F
  0.5783153024694611  0.6858849336245277  0.6395642953613015   T   T   T
  0.1670762016785527  0.1243074403164726  0.4993289086563405   T   T   T
  0.7481554393039361  0.0598350094361823  0.5444383815707388   T   T   T
  0.1677314480144950  0.8733168061872916  0.4998816184455319   T   T   T
  0.5008390457567892  0.7563413502345594  0.5927369156062676   T   T   T
  0.5003158196271409  0.6211382894608226  0.5000623621015468   T   T   T
  0.7552152695770020  0.4339696403687274  0.6378099317980971   T   T   T
  0.2520206928998946  0.1883155069561630  0.5471878013473478   T   T   T
  0.7482771804986704  0.1838744600749992  0.5506676741406686   T   T   T
  0.0819198068927598  0.5643886962815264  0.5463174532247081   T   T   T
  0.3972193282925575  0.5505995663806562  0.6519916995223647   T   T   T
  0.1677305031618847  0.6243188428720835  0.5000643338180181   T   T   T
  0.8329573748457020  0.1245565263624785  0.4996385374020529   T   T   T
  0.7533655648147561  0.5684957019070520  0.6356505555612086   T   T   T
  0.9172353487024472  0.1869344608047425  0.6407481103429722   T   T   T
  0.4159343544070961  0.9370744931219741  0.5460931847125604   T   T   T
  0.0836286563794360  0.1889626395699320  0.5455095285542951   T   T   T
  0.2619577501482531  0.7996274740335976  0.6463266835369083   T   T   T
  0.7482263851848387  0.5643146653120783  0.4538052161506179   T   T   T
  0.9166666865332829  0.1875000000030838  0.3605200052333331   F   F   F
  0.5833333134730552  0.9375000000154046  0.3605200052333331   F   F   F
  0.5833333134730552  0.6874999999963620  0.3605200052333331   F   F   F
  0.5833333134730552  0.4374999701794380  0.3605200052333331   F   F   F
  0.5833333134730552  0.1875000000030838  0.3605200052333331   F   F   F
  0.2499999999799343  0.9375000000154046  0.3605200052333331   F   F   F
  0.9166666865332829  0.9375000000154046  0.3605200052333331   F   F   F
  0.9177976439672446  0.0632650590646977  0.5475374192225754   T   T   T
  0.2499999999799343  0.6874999999963620  0.3605200052333331   F   F   F
  0.7499999404149307  0.9375000000154046  0.3605200052333331   F   F   F
  0.7395455810418400  0.1600856469025080  0.7690249309722587   T   T   T
  0.5845279183124584  0.5628378381628861  0.4548627660194471   T   T   T
  0.5827383585596750  0.1903213072655149  0.4556385400039820   T   T   T
  0.7499999404149307  0.6874999999963620  0.3605200052333331   F   F   F
  0.4166666269218169  0.6874999999963620  0.3605200052333331   F   F   F
  0.4166666269218169  0.4374999701794380  0.3605200052333331   F   F   F
  0.2499999999799343  0.4374999701794380  0.3605200052333331   F   F   F
  0.0833333358191695  0.0625000000159659  0.3605200052333331   F   F   F
  0.9153795465392475  0.6867598698814550  0.4531750231203556   T   T   T
  0.6655623218724463  0.3784876827548100  0.5031130853431025   T   T   T
  0.3343750955293714  0.3784845510125515  0.5030038249321516   T   T   T
  0.3356299869918512  0.6257933614597804  0.5037859780898949   T   T   T
  0.2498833563676965  0.1884869926533977  0.4541004756822136   T   T   T
  0.2499999999799343  0.1875000000030838  0.3605200052333331   F   F   F
  0.2505221112928928  0.0620252090661087  0.4542573051819766   T   T   T
  0.7495211852554946  0.9384037165653412  0.4553401310107498   T   T   T
  0.7499999404149307  0.4374999701794380  0.3605200052333331   F   F   F
  0.7499999404149307  0.1875000000030838  0.3605200052333331   F   F   F
  0.4166666269218169  0.9375000000154046  0.3605200052333331   F   F   F
  0.9166666865332829  0.4374999701794380  0.3605200052333331   F   F   F
  0.9166666865332829  0.6874999999963620  0.3605200052333331   F   F   F
  0.5833333134730552  0.0625000000159659  0.3605200052333331   F   F   F
  0.7490777921142570  0.6886638246316281  0.4573833352534203   T   T   T
  0.0860551587669117  0.6893005959409605  0.5453256411173928   T   T   T
  0.4171771159579943  0.9358582180552530  0.4539970006069390   T   T   T
  0.4171083104364235  0.6847932414602063  0.4546887684532152   T   T   T
  0.4164550579908368  0.4354404844980331  0.4538199505125599   T   T   T
  0.0845794507126978  0.6869130780509544  0.4530617875050464   T   T   T
  0.0838792975738549  0.9366816309341717  0.4534701203080297   T   T   T
  0.0828095996950865  0.4368144726657808  0.4528506644362890   T   T   T
  0.0838855695083138  0.1865906640254865  0.4529710128320586   T   T   T
  0.9165786988037612  0.8121264293871993  0.4540591431277050   T   T   T
  0.7494217502223511  0.8131699319091196  0.4530644735085057   T   T   T
  0.9162930357828875  0.3122450521426723  0.4538580364725308   T   T   T
  0.2520979293329418  0.6876472084329627  0.4561366345336489   T   T   T
  0.7465280552369938  0.5581839010843788  0.5446816330449653   T   T   T
  0.9164759676358283  0.9371194430982724  0.4536607246563270   T   T   T
  0.2510782136717244  0.0625814513128861  0.5472606863758989   T   T   T
  0.0001130222091182  0.1250016461583965  0.4982951432865251   T   T   T
  0.0000730569499932  0.3736636753507292  0.4982652892059862   T   T   T
  0.9999040083432194  0.6271681187892276  0.4977159344746342   T   T   T
  0.3336796454954134  0.1256897510443456  0.4985241173468041   T   T   T
  0.0000498180273948  0.8751541469676987  0.4995335104453441   T   T   T
  0.3334660477536183  0.8740039240579419  0.4993130124754447   T   T   T
  0.6660815403147347  0.1265328469610556  0.4990300191319886   T   T   T
  0.2511869203105888  0.4392821123420556  0.4549204033495529   T   T   T
  0.0833333358191695  0.5625000000092442  0.3605200052333331   F   F   F
  0.9166666865332829  0.0625000000159659  0.3605200052333331   F   F   F
  0.4171307223199943  0.1871272841643264  0.4535730896391933   T   T   T
  0.9153777842347613  0.3129360781720078  0.5467239711678398   T   T   T
  0.4230458807630110  0.6881007637764182  0.5465889674391333   T   T   T
  0.9159534538995995  0.4370156045432263  0.4535914563117877   T   T   T
  0.7496555439494426  0.4383724700467116  0.4557639307319787   T   T   T
  0.5832767376742015  0.8104927323150045  0.4553408614188669   T   T   T
  0.5828058714029797  0.3109164362176409  0.5448096366461066   T   T   T
  0.2525197744801603  0.5590501064648649  0.5438545613929154   T   T   T
  0.2499999999799343  0.5625000000092442  0.3605200052333331   F   F   F
  0.0000000000000000  0.4999999999932783  0.4070133268666680   F   F   F
  0.3333333432766779  0.0000000000000000  0.4070133268666680   F   F   F
  0.3333333432766779  0.4999999999932783  0.4070133268666680   F   F   F
  0.3333333432766779  0.7500000000123208  0.4070133268666680   F   F   F
  0.5827709439276930  0.6861301520900757  0.4546201910089219   T   T   T
  0.6666666865533486  0.0000000000000000  0.4070133268666680   F   F   F
  0.6666666865533486  0.4999999999932783  0.4070133268666680   F   F   F
  0.8333332538436267  0.2500000000190425  0.4070133268666680   F   F   F
  0.1666666716383389  0.0000000000000000  0.4070133268666680   F   F   F
  0.1666666716383389  0.4999999999932783  0.4070133268666680   F   F   F
  0.1666666716383389  0.7500000000123208  0.4070133268666680   F   F   F
  0.5000000000021103  0.4999999999932783  0.4070133268666680   F   F   F
  0.5832444933290939  0.0636977386300537  0.4538221361768074   T   T   T
  0.5000000000021103  0.2500000000190425  0.4070133268666680   F   F   F
  0.0000000000000000  0.2500000000190425  0.4070133268666680   F   F   F
  0.7474297598451241  0.3141755457880216  0.4547795940155507   T   T   T
  0.4167083375540107  0.8100498601802909  0.4550994661099608   T   T   T
  0.5843568383865877  0.3154845753406039  0.4535742534769965   T   T   T
  0.5827355656780766  0.9371574267822189  0.4543209762932043   T   T   T
  0.6666666865533486  0.2500000000190425  0.4070133268666680   F   F   F
  0.2522824969198147  0.3141144739495695  0.4541475384760603   T   T   T
  0.1666666716383389  0.2500000000190425  0.4070133268666680   F   F   F
  0.2505214045385983  0.8108098864145272  0.4553157867314898   T   T   T
  0.5833333134730552  0.5625000000092442  0.3605200052333331   F   F   F
  0.2500145753770108  0.9360612774732836  0.4540221468998137   T   T   T
  0.8333332538436267  0.0000000000000000  0.4070133268666680   F   F   F
  0.5000000000021103  0.7500000000123208  0.4070133268666680   F   F   F
  0.9166666865332829  0.3124999999901945  0.3605200052333331   F   F   F
  0.0000000000000000  0.0000000000000000  0.4070133268666680   F   F   F
  0.2499999999799343  0.8124999999834799  0.3605200052333331   F   F   F
  0.0000000000000000  0.7500000000123208  0.4070133268666680   F   F   F
  0.0833333358191695  0.1875000000030838  0.3605200052333331   F   F   F
  0.3333333432766779  0.2500000000190425  0.4070133268666680   F   F   F
  0.5000000000021103  0.0000000000000000  0.4070133268666680   F   F   F
  0.7499999404149307  0.5625000000092442  0.3605200052333331   F   F   F
  0.6666666865533486  0.7500000000123208  0.4070133268666680   F   F   F
  0.2499999999799343  0.3124999999901945  0.3605200052333331   F   F   F
  0.7499999404149307  0.3124999999901945  0.3605200052333331   F   F   F
  0.7499999404149307  0.0625000000159659  0.3605200052333331   F   F   F
  0.4166666269218169  0.8124999999834799  0.3605200052333331   F   F   F
  0.4166666269218169  0.3124999999901945  0.3605200052333331   F   F   F
  0.7499999404149307  0.8124999999834799  0.3605200052333331   F   F   F
  0.4166666269218169  0.0625000000159659  0.3605200052333331   F   F   F
  0.0834799851499392  0.8121183562935933  0.4541769063436820   T   T   T
  0.4166666269218169  0.5625000000092442  0.3605200052333331   F   F   F
  0.5833333134730552  0.3124999999901945  0.3605200052333331   F   F   F
  0.5833333134730552  0.8124999999834799  0.3605200052333331   F   F   F
  0.0835196160613227  0.3120286149894205  0.4539803742054974   T   T   T
  0.8333332538436267  0.7500000000123208  0.4070133268666680   F   F   F
  0.4169401735865523  0.0615759670408295  0.4553408044901003   T   T   T
  0.0837778468164255  0.0618590896698867  0.4541720336978389   T   T   T
  0.4144083512200821  0.8117923404158436  0.5478884803723487   T   T   T
  0.0833333358191695  0.6874999999963620  0.3605200052333331   F   F   F
  0.0839642883706224  0.5624862703870428  0.4538848529373212   T   T   T
  0.4160675844830051  0.5595300821766016  0.4578739493868285   T   T   T
  0.6654337888965849  0.6260567662823483  0.5029738165860096   T   T   T
  0.4155578904596700  0.3113484818967782  0.4573704253924892   T   T   T
  0.2499999999799343  0.0625000000159659  0.3605200052333331   F   F   F
  0.2518974572777589  0.5646638809178471  0.4537110791734422   T   T   T
  0.0833333358191695  0.8124999999834799  0.3605200052333331   F   F   F
  0.0833333358191695  0.9375000000154046  0.3605200052333331   F   F   F
  0.4166666269218169  0.1875000000030838  0.3605200052333331   F   F   F
  0.7495678356115311  0.0640903838141616  0.4533825763359657   T   T   T
  0.8333332538436267  0.4999999999932783  0.4070133268666680   F   F   F
  0.0833333358191695  0.4374999701794380  0.3605200052333331   F   F   F
  0.0000000000000000  0.1249999999871179  0.4070133268666680   F   F   F
  0.1666666716383389  0.8749999404036828  0.4070133268666680   F   F   F
  0.5000000000021103  0.3750000000061604  0.4070133268666680   F   F   F
  0.1666666716383389  0.1249999999871179  0.4070133268666680   F   F   F
  0.8333332538436267  0.1249999999871179  0.4070133268666680   F   F   F
  0.8361094090724401  0.7517619057468248  0.5026283194444591   T   T   T
  0.8360276915585408  0.2484030183117242  0.5028715940683518   T   T   T
  0.3317761908729533  0.1199367877404582  0.6135870390865510   T   T   T
  0.8333332538436267  0.3750000000061604  0.4070133268666680   F   F   F
  0.5000000000021103  0.6249999999803961  0.4070133268666680   F   F   F
  0.1636439051494868  0.4999020342548509  0.5020539610247279   T   T   T
  0.9990659938234389  0.8752111978883785  0.6223408299555826   T   T   T
  0.6666303381940591  0.6262001014886461  0.5933821436911375   T   T   T
  0.9997406220293540  0.6230520208139488  0.6262585320784456   T   T   T
  0.8378004926916458  0.3726577585609303  0.6032663671620868   T   T   T
  0.8333342547887825  0.1253312041140321  0.6233050647799078   T   T   T
  0.5000000000021103  0.8749999404036828  0.4070133268666680   F   F   F
  0.5000000000021103  0.1249999999871179  0.4070133268666680   F   F   F
  0.6710030065732443  0.3725408209571870  0.5930146455882435   T   T   T
  0.5037359294065891  0.6250929913567996  0.5940685547128349   T   T   T
  0.0002644527358541  0.3749529466508312  0.6243224008555790   T   T   T
  0.6653044386595794  0.8810301692148415  0.6072167839806868   T   T   T
  0.1666666716383389  0.6249999999803961  0.4070133268666680   F   F   F
  0.1633838680094888  0.3713420309913195  0.6077276988804916   T   T   T
  0.1596162654300683  0.6274285062045264  0.6014887048781611   T   T   T
  0.6666666865533486  0.8749999404036828  0.4070133268666680   F   F   F
  0.1662455596403348  0.8736127687460897  0.6180341283473033   T   T   T
  0.3344871002902380  0.8787210352626678  0.6028278331708739   T   T   T
  0.1677328746001972  0.1229445885841123  0.6219533114773048   T   T   T
  0.3340929782124019  0.6244960388741870  0.5951449662740628   T   T   T
  0.6652986007565452  0.1249565978555015  0.6112534919509589   T   T   T
  0.5005395428076240  0.1223677948503345  0.6062873321925649   T   T   T
  0.5015358634750804  0.3715056792365293  0.5949117357934743   T   T   T
  0.8320568030126679  0.8761376381724357  0.6183885819040975   T   T   T
  0.8396253052802475  0.6270238519896405  0.6038634423599464   T   T   T
  0.6666666865533486  0.3750000000061604  0.4070133268666680   F   F   F
  0.1659828784996608  0.0012001205511289  0.5065558315674341   T   T   T
  0.5012344562741464  0.4998638055421361  0.5002163772683232   T   T   T
 -0.0000121275777672  0.0000019072847734  0.5066453299180006   T   T   T
  0.0006032870798959  0.1226101245813195  0.6195185036654570   T   T   T
  0.1666666716383389  0.3750000000061604  0.4070133268666680   F   F   F
  0.3331404134837556  0.0011685886607554  0.5058021497780335   T   T   T
  0.6659354511215835  0.0000118502965202  0.5054590296679801   T   T   T
  0.6654658816653163  0.7519200458981419  0.5022535606129659   T   T   T
  0.0000000000000000  0.3750000000061604  0.4070133268666680   F   F   F
  0.5011162749077712  0.2479718717275602  0.5021540986729360   T   T   T
  0.3338639047856349  0.7511717812290597  0.5015249965532911   T   T   T
  0.3302374111344498  0.2480399707356767  0.5028906189548289   T   T   T
  0.8333332538436267  0.6249999999803961  0.4070133268666680   F   F   F
  0.6671003208184815  0.2480092513934984  0.5025765043973824   T   T   T
  0.3259683792725193  0.3735603783702103  0.5927021582878111   T   T   T
  0.5011394339356317  0.7528630060569671  0.5038915080537468   T   T   T
  0.0009107332232863  0.2498986985091143  0.5058565154170402   T   T   T
  0.3312272191969501  0.4992325170880588  0.5009211049216687   T   T   T
  0.6666666865533486  0.1249999999871179  0.4070133268666680   F   F   F
  0.8362271332543731  0.5001160960128993  0.5027315927224879   T   T   T
  0.3333333432766779  0.3750000000061604  0.4070133268666680   F   F   F
  0.0000000000000000  0.8749999404036828  0.4070133268666680   F   F   F
  0.5002938949630410  0.9993276491932037  0.5054459802829970   T   T   T
  0.5007236803330929  0.8767961624474435  0.6094725029760719   T   T   T
  0.6686696333720042  0.4999300390042759  0.5006287630811699   T   T   T
  0.3333333432766779  0.8749999404036828  0.4070133268666680   F   F   F
  0.8342654247343514  0.0004819967990511  0.5066381931511620   T   T   T
  0.1663835926824322  0.2482394316594456  0.5062167394406020   T   T   T
  0.3333333432766779  0.1249999999871179  0.4070133268666680   F   F   F
  0.3333333432766779  0.6249999999803961  0.4070133268666680   F   F   F
  0.8333332538436267  0.8749999404036828  0.4070133268666680   F   F   F
  0.6666666865533486  0.6249999999803961  0.4070133268666680   F   F   F
  0.9999520848966811  0.7510770595657793  0.5065558823988131   T   T   T
  0.9998008742449844  0.5003371972305833  0.5068342133347304   T   T   T
  0.1644090474651649  0.7515554492751365  0.5034068532323642   T   T   T
  0.0000000000000000  0.6249999999803961  0.4070133268666680   F   F   F
  0.9183366103627506  0.5000108667601311  0.6038113112113581   T   T   T
  0.2499999999799343  0.2500000000190425  0.4070133268666680   F   F   F
  0.0811101166939690  0.7517829944988115  0.6035159225221252   T   T   T
  0.7519793890191556  0.7526599062828182  0.5905562996685686   T   T   T
  0.0833333358191695  0.2500000000190425  0.4070133268666680   F   F   F
  0.9180579910622484  0.7519912788682480  0.6032640886841955   T   T   T
  0.9166666865332829  0.7500000000123208  0.4070133268666680   F   F   F
  0.4166666269218169  0.4999999999932783  0.4070133268666680   F   F   F
  0.5838281757997726  0.8757855089152894  0.5057358655882657   T   T   T
  0.0833333358191695  0.7500000000123208  0.4070133268666680   F   F   F
  0.9188512094972864  0.3746116835991089  0.5058932700422840   T   T   T