Au  C  H  O Sr Ti 
 1.0000000000000000
    23.6707801818999997    0.0000000000000000    0.0000000000000000
     0.0000000000000000   22.3170261383000010    0.0000000000000000
     0.0000000000000000    0.0000000000000000   30.0000000000000000
 Au  C   H   O   Sr  Ti 
  50   2   5 265  72  72
Selective dynamics
Cartesian
 16.9489915964591056 11.7277914466661404 22.6058623549821398   T   T   T
 15.7584771625726461  4.4044590658355256 22.5855479367971412   T   T   T
 11.1304262217817111 10.0678467607045707 26.3714663901734667   T   T   T
 12.2163099049722490  8.4391075963609801 21.9997178352328220   T   T   T
  6.6936949719759866  7.5750625224458989 21.0689226240828482   T   T   T
 15.8484511712085929 15.2063871014817060 22.4660530353798755   T   T   T
  9.4212872365478386  8.5147544829674882 20.7020324919023828   T   T   T
 10.9460855035638751 12.7999456121873791 25.9181064022378678   T   T   T
 16.5696415352394730  7.7709224818540070 22.6838183606340351   T   T   T
 10.7042685254093524 12.9460048582352822 21.0791833898841148   T   T   T
  9.8818881320844518 15.5479275020005474 20.9835618582890788   T   T   T
 13.4801770276453325 11.3824172147501397 25.6988998426684603   T   T   T
 18.3395900401721619  9.5990862105091317 23.8399386565713485   T   T   T
 15.3857800855090741  9.9938620486462302 20.8059685336566922   T   T   T
 13.3598160390431602 14.2714568046593975 25.8346896761377387   T   T   T
 12.7931667472235571 14.9073940827753546 21.0455472138996953   T   T   T
 10.4993162802541420 10.6079964057979321 22.7118762850711562   T   T   T
  8.8529660592465902 16.5103429925415917 23.3603546449388162   T   T   T
  8.8626177780543554 11.0026995549718141 24.9895541571901312   T   T   T
 14.5751259784995373  7.2368867002853152 20.8782892652898298   T   T   T
  7.7113735145742588  9.2491145525982006 23.0692900424591301   T   T   T
  8.7179053157889896 13.8115839015378938 24.6035725257140108   T   T   T
 15.5206179610011326  9.8530690660016234 24.3872488009105020   T   T   T
  6.0781347904456693 13.2343138191726002 20.8366269581057892   T   T   T
 11.4926955102848165 17.3345799977961548 22.6586579538744957   T   T   T
 16.7237641961414205 16.8950322276852596 20.6502528871812885   T   T   T
 17.0152131797810497  5.8291944510432074 20.7113522564853909   T   T   T
  6.9523000381331075 16.6628621016117009 20.9123361277643731   T   T   T
 13.6866999531237354 16.1928398892895196 23.8172376285551621   T   T   T
  5.6948228064900324 10.4775832744956379 21.2716449134778713   T   T   T
  6.7427798585353198 14.7821519866567872 22.9392910818484737   T   T   T
 14.2201626514230934  6.4952625237777282 23.5583272263699754   T   T   T
 12.1649580627098661 10.8112974597763944 20.3430468736554317   T   T   T
  6.8468389467847564 12.0107249402860479 23.3188918610275913   T   T   T
 12.9918335604058086  8.5984246892579126 24.8693028341873266   T   T   T
 12.1156170454227805 13.4697082036217584 23.3025126170453873   T   T   T
 17.3509819814957567 13.7238279032880186 20.8202297372510898   T   T   T
 11.5092191836972173  6.0237430053713679 23.2614536255869737   T   T   T
 13.3295444917515020 10.8520813044064610 22.8643905754037817   T   T   T
 10.1594874255397745  8.2954981826496770 24.4638156402923244   T   T   T
  8.2771580675096459 11.1451207958743677 20.9324888596538230   T   T   T
 14.1165151169092606 17.5087174719716643 21.3921430891576598   T   T   T
  8.7964576874075817  6.6606178181863251 22.6457957914237191   T   T   T
 10.4903834331039878  5.0789702396683394 20.9109461059787876   T   T   T
 10.9726316578797576 15.5159389859778134 24.9017017313760185   T   T   T
  9.2655285825901963 18.2500614469292017 21.1919726888579447   T   T   T
 18.1133800640533877  9.6646588269055531 21.1318121041721909   T   T   T
 14.7047885123867310 12.7555802453301173 21.1271041060296163   T   T   T
 13.2655853737880332  4.7387614966165561 21.3719841901903358   T   T   T
 15.0250507672738909 13.0381051367213878 24.0039731707798438   T   T   T
 19.2387179805086106  3.2342081803111844 24.6399212351730910   T   T   T
 18.0254316401052037  3.7052353330578987 24.2581490620830955   T   T   T
 20.1306105375799760  3.8443189701006033 24.4579551347836528   T   T   T
 17.2763950593119340  3.1038753625951006 24.6916415417727180   T   T   T
 19.4628345020605842  2.2366319186194783 24.4421641397680283   T   T   T
 17.9129627259157616  4.6934481177724798 24.6474752497977256   T   T   T
 19.4467524372434148  3.4327193961203513 25.6972156604213851   T   T   T
 17.7725098105615089  4.2329376302714001 13.6659397449347058   T   T   T
  2.0097622848717256 18.1427478217915379 16.4201962490398117   T   T   T
  9.8596925900170245  1.4591412320528854 16.4199090418631464   T   T   T
  9.8501333871691639  7.1292287369794192 16.5768048073251819   T   T   T
  5.9948040523991395 18.1353428514111243 16.5229159067248048   T   T   T
 13.7577301303028730 12.4986014695964265 16.4688319959769522   T   T   T
 17.7087000337732512  6.9532501593482960 16.4422345598115278   T   T   T
 13.8663851804485905 18.1729075053543845 16.5086712747986866   T   T   T
 13.7974025367074109  1.3814823220048031 16.3615920776619923   T   T   T
  1.9487212409594665  1.4130150355213944 16.4277922161590517   T   T   T
  5.8990987388658480 15.2488800503155151 16.5617235752988030   T   T   T
 17.7378240193734520 20.8431129339381478 16.4290235182740076   T   T   T
 13.7951589699414914  9.8136517091539837 13.6915310996361619   T   T   T
 21.6349312986351556 15.3788430108930800 16.3603219641822477   T   T   T
 21.6781759985041127  9.7679306284498626 16.3714576472044442   T   T   T
 13.7177817187753384 15.3121995485746147 16.4209906750422299   T   T   T
  5.9539957948500675 20.9183076836111361 16.3586244238354972   T   T   T
 11.7758212848824577 11.2565575670307485 18.2676163609621725   T   T   T
 21.7220111777671150 12.5841520274280647 16.4064042719612182   T   T   T
  9.9436587346168981 12.6115836288655636 16.6612566309421304   T   T   T
 21.6733214760183834 18.1406786332727918 16.4054268161179877   T   T   T
  1.9786887976467058 20.9556179000870948 16.3728727011434216   T   T   T
  2.0494556437389710  6.9979297549752300 16.4057066474025994   T   T   T
 19.6977038265906614  0.0459396395677361 17.7687716251153489   T   T   T
 21.6792642327254370  4.1702645878832900 13.5947506770186131   T   T   T
 21.6747685744561984 20.9456362779153338 16.3920627672287118   T   T   T
  5.9063258759051589  7.0022097437736441 16.3794968095253815   T   T   T
 13.8191916729195690 20.9255770248316040 16.3831391049586337   T   T   T
 13.6497375590361081  9.7251547278872827 16.5666111973491361   T   T   T
 13.9895820385034764 12.6226362424448038 19.1719637670353507   T   T   T
 17.7147849192247762 20.9103827220640959 19.1998421307399241   T   T   T
 11.8226152307597072  2.8058601236056355 14.9856277966587896   T   T   T
 23.6649381217882713 11.1471557095525480 17.8192345247785724   T   T   T
 13.7441176494545179  4.1275133696679163 16.5049679502846622   T   T   T
 23.6667887334667810 16.8065945761890916 17.7715939586056173   T   T   T
  7.9069435713741010 22.3142552126450902 17.7601042666189066   T   T   T
 23.6647880615087267 22.3021257213146420 17.7955781467718239   T   T   T
  0.0223839353147463  5.5827703860719620 17.7532614485556692   T   T   T
  7.8884638080537250 11.0788129314807495 17.7258174990659718   T   T   T
  7.9472624617744749 16.5411972385894330 17.7102481656233017   T   T   T
 15.7026555032553272  5.5314845776010930 17.7076854875147056   T   T   T
 15.7630047080034519  0.0067324000992456 17.7546914755659593   T   T   T
  9.8395061049789749  4.2708504543172339 16.3947632143167077   T   T   T
 15.7606240636774526 16.5508841097046258 17.7051820369880808   T   T   T
 11.8130216476404684  5.6339081683213887 17.7118981727342302   T   T   T
 10.1786061156276606  6.8044574823707915 19.6598725922921567   T   T   T
 21.7065423645675111  4.2198603925225466 16.3596546087811063   T   T   T
  4.0416283347855044 16.7474072651415966 17.8486520458863396   T   T   T
  3.9192528295872870 11.2191251869300999 17.6230407791783108   T   T   T
  7.9299255234899819  5.6816405386100541 17.7921720150464502   T   T   T
 11.8278375404013936 -0.0001700850950681 17.7305138370780142   T   T   T
 19.7121376438500988 19.5101996637701021 14.9587840830136170   T   T   T
 10.0159101765440290  9.9068979905266517 16.3662350620778909   T   T   T
 17.8019524829496625  9.7136249047722458 16.4682226359295925   T   T   T
 17.7989181692984424 15.1833419009568438 16.5975683587309106   T   T   T
 17.7131632880750729 18.0345870344520520 16.3701076534015826   T   T   T
  9.8918325717015758  1.4540706790138964 19.2019597481361686   T   T   T
  5.8981968020947537  7.0572341694796314 19.2400330114842930   T   T   T
 15.7825901352161111 11.0338877144775829 17.7392157561782149   T   T   T
 13.9930983202779320 18.0768335514341700 19.3818645223342791   T   T   T
  3.9637190240040248 22.2807756116246765 17.7706506560982191   T   T   T
  3.9875885475805872  5.5524978118439865 17.7924787200425563   T   T   T
  5.8804179632494513  9.7273559315346407 16.4722441614259161   T   T   T
 21.6866988040851538 12.5492470245523187 13.6179099203897849   T   T   T
 21.6858141508626368  1.3876246450312422 13.6230728242554235   T   T   T
 21.6405258351524630 18.1496808759554114 19.2477376778565130   T   T   T
  1.9595942949277185  9.7972395370387773 16.3442626099351358   T   T   T
 21.6833846824509848  1.3965761388334481 19.2587597711860390   T   T   T
 17.6902589784519684  1.5027421128941301 19.1672173371647325   T   T   T
  1.9909630826287801  6.9534061338888193 19.2175445651920214   T   T   T
  2.0560761738347022 12.5613268852893949 19.2054209309893658   T   T   T
  1.9946787791154217  1.3532493344384857 19.2638328862388128   T   T   T
  2.0593946963984164  9.7432158881194244 19.1890732083435012   T   T   T
  1.9774053233227524  4.1445818137889692 19.2276083615575608   T   T   T
 15.7772513685113758 19.5132178426527538 14.9671364621601359   T   T   T
 19.6865041774383442  5.5323484175289144 17.7410128106396776   T   T   T
 19.6595975761156865 16.7573865973659579 17.7863853953769357   T   T   T
  1.9946354429735720 20.8813881658820151 19.2192947055961092   T   T   T
 19.7257348685778418 11.2273436327446614 17.6617481247992139   T   T   T
  9.9109078611717525  4.1854005470918967 19.1953675884571133   T   T   T
  9.8219401629939469  9.3498522309030481 18.8938006159893597   T   T   T
  5.9983452632178338  4.1616366564338554 19.2339434806762704   T   T   T
  5.9658497159571402 20.7603646122966303 19.1209845656567552   T   T   T
 13.7286202548845981  4.2813513509020344 19.3681378226883893   T   T   T
  1.9949370220434524 18.1342586586460186 19.2685454336637711   T   T   T
  5.6979074472386806  9.8649880414202258 19.2477115950703777   T   T   T
 21.6428099099758064 20.9173975001200034 19.2287960585805813   T   T   T
 21.6916491222035113 15.3448837455690494 19.1758508110331007   T   T   T
 21.5987673966345319  9.7322579823910118 19.1937029602782872   T   T   T
  9.7698642077645648 18.1416109436676720 19.1871226654563820   T   T   T
  6.0299976061999887 15.1213709836153818 19.8944677410608541   T   T   T
 13.7785532409214717 20.8786064115717771 19.1786594034016566   T   T   T
 17.6350552940454222  4.3653548460995388 19.3973336713894362   T   T   T
  1.9724713698058802 15.3347730400160991 19.1725408013461127   T   T   T
 21.6982156369999721 18.1325837370000720 10.8156001569999933   F   F   F
 17.5434339680637059 18.0749254745104473 19.2000216896277749   T   T   T
 17.6733194582545892  6.9812573600895877 19.1995818406027468   T   T   T
 13.7605256286121946  9.8094136068124058 19.3979496367061515   T   T   T
 11.8246442887201901  8.3530849751416536 14.9922807456056866   T   T   T
 13.7900639929576752  1.4771459554710011 19.1641108195329259   T   T   T
 13.8039566159839833  7.1631873626461156 18.9919931697978335   T   T   T
  5.8606794426599418 12.8048648628488291 18.8668797056111650   T   T   T
 17.8437328615140700 15.4504155421428404 19.7115824746134756   T   T   T
  5.9402900880763214  1.3276504553742605 19.2705270572095344   T   T   T
 21.6982156369999721 12.5533272030000536 10.8156001569999933   F   F   F
  9.8802876597129661 20.8659104605901788 19.1943869448858919   T   T   T
 11.8352479112244833 19.4927280546687918 15.0262394007924467   T   T   T
  9.9595312755724805 15.0842456182566238 19.0074681131083025   T   T   T
 19.7047279878334400 13.9056022767584846 15.0004886092857319   T   T   T
 19.7070362633391625  8.3307523578562144 14.9894419741937490   T   T   T
 21.6613485179902590  6.9614424469500724 19.1890552763241224   T   T   T
  3.9474341940561457  8.3971043758939743 14.9320956798360900   T   T   T
 21.6152532153438770 12.5471662287450503 19.2346542403417082   T   T   T
  1.9725650740000149  6.9740706679999214 10.8156001569999933   F   F   F
 13.7147516005827796 15.2975194073212890 19.1847892893239163   T   T   T
  3.9548065572993041  2.7738595306974378 14.9805504976815484   T   T   T
 17.7084047640426476  1.3348271339247983 16.3330437376617290   T   T   T
  3.9709289520896616 19.4886899966665617 14.9962543096472949   T   T   T
 11.8617830051418256 16.8765360171128584 17.7926492205851687   T   T   T
 11.8428678015048465 13.8611834218510737 15.0030323568426720   T   T   T
 17.8791679755480857  9.6875787583582529 19.1336583794801136   T   T   T
  5.9656777237822389  4.2028898947859288 16.4152202648145540   T   T   T
 17.7185998633857622  4.1013153532580988 16.5178366042009799   T   T   T
  1.9440363322269363 12.5968144281295800 16.3878885449069571   T   T   T
  9.4023671752244624 12.2879999915744982 19.5584523998845476   T   T   T
  3.9717665917875888 13.9324931001971013 15.0007600834120840   T   T   T
 19.7158251173354024  2.7761705602642461 14.9881930805018939   T   T   T
 17.8272008863394475 12.6936213028533196 19.0630223073308898   T   T   T
 21.7104710220529817  4.1705687914881198 19.2246336430311224   T   T   T
  9.8463847460827907 20.9135281558635739 16.3836407181348029   T   T   T
  1.9827847559171010  4.2177121028600935 16.3636870961657124   T   T   T
  6.2093647583856457 17.8422626042925003 19.3889150620744140   T   T   T
 17.7106719399259482 12.5936552156416521 13.6137667297892992   T   T   T
 21.6982156369999721  4.1844424010000720 10.8156001569999933   F   F   F
 13.8079546360000549 20.9222120050000342 10.8156001569999933   F   F   F
 13.8079546360000549 15.3429554700000619 10.8156001569999933   F   F   F
 13.8079546360000549  9.7636982699999884 10.8156001569999933   F   F   F
 13.8079546360000549  4.1844424010000720 10.8156001569999933   F   F   F
  5.9176950450000287 20.9222120050000342 10.8156001569999933   F   F   F
 21.6982156369999721 20.9222120050000342 10.8156001569999933   F   F   F
 21.7232235462791152  1.4124422242832264 16.4253685882548730   T   T   T
  5.9176950450000287 15.3429554700000619 10.8156001569999933   F   F   F
 17.7530837259999217 20.9222120050000342 10.8156001569999933   F   F   F
 17.6921159517534505  3.8202136846961925 22.9771772752017363   T   T   T
 13.8346704431610021 12.5614335774383665 13.6456467933349614   T   T   T
 13.7925038421361279  4.2477154880192742 13.6672286648285368   T   T   T
 17.7530837259999217 15.3429554700000619 10.8156001569999933   F   F   F
  9.8628241350000643 15.3429554700000619 10.8156001569999933   F   F   F
  9.8628241350000643  9.7636982699999884 10.8156001569999933   F   F   F
  5.9176950450000287  9.7636982699999884 10.8156001569999933   F   F   F
  1.9725650740000149  1.3948141340000613 10.8156001569999933   F   F   F
 21.6689648387883373 15.3269114517480372 13.5942359421936274   T   T   T
 15.7524797281934461  8.4496210724211238 15.0909376150951875   T   T   T
  7.9143486539737626  8.4466579465077274 15.0896534144834575   T   T   T
  7.9446985610652279 13.9654721446994206 15.1137936634815357   T   T   T
  5.9146536496717657  4.2068896175012336 13.6231790882364159   T   T   T
  5.9176950450000287  4.1844424010000720 10.8156001569999933   F   F   F
  5.9294518064125432  1.3841718715927196 13.6275201905476262   T   T   T
 17.7427750132869306 20.9415479231153085 13.6583944547051761   T   T   T
 17.7530837259999217  9.7636982699999884 10.8156001569999933   F   F   F
 17.7530837259999217  4.1844424010000720 10.8156001569999933   F   F   F
  9.8628241350000643 20.9222120050000342 10.8156001569999933   F   F   F
 21.6982156369999721  9.7636982699999884 10.8156001569999933   F   F   F
 21.6982156369999721 15.3429554700000619 10.8156001569999933   F   F   F
 13.8079546360000549  1.3948141340000613 10.8156001569999933   F   F   F
 17.7312300332625910 15.3700899144724801 13.7219550970876103   T   T   T
  2.0398109411842653 15.3859015518056612 16.3570566195500611   T   T   T
  9.8746142861991064 20.8853465898185355 13.6209875651177690   T   T   T
  9.8738157008650980 15.2808851761250217 13.6416740994775374   T   T   T
  9.8575724680359098  9.7171054026629111 13.6142614271074489   T   T   T
  2.0016850900713181 15.3298235916735610 13.5907277251043155   T   T   T
  1.9852065113916009 20.9026625480713513 13.6034921611974795   T   T   T
  1.9590487685105897  9.7477959028008438 13.5834930175573945   T   T   T
  1.9855093359167231  4.1641454228531751 13.5889136651662774   T   T   T
 21.6960317780833130 18.1243188196669252 13.6219561154743989   T   T   T
 17.7392542310654733 18.1480075447128861 13.5925568778012007   T   T   T
 21.6887922523486267  6.9691138347757642 13.6164381953450899   T   T   T
  5.9682410422447472 15.3459843702278782 13.6837427586066216   T   T   T
 17.6706644711652281 12.4539720077858149 16.3388179383553300   T   T   T
 21.6934735578839373 20.9138088424263167 13.6106762006185313   T   T   T
  5.9437009632167737  1.3971832759534308 16.4182204448651667   T   T   T
  0.0021700140357673  2.7914751296343496 14.9529313573227896   T   T   T
  0.0014173882363147  8.3393342808575905 14.9472482055549385   T   T   T
 23.6690794860882541 13.9965534005127896 14.9304729179387365   T   T   T
  7.8971460706785379  2.8049366253164658 14.9536009095322981   T   T   T
  0.0001626767877923 19.5310159437004494 14.9861959181566320   T   T   T
  7.8942952874225822 19.5053406024643579 14.9803573044247802   T   T   T
 15.7667262939877268  2.8251527082712427 14.9708704822425034   T   T   T
  5.9453624025743910  9.8036393800000710 13.6478837191276305   T   T   T
  1.9725650740000149 12.5533272030000536 10.8156001569999933   F   F   F
 21.6982156369999721  1.3948141340000613 10.8156001569999933   F   F   F
  9.8729914218929746  4.1758051535623846 13.6062398993258480   T   T   T
 21.6673613893968664  6.9838429633121422 16.4021407591256931   T   T   T
 10.0160403588420159 15.3562861457015316 16.3988803797734981   T   T   T
 21.6822528514389390  9.7532309353940381 13.6072535746571255   T   T   T
 17.7446927465466509  9.7834238369435980 13.6734210919400336   T   T   T
 13.8069613239484692 18.0884413294533459 13.6600101351984122   T   T   T
 13.7972117675251909  6.9376347456164362 16.3397827325231084   T   T   T
  5.9759247975954342 12.4779610057680674 16.3197050286673360   T   T   T
  5.9176950450000287 12.5533272030000536 10.8156001569999933   F   F   F
  0.0000000000000000 11.1585130689999925 12.2103998060000407   F   F   F
  7.8902602960000570  0.0000000000000000 12.2103998060000407   F   F   F
  7.8902602960000570 11.1585130689999925 12.2103998060000407   F   F   F
  7.8902602960000570 16.7377696039999648 12.2103998060000407   F   F   F
 13.7938356116526020 15.3128392598564123 13.6377408263297433   T   T   T
 15.7805205919999434  0.0000000000000000 12.2103998060000407   F   F   F
 15.7805205919999434 11.1585130689999925 12.2103998060000407   F   F   F
 19.7256482699999580  5.5792565349999723 12.2103998060000407   F   F   F
  3.9451301480000271  0.0000000000000000 12.2103998060000407   F   F   F
  3.9451301480000271 11.1585130689999925 12.2103998060000407   F   F   F
  3.9451301480000271 16.7377696039999648 12.2103998060000407   F   F   F
 11.8353900909999528 11.1585130689999925 12.2103998060000407   F   F   F
 13.8054336324696649  1.4210458503709202 13.6152384442038539   T   T   T
 11.8353900909999528  5.5792565349999723 12.2103998060000407   F   F   F
  0.0000000000000000  5.5792565349999723 12.2103998060000407   F   F   F
 17.6919602555621118  7.0101940499367963 13.6411838937317338   T   T   T
  9.8637686451358668 18.0761977599034971 13.6554326285938981   T   T   T
 13.8328971398388756  7.0415791293205441 13.6046096841270039   T   T   T
 13.7938132058931622 20.9123366424293025 13.6283662526573668   T   T   T
 15.7805205919999434  5.5792565349999723 12.2103998060000407   F   F   F
  5.9710342567103050  7.0107644226523762 13.6247924373715570   T   T   T
  3.9451301480000271  5.5792565349999723 12.2103998060000407   F   F   F
  5.9308449976459663 18.0946405483964838 13.6605898303258364   T   T   T
 13.8079546360000549 12.5533272030000536 10.8156001569999933   F   F   F
  5.9187996232512390 20.8908767776899325 13.6223412694811614   T   T   T
 19.7256482699999580  0.0000000000000000 12.2103998060000407   F   F   F
 11.8353900909999528 16.7377696039999648 12.2103998060000407   F   F   F
 21.6982156369999721  6.9740706679999214 10.8156001569999933   F   F   F
  0.0000000000000000  0.0000000000000000 12.2103998060000407   F   F   F
  5.9176950450000287 18.1325837370000720 10.8156001569999933   F   F   F
  0.0000000000000000 16.7377696039999648 12.2103998060000407   F   F   F
  1.9725650740000149  4.1844424010000720 10.8156001569999933   F   F   F
  7.8902602960000570  5.5792565349999723 12.2103998060000407   F   F   F
 11.8353900909999528  0.0000000000000000 12.2103998060000407   F   F   F
 17.7530837259999217 12.5533272030000536 10.8156001569999933   F   F   F
 15.7805205919999434 16.7377696039999648 12.2103998060000407   F   F   F
  5.9176950450000287  6.9740706679999214 10.8156001569999933   F   F   F
 17.7530837259999217  6.9740706679999214 10.8156001569999933   F   F   F
 17.7530837259999217  1.3948141340000613 10.8156001569999933   F   F   F
  9.8628241350000643 18.1325837370000720 10.8156001569999933   F   F   F
  9.8628241350000643  6.9740706679999214 10.8156001569999933   F   F   F
 17.7530837259999217 18.1325837370000720 10.8156001569999933   F   F   F
  9.8628241350000643  1.3948141340000613 10.8156001569999933   F   F   F
  1.9767656011104298 18.1235649751383754 13.6256282139493106   T   T   T
  9.8628241350000643 12.5533272030000536 10.8156001569999933   F   F   F
 13.8079546360000549  6.9740706679999214 10.8156001569999933   F   F   F
 13.8079546360000549 18.1325837370000720 10.8156001569999933   F   F   F
  1.9778905818064558  6.9642307691912428 13.6186861699283792   T   T   T
 19.7256482699999580 16.7377696039999648 12.2103998060000407   F   F   F
  9.8670319036760148  1.3741485146959482 13.6614171303832812   T   T   T
  1.9809267648480726  1.3809611567011904 13.6262139798377930   T   T   T
  9.8152891786132415 18.1192634604031113 16.4391613134897909   T   T   T
  1.9725650740000149 15.3429554700000619 10.8156001569999933   F   F   F
  1.9872088139411563 12.5516830082196957 13.6161373889962807   T   T   T
  9.8475204818610145 12.4869460624939581 13.7361495135930269   T   T   T
 15.7507179319387447 13.9717778094472020 15.0893603651078685   T   T   T
  9.8351719969713702  6.9479956871857427 13.7207942777649752   T   T   T
  5.9176950450000287  1.3948141340000613 10.8156001569999933   F   F   F
  5.9620173373056238 12.6005560439688047 13.6151400122728017   T   T   T
  1.9725650740000149 18.1325837370000720 10.8156001569999933   F   F   F
  1.9725650740000149 20.9222120050000342 10.8156001569999933   F   F   F
  9.8628241350000643  4.1844424010000720 10.8156001569999933   F   F   F
 17.7414194556359917  1.4290589495114081 13.6018634192691579   T   T   T
 19.7256482699999580 11.1585130689999925 12.2103998060000407   F   F   F
  1.9725650740000149  9.7636982699999884 10.8156001569999933   F   F   F
  0.0000000000000000  2.7896282670000101 12.2103998060000407   F   F   F
  3.9451301480000271 19.5273965409999306 12.2103998060000407   F   F   F
 11.8353900909999528  8.3688848019999824 12.2103998060000407   F   F   F
  3.9451301480000271  2.7896282670000101 12.2103998060000407   F   F   F
 19.7256482699999580  2.7896282670000101 12.2103998060000407   F   F   F
 19.7912160063613598 16.7763102952955805 15.0787523202751945   T   T   T
 19.7851486881892029  5.5432850235715563 15.0887836259970562   T   T   T
  7.8516036360724675  2.6773514282097346 18.4108869767264274   T   T   T
 19.7256482699999580  8.3688848019999824 12.2103998060000407   F   F   F
 11.8353900909999528 13.9481413360000008 12.2103998060000407   F   F   F
  3.8731520531467116 11.1561635453749535 15.0616673907183429   T   T   T
 23.6493103457085070 19.5330316682097163 18.6670747990023926   T   T   T
 15.7779415208712610 13.9760980365507184 17.8039929867806386   T   T   T
 23.6636776363969616 13.9022902602283356 18.8415506792415002   T   T   T
 19.8288953426618306  8.3127251271714346 18.0993891925397108   T   T   T
 19.7306863947009674  2.8001551172630919 18.6545712320314827   T   T   T
 11.8353900909999528 19.5273965409999306 12.2103998060000407   F   F   F
 11.8353900909999528  2.7896282670000101 12.2103998060000407   F   F   F
 15.8813811575874659  8.3125793382883177 17.7892835753945420   T   T   T
 11.9272825147656416 13.9503462737501813 17.8205826425672669   T   T   T
  0.0044618291501574  8.3677071254115525 18.7232831684515197   T   T   T
 15.7498146503532777 19.6618583316955799 18.2146500454732205   T   T   T
  3.9451301480000271 13.9481413360000008 12.2103998060000407   F   F   F
  3.8661363953722949  8.2887107755941329 18.2346240128311905   T   T   T
  3.7777564559836265 14.0020436981356440 18.0423942867937335   T   T   T
 15.7805205919999434 19.5273965409999306 12.2103998060000407   F   F   F
  3.9350333812844314 19.4973754399544426 18.5384588110397708   T   T   T
  7.9175348118071529 19.6090880269815564 18.0866146223221804   T   T   T
  3.9704165027526646  2.7417449775659248 18.6537108826656350   T   T   T
  7.9086447616215150 13.9356779791215502 17.8560234085930105   T   T   T
 15.7473761384844710  2.7849633742684916 18.3295949986806974   T   T   T
 11.8466805528428960  2.7270646936179164 18.1877179766698056   T   T   T
 11.8683760118562063  8.2905314875147464 17.8424389009296753   T   T   T
 19.6956567308777863 19.5545597400185152 18.5443493238762507   T   T   T
 19.8751992779264164 13.9934663804666339 18.1118827944105476   T   T   T
 15.7805205919999434  8.3688848019999824 12.2103998060000407   F   F   F
  3.9300269163390924  0.0264899452289262 15.1975318272516091   T   T   T
 11.8655546503924576 11.1562363874307788 15.0066664000998191   T   T   T
  0.0001016544146309 -0.0000877493942107 15.2011614550207099   T   T   T
  0.0158163048215062  2.7372298798894232 18.5927664632751792   T   T   T
  3.9451301480000271  8.3688848019999824 12.2103998060000407   F   F   F
  7.8843672280911363  0.0257332100138853 15.1745484666147430   T   T   T
 15.7625653498953113  0.0005167792007095 15.1636977281664915   T   T   T
 15.7505507455017248 16.7807760639236996 15.0659256420696792   T   T   T
  0.0000000000000000  8.3688848019999824 12.2103998060000407   F   F   F
 11.8601433877884439  5.5337444726491682 15.0638858912505071   T   T   T
  7.9039913244126048 16.7632953239617599 15.0453094067182551   T   T   T
  7.8156254128915776  5.5372192319500471 15.0859098492776571   T   T   T
 19.7256482699999580 13.9481413360000008 12.2103998060000407   F   F   F
 15.7861316100859792  5.5346298480397929 15.0767775092776297   T   T   T
  7.7147289787861073  8.3385614755986914 17.7804327566261406   T   T   T
 11.8633185978030582 16.8016731570826714 15.1181082457364013   T   T   T
  0.0200502185217725  5.5760029754417921 15.1753926763938978   T   T   T
  7.8398423666616157 11.1412783475516903 15.0275924197949067   T   T   T
 15.7805205919999434  2.7896282670000101 12.2103998060000407   F   F   F
 19.7925111438856973 11.1603126260928285 15.0812006479953133   T   T   T
  7.8902602960000570  8.3688848019999824 12.2103998060000407   F   F   F
  0.0000000000000000 19.5273965409999306 12.2103998060000407   F   F   F
 11.8405769689682927 22.3032247164200150 15.1639562770929839   T   T   T
 11.8531992477989778 19.5671322553901170 18.2845002443892994   T   T   T
 15.8268468007190091 11.1566818574382012 15.0177370058632498   T   T   T
  7.8902602960000570 19.5273965409999306 12.2103998060000407   F   F   F
 19.7461511983070430  0.0085732860288965 15.1995308148454598   T   T   T
  3.9388502462291242  5.5409243017920273 15.1854912558982562   T   T   T
  7.8902602960000570  2.7896282670000101 12.2103998060000407   F   F   F
  7.8902602960000570 13.9481413360000008 12.2103998060000407   F   F   F
 19.7256482699999580 19.5273965409999306 12.2103998060000407   F   F   F
 15.7805205919999434 13.9481413360000008 12.2103998060000407   F   F   F
 23.6702992117381861 16.7596790417054535 15.1980845973617402   T   T   T
 23.6664246103081197 11.1678633960577560 15.2047357779345536   T   T   T
  3.8914407045651931 16.7725867130425783 15.0990744080547561   T   T   T
  0.0000000000000000 13.9481413360000008 12.2103998060000407   F   F   F
 21.7366784568158486 11.1576616017155210 18.1104384197618096   T   T   T
  5.9176950450000287  5.5792565349999723 12.2103998060000407   F   F   F
  1.9189251001654866 16.7765729581506484 18.1040236924313831   T   T   T
 17.7970354628578420 16.7950607426447611 17.7161892541419874   T   T   T
  1.9725650740000149  5.5792565349999723 12.2103998060000407   F   F   F
 21.7307806165397928 16.7802250881160440 18.0987062136269046   T   T   T
 21.6982156369999721 16.7377696039999648 12.2103998060000407   F   F   F
  9.8628241350000643 11.1585130689999925 12.2103998060000407   F   F   F
 13.8196482950382524 19.5453011229663751 15.1718927366508254   T   T   T
  1.9725650740000149 16.7377696039999648 12.2103998060000407   F   F   F
 21.7501554570693401  8.3598240936018851 15.1773609941844683   T   T   T
  1.9725650740000149  0.0000000000000000 12.2103998060000407   F   F   F