C  H                                    
   1.00000000000000     
    23.6707801818999997    0.0000000000000000    0.0000000000000000
     0.0000000000000000   27.8962826732999716    0.0000000000000000
     0.0000000000000000    0.0000000000000000   30.0000000000000000
   C    H 
     7    16
Direct
  0.4999382270035611  0.4819451801065000  0.4147774152674373
  0.5000555452182240  0.5135580038384191  0.6278280236046214
  0.5000434553184618  0.4828573339483881  0.5855123372569864
  0.5000212763951453  0.4826269845156546  0.5000260440978295
  0.5000515189598360  0.5127443200215751  0.5426389588284053
  0.4999627702097982  0.5124690854539509  0.4572139520470841
  0.4999327429803699  0.5119510666879918  0.3720414091660018
  0.4999270414256216  0.4894196059517881  0.3422233811440663
  0.5000458750627104  0.4914706177120038  0.6579018175479519
  0.5370554061861341  0.4591275072432381  0.5855260731982455
  0.4630187825610435  0.4591695812254670  0.5855355996253166
  0.4629360669195890  0.5363538301234598  0.5425853551035900
  0.5371486560610279  0.5363590676338887  0.5425749195145215
  0.5370996468985894  0.4589771456890190  0.4999750746570015
  0.4629570266876826  0.4589644548870737  0.5000107458152030
  0.5374200059425789  0.5366074814445057  0.6290442265251599
  0.4628838355264548  0.4583299316492955  0.4150543712306813
  0.5372126426576571  0.5350959814142584  0.3705823284707108
  0.4626440048781788  0.5350954616985391  0.3705928755644905
  0.4628190958766822  0.5360398460132245  0.4569467116579560
  0.5370826317259869  0.5360747982963261  0.4569110780305934
  0.5369939960143455  0.4583269622695738  0.4150371816977554
  0.4626893193834789  0.5366081964009339  0.6290437931897088
 
  0.00000000E+00  0.00000000E+00  0.00000000E+00
  0.00000000E+00  0.00000000E+00  0.00000000E+00
  0.00000000E+00  0.00000000E+00  0.00000000E+00
  0.00000000E+00  0.00000000E+00  0.00000000E+00
  0.00000000E+00  0.00000000E+00  0.00000000E+00
  0.00000000E+00  0.00000000E+00  0.00000000E+00
  0.00000000E+00  0.00000000E+00  0.00000000E+00
  0.00000000E+00  0.00000000E+00  0.00000000E+00
  0.00000000E+00  0.00000000E+00  0.00000000E+00
  0.00000000E+00  0.00000000E+00  0.00000000E+00
  0.00000000E+00  0.00000000E+00  0.00000000E+00
  0.00000000E+00  0.00000000E+00  0.00000000E+00
  0.00000000E+00  0.00000000E+00  0.00000000E+00
  0.00000000E+00  0.00000000E+00  0.00000000E+00
  0.00000000E+00  0.00000000E+00  0.00000000E+00
  0.00000000E+00  0.00000000E+00  0.00000000E+00
  0.00000000E+00  0.00000000E+00  0.00000000E+00
  0.00000000E+00  0.00000000E+00  0.00000000E+00
  0.00000000E+00  0.00000000E+00  0.00000000E+00
  0.00000000E+00  0.00000000E+00  0.00000000E+00
  0.00000000E+00  0.00000000E+00  0.00000000E+00
  0.00000000E+00  0.00000000E+00  0.00000000E+00
  0.00000000E+00  0.00000000E+00  0.00000000E+00
