C  H 
 1.0000000000000000
    23.6707801818999997    0.0000000000000000    0.0000000000000000
     0.0000000000000000   27.8962826732999716    0.0000000000000000
     0.0000000000000000    0.0000000000000000   30.0000000000000000
 C   H  
   7  16
Cartesian
 11.8339278759300779 13.4444789772853337 12.4433224580230810
 11.8367048896007621 14.3263592442122967 18.8348407081385787
 11.8364187122410218 13.4699246787002860 17.5653701177095556
 11.8358937198225931 13.4634987858111561 15.0007813229347899
 11.8366095849235311 14.3036604904508220 16.2791687648521801
 11.8345088327699788 14.2959824691510189 13.7164185614124570
 11.8337980648226271 14.2815316712256948 11.1612422749800668
 11.8336631045735210 13.6529876734861411 10.2667014343219218
 11.8364759894752680 13.7102032773154416 19.7370545264386053
 12.7125204653329416 12.8079507251448863 17.5657821959472855
 10.9600158220934194 12.8091244328464722 17.5660679887596061
 10.9580578783268994 14.9622780580312220 16.2775606531077912
 12.7147277626236708 14.9624241651024974 16.2772475854356671
 12.7135676775126942 12.8037561967253026 14.9992522397100778
 10.9585540123901204 12.8034021705268444 15.0003223744560970
 12.7211508260220967 14.9693539869834389 18.8713267957548325
 10.9568215205015171 12.7857013309230645 12.4516311369203390
 12.7162423752869707 14.9271887548789888 11.1174698541212553
 10.9511445419453235 14.9271742567424344 11.1177862669348020
 10.9552890824825830 14.9535190685370836 13.7084013497387609
 12.7131649151021087 14.9544941073065853 13.7073323409178816
 12.7110668386556789 12.7856184962668245 12.4511154509325657
 10.9522171716392496 14.9693739316102121 18.8713137956912718
