Au  C  H  O Sr Ti                       
   1.00000000000000     
    23.6707801818999997    0.0000000000000000    0.0000000000000000
     0.0000000000000000   22.3170261383000010    0.0000000000000000
     0.0000000000000000    0.0000000000000000   30.0000000000000000
   Au   C    H    O    Sr   Ti
    50     2     4   264    72    72
Selective dynamics
Direct
  0.7138316813391558  0.5272246282698611  0.7534487761400945   T   T   T
  0.5678333281266688  0.5115415771625457  0.8569646041257337   T   T   T
  0.6673212975110919  0.1987660103015416  0.7553038122365279   T   T   T
  0.4692464206522285  0.4513019666850068  0.8795194608084013   T   T   T
  0.5156998071299348  0.3786400145271722  0.7328276321733620   T   T   T
  0.2824581622101427  0.3398240584570301  0.7020534612127638   T   T   T
  0.6696389876300938  0.6825824589196433  0.7487617750225347   T   T   T
  0.3977618556142971  0.3816686107854186  0.6901748108335571   T   T   T
  0.4511200448938427  0.5810715908094650  0.7026628845592640   T   T   T
  0.3737948233862931  0.4937872010427329  0.8327551759661238   T   T   T
  0.3247898890955649  0.4153903869632073  0.7686602605345436   T   T   T
  0.3676171679671604  0.6200099598744566  0.8202167427014999   T   T   T
  0.4158042751200238  0.6973855290543375  0.6993618766058588   T   T   T
  0.7720229913029064  0.4318944207951255  0.7952812983491454   T   T   T
  0.2560399157812998  0.5938982491329555  0.6944949081795085   T   T   T
  0.6490873441497700  0.4484975070083905  0.6936650397975180   T   T   T
  0.5626644024879836  0.6413049494417431  0.8621099963871348   T   T   T
  0.5392421632028069  0.6688695142280109  0.7019512916642927   T   T   T
  0.4432489114932641  0.4763653171657430  0.7570081485410568   T   T   T
  0.3731207460678609  0.7412441631683119  0.7786919736110931   T   T   T
  0.4612846737779850  0.5743790229298786  0.8639563577744064   T   T   T
  0.6540929367262830  0.4428791442434227  0.8137546717178119   T   T   T
  0.7066056091249782  0.7578671578577375  0.6881030002145466   T   T   T
  0.6997248463188427  0.3461439378830990  0.7580997326529538   T   T   T
  0.2886406406994033  0.5387859820151427  0.7770948276022693   T   T   T
  0.6165163361228321  0.3246822748010817  0.6961524304941586   T   T   T
  0.5590538375288960  0.2136148570459628  0.7121371735277997   T   T   T
  0.2933466753607343  0.7472634908459304  0.6969625118305414   T   T   T
  0.5105690988141701  0.6042878849605966  0.7770580491137965   T   T   T
  0.5775994685480523  0.7254656248563409  0.7934251688499648   T   T   T
  0.2399042717365798  0.4702576897713368  0.7084119919324094   T   T   T
  0.2846163555223180  0.6629859059827109  0.7644433826712962   T   T   T
  0.5989436587852158  0.2902565158239067  0.7849478860207338   T   T   T
  0.5134393678765701  0.4857268285428201  0.6781540415385705   T   T   T
  0.5627199272012028  0.4869746163413644  0.7620216602462945   T   T   T
  0.4843654127244598  0.2709384337784318  0.7756291042193623   T   T   T
  0.5467182171354688  0.3861948815572748  0.8280330919349846   T   T   T
  0.3911009523493958  0.8188773400805159  0.7063149836031548   T   T   T
  0.4627139005779518  0.6970361112505744  0.8298494012206344   T   T   T
  0.4412014386025110  0.2272592620967748  0.6977451186848472   T   T   T
  0.3700326502276723  0.2987371503413100  0.7550935752957084   T   T   T
  0.3492837819885479  0.4994158209151425  0.6976531545218824   T   T   T
  0.4266203952399220  0.3731786664119478  0.8154355069033838   T   T   T
  0.5965456147232661  0.7849959828634919  0.7127147413741685   T   T   T
  0.6324199017715906  0.5865440469443264  0.8001420185293148   T   T   T
  0.7319005931468799  0.6159524917969038  0.6935092046989823   T   T   T
  0.4853270159306062  0.7771605358227176  0.7545847089799138   T   T   T
  0.7633988410682532  0.4330230693739511  0.7051706766555941   T   T   T
  0.7194655635709440  0.2623690910832595  0.6898523912145795   T   T   T
  0.6199000554872514  0.5727722398412662  0.7039818763777299   T   T   T
  0.7543857562345250  0.1515850432776602  0.7652089621324185   T   T   T
  0.7164487891495719  0.1081654982345377  0.7518911664973358   T   T   T
  0.7634028304852317  0.1599977105265927  0.8001077273325164   T   T   T
  0.7829121199684670  0.1716618909267668  0.7411346559327668   T   T   T
  0.6941485025861418  0.0812515817822536  0.7763388289981813   T   T   T
  0.7148506835645284  0.0936495696018829  0.7173067269851451   T   T   T
  0.7500409635212469  0.1899100715431001  0.4559012094108608   T   T   T
  0.5824131177475005  0.0618502214551570  0.5453839745563076   T   T   T
  0.5860313578825926  0.8142451924024758  0.5503768725892271   T   T   T
  0.7478910957564022  0.3112938542960293  0.5479361181313878   T   T   T
  0.5811927108473780  0.5601095477007327  0.5489436661688925   T   T   T
  0.2527342399306380  0.5592171485387166  0.5438259270599198   T   T   T
  0.4160983894181267  0.3197185135374462  0.5526050831154978   T   T   T
  0.5765674152368313  0.4360757041566302  0.5523366154040956   T   T   T
  0.4168118093357541  0.0654990285950797  0.5473252153726571   T   T   T
  0.0853374472130702  0.8125756712581444  0.5473521023964278   T   T   T
  0.0866703512427638  0.3134745197745590  0.5471311923451984   T   T   T
  0.5003206266922707  0.7571900072207240  0.5925657566289444   T   T   T
  0.0824307840712791  0.0631330972746606  0.5475591296989866   T   T   T
  0.9145006747440696  0.6885826519355533  0.5459142402645876   T   T   T
  0.5842600160438444  0.9375980373210804  0.5463507895460611   T   T   T
  0.9167990911241909  0.1885793655560153  0.5455678698194171   T   T   T
  0.9154743710665515  0.4374184309890510  0.5457624855929056   T   T   T
  0.5792910001814995  0.6861345026649660  0.5475975312856914   T   T   T
  0.2515207017385528  0.9373375746513078  0.5453067446527959   T   T   T
  0.4973724852485230  0.5045343501274975  0.6089674442288001   T   T   T
  0.9180270581861335  0.5637300838388403  0.5470632606441400   T   T   T
  0.4200091949893374  0.5652175087236407  0.5553828509004359   T   T   T
  0.9156140677265612  0.8126176918588836  0.5468000249494714   T   T   T
  0.0841385537655018  0.9383857900827302  0.5461275603268171   T   T   T
  0.2490371180447492  0.6833815508584602  0.5519113879746174   T   T   T
  0.7486129425288682  0.9334790123655818  0.5482435205615588   T   T   T
  0.7518223458577258  0.6800360854292186  0.5534081737838821   T   T   T
  0.9157397941438575  0.9385907158488517  0.5464421800254688   T   T   T
  0.4180559574737243  0.0651484609680208  0.6401303556987072   T   T   T
  0.5825396739134030  0.9372372380576263  0.4545151854588013   T   T   T
  0.2533550620296409  0.8126592505946494  0.5505871485835157   T   T   T
  0.5826793037254441  0.3111420799130049  0.5449686941483598   T   T   T
  0.7525182300596639  0.4346985023529056  0.5496837224086687   T   T   T
  0.0857089304751171  0.6893387146907007  0.5454422801597584   T   T   T
  0.0831500162659076  0.4386554800425413  0.5450300655453511   T   T   T
  0.0837102723873462  0.1888271632235149  0.5457224332326164   T   T   T
  0.4994179460948369  0.1260432898331904  0.4991192317680452   T   T   T
  0.9998888222477414  0.4985362580131044  0.5941487560093847   T   T   T
  0.5799730631625156  0.1848366319139601  0.5506166543521873   T   T   T
  0.9997107566481899  0.7538309740766679  0.5928871984914700   T   T   T
  0.3341988717938856 -0.0000064891910577  0.5920984041319651   T   T   T
  0.9999243852899752  0.9988355762710457  0.5930394676857992   T   T   T
  0.0012164314361232  0.2494610815385013  0.5922786954744622   T   T   T
  0.3331946253593615  0.4964085890309111  0.5907421850634332   T   T   T
  0.3353669561731451  0.7412056333475002  0.5904545246077230   T   T   T
  0.6632388622045163  0.2478852154613376  0.5902789868575342   T   T   T
  0.6664821212803280  0.0027030701240140  0.5917755664808581   T   T   T
  0.6655772160777612  0.7411887314882498  0.5908861204210537   T   T   T
  0.6665895264528320  0.4946783883189464  0.5915392326842247   T   T   T
  0.1675211251848995  0.9983680812523150  0.5923425132442246   T   T   T
  0.1685665338664579  0.2482257143313791  0.5931275875528854   T   T   T
  0.1710573855158081  0.7505274465974809  0.5951135154910581   T   T   T
  0.2482969398991659  0.4360678236791037  0.5489154381388890   T   T   T
  0.1656590178094981  0.5034151845673359  0.5871416137066660   T   T   T
  0.3350440888510398  0.2550591209689475  0.5931653090563069   T   T   T
  0.5000137775001540  0.0000439516643078  0.5911820669974144   T   T   T
  0.8326548910511339  0.8742285013166501  0.4992381776038307   T   T   T
  0.7479371801800178  0.9393421238295649  0.6412971803641185   T   T   T
  0.8321262105436918  0.0020843879879873  0.5922799547545625   T   T   T
  0.7485566911393811  0.1834551302473523  0.5509617194023969   T   T   T
  0.4231050201358404  0.6881789015332730  0.5466612135876232   T   T   T
  0.4231364605214834  0.4440268598690965  0.5456180279752699   T   T   T
  0.0833333358191695  0.3124999999901945  0.3605200052333331   F   F   F
  0.4127312912204841  0.8131586174603533  0.6396478197201352   T   T   T
  0.9160586721831354  0.0630998687643305  0.6408797410792646   T   T   T
  0.9142816882923994  0.5627175407021175  0.6408378700551377   T   T   T
  0.4177284188775010  0.9349473343024225  0.6397967031954297   T   T   T
  0.7412955182042001  0.8106007925204248  0.6395706371429242   T   T   T
  0.7466610332265465  0.3135016405887895  0.6390655156059812   T   T   T
  0.7486867818816729  0.0701492017468658  0.6396580497003262   T   T   T
  0.0843808638029847  0.3115905631499694  0.6408073405414079   T   T   T
  0.6665289483612872  0.8743102984319028  0.4986802446935799   T   T   T
  0.0867246299674369  0.5631029894803570  0.6399351113712451   T   T   T
  0.0874733499960405  0.4367932545585206  0.6397975929281544   T   T   T
  0.0841641162397385  0.1855899672992342  0.6415965471608923   T   T   T
  0.4185709271958835  0.1876963521501493  0.6398807302231800   T   T   T
  0.4147432519985020  0.4188904026046926  0.6298783561366297   T   T   T
  0.0844537153847830  0.9356230468271989  0.6410819504041962   T   T   T
  0.0834003048280603  0.6872095001063269  0.6388450750799485   T   T   T
  0.0840728856442587  0.0603557255205256  0.6421072039689395   T   T   T
  0.8333610946327981  0.5033805477211173  0.5892410514561703   T   T   T
  0.9124909522181366  0.4361490758929116  0.6399832606312297   T   T   T
  0.8304497233350526  0.7509652548713300  0.5926927760616578   T   T   T
  0.8317323992314816  0.2486709189518877  0.5908440810867172   T   T   T
  0.7452440308404407  0.1957719071521775  0.6470029374465556   T   T   T
  0.9166666865332829  0.8124999999834799  0.3605200052333331   F   F   F
  0.5830090456419651  0.9365580995010486  0.6395564834347546   T   T   T
  0.0846353727677973  0.8127216096974029  0.6425258571141995   T   T   T
  0.5794613226840883  0.1927672123881435  0.6457273663152762   T   T   T
  0.2545244513975861  0.6781568868977411  0.6627138588143257   T   T   T
  0.2406117540605770  0.4420915851876421  0.6411864295874018   T   T   T
  0.9142091083183085  0.9375477246652409  0.6415542279973778   T   T   T
  0.9163656188530240  0.6876471301654314  0.6390469616344689   T   T   T
  0.2520975656000334  0.9303305156386243  0.6373464134244811   T   T   T
  0.2536191679424625  0.1864925870525058  0.6412776375844846   T   T   T
  0.3967077055515437  0.5507116818586566  0.6518791146414198   T   T   T
  0.4157276560159943  0.1915451773325210  0.5466573097543551   T   T   T
  0.7527975270910986  0.5687845579886968  0.6356531884282802   T   T   T
  0.5000217410786748  0.8732713491718438  0.5010717519084955   T   T   T
  0.9151654628732826  0.3118738886342158  0.6398504834913397   T   T   T
  0.9130266698052931  0.8135249834925827  0.6420112910988112   T   T   T
  0.5828556022230160  0.0671021654733063  0.6389189985309965   T   T   T
  0.2492831677438435  0.3137791860452844  0.5459095803996896   T   T   T
  0.5903389214382520  0.5667820906130536  0.6386971369834706   T   T   T
  0.2476465078759133  0.5740275874106997  0.6287593975052602   T   T   T
  0.7541694584533039  0.6929014211262571  0.6568519057688024   T   T   T
  0.2626787052591772  0.8005763970649887  0.6461699620932243   T   T   T
  0.2510174840753011  0.0594773772333282  0.6423725372244393   T   T   T
  0.9166666865332829  0.5625000000092442  0.3605200052333331   F   F   F
  0.4995916910630200  0.3743297165841853  0.4997662960235844   T   T   T
  0.5002708695869038  0.6211435091320713  0.5000162198846712   T   T   T
  0.8324899860270948  0.6230932459812775  0.5002013202844600   T   T   T
  0.2522924949025576  0.1883251383459311  0.5473337064970361   T   T   T
  0.8324741002215781  0.3730816213398573  0.4997612743805314   T   T   T
  0.8328222398638548  0.1246749456052449  0.5000355976363507   T   T   T
  0.1667219554359083  0.3761808220615098  0.4976889171996699   T   T   T
  0.1675798851716746  0.6243091604680632  0.5002588533075469   T   T   T
  0.5808413007624181  0.4399720649098583  0.6468937377628801   T   T   T
  0.5767185238088482  0.6868263662436046  0.6397490068242832   T   T   T
  0.9160720687924253  0.1862859377724636  0.6398948643141338   T   T   T
  0.2490274747069209  0.3163139314439932  0.6412139838469665   T   T   T
  0.1677870166541801  0.8732500804355047  0.4998989005053876   T   T   T
  0.9159560325759678  0.4368891037660318  0.4536599571549366   T   T   T
  0.1671215599174677  0.1245358061050268  0.4994897031234404   T   T   T
  0.7488483393679104  0.0602216532029612  0.5446936847217181   T   T   T
  0.4307221406720232  0.3053438587165105  0.6563871994685999   T   T   T
  0.5909963641936360  0.8108429058372192  0.6458173478695467   T   T   T
  0.4204596331459582  0.6762526820343819  0.6336080980892963   T   T   T
  0.7549252214442245  0.4339874603595164  0.6385141238596515   T   T   T
  0.4987705696024030  0.2532475908280792  0.5908278398097587   T   T   T
  0.5833929381872730  0.3216702019552978  0.6335618591754538   T   T   T
  0.9157897892020009  0.1868319046396546  0.4532536537719795   T   T   T
  0.6653397517604238  0.6260280425609521  0.5030026204041809   T   T   T
  0.5845319953248267  0.5628799809537968  0.4548854465036018   T   T   T
  0.5833541327686285  0.0638717285543714  0.4538247926386076   T   T   T
  0.9166666865332829  0.6874999999963620  0.3605200052333331   F   F   F
  0.9166666865332829  0.4374999701794380  0.3605200052333331   F   F   F
  0.9166666865332829  0.1875000000030838  0.3605200052333331   F   F   F
  0.5833333134730552  0.9375000000154046  0.3605200052333331   F   F   F
  0.5833333134730552  0.6874999999963620  0.3605200052333331   F   F   F
  0.5833333134730552  0.4374999701794380  0.3605200052333331   F   F   F
  0.5833333134730552  0.1875000000030838  0.3605200052333331   F   F   F
  0.2499999999799343  0.9375000000154046  0.3605200052333331   F   F   F
  0.9166666865332829  0.9375000000154046  0.3605200052333331   F   F   F
  0.2499999999799343  0.6874999999963620  0.3605200052333331   F   F   F
  0.2499999999799343  0.1875000000030838  0.3605200052333331   F   F   F
  0.7499999404149307  0.9375000000154046  0.3605200052333331   F   F   F
  0.7499999404149307  0.6874999999963620  0.3605200052333331   F   F   F
  0.7499999404149307  0.4374999701794380  0.3605200052333331   F   F   F
  0.7499999404149307  0.1875000000030838  0.3605200052333331   F   F   F
  0.4166666269218169  0.9375000000154046  0.3605200052333331   F   F   F
  0.4166666269218169  0.6874999999963620  0.3605200052333331   F   F   F
  0.4166666269218169  0.4374999701794380  0.3605200052333331   F   F   F
  0.2499999999799343  0.4374999701794380  0.3605200052333331   F   F   F
  0.0833333358191695  0.0625000000159659  0.3605200052333331   F   F   F
  0.9153049001180393  0.6868903297737594  0.4533641155047042   T   T   T
  0.6654283741113456  0.3787560963160463  0.5032679245423751   T   T   T
  0.3343610439966041  0.3784644183306520  0.5030070225654759   T   T   T
  0.3356469723348652  0.6258656825888649  0.5037540199628121   T   T   T
  0.9171998539518281  0.0633008340151436  0.5473311360386172   T   T   T
  0.7499038071317442  0.9385283689088244  0.4555097018460391   T   T   T
  0.2499506089087328  0.9361549656761193  0.4540335977582227   T   T   T
  0.2499894765843705  0.1887524854095991  0.4543392558966610   T   T   T
  0.7490957594326061  0.6886474616358963  0.4575256308302371   T   T   T
  0.2504687114710782  0.0621219312707318  0.4542805338751993   T   T   T
  0.4174460313521237  0.9357822150417178  0.4539223902945287   T   T   T
  0.4160295394700333  0.9373423153066179  0.5460189147958051   T   T   T
  0.4171544217880007  0.6847723811039212  0.4547036470608488   T   T   T
  0.4164363388802838  0.4354563706462931  0.4538341940940849   T   T   T
  0.0844442103452007  0.6869924994792709  0.4531756800563762   T   T   T
  0.0840770195331340  0.9368488408334829  0.4537025361416285   T   T   T
  0.0827888461421191  0.4367982603604367  0.4528717495145164   T   T   T
  0.0838774069869775  0.1865424552758697  0.4529807279152615   T   T   T
  0.9165735528436697  0.8123282318736628  0.4540611424418954   T   T   T
  0.7464402237571945  0.5576773059339484  0.5446377744330032   T   T   T
  0.9161149263868248  0.5621980346492338  0.4540671769085223   T   T   T
  0.9161414550714387  0.0622500711284239  0.4541080356470946   T   T   T
  0.9161984076637063  0.3121571344431588  0.4538700234860652   T   T   T
  0.4169343390369040  0.1872623273384718  0.4536536540520228   T   T   T
  0.5827840368743892  0.4396859615385449  0.4564206709734763   T   T   T
  0.2520722912012250  0.6876320693751473  0.4561282425248104   T   T   T
  0.5831692294804885  0.1904077373793715  0.4556945691560141   T   T   T
  0.0001618302023384  0.1251202632988426  0.4984539480466029   T   T   T
  0.5832876000955166  0.8104933570583229  0.4553318023002641   T   T   T
  0.0000549444989316  0.3734724363072159  0.4984604001474397   T   T   T
  0.9997817392520296  0.6272227868747984  0.4976540480733299   T   T   T
  0.3336563954778825  0.1256290467011367  0.4985615205329710   T   T   T
  0.0001638128098087  0.8752016507015166  0.4996240129819927   T   T   T
  0.3335492106699583  0.8744300368901108  0.4992401836201028   T   T   T
  0.6658472044833879  0.1262754200303549  0.5002475145069699   T   T   T
  0.2511649953638512  0.4393249994027550  0.4548846089300963   T   T   T
  0.0833333358191695  0.5625000000092442  0.3605200052333331   F   F   F
  0.9166666865332829  0.0625000000159659  0.3605200052333331   F   F   F
  0.7496216389140538  0.8131909719192701  0.4529793403820637   T   T   T
  0.7496368172744788  0.4386114958183903  0.4562413104097722   T   T   T
  0.9163973376738117  0.9371163710071247  0.4536882627112706   T   T   T
  0.9155928778990985  0.3125058227178293  0.5467117572043243   T   T   T
  0.0809754031837711  0.5644536551007925  0.5463848184043322   T   T   T
  0.5833333134730552  0.0625000000159659  0.3605200052333331   F   F   F
  0.5843914271284387  0.3155635841005515  0.4536673765422374   T   T   T
  0.7477190229032226  0.8073507859664528  0.5452281993264341   T   T   T
  0.5000000000021103  0.4999999999932783  0.4070133268666680   F   F   F
  0.0833333358191695  0.1875000000030838  0.3605200052333331   F   F   F
  0.0000000000000000  0.0000000000000000  0.4070133268666680   F   F   F
  0.0000000000000000  0.2500000000190425  0.4070133268666680   F   F   F
  0.0000000000000000  0.4999999999932783  0.4070133268666680   F   F   F
  0.7482555546422327  0.5643416727905356  0.4537832601319376   T   T   T
  0.3333333432766779  0.0000000000000000  0.4070133268666680   F   F   F
  0.3333333432766779  0.4999999999932783  0.4070133268666680   F   F   F
  0.3333333432766779  0.7500000000123208  0.4070133268666680   F   F   F
  0.6666666865533486  0.0000000000000000  0.4070133268666680   F   F   F
  0.6666666865533486  0.2500000000190425  0.4070133268666680   F   F   F
  0.6666666865533486  0.4999999999932783  0.4070133268666680   F   F   F
  0.8333332538436267  0.2500000000190425  0.4070133268666680   F   F   F
  0.1666666716383389  0.0000000000000000  0.4070133268666680   F   F   F
  0.1666666716383389  0.4999999999932783  0.4070133268666680   F   F   F
  0.1666666716383389  0.7500000000123208  0.4070133268666680   F   F   F
  0.5000000000021103  0.0000000000000000  0.4070133268666680   F   F   F
  0.5000000000021103  0.2500000000190425  0.4070133268666680   F   F   F
  0.5000000000021103  0.7500000000123208  0.4070133268666680   F   F   F
  0.9166666865332829  0.3124999999901945  0.3605200052333331   F   F   F
  0.3333333432766779  0.2500000000190425  0.4070133268666680   F   F   F
  0.7474010336807789  0.3143146813837385  0.4547557518127689   T   T   T
  0.0000000000000000  0.7500000000123208  0.4070133268666680   F   F   F
  0.4166691775403039  0.8100413893893255  0.4551149109105071   T   T   T
  0.7491764007640452  0.0643620062052118  0.4534212420633008   T   T   T
  0.8333332538436267  0.0000000000000000  0.4070133268666680   F   F   F
  0.5827655255079937  0.6861773188908036  0.4546590124332051   T   T   T
  0.2518243159007610  0.5646177447617499  0.4538364354374480   T   T   T
  0.1666666716383389  0.2500000000190425  0.4070133268666680   F   F   F
  0.2507305037132912  0.8109371317668221  0.4553164010739032   T   T   T
  0.6666666865533486  0.7500000000123208  0.4070133268666680   F   F   F
  0.5833333134730552  0.8124999999834799  0.3605200052333331   F   F   F
  0.2499999999799343  0.5625000000092442  0.3605200052333331   F   F   F
  0.5833333134730552  0.5625000000092442  0.3605200052333331   F   F   F
  0.2499999999799343  0.8124999999834799  0.3605200052333331   F   F   F
  0.2499999999799343  0.3124999999901945  0.3605200052333331   F   F   F
  0.2499999999799343  0.0625000000159659  0.3605200052333331   F   F   F
  0.7499999404149307  0.5625000000092442  0.3605200052333331   F   F   F
  0.7499999404149307  0.3124999999901945  0.3605200052333331   F   F   F
  0.7499999404149307  0.0625000000159659  0.3605200052333331   F   F   F
  0.4166666269218169  0.8124999999834799  0.3605200052333331   F   F   F
  0.4166666269218169  0.3124999999901945  0.3605200052333331   F   F   F
  0.7499999404149307  0.8124999999834799  0.3605200052333331   F   F   F
  0.0834817830230355  0.3119475267155935  0.4540531315713344   T   T   T
  0.4166666269218169  0.0625000000159659  0.3605200052333331   F   F   F
  0.4168733399639912  0.0615712332258040  0.4553680579436177   T   T   T
  0.0834488736581986  0.8121491390730319  0.4541852100458613   T   T   T
  0.4166666269218169  0.5625000000092442  0.3605200052333331   F   F   F
  0.4138160666925850  0.8120714881086996  0.5478527828858532   T   T   T
  0.5833333134730552  0.3124999999901945  0.3605200052333331   F   F   F
  0.0839788528659850  0.5625186514218764  0.4539784375246365   T   T   T
  0.2510837596671708  0.0625825716424962  0.5472636678607763   T   T   T
  0.8333332538436267  0.4999999999932783  0.4070133268666680   F   F   F
  0.4166666269218169  0.1875000000030838  0.3605200052333331   F   F   F
  0.0833333358191695  0.9375000000154046  0.3605200052333331   F   F   F
  0.0833333358191695  0.8124999999834799  0.3605200052333331   F   F   F
  0.0833333358191695  0.4374999701794380  0.3605200052333331   F   F   F
  0.8333332538436267  0.7500000000123208  0.4070133268666680   F   F   F
  0.4155482181718836  0.3114036659318688  0.4573817043635824   T   T   T
  0.0837823924871568  0.0619136487669482  0.4541845043631438   T   T   T
  0.4160485707704891  0.5595234717208812  0.4578755847663955   T   T   T
  0.0833333358191695  0.6874999999963620  0.3605200052333331   F   F   F
  0.2522331874523528  0.3144155378947067  0.4539691567851507   T   T   T
  0.1666666716383389  0.8749999404036828  0.4070133268666680   F   F   F
  0.5000000000021103  0.1249999999871179  0.4070133268666680   F   F   F
  0.8362393278779897  0.7517739738370127  0.5026701738201299   T   T   T
  0.8380642069040202  0.3729925283208163  0.6032566483110888   T   T   T
  0.8314186253485416  0.8776691374948449  0.6184002997707595   T   T   T
  0.1635424365320532  0.4999003898998294  0.5019098785658377   T   T   T
  0.5000000000021103  0.8749999404036828  0.4070133268666680   F   F   F
  0.3318800552853007  0.1197411584477908  0.6136243253902660   T   T   T
  0.8397024220539669  0.6269814337499484  0.6041054319154171   T   T   T
  0.5000000000021103  0.6249999999803961  0.4070133268666680   F   F   F
  0.6652477644396469  0.1251950016461576  0.6078228711558743   T   T   T
  0.8333332538436267  0.1249999999871179  0.4070133268666680   F   F   F
  0.8333332538436267  0.3750000000061604  0.4070133268666680   F   F   F
  0.9989749156855451  0.8750064533439094  0.6238778564501003   T   T   T
  0.0000000000000000  0.1249999999871179  0.4070133268666680   F   F   F
  0.9998861264702377  0.6237140464779740  0.6238751953832360   T   T   T
  0.1666666716383389  0.6249999999803961  0.4070133268666680   F   F   F
  0.3341036466410265  0.6248244279091087  0.5950847497342813   T   T   T
  0.5005605426468523  0.1225724235798056  0.6065829712522227   T   T   T
  0.8352963688375115  0.1241154742902494  0.6123146873917124   T   T   T
  0.0004542559150093  0.3752824247690408  0.6246350806768246   T   T   T
  0.6665084223364317  0.6260207174479810  0.5929861568814173   T   T   T
  0.6659241817795446  0.8821139889979595  0.6071118719230338   T   T   T
  0.1633592386517065  0.3714120519644726  0.6074167665341377   T   T   T
  0.1678032434942750  0.1226836951373910  0.6217786594406998   T   T   T
  0.1598328272133777  0.6277682159029445  0.6014586925060608   T   T   T
  0.5014372461125146  0.3717644210497785  0.5949607487689357   T   T   T
  0.1663593999954274  0.8737490998211670  0.6176167157595144   T   T   T
  0.3347890994022955  0.8789954481064580  0.6025932742109085   T   T   T
  0.6704800232222401  0.3728106192211315  0.5926939575685083   T   T   T
  0.6666666865533486  0.8749999404036828  0.4070133268666680   F   F   F
  0.5000000000021103  0.3750000000061604  0.4070133268666680   F   F   F
  0.5037067832329524  0.6252022352339854  0.5939838849670817   T   T   T
  0.0000000000000000  0.3750000000061604  0.4070133268666680   F   F   F
  0.1666666716383389  0.1249999999871179  0.4070133268666680   F   F   F
  0.5015593469092872  0.8773486656993423  0.6097024425767420   T   T   T
  0.8363417841056662  0.5001193341510617  0.5028895963402785   T   T   T
  0.9997466151360710  0.4999653154374706  0.5067616648430308   T   T   T
  0.5012041732218802  0.4998204119115118  0.5001679823445739   T   T   T
  0.6667887409820229  0.2481766175410905  0.5024130964294069   T   T   T
  0.3331622065372356  0.0011936084121359  0.5058495898241170   T   T   T
  0.3302165992539709  0.2481163403895998  0.5028721740919293   T   T   T
  0.6683937590639375  0.5000627314978066  0.5005704910681734   T   T   T
  0.8333332538436267  0.6249999999803961  0.4070133268666680   F   F   F
  0.1645056841544641  0.7514948833292430  0.5034945852142610   T   T   T
  0.6660678964626928  0.0000159935711381  0.5056252640622029   T   T   T
  0.5011877626212993  0.7529822731118903  0.5037675894845456   T   T   T
  0.6654229358811260  0.7518738817637448  0.5021544338011711   T   T   T
  0.1666666716383389  0.3750000000061604  0.4070133268666680   F   F   F
  0.3257230641569903  0.3737685271408522  0.5925911045827847   T   T   T
  0.0009948036902416  0.1231540715502138  0.6196037221155577   T   T   T
  0.8361313970960573  0.2486672737043075  0.5024980392431807   T   T   T
  0.6666666865533486  0.3750000000061604  0.4070133268666680   F   F   F
  0.3312010115962308  0.4992558291086946  0.5007716890123516   T   T   T
  0.0000000000000000  0.8749999404036828  0.4070133268666680   F   F   F
  0.1660249580651439  0.0011799041744984  0.5065480362579472   T   T   T
  0.3339210830580010  0.7512619204510369  0.5015286859410373   T   T   T
  0.5003806741130175  0.9992410324061739  0.5055737438261075   T   T   T
  0.1663829898283965  0.2481744228821596  0.5062667435948064   T   T   T
  0.0000000000000000  0.6249999999803961  0.4070133268666680   F   F   F
  0.6666666865533486  0.1249999999871179  0.4070133268666680   F   F   F
  0.8342941513667187  0.9999535220594679  0.5065051425802566   T   T   T
  0.3333333432766779  0.3750000000061604  0.4070133268666680   F   F   F
  0.3333333432766779  0.8749999404036828  0.4070133268666680   F   F   F
  0.3333333432766779  0.6249999999803961  0.4070133268666680   F   F   F
  0.8333332538436267  0.8749999404036828  0.4070133268666680   F   F   F
  0.6666666865533486  0.6249999999803961  0.4070133268666680   F   F   F
  0.0002223328821232  0.9999115737717634  0.5066846686871538   T   T   T
  0.0010894146642792  0.2498042474698134  0.5061851006481686   T   T   T
  0.9999594171954749  0.7511141585862113  0.5067882143556958   T   T   T
  0.5010508738349222  0.2480531110487827  0.5022243444790143   T   T   T
  0.3333333432766779  0.1249999999871179  0.4070133268666680   F   F   F
  0.0833333358191695  0.2500000000190425  0.4070133268666680   F   F   F
  0.7521285384890750  0.7525369067042399  0.5905221130689247   T   T   T
  0.2499999999799343  0.2500000000190425  0.4070133268666680   F   F   F
  0.0833333358191695  0.7500000000123208  0.4070133268666680   F   F   F
  0.0833333358191695  0.4999999999932783  0.4070133268666680   F   F   F
  0.0833333358191695  0.0000000000000000  0.4070133268666680   F   F   F
  0.9187060060483158  0.3742884930605757  0.5058535895864117   T   T   T
  0.9166666865332829  0.7500000000123208  0.4070133268666680   F   F   F
  0.5831138486260216  0.1235141469067692  0.5045067078485502   T   T   T
  0.7525435472533777  0.6247667363480602  0.5023435119067420   T   T   T
  0.5839507276063119  0.8759728219930356  0.5057179221524744   T   T   T
  0.9179499263101941  0.1249064192615577  0.5061883278901118   T   T   T
  0.4166666269218169  0.4999999999932783  0.4070133268666680   F   F   F