Au O  Sr Ti H                           
   1.00000000000000     
    23.6707801818999997    0.0000000000000000    0.0000000000000000
     0.0000000000000000   22.3170261383000010    0.0000000000000000
     0.0000000000000000    0.0000000000000000   30.0000000000000000
   Au   O    Sr   Ti   H 
    50   264    72    72     1
Selective dynamics
Direct
  0.7187453826885957  0.5255260459206212  0.7537579447419986   F   F   F
  0.6248986389194826  0.5668344954514453  0.7040574465970835   F   F   F
  0.7187721369160798  0.2586889510083950  0.6926489293952045   F   F   F
  0.2905747557520471  0.7453830589802379  0.6987219070190207   F   F   F
  0.5140646471079222  0.6044704023449583  0.7767409585158020   F   F   F
  0.5770515237059186  0.7256661102585511  0.7925307215472088   F   F   F
  0.5502877961050672  0.3845041837400061  0.8295394042422046   F   F   F
  0.2418789189487924  0.4674559942862615  0.7093804637819332   F   F   F
  0.2828957429824897  0.6605769072141641  0.7661086338544436   F   F   F
  0.6022945522545555  0.2890136013779312  0.7876717689644153   F   F   F
  0.5147524252871563  0.4830241809871154  0.6780900670007028   F   F   F
  0.5625612146054664  0.4859741170103717  0.7628846765305610   F   F   F
  0.4636968145893476  0.6951802124973128  0.8298557327896958   F   F   F
  0.7647083946240656  0.4307991663424602  0.7053894373330820   F   F   F
  0.7335114190763150  0.6157308256980087  0.6939630736357572   F   F   F
  0.6362225707612268  0.5833354315372716  0.8000682428348824   F   F   F
  0.5947012001823495  0.7851459109066568  0.7125938291128548   F   F   F
  0.4837381572412767  0.7799314079000226  0.7572723912200487   F   F   F
  0.3495273595628205  0.5009501460970256  0.6972973972318499   F   F   F
  0.4310157897636913  0.3723014947004017  0.8154445012882121   F   F   F
  0.3727541036121877  0.2986170322932296  0.7554471387713519   F   F   F
  0.4412189578819365  0.2284224277836202  0.6970221849544771   F   F   F
  0.3890770144099491  0.8156332807367193  0.7065541622623925   F   F   F
  0.2901843635396020  0.5361457236310940  0.7776988309167052   F   F   F
  0.5557816738994745  0.2081387139031534  0.7121500607335634   F   F   F
  0.4542824903068734  0.5799369036780035  0.7027573574008770   F   F   F
  0.6141312938045473  0.3188874616066499  0.6974748092981145   F   F   F
  0.7053784925332849  0.7576180074478174  0.6883957562005705   F   F   F
  0.6565138899713219  0.4416553691488048  0.8129101063385207   F   F   F
  0.3686658601788295  0.6180705310256371  0.8201423796184741   F   F   F
  0.5713352656951542  0.5102633890010821  0.8571413294243300   F   F   F
  0.6644628001728066  0.1936849769641569  0.7530173570984076   F   F   F
  0.4725208689543337  0.4511054449409286  0.8794404053528382   F   F   F
  0.5172363083114817  0.3771411418320838  0.7340277973674176   F   F   F
  0.2838124511580489  0.3378103913016588  0.7025918519394594   F   F   F
  0.6692984766935766  0.6811285310310495  0.7488525711985190   F   F   F
  0.3983648799398765  0.3822717012722876  0.6902955062141629   F   F   F
  0.3762764615906136  0.4923825041610428  0.8334985092990834   F   F   F
  0.4641571687104928  0.5735684962309477  0.8631959698238845   F   F   F
  0.3268737298774411  0.4137871644516125  0.7695518891539948   F   F   F
  0.4872035097070366  0.2685498011298932  0.7753456238577527   F   F   F
  0.4263506968083561  0.6984638205315505  0.6992831096818080   F   F   F
  0.6999528785858331  0.3463691386934542  0.7570542148274271   F   F   F
  0.7745579684471124  0.4292471158242392  0.7960260935162182   F   F   F
  0.2564213451090964  0.5921226405134234  0.6950140847596771   F   F   F
  0.6477031875382124  0.4409266201105808  0.6971488845535063   F   F   F
  0.5661578881533416  0.6405571894612123  0.8608718737855696   F   F   F
  0.5461678687314091  0.6647974431877870  0.7013421324287989   F   F   F
  0.4431590915048389  0.4744866541384596  0.7558776204701729   F   F   F
  0.3729822532097273  0.7370669344909473  0.7779791783610435   F   F   F
  0.2499947136006355  0.1886272118578987  0.4541637831510315   F   F   F
  0.7494168062960966  0.9384977069837817  0.4553086498353736   F   F   F
  0.7489825422296903  0.6886381775413426  0.4572785988950088   F   F   F
  0.7493617736953766  0.4383578348265118  0.4559544882063875   F   F   F
  0.7502001259110500  0.1900479041894059  0.4557433982013137   F   F   F
  0.4175254945655240  0.9357174405937414  0.4539567523944257   F   F   F
  0.4168757550035451  0.6845654275777662  0.4547559536007810   F   F   F
  0.4171915413727518  0.4353716953544264  0.4540189517284716   F   F   F
  0.0845218361503868  0.6868274415166340  0.4530300047047788   F   F   F
  0.0838675553791788  0.9365418026227914  0.4534518623704287   F   F   F
  0.0826402355051599  0.4368017225287701  0.4528358488919224   F   F   F
  0.0838334505423859  0.1865406791025066  0.4530021660780790   F   F   F
  0.9165445262097833  0.8120175649085937  0.4540896321563892   F   F   F
  0.9161402712631315  0.5623748526671974  0.4538390260437737   F   F   F
  0.2512335974512823  0.4393297968661187  0.4549564150400300   F   F   F
  0.9167931541607430  0.0619984177332711  0.4542376841374818   F   F   F
  0.9161992448421117  0.3123064361168062  0.4536794285213972   F   F   F
  0.4173253380450461  0.1871441863668011  0.4535626826566386   F   F   F
  0.2524433923200533  0.6872855999758372  0.4560648520720321   F   F   F
  0.9166422874375399  0.9367119500831791  0.4532600880236686   F   F   F
  0.5829170036600004  0.1892761867298773  0.4551764890042165   F   F   F
  0.9998930569323434  0.1256527218092458  0.4988970085950086   F   F   F
  0.5837127561483726  0.8100044861922200  0.4554741756088134   F   F   F
  0.9997931841350933  0.3728316051265210  0.4988392501578360   F   F   F
  0.9997653393003887  0.6270488422283194  0.4976752567228218   F   F   F
  0.3337233791573198  0.1256484029519740  0.4984140313360044   F   F   F
  0.0000290688486970  0.8750943523734591  0.4995104156514998   F   F   F
  0.3334763781982630  0.8738080806758930  0.4988564613591748   F   F   F
  0.6668611455921294  0.1273377567493696  0.5002291402155805   F   F   F
  0.3356639838509636  0.6251451890137147  0.5044171071876704   F   F   F
  0.3344954299321046  0.3785477594850093  0.5029948396108779   F   F   F
  0.6660810452387835  0.3779280732945480  0.5037496633627825   F   F   F
  0.9153246661050147  0.6866387128181728  0.4529617403394255   F   F   F
  0.9161767182759704  0.4369903722515573  0.4537536747206303   F   F   F
  0.9164414558978393  0.1872926873189229  0.4536899461489696   F   F   F
  0.5827366256433422  0.9362766871912029  0.4537796593793146   F   F   F
  0.5827761769140452  0.6860080661475365  0.4545508146827473   F   F   F
  0.5828291743051537  0.4387757500870890  0.4561136327338389   F   F   F
  0.2500001219383776  0.9360129115195974  0.4540736457860675   F   F   F
  0.6654187356587400  0.6258140706897706  0.5029456853676280   F   F   F
  0.5846254937340376  0.5624108799061460  0.4550400703218074   F   F   F
  0.5839048601550516  0.0628982346405209  0.4547080858985311   F   F   F
  0.9166666865332829  0.6874999999963620  0.3605200052333331   F   F   F
  0.9166666865332829  0.4374999701794380  0.3605200052333331   F   F   F
  0.9166666865332829  0.1875000000030838  0.3605200052333331   F   F   F
  0.5833333134730552  0.9375000000154046  0.3605200052333331   F   F   F
  0.5833333134730552  0.6874999999963620  0.3605200052333331   F   F   F
  0.5833333134730552  0.4374999701794380  0.3605200052333331   F   F   F
  0.5833333134730552  0.1875000000030838  0.3605200052333331   F   F   F
  0.2499999999799343  0.9375000000154046  0.3605200052333331   F   F   F
  0.9166666865332829  0.9375000000154046  0.3605200052333331   F   F   F
  0.2499999999799343  0.6874999999963620  0.3605200052333331   F   F   F
  0.2499999999799343  0.1875000000030838  0.3605200052333331   F   F   F
  0.7499999404149307  0.9375000000154046  0.3605200052333331   F   F   F
  0.7499999404149307  0.6874999999963620  0.3605200052333331   F   F   F
  0.7499999404149307  0.4374999701794380  0.3605200052333331   F   F   F
  0.7499999404149307  0.1875000000030838  0.3605200052333331   F   F   F
  0.4166666269218169  0.9375000000154046  0.3605200052333331   F   F   F
  0.4166666269218169  0.6874999999963620  0.3605200052333331   F   F   F
  0.4166666269218169  0.4374999701794380  0.3605200052333331   F   F   F
  0.2499999999799343  0.4374999701794380  0.3605200052333331   F   F   F
  0.0833333358191695  0.0625000000159659  0.3605200052333331   F   F   F
  0.0833333358191695  0.3124999999901945  0.3605200052333331   F   F   F
  0.0833333358191695  0.5625000000092442  0.3605200052333331   F   F   F
  0.9166666865332829  0.3124999999901945  0.3605200052333331   F   F   F
  0.9166666865332829  0.0625000000159659  0.3605200052333331   F   F   F
  0.5833333134730552  0.8124999999834799  0.3605200052333331   F   F   F
  0.5833333134730552  0.5625000000092442  0.3605200052333331   F   F   F
  0.5833333134730552  0.3124999999901945  0.3605200052333331   F   F   F
  0.5833333134730552  0.0625000000159659  0.3605200052333331   F   F   F
  0.2499999999799343  0.8124999999834799  0.3605200052333331   F   F   F
  0.2499999999799343  0.5625000000092442  0.3605200052333331   F   F   F
  0.2499999999799343  0.3124999999901945  0.3605200052333331   F   F   F
  0.2499999999799343  0.0625000000159659  0.3605200052333331   F   F   F
  0.7499999404149307  0.8124999999834799  0.3605200052333331   F   F   F
  0.7499999404149307  0.5625000000092442  0.3605200052333331   F   F   F
  0.7499999404149307  0.3124999999901945  0.3605200052333331   F   F   F
  0.7499999404149307  0.0625000000159659  0.3605200052333331   F   F   F
  0.4166666269218169  0.8124999999834799  0.3605200052333331   F   F   F
  0.4166666269218169  0.5625000000092442  0.3605200052333331   F   F   F
  0.4166666269218169  0.3124999999901945  0.3605200052333331   F   F   F
  0.4166666269218169  0.0625000000159659  0.3605200052333331   F   F   F
  0.0833333358191695  0.8124999999834799  0.3605200052333331   F   F   F
  0.4166666269218169  0.1875000000030838  0.3605200052333331   F   F   F
  0.0833333358191695  0.9375000000154046  0.3605200052333331   F   F   F
  0.0833333358191695  0.6874999999963620  0.3605200052333331   F   F   F
  0.0833333358191695  0.4374999701794380  0.3605200052333331   F   F   F
  0.8333332538436267  0.4999999999932783  0.4070133268666680   F   F   F
  0.8333332538436267  0.7500000000123208  0.4070133268666680   F   F   F
  0.0834673504029055  0.0616845965220989  0.4542428369962082   F   F   F
  0.0834634129143410  0.3119633174484377  0.4540361336157588   F   F   F
  0.0839557421992936  0.5624805385356666  0.4538902324196741   F   F   F
  0.0834987962792439  0.8120462116174352  0.4541834701636489   F   F   F
  0.4169051973722588  0.0615608693519434  0.4553593112383254   F   F   F
  0.4154000374043534  0.3112681533652335  0.4575063385655511   F   F   F
  0.4159311529207486  0.5594012878778258  0.4578570378276154   F   F   F
  0.4166404928880496  0.8097789533736801  0.4551552453073597   F   F   F
  0.7491113293334095  0.0642911179201207  0.4533502721468565   F   F   F
  0.7473674652595292  0.3140617741687493  0.4547993603135581   F   F   F
  0.7481272832285413  0.5642454926533418  0.4536919993477184   F   F   F
  0.7491629430673683  0.8133157624624658  0.4531028843100842   F   F   F
  0.2506912484559791  0.0619380163009779  0.4542137600356497   F   F   F
  0.9132544656410602  0.3110848018907788  0.5465179988022868   F   F   F
  0.2522817341215315  0.3141726375911915  0.4541553832793710   F   F   F
  0.2519081247903259  0.5645618452656720  0.4538294249282231   F   F   F
  0.2502269342976859  0.8104677806330116  0.4555473769466190   F   F   F
  0.8333332538436267  0.2500000000190425  0.4070133268666680   F   F   F
  0.5846415030233700  0.3144039825396021  0.4541613034092009   F   F   F
  0.8333332538436267  0.0000000000000000  0.4070133268666680   F   F   F
  0.5000000000021103  0.4999999999932783  0.4070133268666680   F   F   F
  0.0833333358191695  0.1875000000030838  0.3605200052333331   F   F   F
  0.0000000000000000  0.0000000000000000  0.4070133268666680   F   F   F
  0.0000000000000000  0.2500000000190425  0.4070133268666680   F   F   F
  0.0000000000000000  0.4999999999932783  0.4070133268666680   F   F   F
  0.0000000000000000  0.7500000000123208  0.4070133268666680   F   F   F
  0.3333333432766779  0.0000000000000000  0.4070133268666680   F   F   F
  0.3333333432766779  0.2500000000190425  0.4070133268666680   F   F   F
  0.3333333432766779  0.4999999999932783  0.4070133268666680   F   F   F
  0.3333333432766779  0.7500000000123208  0.4070133268666680   F   F   F
  0.6666666865533486  0.0000000000000000  0.4070133268666680   F   F   F
  0.6666666865533486  0.2500000000190425  0.4070133268666680   F   F   F
  0.6666666865533486  0.4999999999932783  0.4070133268666680   F   F   F
  0.6666666865533486  0.7500000000123208  0.4070133268666680   F   F   F
  0.1666666716383389  0.0000000000000000  0.4070133268666680   F   F   F
  0.1666666716383389  0.2500000000190425  0.4070133268666680   F   F   F
  0.1666666716383389  0.4999999999932783  0.4070133268666680   F   F   F
  0.1666666716383389  0.7500000000123208  0.4070133268666680   F   F   F
  0.5000000000021103  0.0000000000000000  0.4070133268666680   F   F   F
  0.5000000000021103  0.2500000000190425  0.4070133268666680   F   F   F
  0.5000000000021103  0.7500000000123208  0.4070133268666680   F   F   F
  0.1671903788087974  0.1239299512853762  0.4989455822492275   F   F   F
  0.9174581160609634  0.0635331571141293  0.5474186156605327   F   F   F
  0.1677690853879881  0.8732380100298798  0.4999277538919458   F   F   F
  0.2519599233096983  0.1882175635779646  0.5471510214849573   F   F   F
  0.7491762232071579  0.9344308865314659  0.5475106068130486   F   F   F
  0.7517196221263305  0.6803945322412233  0.5530428084288914   F   F   F
  0.7529808294592897  0.4345031531778218  0.5494776248783850   F   F   F
  0.4233110699049405  0.4437581973568214  0.5457080801919361   F   F   F
  0.4231303446274381  0.6878690295316829  0.5466843803893227   F   F   F
  0.7535836200830488  0.1851254977897767  0.5507168679155612   F   F   F
  0.4158091250645413  0.9368609871041329  0.5460689699933567   F   F   F
  0.0836019671795327  0.9389600863767882  0.5457015172716737   F   F   F
  0.4156440494368354  0.1917203267250045  0.5466132849103289   F   F   F
  0.0866018199605705  0.6897210139326049  0.5451237870309953   F   F   F
  0.0827700020431266  0.4388983968897691  0.5448800932523525   F   F   F
  0.0845222004926072  0.1888748696658240  0.5455782491225207   F   F   F
  0.4996955330770021  0.1256162965298770  0.4996999279416130   F   F   F
  0.9995829346340344  0.4989330829685841  0.5944518515334423   F   F   F
  0.9993704687594231  0.7539117849202839  0.5921228581184508   F   F   F
  0.3344489282584462  0.2542467881105352  0.5926717401364812   F   F   F
  0.3339593319856533  0.9996553693334320  0.5921130895008275   F   F   F
  0.9998872741870457  0.9991290782110767  0.5931431648017664   F   F   F
  0.0028641641305498  0.2501618898385729  0.5911247805072151   F   F   F
  0.3334487344488863  0.4966469195252685  0.5909262369438082   F   F   F
  0.3356497103395810  0.7399993847531618  0.5910293564709335   F   F   F
  0.6642994310757970  0.2469628537631223  0.5894575158945869   F   F   F
  0.6657333163471009  0.0006590984102175  0.5918945027755029   F   F   F
  0.6659534587946681  0.7420408886738770  0.5899752965342344   F   F   F
  0.6669664412753420  0.4934244997165962  0.5909911369241527   F   F   F
  0.1674962221585119  0.9982410189350972  0.5922728266663810   F   F   F
  0.1687742417314411  0.2490350731581472  0.5931472357714966   F   F   F
  0.1707395979932684  0.7498687346641475  0.5950877527864122   F   F   F
  0.2482773611380935  0.4359427591766831  0.5491961832816159   F   F   F
  0.1654661258042580  0.5031777943714530  0.5879037568307268   F   F   F
  0.2491133332078093  0.6834112884158543  0.5519534648238817   F   F   F
  0.5809531435234376  0.1860420335637087  0.5495044842879864   F   F   F
  0.9150646896350239  0.8131350875573489  0.5468638972430213   F   F   F
  0.9167954289666582  0.5634550922019059  0.5465552245857026   F   F   F
  0.5812716612476336  0.5602445485476082  0.5493989649295798   F   F   F
  0.5862854682815382  0.8147957496757101  0.5504230648192987   F   F   F
  0.5834623638706375  0.3112975008928487  0.5455382118430592   F   F   F
  0.5829501697587460  0.0631540144640610  0.5466906285554316   F   F   F
  0.2535524303654171  0.8128839159477224  0.5514040455153690   F   F   F
  0.2520279162141321  0.5590213173645324  0.5440582054679126   F   F   F
  0.2495612753744396  0.3137588807676934  0.5459563982004738   F   F   F
  0.2510773006381655  0.0625875864578092  0.5472664575191644   F   F   F
  0.7485499024752187  0.8083531894302212  0.5456735842214684   F   F   F
  0.7465368495569606  0.5575769559393464  0.5445014056928486   F   F   F
  0.4139721063136506  0.8115913030533761  0.5479937653273055   F   F   F
  0.7487301588163859  0.0603332140650608  0.5445688414226169   F   F   F
  0.7501193732350941  0.3107938035840334  0.5487360661570264   F   F   F
  0.4160720551242605  0.3195929549197203  0.5529839539138663   F   F   F
  0.4204208087533630  0.5649102059452957  0.5553871178374905   F   F   F
  0.4165713275633891  0.0654719837173658  0.5473737350086978   F   F   F
  0.0848754595204895  0.8129068947981040  0.5473166950951978   F   F   F
  0.0826318461524522  0.5640141384748816  0.5463707913248967   F   F   F
  0.0871021898584843  0.3137061223775959  0.5471896037186852   F   F   F
  0.0823335743013658  0.0632775867461817  0.5476221468664022   F   F   F
  0.9159130537456264  0.9388848396925980  0.5460656756593707   F   F   F
  0.9132210721464986  0.6894776817527628  0.5449502210376522   F   F   F
  0.5833358902114156  0.9383804967212441  0.5455782758236651   F   F   F
  0.9143290604737473  0.1893458123635199  0.5461980945736897   F   F   F
  0.9151908013661156  0.4366588431756142  0.5459380705124559   F   F   F
  0.5766593232082187  0.4358797116131825  0.5517701476486465   F   F   F
  0.5795181360212851  0.6864800472731432  0.5469869248694863   F   F   F
  0.2517237228062115  0.9373770822916967  0.5451868962322308   F   F   F
  0.4978459022609556  0.5043434670230340  0.6089749823225574   F   F   F
  0.4993193512136074  0.2532022005804606  0.5903594600752982   F   F   F
  0.4994291733596583  0.9998485785626912  0.5909841861292975   F   F   F
  0.7536176368085705  0.6934532756022449  0.6574549793635924   F   F   F
  0.7484286751012874  0.9367311740288287  0.6398741358509952   F   F   F
  0.2533716282449205  0.1863321254593586  0.6411258532330635   F   F   F
  0.7437944087563224  0.1941559679438072  0.6473309793883004   F   F   F
  0.7557828181857857  0.4358339469065413  0.6388163825471338   F   F   F
  0.4174808982871738  0.9346995428051201  0.6398865199772388   F   F   F
  0.4217747109685561  0.6759773002776370  0.6337411398577188   F   F   F
  0.5905664279164498  0.8101070606073648  0.6457941077228782   F   F   F
  0.9157356734064450  0.0626638452016124  0.6411691967284483   F   F   F
  0.9130631644145311  0.5614013633089812  0.6427361829711629   F   F   F
  0.9162561996552654  0.3117905730610531  0.6389267347527152   F   F   F
  0.9138757330014755  0.8126349484971485  0.6415642733316815   F   F   F
  0.5814205365727361  0.0647766235863969  0.6398310879034881   F   F   F
  0.5846147899424210  0.3187262555992945  0.6336755661410294   F   F   F
  0.5924687527582435  0.5642518782859440  0.6396115439340520   F   F   F
  0.2476730377390268  0.5738307166426608  0.6289756989182109   F   F   F
  0.2617826616713543  0.7982128573850957  0.6471417072379424   F   F   F
  0.2497878299802991  0.3163905857751388  0.6413745833941960   F   F   F
  0.2510515436844827  0.0590637682421331  0.6423448730819388   F   F   F
  0.9166666865332829  0.5625000000092442  0.3605200052333331   F   F   F
  0.4997894551027713  0.3731363212081433  0.5004264536376795   F   F   F
  0.4999792952315119  0.8726086938897879  0.5008696850038348   F   F   F
  0.5003903568610966  0.6209327477320699  0.4999913923855743   F   F   F
  0.8322593755892171  0.6230478192661266  0.4999799647356795   F   F   F
  0.8326938586987822  0.8748385169536732  0.4984118110066476   F   F   F
  0.8326162776652453  0.3731721987903285  0.4991953529326807   F   F   F
  0.8331749215581326  0.1237626683486752  0.4984595536906795   F   F   F
  0.1667886599306598  0.3762842136494768  0.4976308740069868   F   F   F
  0.1677582839473999  0.6243323659912932  0.4999951153090976   F   F   F
  0.5817456728773749  0.4381278176558325  0.6458001765056380   F   F   F
  0.5802465579490885  0.6847999542057224  0.6382100514381293   F   F   F
  0.9185455520421186  0.1863651711678216  0.6400902813862359   F   F   F
  0.5818564469128304  0.9347854809276726  0.6390859780132132   F   F   F
  0.8304112890487616  0.7504650362045524  0.5928882978216876   F   F   F
  0.8316622129060320  0.2478905527185447  0.6003383814570498   F   F   F
  0.8333302639917122  0.5035763066983705  0.5892650875850975   F   F   F
  0.8323128461100211  0.0016814421751405  0.5921155335652131   F   F   F
  0.5011234966276987  0.7564470810354109  0.5927587367570766   F   F   F
  0.4174355335028466  0.0649461576104002  0.6401761692365184   F   F   F
  0.4267979903599013  0.3049432699652357  0.6547524055161489   F   F   F
  0.4119111159156859  0.8124824232475163  0.6397206499866002   F   F   F
  0.3984444849739290  0.5510099729069537  0.6521122498773906   F   F   F
  0.7522224406046192  0.5709310705939359  0.6343584261669619   F   F   F
  0.7410870439283883  0.8099255403622010  0.6399997395291592   F   F   F
  0.7466917931371597  0.3118789120863639  0.6409013775718648   F   F   F
  0.7480216562298310  0.0672366958004602  0.6386895610381558   F   F   F
  0.0846123830278813  0.3114342971351221  0.6411517166095564   F   F   F
  0.6665496539262818  0.8748411984879638  0.4992267168472537   F   F   F
  0.0867537855157110  0.5619649699209432  0.6419383460956780   F   F   F
  0.0846525363777175  0.0597631754939911  0.6423113650647778   F   F   F
  0.0871657732391995  0.4368329805606450  0.6394198101826518   F   F   F
  0.0843944901771678  0.1852279532939249  0.6412331136364813   F   F   F
  0.4188886490654653  0.1882640978417456  0.6396023841739193   F   F   F
  0.4150609022079408  0.4192212257399888  0.6298464882424071   F   F   F
  0.0841751492758362  0.9348960966677211  0.6406651839549227   F   F   F
  0.0828960261393163  0.6872424230992920  0.6398800926013735   F   F   F
  0.9124802488753687  0.4359642545174438  0.6396230137544165   F   F   F
  0.9165980979284285  0.6874492044759819  0.6397673836900921   F   F   F
  0.9144876878810280  0.9368818363601434  0.6409281638321147   F   F   F
  0.2409333458449154  0.4421318649720689  0.6417027629177596   F   F   F
  0.2537366054716017  0.6765724676271532  0.6635678515363068   F   F   F
  0.5784054095455318  0.1904087187456724  0.6440706763957493   F   F   F
  0.2518160594506753  0.9298548378006188  0.6375541861680176   F   F   F
  0.0839603977091556  0.8117882359460111  0.6418423764178627   F   F   F
  0.9166666865332829  0.8124999999834799  0.3605200052333331   F   F   F
  0.0017084625415293  0.1213583992719052  0.6201473428757396   F   F   F
  0.8333332538436267  0.6249999999803961  0.4070133268666680   F   F   F
  0.9993892784401694  0.5002533102779694  0.5071515672973348   F   F   F
  0.3310967511045533  0.4993601925181537  0.5010403979663849   F   F   F
  0.3297063868186925  0.2480259385164700  0.5023540841786058   F   F   F
  0.3330837902159303  0.0010878419985829  0.5058535553847676   F   F   F
  0.3337347691485135  0.7508961183813483  0.5016675345021895   F   F   F
  0.6659600893744440  0.0002673264303752  0.5056448960582216   F   F   F
  0.6683767139742400  0.4997019731845000  0.5007518359458913   F   F   F
  0.6652204911283519  0.2484576091953627  0.5011687961110880   F   F   F
  0.6655139396908183  0.7519408528395672  0.5021232732595351   F   F   F
  0.1659482084613373  0.0011581426776104  0.5065332649241370   F   F   F
  0.1664925832170852  0.2483088244865144  0.5062205932868835   F   F   F
  0.1633635151098787  0.4998166917937326  0.5022204585490400   F   F   F
  0.5000600502178685  0.9993651797279881  0.5055070146651843   F   F   F
  0.1642837337273448  0.7514028008321745  0.5033856226710895   F   F   F
  0.5009182053669363  0.7527043755898788  0.5039067440779021   F   F   F
  0.8342626476820598  0.0003615904511420  0.5062558023608403   F   F   F
  0.5012953843383130  0.4997700925421853  0.5003131089920103   F   F   F
  0.5003895350162821  0.2478148729816851  0.5015727225939628   F   F   F
  0.8340102044413982  0.2484515047656544  0.5037322045723869   F   F   F
  0.9996510565344821  0.7507405450392142  0.5065368284524396   F   F   F
  0.0012337883806950  0.2494501042104602  0.5053408688261172   F   F   F
  0.9999742963675970  0.0002545555461992  0.5065555904463181   F   F   F
  0.8333332538436267  0.8749999404036828  0.4070133268666680   F   F   F
  0.0000000000000000  0.6249999999803961  0.4070133268666680   F   F   F
  0.0000000000000000  0.8749999404036828  0.4070133268666680   F   F   F
  0.3333333432766779  0.1249999999871179  0.4070133268666680   F   F   F
  0.3333333432766779  0.3750000000061604  0.4070133268666680   F   F   F
  0.3333333432766779  0.6249999999803961  0.4070133268666680   F   F   F
  0.3333333432766779  0.8749999404036828  0.4070133268666680   F   F   F
  0.6666666865533486  0.1249999999871179  0.4070133268666680   F   F   F
  0.6666666865533486  0.3750000000061604  0.4070133268666680   F   F   F
  0.6666666865533486  0.6249999999803961  0.4070133268666680   F   F   F
  0.8360635026925820  0.4999378440820976  0.5029772455082977   F   F   F
  0.6666666865533486  0.8749999404036828  0.4070133268666680   F   F   F
  0.1666666716383389  0.3750000000061604  0.4070133268666680   F   F   F
  0.1666666716383389  0.6249999999803961  0.4070133268666680   F   F   F
  0.1666666716383389  0.8749999404036828  0.4070133268666680   F   F   F
  0.5000000000021103  0.1249999999871179  0.4070133268666680   F   F   F
  0.5000000000021103  0.3750000000061604  0.4070133268666680   F   F   F
  0.5000000000021103  0.6249999999803961  0.4070133268666680   F   F   F
  0.5000000000021103  0.8749999404036828  0.4070133268666680   F   F   F
  0.8333332538436267  0.1249999999871179  0.4070133268666680   F   F   F
  0.8333332538436267  0.3750000000061604  0.4070133268666680   F   F   F
  0.1666666716383389  0.1249999999871179  0.4070133268666680   F   F   F
  0.0000000000000000  0.3750000000061604  0.4070133268666680   F   F   F
  0.8357911872767545  0.7516892601511742  0.5025482584817453   F   F   F
  0.8369845421823712  0.3736298875738839  0.6024186332821415   F   F   F
  0.8321129726629408  0.8758704027822546  0.6183338721049054   F   F   F
  0.8406325702247130  0.6266793153553110  0.6030728571503516   F   F   F
  0.9988379888581491  0.8746278026360130  0.6217837490785101   F   F   F
  0.3314193852653631  0.1194355986635358  0.6135375630225894   F   F   F
  0.3344442088628483  0.6240415280426106  0.5955428683389314   F   F   F
  0.3257314281749899  0.3742151184536127  0.5928713940492401   F   F   F
  0.6701144073512211  0.3737877933409877  0.5941338094553217   F   F   F
  0.6635851668833226  0.1223180500702412  0.6127600809951375   F   F   F
  0.3343913730131476  0.8786285299839705  0.6030475609081449   F   F   F
  0.1586684690757849  0.6271298610796734  0.6017902986803918   F   F   F
  0.1661416522021426  0.8726860204123383  0.6184061365059748   F   F   F
  0.5016910927327345  0.3718523238936626  0.5951757509955797   F   F   F
  0.4993536098314166  0.1203608118248951  0.6061880394341017   F   F   F
  0.1679114488308855  0.1219804195476755  0.6215416338597066   F   F   F
  0.1634965538231938  0.3718239460756081  0.6079445792552463   F   F   F
  0.6653349818935297  0.8807678184176808  0.6068406019326460   F   F   F
  0.6662438059717672  0.6267259667050951  0.5934964839018022   F   F   F
  0.0008511584975892  0.3752492234998215  0.6238048246574976   F   F   F
  0.9995968353584317  0.6222567866845239  0.6440367526217301   F   F   F
  0.8337155773592428  0.1246101072767445  0.6160577503365090   F   F   F
  0.5002735679347410  0.8763011004593650  0.6096986696740316   F   F   F
  0.0000000000000000  0.1249999999871179  0.4070133268666680   F   F   F
  0.5039284802172759  0.6250098185259532  0.5938111980513554   F   F   F
  0.9163476616166761  0.9998618907170069  0.6036546327540933   F   F   F
  0.5844516760293317  0.7500905003411305  0.5993912446989498   F   F   F
  0.5905859776597637  0.5012600558913292  0.5938514257422369   F   F   F
  0.2422692904056376  0.4982048664304131  0.5940506769787959   F   F   F
  0.2492652082885627  0.7524410771187959  0.5922260900565846   F   F   F
  0.5779572755778375  0.2465931047676122  0.5970832786345426   F   F   F
  0.5822147637473734  0.0001527702896524  0.6042393579849517   F   F   F
  0.2495233386617599  0.9972518686854102  0.6043284692572826   F   F   F
  0.2485605932175048  0.2458572960360002  0.6038590028414745   F   F   F
  0.4168210647519786  0.9997323842884356  0.6049005018045577   F   F   F
  0.4125182312694662  0.2489995561452432  0.5911443335970574   F   F   F
  0.4160368335776425  0.7500228592088121  0.5945674280950968   F   F   F
  0.7564630525897442  0.5027744646699901  0.5956425146803710   F   F   F
  0.7517531559159991  0.7525786019119423  0.5905521007990018   F   F   F
  0.7414863405869596  0.2475820264871729  0.5931969844153429   F   F   F
  0.7495684053790583  0.0015807881511449  0.6040895118069471   F   F   F
  0.0852714229805258  0.2480213423122919  0.6042061729073822   F   F   F
  0.0811859954924188  0.5006896742644358  0.6033342920328337   F   F   F
  0.0800095462325388  0.7507367548450858  0.6031060392596359   F   F   F
  0.0836043315471571  0.9981820944296018  0.6036650589009582   F   F   F