Au O  Sr Ti H 
 1.0000000000000000
    23.6707801818999997    0.0000000000000000    0.0000000000000000
     0.0000000000000000   22.3170261383000010    0.0000000000000000
     0.0000000000000000    0.0000000000000000   30.0000000000000000
 Au  O   Sr  Ti  H  
  50 264  72  72   1
Selective dynamics
Cartesian
 17.0132639603774152 11.7281785031679089 22.6127383422599451   F   F   F
 14.7918383178315285 12.6500602510799229 21.1217233979124757   F   F   F
 17.0138972538150348  5.7731680813437043 20.7794678818561742   F   F   F
  6.8781311698159922 16.6347332103079601 20.9616572105707171   F   F   F
 12.1683112609776352 13.4899817689610835 23.3022287554741396   F   F   F
 13.6592597712731827 16.1947095503184997 23.7759216464162755   F   F   F
 13.0257414583852746  8.5809899188114258 24.8861821272660677   F   F   F
  5.7254627210724713 10.4322276429915384 21.2814139134579143   F   F   F
  6.6963629465338670 14.7421121046558472 22.9832590156333723   F   F   F
 14.2567819511735223  6.4499240962755433 23.6301530689323798   F   F   F
 12.1845915070720938 10.7796632725204162 20.3427020100211067   F   F   F
 13.3162628497886768 10.8454970718577020 22.8865402959168840   F   F   F
 10.9760653691917227 15.5143549731314128 24.8956719836908142   F   F   F
 18.1012443123999525  9.6141562556226088 21.1616831199925173   F   F   F
 17.3627875618690233 13.7412809312594693 20.8188922090726969   F   F   F
 15.0598846192523563 13.0183120730137283 24.0020472850465154   F   F   F
 14.0770413834285009 17.5221218160832564 21.3778148733856916   F   F   F
 11.4504595856556399 17.4057496161858900 22.7181717366013665   F   F   F
  8.2735852957714169 11.1797175044324728 20.9189219169554192   F   F   F
 10.2024800144244221  8.3086621885570882 24.4633350386463384   F   F   F
  8.8233804485053078  6.6642441150295335 22.6634141631406294   F   F   F
 10.4439969641102870  5.0977092914209647 20.9106655486343520   F   F   F
  9.2097564819277942 18.2025092454687929 21.1966248678717690   F   F   F
  6.8688902815704544 11.9651781282129477 23.3309649275012134   F   F   F
 13.1557858320029428  4.6450371185688404 21.3645018220069005   F   F   F
 10.7532209685401483 12.9424670379468196 21.0827207220263730   F   F   F
 14.5369668584732636  7.1166198158517417 20.9242442789433341   F   F   F
 16.6968592417953765 16.9077808750597534 20.6518726860170716   F   F   F
 15.5401959758752906  9.8564344174143379 24.3873031901556168   F   F   F
  8.7266085368641466 13.7934961962120610 24.6042713885542526   F   F   F
 13.5239514844373598 11.3875613897547332 25.7142398827299701   F   F   F
 15.7283528819402516  4.3224726935050635 22.5905207129521912   F   F   F
 11.1849376203783741 10.0673320058761213 26.3832121605852379   F   F   F
 12.2433869561385098  8.4166687200950019 22.0208339210225930   F   F   F
  6.7180621442483917  7.5389233324684710 21.0777555581836822   F   F   F
 15.8428171178941835 15.2007632305618205 22.4655771359556731   F   F   F
  9.4296075052458370  8.5311675492260282 20.7088651864248092   F   F   F
  8.9067574099345155 10.9885132154036018 25.0049552789725915   F   F   F
 10.9869623103991021 12.8003431224915278 25.8958790947165127   F   F   F
  7.7373562071665853  9.2344989647596076 23.0865566746198851   F   F   F
 11.5324871821255073  5.9932329312511428 23.2603687157325894   F   F   F
 10.0920536245504486 15.5876353394594815 20.9784932904542210   F   F   F
 16.5684307266933395  7.7299291217222228 22.7116264448227625   F   F   F
 18.3343914092506424  9.5795191036394645 23.8807828054865254   F   F   F
  6.0696932940244936 13.2144164454173225 20.8504225427903229   F   F   F
 15.3316397753330058  9.8401709060800506 20.9144665366052180   F   F   F
 13.4013989187264766 14.2953315402818095 25.8261562135671490   F   F   F
 12.9282195631579704 14.8363019162968097 21.0402639728639720   F   F   F
 10.4899214406215933 10.5891310626824868 22.6763286141051310   F   F   F
  8.8287809274771405 16.4491420427110704 23.3393753508313040   F   F   F
  5.9175699122776440  4.2095984174274044 13.6249134945309418   F   F   F
 17.7392804864563978 20.9444778574916732 13.6592594950612458   F   F   F
 17.7290011171995729 15.3683562080214493 13.7183579668501761   F   F   F
 17.7379778218619286  9.7828432577517823 13.6786346461916430   F   F   F
 17.7578222728741473  4.2413040453240525 13.6723019460393473   F   F   F
  9.8831542021995222 20.8824305797937484 13.6187025718327295   F   F   F
  9.8677743598525929 15.2774645406295395 13.6426786080234717   F   F   F
  9.8752492695824134  9.7162015051006811 13.6205685518540758   F   F   F
  2.0006978040863346 15.3279459648284639 13.5909001411434218   F   F   F
  1.9852104677738758 20.9008278887434571 13.6035558711129525   F   F   F
  1.9561588488230710  9.7481154589291013 13.5850754667575977   F   F   F
  1.9844031796790589  4.1630332113868773 13.5900649823424757   F   F   F
 21.6953240068354987 18.1218172208238499 13.6226889646917169   F   F   F
 21.6857549768558435 12.5505342864965321 13.6151707813133136   F   F   F
  5.9468952595773246  9.8045345599951901 13.6486924512008354   F   F   F
 21.7012092244096415  1.3836203090867316 13.6271305241244640   F   F   F
 21.6871509274803955  6.9697508979781055 13.6103828556419835   F   F   F
  9.8784163412013779  4.1765016987787540 13.6068804796991305   F   F   F
  5.9755320479811314 15.3381706991379119 13.6819455621610047   F   F   F
 21.6976380913679741 20.9046250740643025 13.5978026407100909   F   F   F
 13.7981002579276275  4.2240816066083902 13.6552946701264499   F   F   F
 -0.0025314258464538  2.8041950769654456 14.9669102578503459   F   F   F
 13.8169363401591259 18.0768912904919823 13.6642252682644898   F   F   F
 -0.0048954928763431  8.3204926767928740 14.9651775047351094   F   F   F
 23.6652255800622058 13.9938654020001270 14.9302577016847042   F   F   F
  7.8994927495937537  2.8040986929147791 14.9524209400800334   F   F   F
  0.0006880823277115 19.5295035353972750 14.9853124695450930   F   F   F
  7.8936460441871974 19.5007977763016491 14.9656938407751934   F   F   F
 15.7851235891613406  2.8418000457681574 15.0068742064673550   F   F   F
  7.9454283767170484 13.9513815234515643 15.1325132156300324   F   F   F
  7.9177677937729563  8.4480602430219172 15.0898451883263096   F   F   F
 15.7666580051774510  8.4342306901118178 15.1124899008835705   F   F   F
 21.6664489664428643 15.3237341015318940 13.5888522101828197   F   F   F
 21.6866177060849878  9.7523255597234115 13.6126102416188726   F   F   F
 21.6928842521382030  4.1798157984088649 13.6106983844689982   F   F   F
 13.7938305695456531 20.8949113007269496 13.6133897813794533   F   F   F
 13.7947667789805024 15.3096599432992289 13.6365244404823986   F   F   F
 13.7960212685755437  9.7921698835457924 13.6834089820152389   F   F   F
  5.9176979318514800 20.8890246121692122 13.6222093735819261   F   F   F
 15.7509806206959357 13.9663089732994656 15.0883705610287429   F   F   F
 13.8385415509131473 12.5513383073297486 13.6512021096542053   F   F   F
 13.8214835918732124  1.4037015465253890 13.6412425769559391   F   F   F
 21.6982156369999721 15.3429554700000619 10.8156001569999933   F   F   F
 21.6982156369999721  9.7636982699999884 10.8156001569999933   F   F   F
 21.6982156369999721  4.1844424010000720 10.8156001569999933   F   F   F
 13.8079546360000549 20.9222120050000342 10.8156001569999933   F   F   F
 13.8079546360000549 15.3429554700000619 10.8156001569999933   F   F   F
 13.8079546360000549  9.7636982699999884 10.8156001569999933   F   F   F
 13.8079546360000549  4.1844424010000720 10.8156001569999933   F   F   F
  5.9176950450000287 20.9222120050000342 10.8156001569999933   F   F   F
 21.6982156369999721 20.9222120050000342 10.8156001569999933   F   F   F
  5.9176950450000287 15.3429554700000619 10.8156001569999933   F   F   F
  5.9176950450000287  4.1844424010000720 10.8156001569999933   F   F   F
 17.7530837259999217 20.9222120050000342 10.8156001569999933   F   F   F
 17.7530837259999217 15.3429554700000619 10.8156001569999933   F   F   F
 17.7530837259999217  9.7636982699999884 10.8156001569999933   F   F   F
 17.7530837259999217  4.1844424010000720 10.8156001569999933   F   F   F
  9.8628241350000643 20.9222120050000342 10.8156001569999933   F   F   F
  9.8628241350000643 15.3429554700000619 10.8156001569999933   F   F   F
  9.8628241350000643  9.7636982699999884 10.8156001569999933   F   F   F
  5.9176950450000287  9.7636982699999884 10.8156001569999933   F   F   F
  1.9725650740000149  1.3948141340000613 10.8156001569999933   F   F   F
  1.9725650740000149  6.9740706679999214 10.8156001569999933   F   F   F
  1.9725650740000149 12.5533272030000536 10.8156001569999933   F   F   F
 21.6982156369999721  6.9740706679999214 10.8156001569999933   F   F   F
 21.6982156369999721  1.3948141340000613 10.8156001569999933   F   F   F
 13.8079546360000549 18.1325837370000720 10.8156001569999933   F   F   F
 13.8079546360000549 12.5533272030000536 10.8156001569999933   F   F   F
 13.8079546360000549  6.9740706679999214 10.8156001569999933   F   F   F
 13.8079546360000549  1.3948141340000613 10.8156001569999933   F   F   F
  5.9176950450000287 18.1325837370000720 10.8156001569999933   F   F   F
  5.9176950450000287 12.5533272030000536 10.8156001569999933   F   F   F
  5.9176950450000287  6.9740706679999214 10.8156001569999933   F   F   F
  5.9176950450000287  1.3948141340000613 10.8156001569999933   F   F   F
 17.7530837259999217 18.1325837370000720 10.8156001569999933   F   F   F
 17.7530837259999217 12.5533272030000536 10.8156001569999933   F   F   F
 17.7530837259999217  6.9740706679999214 10.8156001569999933   F   F   F
 17.7530837259999217  1.3948141340000613 10.8156001569999933   F   F   F
  9.8628241350000643 18.1325837370000720 10.8156001569999933   F   F   F
  9.8628241350000643 12.5533272030000536 10.8156001569999933   F   F   F
  9.8628241350000643  6.9740706679999214 10.8156001569999933   F   F   F
  9.8628241350000643  1.3948141340000613 10.8156001569999933   F   F   F
  1.9725650740000149 18.1325837370000720 10.8156001569999933   F   F   F
  9.8628241350000643  4.1844424010000720 10.8156001569999933   F   F   F
  1.9725650740000149 20.9222120050000342 10.8156001569999933   F   F   F
  1.9725650740000149 15.3429554700000619 10.8156001569999933   F   F   F
  1.9725650740000149  9.7636982699999884 10.8156001569999933   F   F   F
 19.7256482699999580 11.1585130689999925 12.2103998060000407   F   F   F
 19.7256482699999580 16.7377696039999648 12.2103998060000407   F   F   F
  1.9757373037527324  1.3766167529142039 13.6272851098862517   F   F   F
  1.9756441003266001  6.9620935096875725 13.6210840084728346   F   F   F
  1.9872979186077988 12.5528928807855316 13.6167069725902667   F   F   F
  1.9764816521791679 18.1224565301737641 13.6255041049094228   F   F   F
  9.8684712836904094  1.3738555304237166 13.6607793371496946   F   F   F
  9.8328429729515481  6.9465795146722202 13.7251901569665229   F   F   F
  9.8454148915912789 12.4841731633681494 13.7357111348285486   F   F   F
  9.8622055220315303 18.0718580686855788 13.6546573592208009   F   F   F
 17.7320496084221162  1.4347865590838123 13.6005081644057189   F   F   F
 17.6907709852621515  7.0089248231649011 13.6439808094067363   F   F   F
 17.7087564693849089 12.5922814079625827 13.6107599804314621   F   F   F
 17.7332713457729660 18.1507891295662134 13.5930865293025409   F   F   F
  5.9340574357276186  1.3822723287433956 13.6264128010695824   F   F   F
 21.6174457063280769  6.9424876550244043 16.3955399640685755   F   F   F
  5.9717054722993410  7.0113989650612361 13.6246614983811032   F   F   F
  5.9628618479464164 12.5993414574808362 13.6148827478465950   F   F   F
  5.9230667573512656 18.0872306446369748 13.6664213083986628   F   F   F
 19.7256482699999580  5.5792565349999723 12.2103998060000407   F   F   F
 13.8389205032818481  7.0165618963218508 13.6248391022759527   F   F   F
 19.7256482699999580  0.0000000000000000 12.2103998060000407   F   F   F
 11.8353900909999528 11.1585130689999925 12.2103998060000407   F   F   F
  1.9725650740000149  4.1844424010000720 10.8156001569999933   F   F   F
  0.0000000000000000  0.0000000000000000 12.2103998060000407   F   F   F
  0.0000000000000000  5.5792565349999723 12.2103998060000407   F   F   F
  0.0000000000000000 11.1585130689999925 12.2103998060000407   F   F   F
  0.0000000000000000 16.7377696039999648 12.2103998060000407   F   F   F
  7.8902602960000570  0.0000000000000000 12.2103998060000407   F   F   F
  7.8902602960000570  5.5792565349999723 12.2103998060000407   F   F   F
  7.8902602960000570 11.1585130689999925 12.2103998060000407   F   F   F
  7.8902602960000570 16.7377696039999648 12.2103998060000407   F   F   F
 15.7805205919999434  0.0000000000000000 12.2103998060000407   F   F   F
 15.7805205919999434  5.5792565349999723 12.2103998060000407   F   F   F
 15.7805205919999434 11.1585130689999925 12.2103998060000407   F   F   F
 15.7805205919999434 16.7377696039999648 12.2103998060000407   F   F   F
  3.9451301480000271  0.0000000000000000 12.2103998060000407   F   F   F
  3.9451301480000271  5.5792565349999723 12.2103998060000407   F   F   F
  3.9451301480000271 11.1585130689999925 12.2103998060000407   F   F   F
  3.9451301480000271 16.7377696039999648 12.2103998060000407   F   F   F
 11.8353900909999528  0.0000000000000000 12.2103998060000407   F   F   F
 11.8353900909999528  5.5792565349999723 12.2103998060000407   F   F   F
 11.8353900909999528 16.7377696039999648 12.2103998060000407   F   F   F
  3.9575267053115688  2.7657479621539083 14.9683674674768934   F   F   F
 21.7169493913791953  1.4178711279647462 16.4225584698158933   F   F   F
  3.9712251415374258 19.4880754947938790 14.9978326167584619   F   F   F
  5.9640879593121703  4.2004562860565109 16.4145306445486732   F   F   F
 17.7335856970427415 20.8537185191575247 16.4253182043914414   F   F   F
 17.7937899337733683 15.1843825603837370 16.5912842528667603   F   F   F
 17.8236436953155355  9.6968182266432184 16.4843287463516042   F   F   F
 10.0201032842847955  9.9033632894970136 16.3712424057580748   F   F   F
 10.0158253759677347 15.3511911117855782 16.4005314116795802   F   F   F
 17.8379122196662436  4.1314505730402171 16.5215060374667573   F   F   F
  9.8425263970308752 20.9079511371564024 16.3820690998007308   F   F   F
  1.9789237878811299 20.9547967904911516 16.3710455181501260   F   F   F
  9.8386189281341370  4.2786275427652969 16.3983985473097711   F   F   F
  2.0499326436391723 15.3925218960687378 16.3537136109298622   F   F   F
  1.9592305240181831  9.7949069954469454 16.3464027975705513   F   F   F
  2.0007064283509965  4.2151254032001511 16.3673474736755438   F   F   F
 11.8281831213431108  2.8033821730537580 14.9909978382484610   F   F   F
 23.6609079193007759 11.1347026538724858 17.8335555460032325   F   F   F
 23.6558786862865915 16.8250690100383657 17.7636857435535198   F   F   F
  7.9166670628777700  5.6740322158415664 17.7801522040945059   F   F   F
  7.9050779371265483 -0.0076911315938489 17.7633926850249360   F   F   F
 -0.0026683079392246 22.2975897539721473 17.7942949440529645   F   F   F
  0.0677969995391318  5.5828694343339347 17.7337434152163809   F   F   F
  7.8929916950723920 11.0836822845515588 17.7277871083143026   F   F   F
  7.9450905115665913 16.5145856118621559 17.7308806941280608   F   F   F
 15.7244858079564604  5.5114764626208235 17.6837254768376688   F   F   F
 15.7584269910194816  0.0147091164484667 17.7568350832650950   F   F   F
 15.7636379345045974 16.5601459082222782 17.6992588960271000   F   F   F
 15.7876160201327895 11.0117674574528532 17.7297341077246742   F   F   F
  3.9647662560127923 22.2777709118978393 17.7681847999915377   F   F   F
  3.9950179763917673  5.5577222370239001 17.7944170731449773   F   F   F
  4.0415394924445716 16.7348401517937262 17.8526325835923494   F   F   F
  5.8769188396420935  9.7289459513486722 16.4758854984484522   F   F   F
  3.9167122914631500 11.2294319891998047 17.6371127049218401   F   F   F
  5.8967069507424590 15.2517075867859653 16.5586039447165199   F   F   F
 13.7516141563271095  4.1519049258637084 16.4851345286395912   F   F   F
 21.6602951205692165 18.1467570029861989 16.4059169172907460   F   F   F
 21.7012630708405077 12.5746420204282057 16.3966567375710177   F   F   F
 13.7591537193606310 12.5029922337770785 16.4819689478873066   F   F   F
 13.8778344435345868 18.1838180428885074 16.5126919445789611   F   F   F
 13.8110093595935499  6.9472344642131549 16.3661463552917716   F   F   F
 13.7988853253605139  1.4094097915329833 16.4007188566628557   F   F   F
  6.0017838437662974 18.1411515996089605 16.5421213654610320   F   F   F
  5.9656974044070887 12.4756933514911150 16.3217461640374601   F   F   F
  5.9073100913029570  7.0021651432163514 16.3786919460142926   F   F   F
  5.9431955920708877  1.3967688029121148 16.4179937255750055   F   F   F
 17.7187601966735464 18.0400392574924346 16.3702075266439735   F   F   F
 17.6711096635508937 12.4434594998120804 16.3350421707855062   F   F   F
  9.7990427299886225 18.1123043238591173 16.4398129598192462   F   F   F
 17.7230270049016987  1.3464579152975844 16.3370652426786087   F   F   F
 17.7559107940325340  6.9359934382065473 16.4620819847108208   F   F   F
  9.8487501566776992  7.1323643285599942 16.5895186174159015   F   F   F
  9.9516885478973904 12.6071158318736725 16.6616135351248182   F   F   F
  9.8605683248351674  1.4611399719468248 16.4212120502608876   F   F   F
  2.0090683451472442 18.1416644192135799 16.4195008528559043   F   F   F
  1.9559602662993107 12.5871182707147273 16.3911237397468170   F   F   F
  2.0617767895022774  7.0009877328455872 16.4156881115606623   F   F   F
  1.9488999388777535  1.4121675573830492 16.4286644059920697   F   F   F
 21.6803765609455610 20.9531175082733192 16.3819702697811671   F   F   F
 21.6166552562588663 15.3870914454509116 16.3485066311294958   F   F   F
 13.8080156294073788 20.9418620729989939 16.3673482747099825   F   F   F
 21.6428822043972211  4.2256354436942880 16.3859428372107452   F   F   F
 21.6632802836341831  9.7449268166700271 16.3781421153736630   F   F   F
 13.6499760795049117  9.7275389172260116 16.5531044294593208   F   F   F
 13.7176464091842352 15.3201931584160995 16.4096077460845073   F   F   F
  5.9584969091154356 20.9194688469471402 16.3556068869669708   F   F   F
 11.7844009168788197 11.2554463362338790 18.2692494696767831   F   F   F
 11.8192786031462038  5.6507201286291435 17.7107838022590229   F   F   F
 11.8218781790245497 -0.0033792761743351 17.7295255838788854   F   F   F
 17.8387174220986395 15.4758148773051278 19.7236493809078439   F   F   F
 17.7158906501532130 20.9050540953617841 19.1962240755297771   F   F   F
  5.9975041165155414  4.1583789142814744 19.2337755969918582   F   F   F
 17.6061939501972589  4.3329838115089467 19.4199293816490588   F   F   F
 17.8899689545326304  9.7265175850718002 19.1644914764139180   F   F   F
  9.8820985734978830 20.8597141282389202 19.1965955993170958   F   F   F
  9.9837364696210749 15.0858030791934521 19.0122341957315975   F   F   F
 13.9791680980201338 18.0791804463959558 19.3738232316862771   F   F   F
 21.6761778299281467  1.3984706712907220 19.2350759018533815   F   F   F
 21.6129174570464357 12.5288088990438542 19.2820854891349107   F   F   F
 21.6884990923427914  6.9582383686790230 19.1678020425814104   F   F   F
 21.6321515894506433 18.1355953865069992 19.2469281999503714   F   F   F
 13.7626777144556289  1.4456216017284758 19.1949326371047029   F   F   F
 13.8382881838146243  7.1130221771719109 19.0102669842308885   F   F   F
 14.0241976111848299 12.5924239162923151 19.1883463180214662   F   F   F
  5.8626140333039425 12.8061951022736267 18.8692709675462957   F   F   F
  6.1965998398553843 17.8137372021902891 19.4142512171382435   F   F   F
  5.9126728155775039  7.0608969726558062 19.2412375018258395   F   F   F
  5.9425859048820771  1.3181276596861042 19.2703461924581205   F   F   F
 21.6982156369999721 12.5533272030000536 10.8156001569999933   F   F   F
 11.8304063289693460  8.3272930335511788 15.0127936091303766   F   F   F
 11.8348999929264007 19.4740310300462767 15.0260905501151125   F   F   F
 11.8446301424015612 13.8573723612631259 14.9997417715671304   F   F   F
 19.7002287338977204 13.9045744679730099 14.9993989420704725   F   F   F
 19.7105132880770419 19.5237940496467175 14.9523543301994888   F   F   F
 19.7086768844858575  8.3280937144905884 14.9758605879803675   F   F   F
 19.7219004212743876  2.7620147044830716 14.9537866107203250   F   F   F
  3.9480177060523820  8.3975446314449886 14.9289262202096413   F   F   F
  3.9709694630116541 13.9332417308143963 14.9998534592729698   F   F   F
 13.7703739444518138  9.7777099585415197 19.3740052951690807   F   F   F
 13.7348887245169635 15.2826984775157690 19.1463015431439416   F   F   F
 21.7426898494509828  4.1591163962209787 19.2027084415869957   F   F   F
 13.7729960522949035 20.8616320115662504 19.1725793403963252   F   F   F
 19.6564830836415041 16.7481478288573058 17.7866489346506818   F   F   F
 19.6860934272912154  5.5321799444573232 18.0101514437115213   F   F   F
 19.7255774978724965 11.2383255992160755 17.6779526275528376   F   F   F
 19.7014944228418436  0.0375247889725836 17.7634660069564347   F   F   F
 11.8619841326594315 16.8816492797080393 17.7827621027122014   F   F   F
  9.8810247536600038  1.4494050969734305 19.2052850770956454   F   F   F
 10.1026414118859105  6.8054269265128102 19.6425721654843635   F   F   F
  9.7502574793213359 18.1321914765242234 19.1916194995979517   F   F   F
  9.4314918185081975 12.2969039678285288 19.5633674963217778   F   F   F
 17.8056920394442102 12.7414836256124548 19.0307527850088363   F   F   F
 17.5421085124828693 18.0751294543400505 19.1999921858747413   F   F   F
 17.6747772989784444  6.9602098330158970 19.2270413271559342   F   F   F
 17.7062561959170175  1.5005230976317849 19.1606868311446519   F   F   F
  2.0028411193197093  6.9502873495276702 19.2345514982867130   F   F   F
 15.7777503384105167 19.5238538935175541 14.9768015054175443   F   F   F
  2.0535297868900266 12.5413869225346790 19.2581503828703973   F   F   F
  2.0037915804371660  1.3337363496072161 19.2693409519432883   F   F   F
  2.0632818577303551  9.7488130452433914 19.1825943054795829   F   F   F
  1.9976834255473146  4.1337370752043423 19.2369934090944916   F   F   F
  9.9154211327216739  4.2014947924377548 19.1880715252175378   F   F   F
  9.8248153782653276  9.3557710525694215 18.8953946472721839   F   F   F
  1.9924914552870157 20.8641006259282129 19.2199555186475948   F   F   F
  1.9622136126967760 15.3372071196556021 19.1964027780411435   F   F   F
 21.5991193914543373  9.7294256634303107 19.1886904126325710   F   F   F
 21.6965920912115422 15.3418218650439737 19.1930215107027635   F   F   F
 21.6466370388858138 20.9084164305478915 19.2278449149634412   F   F   F
  5.7030802679846868  9.8670683871569782 19.2510828875326929   F   F   F
  6.0061434122196857 15.0990854444892690 19.9070355460891513   F   F   F
 13.6913073053740604  4.2493563532073200 19.3221202918724018   F   F   F
  5.9606825895292008 20.7515947200210675 19.1266255850405287   F   F   F
  1.9874081181583367 18.1166992803715310 19.2552712925358769   F   F   F
 21.6982156369999721 18.1325837370000720 10.8156001569999933   F   F   F
  0.0404406412695148  2.7083585686532849 18.6044202862721555   F   F   F
 19.7256482699999580 13.9481413360000008 12.2103998060000407   F   F   F
 23.6563239261048821 11.1641662012445675 15.2145470189201308   F   F   F
  7.8373184143371093 11.1442344688541244 15.0312119389915573   F   F   F
  7.8044074069538185  5.5352013528484569 15.0706225253582744   F   F   F
  7.8843531803554514  0.0242773983166504 15.1756066615429379   F   F   F
  7.8997623595715618 16.7577683010646048 15.0500260350657609   F   F   F
 15.7637948855008716  0.0059659309341864 15.1693468817466783   F   F   F
 15.8209982751849374 11.1518619969185693 15.0225550783767900   F   F   F
 15.7462880179948215  5.5448349586723866 15.0350638833326862   F   F   F
 15.7532341744116948 16.7810836672762385 15.0636981977861328   F   F   F
  3.9281235640683971  0.0258463004080406 15.1959979477241962   F   F   F
  3.9410093392482817  5.5415145264361625 15.1866177986064095   F   F   F
  3.8669418559083981 11.1544221751194002 15.0666137564711615   F   F   F
 11.8368115264570601 22.3028588376963803 15.1652104399554464   F   F   F
  3.8887241485218005 16.7690759465634933 15.1015686801327202   F   F   F
 11.8571247283526660 16.7981232244520413 15.1172023223370378   F   F   F
 19.7476477472518610  0.0080696235495069 15.1876740708252331   F   F   F
 11.8660528488732275 11.1533822184045341 15.0093932697603698   F   F   F
 11.8446106886935087  5.5304909977917944 15.0471816778188998   F   F   F
 19.7416722187937737  5.5446987259550076 15.1119661371715228   F   F   F
 -0.0082597640682225 16.7542963667217144 15.1961048535732193   F   F   F
  0.0292047335504445  5.5669844958664498 15.1602260647834157   F   F   F
 -0.0006084250325517  0.0056809227782147 15.1966677133895285   F   F   F
 19.7256482699999580 19.5273965409999306 12.2103998060000407   F   F   F
  0.0000000000000000 13.9481413360000008 12.2103998060000407   F   F   F
  0.0000000000000000 19.5273965409999306 12.2103998060000407   F   F   F
  7.8902602960000570  2.7896282670000101 12.2103998060000407   F   F   F
  7.8902602960000570  8.3688848019999824 12.2103998060000407   F   F   F
  7.8902602960000570 13.9481413360000008 12.2103998060000407   F   F   F
  7.8902602960000570 19.5273965409999306 12.2103998060000407   F   F   F
 15.7805205919999434  2.7896282670000101 12.2103998060000407   F   F   F
 15.7805205919999434  8.3688848019999824 12.2103998060000407   F   F   F
 15.7805205919999434 13.9481413360000008 12.2103998060000407   F   F   F
 19.7902753903454354 11.1571259339054976 15.0893173652490038   F   F   F
 15.7805205919999434 19.5273965409999306 12.2103998060000407   F   F   F
  3.9451301480000271  8.3688848019999824 12.2103998060000407   F   F   F
  3.9451301480000271 13.9481413360000008 12.2103998060000407   F   F   F
  3.9451301480000271 19.5273965409999306 12.2103998060000407   F   F   F
 11.8353900909999528  2.7896282670000101 12.2103998060000407   F   F   F
 11.8353900909999528  8.3688848019999824 12.2103998060000407   F   F   F
 11.8353900909999528 13.9481413360000008 12.2103998060000407   F   F   F
 11.8353900909999528 19.5273965409999306 12.2103998060000407   F   F   F
 19.7256482699999580  2.7896282670000101 12.2103998060000407   F   F   F
 19.7256482699999580  8.3688848019999824 12.2103998060000407   F   F   F
  3.9451301480000271  2.7896282670000101 12.2103998060000407   F   F   F
  0.0000000000000000  8.3688848019999824 12.2103998060000407   F   F   F
 19.7838294719973291 16.7754688666730836 15.0764477544524027   F   F   F
 19.8120771136471454  8.3383079670364015 18.0725589984642347   F   F   F
 19.6967632624117712 19.5468226726549545 18.5500161631472302   F   F   F
 19.8984287835347473 13.9856186611164119 18.0921857145105918   F   F   F
 23.6432744715923171 19.5190915327118297 18.6535124723553061   F   F   F
  7.8449554166368278  2.6654473772175704 18.4061268906777933   F   F   F
  7.9165553511018754 13.9267510927116813 17.8662860501678509   F   F   F
  7.7103170346664962  8.3513685798762758 17.7861418214772300   F   F   F
 15.8621308331349837  8.3418319541682333 17.8240142836595759   F   F   F
 15.7075786172645255  2.7297751206034992 18.3828024298542054   F   F   F
  7.9153046853178664 19.6083758695084036 18.0914268272442627   F   F   F
  3.7558064532914908 13.9956735018234575 18.0537089604118570   F   F   F
  3.9327025283345707 19.4757567280711008 18.5521840951792854   F   F   F
 11.8754195752937957  8.2986380319224171 17.8552725298673742   F   F   F
 11.8200895313576755  2.6860953835232184 18.1856411830230371   F   F   F
  3.9745949953001980  2.7222402114062429 18.6462490157912839   F   F   F
  3.8700909860469435  8.2980047234152732 18.2383373776574018   F   F   F
 15.7489981037301625 19.6561184254008161 18.2052180579792768   F   F   F
 15.7705106787100995 13.9866597805089672 17.8048945170541231   F   F   F
  0.0201475856963216  8.3744467292223579 18.7141447397249294   F   F   F
 -0.0095432216076967 13.8869209731730265 19.3211025786519954   F   F   F
 19.7346981658965106  2.7809270211914812 18.4817325100953624   F   F   F
 11.8418656573981220 19.5564345639726582 18.2909600902210521   F   F   F
  0.0000000000000000  2.7896282670000101 12.2103998060000407   F   F   F
 11.9283802826221006 13.9483604567379142 17.8143359415405627   F   F   F
 21.6906640683263667 22.3139439498214784 18.1096389826227835   F   F   F
 13.8344271502333296 16.7397893022034836 17.9817373409685040   F   F   F
 13.9796308556967812 11.1866337694124720 17.8155427722670794   F   F   F
  5.7347031180167374 11.1184510263558050 17.8215203093637804   F   F   F
  5.9003019523940408 16.7922471855907496 17.7667827016975828   F   F   F
 13.6806996247327870  5.5032247646234218 17.9124983590361957   F   F   F
 13.7814776913209176  0.0034093785472769 18.1271807395486277   F   F   F
  5.9064120997162322 22.2556960199208262 18.1298540777184272   F   F   F
  5.8836231639342254  5.4868037019272133 18.1157700852441543   F   F   F
  9.8664797989296069 -0.0059723868300226 18.1470150541366451   F   F   F
  9.7646283734057739  5.5569296029184221 17.7343300079116659   F   F   F
  9.8479164351901609 16.7382797532854894 17.8370228428528534   F   F   F
 17.9060706335808852 11.2204308697099115 17.8692754404111867   F   F   F
 17.7945837047372137 16.7953163299940975 17.7165630239700747   F   F   F
 17.5515601759153768  5.5252945564875233 17.7959095324603389   F   F   F
 17.7428689550249565  0.0352784904881420 18.1226853542084179   F   F   F
  2.0184411091698231  5.5350987792397195 18.1261851872215196   F   F   F
  1.9217358531497273 11.1739045477363064 18.1000287609849941   F   F   F
  1.8938883813239820 16.7542117808603024 18.0931811777890310   F   F   F
  1.9789797543073793 22.2764558921683928 18.1099517670287753   F   F   F