Au  O Sr Ti 
 1.0000000000000000
    23.6707801818999997    0.0000000000000000    0.0000000000000000
     0.0000000000000000   22.3170261383000010    0.0000000000000000
     0.0000000000000000    0.0000000000000000   30.0000000000000000
 Au  O   Sr  Ti 
  50 265  72  72
Selective dynamics
Cartesian
 16.9351033029640590 11.7215503954629146 22.6261688262407503   F   F   F
 15.4817520457043649  9.7669756703924389 24.2974185347028175   F   F   F
  8.7166827907545095 13.8305688752716343 24.6099225815883642   F   F   F
 13.4908985436087985 11.3934954482378341 25.7040424884635605   F   F   F
 15.3199375830446396  4.4938809493591796 22.3358515390210819   T   T   T
 11.0997245235946096 10.1135795952975638 26.4396998141705986   F   F   F
 12.3289713506268406  8.4352395273055460 22.0242900922642555   F   F   F
  6.6837592968706492  7.5910143990916126 21.0747785515914039   F   F   F
 15.8459406789737436 15.1993933638243757 22.4624917028832130   F   F   F
  9.4211606858821302  8.5471550780749475 20.7305214277205678   F   F   F
 10.9407236500039300 12.8286164987669498 25.9383240961630968   F   F   F
 16.7168144893799102 16.8905847629174097 20.6459705180831321   F   F   F
 10.7077915921735762 12.9349910763186973 21.0859231310749777   F   F   F
  9.8922549442549315 15.5395136509340936 20.9888818360376348   F   F   F
 18.3373984085945061  9.6030117886053503 23.8489478946344633   F   F   F
  6.0793114867554046 13.2470507154584212 20.8352061967439575   F   F   F
 15.2923894294767617  9.8352699880769130 20.9146466090439915   F   F   F
 13.3581504502769004 14.2872635736631644 25.8522022509492082   F   F   F
 12.8177312051666199 14.8714159208748420 21.0414566384353314   F   F   F
 10.4974474042173362 10.5491348616365350 22.6821466957837892   F   F   F
  8.8570359601247990 16.5144199387491426 23.3625255092840369   F   F   F
  8.8805166278583059 11.0272858930158044 24.9917367945020636   F   F   F
 14.6196808654007491  7.0384778839296249 20.9420335018089432   F   F   F
  7.6832020180049945  9.2774575036785141 23.0974776263676915   F   F   F
 16.6808692733335349  7.6576689437614487 22.7135677569973389   F   F   F
 11.4751197837798617  6.0244585450395860 23.2014515575341171   F   F   F
 11.4914648942076330 17.3431365157781983 22.6686781290567829   F   F   F
 17.5691830437875076  5.7984698596160849 20.8114056699060583   T   T   T
  6.9510779176329471 16.6615552989758697 20.9039255669946868   F   F   F
 13.6756975787528621 16.1750132612941471 23.8017799198961661   F   F   F
  5.6957909662454780 10.4829719423357144 21.2833932197326305   F   F   F
  6.7511301955321450 14.7925245174551865 22.9379136009632845   F   F   F
 14.2179676045539729  6.6633091264899127 23.6717508616169425   F   F   F
 12.1669927985843209 10.7995297159961066 20.3381793968649198   F   F   F
  6.8448433427406696 12.0212023738566085 23.3305801184851198   F   F   F
 12.9221413282331241  8.6729759877744481 24.9392782121549956   F   F   F
 12.0824267437314692 13.5150759313409345 23.3193123397320292   F   F   F
 17.3506345068358030 13.7200751315079312 20.8259007454069156   F   F   F
 13.2979012147008984 10.9089566247434604 22.8742383395112618   F   F   F
 15.0058975915805508 13.0525170139094300 24.0081133177622199   F   F   F
 10.1417262343822969  8.3171583515737701 24.5106951719869670   F   F   F
  8.2626865417813491 11.1799680008207218 20.9348680129287814   F   F   F
 14.1044315855013966 17.5056079876497179 21.3872829524683326   F   F   F
  8.7414670371932619  6.7042567234857202 22.7172664729771761   F   F   F
 10.1459290493181129  5.0674823390507591 20.9534572780967139   F   F   F
 10.9600448207447680 15.5603233865616435 24.9466937542484928   F   F   F
  9.2619944787856578 18.2356134039660347 21.1946729168624408   F   F   F
 18.0611415378130431  9.6366209633959432 21.1491091151109849   F   F   F
 14.7455004065843092 12.6948981349000150 21.1174736850825653   F   F   F
 12.8750081034251433  4.6902760112203943 21.2243007447504368   F   F   F
 13.6523697229245844  9.7170728407070825 16.5622856031864600   F   F   F
  2.0092438472375593 18.1419448738186802 16.4195602357634769   F   F   F
  9.8627559248118093  1.4614316379361314 16.4207948134630257   F   F   F
  9.8686516617446625  7.1319704047637176 16.5808452061520413   F   F   F
  5.9963476452264723 18.1345086994070321 16.5198960647394593   F   F   F
 13.7695056728155283 12.4920197328058542 16.4694654329232719   F   F   F
 17.7005372822197096  6.9205786161924800 16.3925502092629749   F   F   F
 13.8667835466805940 18.1712716271283874 16.5097405738470862   F   F   F
 13.7985672223411644  1.3770401178010423 16.3640670997734290   F   F   F
  5.9796897432349274 12.4750270640516341 16.3166340185785081   F   F   F
  1.9477023838252205  1.4113165645465682 16.4256043810185233   F   F   F
  5.8995068384066816 15.2458124874344847 16.5589178280079281   F   F   F
 17.7372992222281916 20.8375998922514007 16.4303626902992335   F   F   F
 21.6346107654600566 15.3782666254928131 16.3584520160965852   F   F   F
 21.7308252426291233  4.2162968122638773 16.3530558212733865   F   F   F
 21.6791245076944357  9.7679463607117007 16.3713608091637859   F   F   F
 13.7156302045432525 15.3088782994881818 16.4204529604771245   F   F   F
  5.9546551156747380 20.9174422735192778 16.3574320739111485   F   F   F
 11.7781475911627815 11.2586962444135157 18.2643582074377662   F   F   F
 21.7149096736868650 12.5816212643739576 16.4048089387028533   F   F   F
  9.9387576804276492 12.6079367819540025 16.6615358232897037   F   F   F
 21.6724394659222739 18.1397606673528244 16.4046207383204639   F   F   F
  1.9795099972268615 20.9533389145122406 16.3729643137684739   F   F   F
  2.0532636965356375  6.9990923747551008 16.4120935085567865   F   F   F
 19.7060697042839514  0.0357616386862250 17.7672877467041737   F   F   F
 21.6820012094645058  4.1653780000144831 13.5894635823374461   F   F   F
 21.6797128880380541 20.9480301137047711 16.3853689932117383   F   F   F
  5.9021300136579908  6.9969313231823218 16.3755513368585142   F   F   F
 13.8213908495401530 20.9241496944229404 16.3849994691276599   F   F   F
 17.7151610940846851 20.9117570287760124 19.2011792075963328   F   F   F
 13.7948281312203989  9.8067788434954455 13.6921397947048202   F   F   F
 11.8315490131460912  2.8046255283506398 14.9908118851544963   F   F   F
 11.8320911952201566  5.6597802379575546 17.7504537190875631   F   F   F
  1.9682939572624740  4.2178807138668475 16.3643620327562935   F   F   F
  1.9725650740000149  6.9740706679999214 10.8156001569999933   F   F   F
 23.6658249783287324 11.1573017147795568 17.8205627486008709   F   F   F
 13.7594060256702342  4.1236984244992652 16.5128412553435453   F   F   F
 23.6667344151416295 16.8074781293924751 17.7715139857695021   F   F   F
  7.9066642645952010 22.3142036284681993 17.7593312473098059   F   F   F
 23.6706906646850719 22.2972461752344877 17.7956745799449649   F   F   F
  0.0228668169751998  5.6135435738252255 17.7667621281267678   F   F   F
  7.8909118912739089 11.0653776012881195 17.7287152035066420   F   F   F
  7.9454303130562280 16.5359550809498863 17.7103662435920093   F   F   F
 15.7376776186021097  5.4806903388995636 17.7254911453989941   F   F   F
 15.7658633868318638  0.0119589694451477 17.7571210023666097   F   F   F
  9.8628677319406268  4.2787792425647906 16.3926899302145905   F   F   F
 15.7597414161483123 16.5509243637068266 17.7049517076007277   F   F   F
 10.0552377069313117  6.7899538576981122 19.6889900671043350   F   F   F
  3.9649693589595136 22.2799359156671350 17.7673337937839655   F   F   F
  4.0448580174107844 16.7448883290439703 17.8435295311574649   F   F   F
  5.8792729956177077  9.7221331599509728 16.4771174880336204   F   F   F
  3.9233906822908655 11.2191589974067050 17.6232913161936828   F   F   F
  7.9342973795420537  5.6822638953369342 17.7703349514322149   F   F   F
 11.8279979636909705 -0.0003189422925987 17.7306176878639832   F   F   F
 19.7110098873983688 19.5110644307057477 14.9580409592717487   F   F   F
 10.0161086029415554  9.9046184521219338 16.3675412059285783   F   F   F
 17.8111004587415671  9.6869958809216286 16.4798159445631178   F   F   F
 17.7966630604365577 15.1751027529832552 16.6022589572095178   F   F   F
 17.7047171956474756 18.0266862830006573 16.3610432049865899   F   F   F
  9.8890471537254356  1.4532374829288437 19.1995779232733952   F   F   F
  5.9200781670153981  7.0677510229273866 19.2280274742579174   F   F   F
 15.7897986063021030 11.0163178856086272 17.7438909322525937   F   F   F
 13.9919738974167789 18.0761024788465789 19.3818082097396527   F   F   F
  3.9888963442105241  5.5508622000805063 17.7971899021749849   F   F   F
 21.6859947725359206 12.5500639386873285 13.6164845077194805   F   F   F
 17.8287107870403112 12.6932882694393889 19.0664503829039376   F   F   F
 21.6404248223328750 18.1485184668752666 19.2478843323005862   F   F   F
 21.6870863462065770  1.3902672716760676 19.2493491005106385   F   F   F
 17.5442448167859801 18.0738554387560768 19.1991065458361518   F   F   F
 17.7174487427711860  1.5123808878811649 19.1461439751143843   F   F   F
  1.9984613141149943  6.9559567118147951 19.2315692069424458   F   F   F
  2.0580076078877432 12.5579937765401439 19.2072111747015128   F   F   F
  1.9963969689431482  1.3507236704280272 19.2638805760506813   F   F   F
  2.0572906028389348  9.7414923352877292 19.1870445909995269   F   F   F
  1.9750431222231049  4.1469226414747231 19.2291424493844580   F   F   F
  9.8455166151455007  9.3380930917104656 18.9027530897012745   F   F   F
 15.7759748311065771 19.5113556993632180 14.9629975884849742   F   F   F
 19.7117198729875263  5.5305351249091226 17.6672596415250567   F   F   F
 19.6571756414736072 16.7597875943177215 17.7823582826622655   F   F   F
  2.0007859594625250 20.8803344009732612 19.2211917388729603   F   F   F
 19.7207360315904801 11.2144702985333922 17.6694857356676920   F   F   F
  9.8860856812659694  4.1693406106593640 19.1718958746778156   F   F   F
  1.9729490406481043 15.3326514852929403 19.1686973218704289   F   F   F
  5.9663497169079163 20.7605818892939631 19.1207719631260851   F   F   F
 13.7274437905576967  4.2570382245408362 19.3670212995492577   F   F   F
  1.9994638096152519 18.1272443829025818 19.2674519364927122   F   F   F
  5.6950430532237348  9.8718814001755373 19.2575603846624759   F   F   F
 21.6525120964268325 20.9069652873449989 19.2297541827021767   F   F   F
 21.6890126106820844 15.3437951797275485 19.1706388274621027   F   F   F
 21.6013109350387431  9.7333132683881072 19.1943389578162318   F   F   F
  6.0087267897789651  4.1686985292842236 19.2366495423566377   F   F   F
  6.0255833816365865 15.1296744830796701 19.8835536581561563   F   F   F
 13.7788547462310760 20.8794816300087724 19.1779482288789573   F   F   F
 17.7688838727351595  4.3501609218318800 19.3920014293624270   F   F   F
 21.6982156369999721 18.1325837370000720 10.8156001569999933   F   F   F
  9.7622848868292653 18.1407670154786729 19.1817058803805907   F   F   F
 17.7489039771597170  6.9374947452368954 19.1577040408104438   F   F   F
  1.9610091518112338  9.7977800990024537 16.3452353737745639   F   F   F
 11.8314763695321812  8.3453229340792543 15.0024644192554959   F   F   F
 21.6144043687682874 12.5476153723772690 19.2335625573340749   F   F   F
 13.7881937885488153  1.4760144136172559 19.1658060883776855   F   F   F
 13.9318986524023902  7.1366156663577893 19.0147381389595154   F   F   F
  5.8635086634854057 12.8043463700763542 18.8636723957195720   F   F   F
 17.8431639135471549 15.4511547775325546 19.7114179549941753   F   F   F
  6.2079646776700050 17.8460207366481640 19.3843784567888768   F   F   F
  5.9400607694558287  1.3272448233279803 19.2688643826178989   F   F   F
 21.6982156369999721 12.5533272030000536 10.8156001569999933   F   F   F
  9.8821872521979603 20.8642221487450996 19.1929170015800210   F   F   F
 11.8353859881402297 19.4922891232417506 15.0262338024947120   F   F   F
  9.9645372389459315 15.0899556829704302 19.0079949113030153   F   F   F
 19.7028449231479570 13.9052496700557047 15.0006510522241516   F   F   F
 19.7112714293735856  8.3315738390914138 14.9843153843633878   F   F   F
 21.6215751894948731  6.9613926337809575 19.1810566680641585   F   F   F
  3.9484174850731577  8.3975113965135630 14.9313080525221462   F   F   F
 13.7356191872153222  9.7649272396998157 19.3798518363144652   F   F   F
 13.7199637955766001 15.2889519316102387 19.1787542178837818   F   F   F
 21.7060439191956149  4.1730830614807681 19.1957341556465657   F   F   F
  9.8453335963266611 20.9131635204952460 16.3818620371920041   F   F   F
  3.9540573218080706  2.7808843792510172 14.9864467429402524   F   F   F
 17.7247247476397156  1.3108871895149210 16.3084888164653385   F   F   F
  3.9708901992926138 19.4888613479619828 14.9963981820879173   F   F   F
 11.8611417119873934 16.8777540603627720 17.7903255527238535   F   F   F
 11.8438415431695212 13.8556887854932658 15.0030782799013611   F   F   F
 17.8674679607192566  9.6973131066762992 19.1553038334241066   F   F   F
  5.9672041637330420  4.2007249475040886 16.4176156106630060   F   F   F
 17.7192155010233350  4.0686397476097227 16.5260631559138389   F   F   F
  1.9441109094644995 12.5956674058534954 16.3867214196640774   F   F   F
  9.4091789555194776 12.2865480866475618 19.5534926411583889   F   F   F
  3.9717636688538422 13.9331214216902648 15.0007188318852460   F   F   F
 19.7218674303655170  2.7833682849031578 14.9940011889624323   F   F   F
  2.0392324277902274 15.3853341747148189 16.3572365031621842   F   F   F
 14.0028319283320393 12.5946039513856594 19.1752492821795393   F   F   F
  0.0000000000000000  0.0000000000000000 12.2103998060000407   F   F   F
 13.8064490925322580  1.4208510006611046 13.6149498356157519   F   F   F
 21.6982156369999721 15.3429554700000619 10.8156001569999933   F   F   F
 21.6982156369999721  9.7636982699999884 10.8156001569999933   F   F   F
 21.6982156369999721  4.1844424010000720 10.8156001569999933   F   F   F
 13.8079546360000549 20.9222120050000342 10.8156001569999933   F   F   F
 13.8079546360000549 15.3429554700000619 10.8156001569999933   F   F   F
 13.8079546360000549  9.7636982699999884 10.8156001569999933   F   F   F
 13.8079546360000549  4.1844424010000720 10.8156001569999933   F   F   F
  5.9176950450000287 20.9222120050000342 10.8156001569999933   F   F   F
 21.6982156369999721 20.9222120050000342 10.8156001569999933   F   F   F
 21.7227510457311261  1.4130220997029070 16.4251861809201465   F   F   F
  5.9176950450000287 15.3429554700000619 10.8156001569999933   F   F   F
 17.7530837259999217 20.9222120050000342 10.8156001569999933   F   F   F
 17.3391295549206106  4.8710642738622703 22.5588719259623574   T   T   T
 13.8360608314587434 12.5599890638090788 13.6441245102852236   F   F   F
 17.7530837259999217 15.3429554700000619 10.8156001569999933   F   F   F
  9.8628241350000643 20.9222120050000342 10.8156001569999933   F   F   F
  9.8628241350000643 15.3429554700000619 10.8156001569999933   F   F   F
  9.8628241350000643  9.7636982699999884 10.8156001569999933   F   F   F
  5.9176950450000287  9.7636982699999884 10.8156001569999933   F   F   F
  1.9725650740000149  1.3948141340000613 10.8156001569999933   F   F   F
 21.6669080670930789 15.3254994257883297 13.5930115253172605   F   F   F
 15.7566692451839145  8.4508504450770374 15.0890931096243506   F   F   F
  7.9192648795456018  8.4390761088975221 15.0941551091464294   F   F   F
  7.9456596008219442 13.9671251428501222 15.1122529932457912   F   F   F
  5.9191196829411021  4.2082528219685731 13.6278362781266491   F   F   F
  5.9176950450000287  4.1844424010000720 10.8156001569999933   F   F   F
  5.9293507427151724  1.3859895313968629 13.6280921167334910   F   F   F
 17.7405466864466774 20.9434145555895199 13.6605426262191845   F   F   F
 17.7530837259999217  9.7636982699999884 10.8156001569999933   F   F   F
 17.7530837259999217  4.1844424010000720 10.8156001569999933   F   F   F
 13.8079546360000549  1.3948141340000613 10.8156001569999933   F   F   F
 17.7312808330460427 15.3683424816577663 13.7216997086667849   F   F   F
 17.7451295525107327  9.7855809481929175 13.6714608660819685   F   F   F
 21.6839375189283423  9.7559555032565672 13.6069298759606063   F   F   F
 17.7717502279405402  4.2439426907726130 13.6740488933688855   F   F   F
  9.8751600722788382 20.8908477733330074 13.6209134698906489   F   F   F
  9.8742501515931753 15.2851333502667313 13.6440512039766553   F   F   F
  9.8666093227011835  9.7148662779519714 13.6154533513090072   F   F   F
  2.0014586110513704 15.3277324752735531 13.5894464553525687   F   F   F
  1.9907784496388201 20.9055307006126085 13.6070349619692941   F   F   F
  1.9621394154236842  9.7486679036103414 13.5853685942719196   F   F   F
  1.9880914375116987  4.1653201019060981 13.5896363434736021   F   F   F
 21.6958274168287346 18.1222147712289434 13.6216445095297640   F   F   F
 21.6842390250984209  1.3848079829383564 13.6207547473492738   F   F   F
 17.7402282126019628 18.1470413617131960 13.5898993759617088   F   F   F
 21.6882289255983984  6.9692314485545941 13.6102205099241029   F   F   F
  5.9698795991717093 15.3429802641051651 13.6814217161659766   F   F   F
 17.6691364255917591 12.4432867683336070 16.3384700595676229   F   F   F
 21.6932505096475943 20.9080495867931653 13.6038089922281102   F   F   F
  0.0053000734966878  2.7857304834046759 14.9351550911659352   F   F   F
 13.8049839898771722 18.0856001715424561 13.6601245722945954   F   F   F
  0.0055576435322951  8.3405762807998176 14.9420930981531423   F   F   F
 23.6678886834465700 13.9952575736194387 14.9311419843818936   F   F   F
  7.9030671929462448  2.8047746153439017 14.9626837650619571   F   F   F
  0.0025236126603786 19.5279419012375861 14.9821818740399486   F   F   F
  7.8936321249916395 19.5054379346633873 14.9777250383571658   F   F   F
 15.7690243084848500  2.8170943994174529 14.9653304140108414   F   F   F
  5.9484083959044174  9.8055740174796906 13.6504717415153802   F   F   F
  1.9725650740000149 12.5533272030000536 10.8156001569999933   F   F   F
 21.6982156369999721  1.3948141340000613 10.8156001569999933   F   F   F
  9.8775664545971207  4.1755659327555987 13.6065674008857140   F   F   F
 21.6875322517364246  6.9797104824884482 16.3838968048272520   F   F   F
 10.0199549043814233 15.3501448151966446 16.4005636467583642   F   F   F
 13.7942726509695142  4.2474529427140979 13.6681783983412757   F   F   F
  5.9451600913162324  1.3963122332152680 16.4187588751095248   F   F   F
 13.8231005490001788  6.9225764563234398 16.3505002143363001   F   F   F
  5.9176950450000287 18.1325837370000720 10.8156001569999933   F   F   F
  1.9725650740000149  4.1844424010000720 10.8156001569999933   F   F   F
  0.0000000000000000  5.5792565349999723 12.2103998060000407   F   F   F
  0.0000000000000000 11.1585130689999925 12.2103998060000407   F   F   F
 17.7103085621290788 12.5932297953720251 13.6127707004943748   F   F   F
  7.8902602960000570  0.0000000000000000 12.2103998060000407   F   F   F
  7.8902602960000570 11.1585130689999925 12.2103998060000407   F   F   F
  7.8902602960000570 16.7377696039999648 12.2103998060000407   F   F   F
 13.7947312508345945 15.3115479292870749 13.6387434998783164   F   F   F
 15.7805205919999434  0.0000000000000000 12.2103998060000407   F   F   F
 15.7805205919999434 11.1585130689999925 12.2103998060000407   F   F   F
 19.7256482699999580  5.5792565349999723 12.2103998060000407   F   F   F
  3.9451301480000271  0.0000000000000000 12.2103998060000407   F   F   F
  3.9451301480000271 11.1585130689999925 12.2103998060000407   F   F   F
  3.9451301480000271 16.7377696039999648 12.2103998060000407   F   F   F
 11.8353900909999528 11.1585130689999925 12.2103998060000407   F   F   F
 11.8353900909999528  5.5792565349999723 12.2103998060000407   F   F   F
 21.6982156369999721  6.9740706679999214 10.8156001569999933   F   F   F
  7.8902602960000570  5.5792565349999723 12.2103998060000407   F   F   F
 17.6993728833160375  7.0195065040512743 13.6207902693154637   F   F   F
  0.0000000000000000 16.7377696039999648 12.2103998060000407   F   F   F
  9.8682176126687740 18.0855150575287738 13.6483875325088153   F   F   F
 13.8325078466646136  7.0401169910347763 13.6075365219343549   F   F   F
 13.7931120302277108 20.9148706710693482 13.6294139546293351   F   F   F
 15.7805205919999434  5.5792565349999723 12.2103998060000407   F   F   F
  5.9720922843721764  7.0119980746664714 13.6225867741024107   F   F   F
  3.9451301480000271  5.5792565349999723 12.2103998060000407   F   F   F
  5.9295674739583770 18.0941683131401554 13.6596619533789685   F   F   F
 13.8079546360000549 12.5533272030000536 10.8156001569999933   F   F   F
  5.9190100359009152 20.8911807277538983 13.6209433684694634   F   F   F
 19.7256482699999580  0.0000000000000000 12.2103998060000407   F   F   F
 11.8353900909999528 16.7377696039999648 12.2103998060000407   F   F   F
 15.7805205919999434 16.7377696039999648 12.2103998060000407   F   F   F
 11.8353900909999528  0.0000000000000000 12.2103998060000407   F   F   F
 15.7513266308320308 13.9712838578508460 15.0882174145012087   F   F   F
  5.9176950450000287  1.3948141340000613 10.8156001569999933   F   F   F
  5.9176950450000287 12.5533272030000536 10.8156001569999933   F   F   F
  5.9176950450000287  6.9740706679999214 10.8156001569999933   F   F   F
 17.7530837259999217 12.5533272030000536 10.8156001569999933   F   F   F
 17.7530837259999217  6.9740706679999214 10.8156001569999933   F   F   F
 17.7530837259999217  1.3948141340000613 10.8156001569999933   F   F   F
  9.8628241350000643 18.1325837370000720 10.8156001569999933   F   F   F
  9.8628241350000643  6.9740706679999214 10.8156001569999933   F   F   F
 17.7530837259999217 18.1325837370000720 10.8156001569999933   F   F   F
  9.8628241350000643  1.3948141340000613 10.8156001569999933   F   F   F
  9.8733686460557628  1.3759996767029856 13.6610380020230835   F   F   F
  1.9772893883866181 18.1228867610031692 13.6254713275327859   F   F   F
  9.8628241350000643 12.5533272030000536 10.8156001569999933   F   F   F
 13.8079546360000549  6.9740706679999214 10.8156001569999933   F   F   F
 13.8079546360000549 18.1325837370000720 10.8156001569999933   F   F   F
  1.9780628870442072  6.9612507624244317 13.6202065674645691   F   F   F
 19.7256482699999580 16.7377696039999648 12.2103998060000407   F   F   F
  9.8131849435173422 18.1132066424562872 16.4319379498444675   F   F   F
 19.7256482699999580 11.1585130689999925 12.2103998060000407   F   F   F
 17.7486328819217860  1.4446861823658825 13.5817025800395665   F   F   F
  9.8628241350000643  4.1844424010000720 10.8156001569999933   F   F   F
  1.9725650740000149 20.9222120050000342 10.8156001569999933   F   F   F
  1.9725650740000149 18.1325837370000720 10.8156001569999933   F   F   F
  1.9725650740000149  9.7636982699999884 10.8156001569999933   F   F   F
  5.9622513945417532 12.6001332214617445 13.6117752605096598   F   F   F
  9.8378506329325752  6.9467876094183918 13.7218580470053801   F   F   F
  1.9872098636580464  1.3829301022590739 13.6224119087993092   F   F   F
  9.8493207405547594 12.4859370821538036 13.7355633091617602   F   F   F
  1.9873293222627300 12.5528124501213583 13.6164511810796398   F   F   F
  1.9725650740000149 15.3429554700000619 10.8156001569999933   F   F   F
 19.7885031389495474 16.7748686185045521 15.0775583458266009   F   F   F
  3.9451301480000271 19.5273965409999306 12.2103998060000407   F   F   F
  0.0000000000000000  2.7896282670000101 12.2103998060000407   F   F   F
 19.7934215357972150  5.5500054334854605 15.0639267543376807   F   F   F
 23.6639454791529218 13.9011690333453597 18.8285808127090277   F   F   F
 19.7256482699999580  8.3688848019999824 12.2103998060000407   F   F   F
 19.8146326617838184  8.3298067205101329 18.0931592724233496   F   F   F
 11.8353900909999528 13.9481413360000008 12.2103998060000407   F   F   F
  3.8773429741305709 11.1555893893901299 15.0620140861328409   F   F   F
 23.6565296589331986 19.5238896313565178 18.6786827077368116   F   F   F
  7.8472097648099925  2.6711448815410326 18.3736830760812602   F   F   F
 19.8730806615087623 13.9926305556043982 18.1092246713282030   F   F   F
 11.8353900909999528  8.3688848019999824 12.2103998060000407   F   F   F
 11.8353900909999528  2.7896282670000101 12.2103998060000407   F   F   F
 19.6947584608994610 19.5525559270929854 18.5673598781726135   F   F   F
 19.7256482699999580  2.7896282670000101 12.2103998060000407   F   F   F
 15.7725871578111985 13.9759048623647253 17.8086532082712594   F   F   F
 11.8353900909999528 19.5273965409999306 12.2103998060000407   F   F   F
 11.9109564232505551  8.2766352912472136 17.8777248031742246   F   F   F
 11.9248094077821207 13.9420535450698182 17.8218534125422075   F   F   F
 19.7581534021344076  2.7791199347475306 18.5369831054688810   F   F   F
 23.6690614070561480  8.3544118082918928 18.7511696822938738   F   F   F
 15.7516769074777692 19.6628573853398798 18.2178062897863562   F   F   F
  3.9451301480000271 13.9481413360000008 12.2103998060000407   F   F   F
  3.8734962356351241  8.2912548016726948 18.2350371986747319   F   F   F
  3.7799509713994004 13.9979919908468151 18.0396977531537779   F   F   F
 15.9218093869180102  8.3053085926908103 17.8277374017508912   F   F   F
  3.9401468414219809 19.4916234020579608 18.5438329644536744   F   F   F
  7.9192652209621244 19.6106598617336303 18.0855064215075707   F   F   F
 15.7805205919999434 19.5273965409999306 12.2103998060000407   F   F   F
  3.9727905915288528  2.7476419870900379 18.6700428173234414   F   F   F
  7.9150876060458932 13.9332854917952513 17.8554429349050316   F   F   F
 15.7612682990684121  2.7933871092560407 18.3805956772955206   F   F   F
 11.8438007035004631  2.7175362468838937 18.1714487264696061   F   F   F
  7.7317914172082096  8.3343061720109368 17.7854335082731296   F   F   F
  3.9451301480000271  2.7896282670000101 12.2103998060000407   F   F   F
 19.7899285748765372 11.1597133005579501 15.0862477870591416   F   F   F
  3.8935641312675968 16.7716796339397156 15.0997484199780274   F   F   F
 11.8693957140881388 11.1493454908590532 15.0133751113259635   F   F   F
  7.8178536903216704  5.5360951191304775 15.0808298712973095   F   F   F
 15.7805205919999434  8.3688848019999824 12.2103998060000407   F   F   F
  7.8443442560944696 11.1381770745849771 15.0318347199319682   F   F   F
  0.0173389127568625  2.7370258463880810 18.6017368458808718   F   F   F
  3.9451301480000271  8.3688848019999824 12.2103998060000407   F   F   F
  7.8863135893866358  0.0246302197006924 15.1724090335728370   F   F   F
 15.7658450202886886 22.3148795754813349 15.1646579292792687   F   F   F
  3.9307517899352775  0.0272700385219938 15.1964580018040447   F   F   F
 15.7497640677347199 16.7784240634640689 15.0651995982986513   F   F   F
 15.7937084422877110  5.5274953724265705 15.0783451068689960   F   F   F
 19.7256482699999580 13.9481413360000008 12.2103998060000407   F   F   F
  0.0000000000000000  8.3688848019999824 12.2103998060000407   F   F   F
  7.9057527069444697 16.7624900098757124 15.0456159442101516   F   F   F
 11.8708620321155767  5.5366705795598019 15.0690469689145008   F   F   F
  0.0022378183257446 22.3161443210433958 15.1995927744854793   F   F   F
 11.8614422144111042 16.7999734265184308 15.1194507063351207   F   F   F
  7.8902602960000570  8.3688848019999824 12.2103998060000407   F   F   F
 15.8256576363544461 11.1512835818230602 15.0234375335251844   F   F   F
  0.0000000000000000 19.5273965409999306 12.2103998060000407   F   F   F
 11.8423664785363130 22.2992048535753611 15.1636152296249946   F   F   F
 11.8524442799106922 19.5663008928479307 18.2870765275819309   F   F   F
  3.9381334668581425  5.5384430202835802 15.1895768231497801   F   F   F
  7.8902602960000570 19.5273965409999306 12.2103998060000407   F   F   F
 19.7530313202854373  0.0020606004687124 15.1916400418985997   F   F   F
  0.0000000000000000 13.9481413360000008 12.2103998060000407   F   F   F
  7.8902602960000570  2.7896282670000101 12.2103998060000407   F   F   F
  7.8902602960000570 13.9481413360000008 12.2103998060000407   F   F   F
 19.7256482699999580 19.5273965409999306 12.2103998060000407   F   F   F
 15.7805205919999434 13.9481413360000008 12.2103998060000407   F   F   F
  0.0259128022088492  5.5809149844657826 15.1779600547913169   F   F   F
 -0.0005339178877053 16.7591191901154524 15.1974725354387896   F   F   F
 23.6660490026950789 11.1683753384227007 15.2038795006438150   F   F   F
 15.7805205919999434  2.7896282670000101 12.2103998060000407   F   F   F
 17.7956318281058650 16.7944322768957619 17.7143503681906758   F   F   F
  1.9725650740000149  5.5792565349999723 12.2103998060000407   F   F   F
 21.7295190494027253 16.7813646521855127 18.0972658366567707   F   F   F
  1.9725650740000149 11.1585130689999925 12.2103998060000407   F   F   F
  9.8628241350000643 11.1585130689999925 12.2103998060000407   F   F   F
  5.9176950450000287  5.5792565349999723 12.2103998060000407   F   F   F
 13.8200098047287856 19.5431295550056277 15.1733299696870674   F   F   F
 21.7534854964571664  8.3637952449506248 15.1715148268869395   F   F   F
  1.9725650740000149  0.0000000000000000 12.2103998060000407   F   F   F
 21.6982156369999721 11.1585130689999925 12.2103998060000407   F   F   F
 21.6982156369999721 16.7377696039999648 12.2103998060000407   F   F   F
 13.8167721512374690  2.7521043902726929 15.1412824796590080   F   F   F
 17.8074387947434083 13.9362247654908913 15.0751190553750476   F   F   F
  1.9725650740000149 16.7377696039999648 12.2103998060000407   F   F   F
 21.7360366886188601 11.1577227375663721 18.1103067669536557   F   F   F
  5.9176950450000287  0.0000000000000000 12.2103998060000407   F   F   F
  9.8611344766130902 19.5669142788508665 15.1172644565433778   F   F   F
  9.8628241350000643  0.0000000000000000 12.2103998060000407   F   F   F
 21.6982156369999721  0.0000000000000000 12.2103998060000407   F   F   F