Au  C  H  O Sr Ti                       
   1.00000000000000     
    23.6707801818999997    0.0000000000000000    0.0000000000000000
     0.0000000000000000   27.8962826732999716    0.0000000000000000
     0.0000000000000000    0.0000000000000000   30.0000000000000000
   Au   C    H    O    Sr   Ti
    50     4     9   330    90    90
Selective dynamics
Direct
  0.7175138902399175  0.6198777844749156  0.7532126533634069   T   T   T
  0.7051347102898495  0.8053644471122090  0.6887221019279717   T   T   T
  0.6560646100914521  0.5531519661238991  0.8124612352316926   T   T   T
  0.3680018924917718  0.6951347336905894  0.8201214205039876   T   T   T
  0.5698715124326035  0.6088824122371358  0.8572544647883059   T   T   T
  0.6694692742903749  0.3555580141263399  0.7547187697527608   T   T   T
  0.4709049165260491  0.5616998908321283  0.8798652996286511   T   T   T
  0.5182197641307129  0.5013259189145739  0.7336214147255669   T   T   T
  0.2824817895664831  0.4715880881754730  0.7027383976830444   T   T   T
  0.6692124039313201  0.7447042387013165  0.7496381745641904   T   T   T
  0.3977077880448683  0.5058616029749535  0.6909830248743555   T   T   T
  0.6168654632564630  0.4548124289169156  0.6966399244053449   T   T   T
  0.3756164248539340  0.5945608446024369  0.8334648568933014   T   T   T
  0.3257713448837736  0.5321006356145651  0.7701241173592150   T   T   T
  0.4850325798736927  0.4157858444874238  0.7761064600511306   T   T   T
  0.4242832486122549  0.7584318425570364  0.6998451610501971   T   T   T
  0.7008737502957767  0.4741557339515202  0.7577916939694069   T   T   T
  0.7739010438679589  0.5424403649832913  0.7949379516011206   T   T   T
  0.2564048465233376  0.6745730110092273  0.6950148360317568   T   T   T
  0.6472202343671069  0.5542971758538576  0.6955706523883123   T   T   T
  0.5654055976889094  0.7124720475361582  0.8612978530646687   T   T   T
  0.5446069601039266  0.7322388338182547  0.7014316755616300   T   T   T
  0.3728999766699435  0.7908270600292205  0.7780784578092652   T   T   T
  0.4628724012896663  0.6594748899576067  0.8638138191062167   T   T   T
  0.4531707452064242  0.6638921959282031  0.7036104647219422   T   T   T
  0.4435884147750337  0.5786551685876280  0.7566480826450768   T   T   T
  0.2893772695430027  0.6302715425023466  0.7781485219057486   T   T   T
  0.5540209368660868  0.3698720976966431  0.7114046803122019   T   T   T
  0.6235437026846932  0.6545985896529528  0.7042065064993788   T   T   T
  0.7223592974978587  0.4045216386879590  0.6922624658169397   T   T   T
  0.2915565612705164  0.7977699587644350  0.6980444566395738   T   T   T
  0.5135713630645257  0.6840608854396073  0.7772254664280890   T   T   T
  0.5772370530116578  0.7809625804537644  0.7933687885820945   T   T   T
  0.5491485068902298  0.5089143648875593  0.8298455509601319   T   T   T
  0.2409655100199257  0.5754212687816361  0.7098361167039684   T   T   T
  0.2827636129993319  0.7299025461782549  0.7656296940383641   T   T   T
  0.5140403489784082  0.5868349804640254  0.6784244643789883   T   T   T
  0.5624105219318564  0.5889897170460323  0.7629440185049784   T   T   T
  0.6001365350959501  0.4319524583095055  0.7856863961728092   T   T   T
  0.7627558014769266  0.5434892724251361  0.7048934954517775   T   T   T
  0.3911355047174566  0.8533989697463920  0.7063791437973703   T   T   T
  0.4379891872413228  0.3821371648833582  0.6985545474684324   T   T   T
  0.4629971360091829  0.7566437889393751  0.8304906820463361   T   T   T
  0.4296597637353196  0.4976018247004126  0.8165063973347869   T   T   T
  0.3493243402493234  0.6003504045236694  0.6980328882704291   T   T   T
  0.3701636251455388  0.4396186254997205  0.7563847311434576   T   T   T
  0.5942325422798352  0.8279034716685293  0.7128087159157898   T   T   T
  0.6355676230199659  0.6662562356137850  0.8003118904923950   T   T   T
  0.7330623609048513  0.6923332888133713  0.6943617872088292   T   T   T
  0.4840827622204276  0.8239181833031513  0.7577118708004532   T   T   T
  0.7173295660250374  0.2912661584272511  0.7557145026260067   T   T   T
  0.6464454079416772  0.2518425930814153  0.8096273651002033   T   T   T
  0.6100494673471765  0.2074930954321578  0.8183990163099824   T   T   T
  0.6787671231141311  0.2492771642899140  0.7653239983845876   T   T   T
  0.7480354635388272  0.2986216182909774  0.7820925208800433   T   T   T
  0.7067195335465413  0.2175482176892640  0.7658392325243597   T   T   T
  0.6765008767792930  0.2567211604999624  0.8370554510776084   T   T   T
  0.6191275221759495  0.2837863768937063  0.8095968934750181   T   T   T
  0.6496049313206367  0.2432187115145613  0.7375295818907802   T   T   T
  0.5790378039240744  0.2024022407145382  0.7918238151130056   T   T   T
  0.6359141413792657  0.1750597939442262  0.8201916851842587   T   T   T
  0.5874835167884193  0.2107161735069467  0.8500323177176661   T   T   T
  0.7374861322995605  0.2895832232466021  0.7230901917678721   T   T   T
  0.5012495466019468  0.8039247621920055  0.5930769137448744   T   T   T
  0.8329849672661478  0.6024535908896665  0.5899257199907215   T   T   T
  0.8315389583641331  0.3974474624097141  0.5911494880295564   T   T   T
  0.8301593425390776  0.8001142315339360  0.5930528107284333   T   T   T
  0.5813781526118992  0.9478901903099493  0.6380427703545727   T   T   T
  0.8326491150679215  0.2021797267979682  0.5921787779767346   T   T   T
  0.9163521528597200  0.3491742132463208  0.6404802005970689   T   T   T
  0.5807573127036522  0.7473558164561284  0.6387589841722723   T   T   T
  0.5804986679680990  0.5500599067493100  0.6460602390309965   T   T   T
  0.1678116765140143  0.6997850748382510  0.5001762836351250   T   T   T
  0.4178390155593845  0.2524765928412733  0.6389623041466059   T   T   T
  0.7404013647469335  0.8473484644654052  0.6404870652125479   T   T   T
  0.4126614425893568  0.8500736835107955  0.6396657243447947   T   T   T
  0.5837682363641740  0.0506144044321413  0.6419052105939456   T   T   T
  0.7465378483591287  0.4480676930886903  0.6421161423733523   T   T   T
  0.1665347844702924  0.5007895285749040  0.4977734596669918   T   T   T
  0.0868327807794870  0.5497126162314274  0.6398438739221123   T   T   T
  0.0841309489274285  0.2486371201793848  0.6419681000339946   T   T   T
  0.0860544314841152  0.6498842272239169  0.6417606688218707   T   T   T
  0.6663481859144064  0.8988136702505976  0.4990226922595419   T   T   T
  0.0843924558765485  0.4498956502970795  0.6403460211721330   T   T   T
  0.7478101664521097  0.2539928445985257  0.6388081164078446   T   T   T
  0.7521079807422990  0.6556738145101001  0.6353712426791046   T   T   T
  0.4270638391391013  0.4438995538307215  0.6570864520852504   T   T   T
  0.8324209882623210  0.3003228016508739  0.5000833742701032   T   T   T
  0.7475004024930005  0.9471690173658471  0.6393719308747214   T   T   T
  0.8324944816270349  0.8996919822710171  0.4996755146396977   T   T   T
  0.4984604320659021  0.4027143804933324  0.5913736442997404   T   T   T
  0.4974318774135491  0.6032849797420017  0.6093353415971953   T   T   T
  0.2516872872170167  0.9498654906480336  0.5450485546122661   T   T   T
  0.5794646730699117  0.7487886181377277  0.5469541479295433   T   T   T
  0.5762822920409250  0.5480423299557907  0.5521020818771424   T   T   T
  0.9152188749965973  0.5493474886941654  0.5463352846457470   T   T   T
  0.9170732740748360  0.3510450665894327  0.5456638896640528   T   T   T
  0.5839085767319168  0.9506661975893850  0.5456251628527130   T   T   T
  0.9136483772379189  0.7508152439628065  0.5460025137043584   T   T   T
  0.9164195155773162  0.9504225115665916  0.5462960227634016   T   T   T
  0.0827776014236111  0.2500417449551458  0.5473340979856433   T   T   T
  0.0859983383472696  0.4503502087132336  0.5467011941851034   T   T   T
  0.0825015899674362  0.6508719475510967  0.5461184058987066   T   T   T
  0.0855096733034691  0.8497369455680570  0.5474174702215554   T   T   T
  0.4164600401295188  0.2524751531912123  0.5472770814062459   T   T   T
  0.4200600784252612  0.6517519903753722  0.5560062326693568   T   T   T
  0.4156481528331210  0.4551619606164676  0.5525339043629357   T   T   T
  0.7484112842972841  0.4493431793741522  0.5490383457595223   T   T   T
  0.7486519454624539  0.2482967642269970  0.5449594566407111   T   T   T
  0.4152781638353146  0.8488981131876565  0.5485097067477095   T   T   T
  0.7468770924622959  0.6463456658959611  0.5448633846514970   T   T   T
  0.5000663131938875  0.2002395150676845  0.5916239072986194   T   T   T
  0.8326982539505227  0.4983889591683109  0.4995323910241622   T   T   T
  0.7534555615229885  0.7540874527226060  0.6576441423631365   T   T   T
  0.2537270993836487  0.3491718502115576  0.6408469046269972   T   T   T
  0.8322518395212253  0.6991262424175949  0.5000771782267596   T   T   T
  0.5001921288346168  0.6961747886657743  0.5002390150518768   T   T   T
  0.5001150651644841  0.8981620842000640  0.5010388245959138   T   T   T
  0.4994279709190675  0.4982309003669599  0.5001360289433350   T   T   T
  0.9166666865332829  0.6500000000127244  0.3605200052333331   F   F   F
  0.2509484855883685  0.2487544938207112  0.6412286389926770   T   T   T
  0.2486232318637060  0.4530185062590154  0.6418407937340388   T   T   T
  0.2617342863060812  0.8403500980402672  0.6466061595887300   T   T   T
  0.2475727462153436  0.6590304146232679  0.6292205053092124   T   T   T
  0.5917837251007242  0.6510987684613821  0.6396182881139798   T   T   T
  0.5846088054617397  0.4561153871789267  0.6339032247639985   T   T   T
  0.5829484485854187  0.2528000923437825  0.6388489809545652   T   T   T
  0.9143969830502848  0.8500205804710081  0.6415441643951230   T   T   T
  0.9145173210555553  0.4495606763040437  0.6390989296596024   T   T   T
  0.9135707023037135  0.6492583840321892  0.6422245564394058   T   T   T
  0.9159993073174985  0.2504148347229118  0.6414713708433909   T   T   T
  0.5893610244728589  0.8477685428463829  0.6459960285545209   T   T   T
  0.4212578343380960  0.7407499821995516  0.6341738425126537   T   T   T
  0.4173171245139296  0.9473754275986361  0.6390383954981668   T   T   T
  0.7543878631378027  0.5469131349580748  0.6383920191015375   T   T   T
  0.7461780160070145  0.3543113633467797  0.6464851165124367   T   T   T
  0.0839784360227536  0.3488894970948677  0.6417185174652653   T   T   T
  0.4180502599032183  0.3505161299294688  0.6403166301132397   T   T   T
  0.4166666269218169  0.1500000000001833  0.3605200052333331   F   F   F
  0.0845533594357229  0.9488201506552102  0.6405432503324592   T   T   T
  0.4172870995249206  0.0504265012373554  0.5475731732931822   T   T   T
  0.0837021082207903  0.0497203402698143  0.5465763938877520   T   T   T
  0.9162425188285812  0.1506630247623902  0.5463705038731794   T   T   T
  0.5829231531353127  0.1498969791817251  0.5475684579065160   T   T   T
  0.2502107165773227  0.1504352003745596  0.5462713246643730   T   T   T
  0.7500173415178576  0.1487668338030040  0.5478264565630327   T   T   T
  0.4165978615228939  0.1514026542512698  0.5460978598339210   T   T   T
  0.0835614373698098  0.1505069760307169  0.5463021714476790   T   T   T
  0.4999092527803930  0.1001944231443649  0.4988156323722214   T   T   T
  0.8332596999159934  0.1001154283536437  0.4987883646864574   T   T   T
  0.1667951778491867  0.0998697938134146  0.4987648607095543   T   T   T
  0.6663148699368033  0.0996764445583607  0.4990062892783964   T   T   T
  0.3335924938561532  0.0995000085442411  0.4989699825317278   T   T   T
  0.0000506399873792  0.1000261998109367  0.4991239854424670   T   T   T
  0.9166691655906662  0.1499348016222719  0.4537495625203023   T   T   T
  0.7504417277994353  0.0488124110085178  0.5461580661055785   T   T   T
  0.2500016420430389  0.0499083341424407  0.5469252784493254   T   T   T
  0.5824294891128406  0.0502392332821738  0.5474220008123961   T   T   T
  0.9162653081051387  0.0498525882199374  0.5465635784402604   T   T   T
  0.9157054863810696  0.0499724928590406  0.6402730197180649   T   T   T
  0.7503286107539927  0.1511004186984515  0.6415818607709829   T   T   T
  0.2509142295920029  0.1482831003215707  0.6410168904728817   T   T   T
  0.9157886257533908  0.1499046509106888  0.6403061223455578   T   T   T
  0.5832113442122062  0.1508321249543770  0.6427681043215494   T   T   T
  0.4167030693251223  0.1502008913523462  0.6416583602193265   T   T   T
  0.0830610596770680  0.1485018820773151  0.6404511073309637   T   T   T
  0.5833004869055072  0.1510739287230334  0.4546346965361966   T   T   T
  0.0830207401601272  0.0492430775298343  0.6406180460561601   T   T   T
  0.4175653529478164  0.0494500423627507  0.6428667905058949   T   T   T
  0.8326739576045574  0.9976259985958763  0.5921141052350707   T   T   T
  0.4997863941351154  0.0000666861108596  0.5916201247534099   T   T   T
  0.1673026067867406  0.9987334720949376  0.5921424255171277   T   T   T
  0.6660474913885263  0.0000633988131502  0.5918615771910462   T   T   T
  0.9998602384806470  0.9991012379266556  0.5922423770349536   T   T   T
  0.3339961893860415  0.0001535893537474  0.5919587504487027   T   T   T
  0.7501970970822379  0.0496289216882806  0.6406853006419697   T   T   T
  0.4153365113709953  0.5345651565682409  0.6304303571218227   T   T   T
  0.2501757134891894  0.1498176435210403  0.4536847845407685   T   T   T
  0.4166215195715680  0.1499944691569391  0.4537644002033200   T   T   T
  0.5833333134730552  0.1500000000001833  0.3605200052333331   F   F   F
  0.2499999999799343  0.1500000000001833  0.3605200052333331   F   F   F
  0.7499999404149307  0.1500000000001833  0.3605200052333331   F   F   F
  0.7479204003597908  0.8468971316264554  0.5463057584379393   T   T   T
  0.0833333358191695  0.1500000000001833  0.3605200052333331   F   F   F
  0.9166666865332829  0.8499999999890662  0.3605200052333331   F   F   F
  0.0845837769165316  0.8497089776649036  0.6419071695126121   T   T   T
  0.2521073980470605  0.9453091942697983  0.6372703243703388   T   T   T
  0.5802743426972952  0.3532397811396789  0.6456773293497513   T   T   T
  0.2552259914649421  0.7418376329105258  0.6632615212497712   T   T   T
  0.2407997747963727  0.5538507209388946  0.6421895139869354   T   T   T
  0.9159018452177133  0.9493797509715595  0.6414036105933701   T   T   T
  0.9152480918959746  0.7499448040808547  0.6405147199979324   T   T   T
  0.9124498646954335  0.5485964117960753  0.6396000482915193   T   T   T
  0.0841585250278532  0.7497807743429158  0.6406803640336349   T   T   T
  0.9166666865332829  0.1500000000001833  0.3605200052333331   F   F   F
  0.0833333358191695  0.0500000000120124  0.3605200052333331   F   F   F
  0.4166666269218169  0.0500000000120124  0.3605200052333331   F   F   F
  0.7499999404149307  0.0500000000120124  0.3605200052333331   F   F   F
  0.0833624980824890  0.1499625934876583  0.4537634851953100   T   T   T
  0.9166241692838456  0.0497134539299278  0.4538903917828860   T   T   T
  0.5830873906901725  0.0490342551513267  0.4545283677310381   T   T   T
  0.2501325135752887  0.0491202631227984  0.4541715561771097   T   T   T
  0.7499820253811943  0.0499125580127715  0.4536288910187575   T   T   T
  0.4169253842636867  0.0485884515110844  0.4547633904960314   T   T   T
  0.0834062351938005  0.0496676333499413  0.4538846961716317   T   T   T
  0.7497580413334394  0.1506875655620502  0.4544180804238530   T   T   T
  0.8333332538436267  0.0000000000000000  0.4070133268666680   F   F   F
  0.1666666716383389  0.0000000000000000  0.4070133268666680   F   F   F
  0.6666666865533486  0.0000000000000000  0.4070133268666680   F   F   F
  0.3333333432766779  0.0000000000000000  0.4070133268666680   F   F   F
  0.0000000000000000  0.0000000000000000  0.4070133268666680   F   F   F
  0.9166666865332829  0.0500000000120124  0.3605200052333331   F   F   F
  0.5833333134730552  0.0500000000120124  0.3605200052333331   F   F   F
  0.2499999999799343  0.0500000000120124  0.3605200052333331   F   F   F
  0.5000000000021103  0.0000000000000000  0.4070133268666680   F   F   F
  0.2513777580028366  0.2507953873998489  0.5474972852449695   T   T   T
  0.3977161490956163  0.6405681530544466  0.6527046152222279   T   T   T
  0.2523377750058752  0.6472359715130040  0.5443275743751684   T   T   T
  0.0833333358191695  0.4500000000005357  0.3605200052333331   F   F   F
  0.0833333358191695  0.2500000000242011  0.3605200052333331   F   F   F
  0.2499999999799343  0.5499999761504029  0.3605200052333331   F   F   F
  0.4166666269218169  0.5499999761504029  0.3605200052333331   F   F   F
  0.4166666269218169  0.7500000000008953  0.3605200052333331   F   F   F
  0.4166666269218169  0.9500000000130839  0.3605200052333331   F   F   F
  0.7499999404149307  0.3500000000123720  0.3605200052333331   F   F   F
  0.7499999404149307  0.5499999761504029  0.3605200052333331   F   F   F
  0.0833333358191695  0.6500000000127244  0.3605200052333331   F   F   F
  0.7499999404149307  0.7500000000008953  0.3605200052333331   F   F   F
  0.2499999999799343  0.3500000000123720  0.3605200052333331   F   F   F
  0.2499999999799343  0.7500000000008953  0.3605200052333331   F   F   F
  0.9166666865332829  0.9500000000130839  0.3605200052333331   F   F   F
  0.2499999999799343  0.9500000000130839  0.3605200052333331   F   F   F
  0.5833333134730552  0.3500000000123720  0.3605200052333331   F   F   F
  0.5833333134730552  0.5499999761504029  0.3605200052333331   F   F   F
  0.5833333134730552  0.7500000000008953  0.3605200052333331   F   F   F
  0.5833333134730552  0.9500000000130839  0.3605200052333331   F   F   F
  0.7499999404149307  0.9500000000130839  0.3605200052333331   F   F   F
  0.9166666865332829  0.3500000000123720  0.3605200052333331   F   F   F
  0.9166666865332829  0.4500000000005357  0.3605200052333331   F   F   F
  0.5833333134730552  0.8499999999890662  0.3605200052333331   F   F   F
  0.0833333358191695  0.9500000000130839  0.3605200052333331   F   F   F
  0.4166666269218169  0.3500000000123720  0.3605200052333331   F   F   F
  0.0833333358191695  0.8499999999890662  0.3605200052333331   F   F   F
  0.4166666269218169  0.2500000000242011  0.3605200052333331   F   F   F
  0.4166666269218169  0.4500000000005357  0.3605200052333331   F   F   F
  0.4166666269218169  0.6500000000127244  0.3605200052333331   F   F   F
  0.4166666269218169  0.8499999999890662  0.3605200052333331   F   F   F
  0.7499999404149307  0.2500000000242011  0.3605200052333331   F   F   F
  0.9166666865332829  0.2500000000242011  0.3605200052333331   F   F   F
  0.7499999404149307  0.4500000000005357  0.3605200052333331   F   F   F
  0.7499999404149307  0.8499999999890662  0.3605200052333331   F   F   F
  0.2499999999799343  0.2500000000242011  0.3605200052333331   F   F   F
  0.2499999999799343  0.4500000000005357  0.3605200052333331   F   F   F
  0.2499999999799343  0.6500000000127244  0.3605200052333331   F   F   F
  0.2499999999799343  0.8499999999890662  0.3605200052333331   F   F   F
  0.5833333134730552  0.2500000000242011  0.3605200052333331   F   F   F
  0.5833333134730552  0.4500000000005357  0.3605200052333331   F   F   F
  0.5833333134730552  0.6500000000127244  0.3605200052333331   F   F   F
  0.7499999404149307  0.6500000000127244  0.3605200052333331   F   F   F
  0.9166666865332829  0.5499999761504029  0.3605200052333331   F   F   F
  0.9166666865332829  0.7500000000008953  0.3605200052333331   F   F   F
  0.5830926482707942  0.2521385714133473  0.4536038905380183   T   T   T
  0.4168615044497971  0.3504924788830062  0.4542306570345923   T   T   T
  0.9161464650321084  0.4496755958171400  0.4539887836561924   T   T   T
  0.9160657460132363  0.2499098683761498  0.4542472616562996   T   T   T
  0.2510289038481672  0.5518128951134486  0.4553492830083219   T   T   T
  0.9161405161381233  0.6498288789214308  0.4540702217608357   T   T   T
  0.9160665694592833  0.8495514883395939  0.4542791113724413   T   T   T
  0.0837810142036095  0.3498875563832827  0.4537459648022973   T   T   T
  0.0832626906943723  0.5503808140857314  0.4537951619054863   T   T   T
  0.2516250175718706  0.7500848748043036  0.4561348509515621   T   T   T
  0.0837616248249074  0.9493938801108303  0.4536612155372374   T   T   T
  0.4172287530381705  0.5480349374346751  0.4541270008249815   T   T   T
  0.4171901117954577  0.7469393848902929  0.4545353936513069   T   T   T
  0.4174097853949894  0.9477688619627607  0.4541322327666092   T   T   T
  0.7501865326687727  0.3518901029577052  0.4555700079086396   T   T   T
  0.7496349641653219  0.5507140132873559  0.4561388565917662   T   T   T
  0.7487181834745907  0.7507410883459448  0.4571429632127648   T   T   T
  0.7494216821722874  0.9496314904563696  0.4547623755563653   T   T   T
  0.2499849854315229  0.3511123269447275  0.4544536435432386   T   T   T
  0.0844394339265001  0.7500198102347599  0.4536580308795596   T   T   T
  0.9164593742171055  0.9495536133888569  0.4537318645903544   T   T   T
  0.5827359210224219  0.3530418374242476  0.4561350673923067   T   T   T
  0.0000804580678187  0.2998765326639273  0.4987168635239037   T   T   T
  0.5844509478228734  0.6495942212531903  0.4550793769085606   T   T   T
  0.6653173186193959  0.7000789048124419  0.5031011405051076   T   T   T
  0.2506985540225843  0.9482269147048107  0.4536339014988116   T   T   T
  0.5826940638114175  0.5511898964987053  0.4563289687658014   T   T   T
  0.5826717723970829  0.7479954736008166  0.4543451739143468   T   T   T
  0.5826724567555597  0.9479401167702431  0.4537128540884144   T   T   T
  0.9158783434254163  0.3498082608733714  0.4536692428495141   T   T   T
  0.9159390518808892  0.5498414387168341  0.4540297311039987   T   T   T
  0.9149993672650617  0.7497637993213397  0.4535589647806395   T   T   T
  0.6656585332713950  0.5025129957039586  0.5035684842528177   T   T   T
  0.3340409986416696  0.5027691761233315  0.5030192997382570   T   T   T
  0.3355169760846569  0.7003865260419253  0.5040675025840669   T   T   T
  0.6659102997382432  0.3017383799984478  0.4998548365990624   T   T   T
  0.3335986509294639  0.8980940972167778  0.4996705452069022   T   T   T
  0.0001568827951081  0.8994324985343884  0.4993453906429591   T   T   T
  0.3336133016040088  0.3009639975182825  0.4988268575539402   T   T   T
  0.9998521517303052  0.7019568733428329  0.4975997114201536   T   T   T
 -0.0000420416168646  0.4993237982758977  0.4984629895537344   T   T   T
  0.5828865121992504  0.8470067420965829  0.4560480811659356   T   T   T
  0.0833333358191695  0.7500000000008953  0.3605200052333331   F   F   F
  0.2492899270405603  0.4511235159268358  0.5461907888425535   T   T   T
  0.2498893372827880  0.0481296072932910  0.6421412665822533   T   T   T
  0.3338551097650182  0.2000675159388735  0.5921171513610701   T   T   T
  0.9164725801828010  0.6503149588442730  0.5462786411060042   T   T   T
  0.5809975303040139  0.6475772007542063  0.5493962158162526   T   T   T
  0.5857756140684481  0.8517597148873204  0.5508766434675758   T   T   T
  0.5829662832895551  0.4483121505049007  0.5452832735670530   T   T   T
  0.5833017153477826  0.2495973579456411  0.5457909168912005   T   T   T
  0.2525747852663835  0.8496630773327640  0.5509058107218658   T   T   T
  0.4230852523221239  0.5545529139636575  0.5462614614000993   T   T   T
  0.7528677053893931  0.5477833078871778  0.5494899252662908   T   T   T
  0.7511899011310602  0.7446601117275198  0.5528100986680209   T   T   T
  0.7482155740509897  0.9477996307563887  0.5470517893910267   T   T   T
  0.9153470105617344  0.8498636095427258  0.5469811431505748   T   T   T
  0.2525707728257007  0.3510916555747112  0.5473942043616945   T   T   T
  0.9166851848197722  0.2506556306910386  0.5471427119912788   T   T   T
  0.1672422195627049  0.3002129331232672  0.4999299196272645   T   T   T
  0.5000000000021103  0.8000000000129006  0.4070133268666680   F   F   F
  0.5000000000021103  0.4000000000243773  0.4070133268666680   F   F   F
  0.5000000000021103  0.2000000000121887  0.4070133268666680   F   F   F
  0.1666666716383389  0.8000000000129006  0.4070133268666680   F   F   F
  0.1666666716383389  0.6000000000007191  0.4070133268666680   F   F   F
  0.1666666716383389  0.4000000000243773  0.4070133268666680   F   F   F
  0.1666666716383389  0.2000000000121887  0.4070133268666680   F   F   F
  0.6666666865533486  0.8000000000129006  0.4070133268666680   F   F   F
  0.1677438770779873  0.8988649179770075  0.4994619618364172   T   T   T
  0.5802401773979082  0.3474525753915900  0.5509227930793161   T   T   T
  0.2495919713800775  0.7464755651233687  0.5523406105092069   T   T   T
  0.1654452102824147  0.6025463681165325  0.5883094465404731   T   T   T
  0.0839625531312656  0.9503812824223462  0.5459563465265563   T   T   T
  0.4156447551676888  0.3527324851532468  0.5475884103776532   T   T   T
  0.0866222985741288  0.7511138340471223  0.5460058780358887   T   T   T
  0.0831420513839760  0.5502418297607280  0.5459891983151215   T   T   T
  0.0836056399661165  0.3506704122151028  0.5463833279238487   T   T   T
  0.4993867074230741  0.3009546823670692  0.4996841084943560   T   T   T
  0.9995079875860287  0.5991420555675867  0.5942654069142892   T   T   T
  0.9998047090229424  0.8013307479955984  0.5930747541146718   T   T   T
  0.3346518202445177  0.4040910402127013  0.5933752571144125   T   T   T
  0.4225146048772103  0.7500467713764731  0.5467696532860395   T   T   T
  0.9998820164198333  0.2001432832785834  0.5924679838393672   T   T   T
  0.0010121025844927  0.3998958456885359  0.5924089732858318   T   T   T
  0.3332606029144166  0.5969003077772362  0.5913967947845621   T   T   T
  0.3356531304391984  0.7929319207967144  0.5909918614410126   T   T   T
  0.6635634833362962  0.3977297275469318  0.5906670682653514   T   T   T
  0.0833333358191695  0.5499999761504029  0.3605200052333331   F   F   F
  0.6662245681590216  0.2001120399502340  0.5921487082757817   T   T   T
  0.6656552479476893  0.7933486846099741  0.5905155541655283   T   T   T
  0.6667053973999811  0.5948171384015064  0.5910267998532004   T   T   T
  0.1671542756223617  0.1994323986556304  0.5922758165250734   T   T   T
  0.1684179590658065  0.3983323744465744  0.5931304912090524   T   T   T
  0.1709789130722094  0.7992515927998215  0.5956533782958255   T   T   T
  0.2478564157391060  0.5486159639890390  0.5495018365051044   T   T   T
  0.6666666865533486  0.6000000000007191  0.4070133268666680   F   F   F
  0.6666666865533486  0.4000000000243773  0.4070133268666680   F   F   F
  0.6666666865533486  0.2000000000121887  0.4070133268666680   F   F   F
  0.3333333432766779  0.8000000000129006  0.4070133268666680   F   F   F
  0.4156831842405014  0.6469571641937401  0.4582763696190079   T   T   T
  0.4170820722032001  0.8470324440174277  0.4555317246670205   T   T   T
  0.7490279285394102  0.2515343022041642  0.4535327758398279   T   T   T
  0.7475606895266623  0.4510873133566349  0.4552040151988375   T   T   T
  0.7483405943159643  0.6512749925935739  0.4538605989145787   T   T   T
  0.7499862450207431  0.8498996977954033  0.4537724257302123   T   T   T
  0.4150858323866562  0.4489952629322113  0.4572949463353624   T   T   T
  0.2501138549825453  0.2503579863171390  0.4543340172677162   T   T   T
  0.2519883629209972  0.4517361532659512  0.4539207430469172   T   T   T
  0.2520374970531372  0.6518741819159066  0.4538851761471557   T   T   T
  0.2506001296837951  0.8482743394679872  0.4555474530215656   T   T   T
  0.8333332538436267  0.4000000000243773  0.4070133268666680   F   F   F
  0.5843191229546061  0.4524090925997928  0.4536341100294853   T   T   T
  0.8333332538436267  0.2000000000121887  0.4070133268666680   F   F   F
  0.4159844202813389  0.9485128693482870  0.5466370841579066   T   T   T
  0.4163067883788394  0.2501847828450600  0.4550618685679332   T   T   T
  0.9152016724145412  0.4495489157827226  0.5464359820782212   T   T   T
  0.0840120402559588  0.6503369392685858  0.4538044782103776   T   T   T
  0.0837752328512433  0.8494092849840849  0.4543418017403792   T   T   T
  0.3333333432766779  0.6000000000007191  0.4070133268666680   F   F   F
  0.3333333432766779  0.4000000000243773  0.4070133268666680   F   F   F
  0.3333333432766779  0.2000000000121887  0.4070133268666680   F   F   F
  0.0000000000000000  0.8000000000129006  0.4070133268666680   F   F   F
  0.0000000000000000  0.6000000000007191  0.4070133268666680   F   F   F
  0.0000000000000000  0.4000000000243773  0.4070133268666680   F   F   F
  0.7475098236962401  0.3470488388396368  0.5508978370212644   T   T   T
  0.0000000000000000  0.2000000000121887  0.4070133268666680   F   F   F
  0.0833333358191695  0.3500000000123720  0.3605200052333331   F   F   F
  0.5000000000021103  0.6000000000007191  0.4070133268666680   F   F   F
  0.8333332538436267  0.6000000000007191  0.4070133268666680   F   F   F
  0.8333332538436267  0.8000000000129006  0.4070133268666680   F   F   F
  0.0839311517120898  0.2498153109288982  0.4542413216993339   T   T   T
  0.0832965049121727  0.4498267820216660  0.4538731847241939   T   T   T
  0.8325794872734604  0.1002622812180524  0.6176169415480419   T   T   T
  0.3338796123682989  0.0985446265243779  0.6203417460279004   T   T   T
  0.6670770957312746  0.1006462870618933  0.6193224753221501   T   T   T
  0.5001647523907535  0.1003277125922978  0.6205426725196592   T   T   T
  0.1669206322472726  0.0984804221945794  0.6198815263770731   T   T   T
  0.9993833118355665  0.0994498861504243  0.6186650560492418   T   T   T
  0.8339928746053268  0.0005738821771348  0.5061350165017195   T   T   T
  0.4999042525479396  0.0008478239593913  0.5057852195670061   T   T   T
  0.0000534971282995  0.0000300529312312  0.5059696237212610   T   T   T
  0.6661002647660627  0.0013623061869317  0.5057019541075355   T   T   T
  0.3340431341537741  0.0018222230660473  0.5057939398272835   T   T   T
  0.0009585652555701  0.2987510036684554  0.6209265824868893   T   T   T