Au  O Sr Ti  H                          
   1.00000000000000     
    23.6707801818999997    0.0000000000000000    0.0000000000000000
     0.0000000000000000   22.3170261383000010    0.0000000000000000
     0.0000000000000000    0.0000000000000000   30.0000000000000000
   Au   O    Sr   Ti   H 
    50   264    72    72     1
Selective dynamics
Direct
  0.7187453826885988  0.5255260459206194  0.7537579447419982   T   T   T
  0.6248986389194807  0.5668344954514419  0.7040574465970825   T   T   T
  0.7187721369160789  0.2586889510083925  0.6926489293952058   T   T   T
  0.2905747557520472  0.7453830589802369  0.6987219070190239   T   T   T
  0.5140646471079228  0.6044704023449552  0.7767409585158046   T   T   T
  0.5770515237059155  0.7256661102585477  0.7925307215472092   T   T   T
  0.5502877961050682  0.3845041837400063  0.8295394042422023   T   T   T
  0.2418789189487924  0.4674559942862626  0.7093804637819304   T   T   T
  0.2828957429824928  0.6605769072141628  0.7661086338544457   T   T   T
  0.6022945522545579  0.2890136013779328  0.7876717689644126   T   T   T
  0.5147524252871527  0.4830241809871159  0.6780900670007035   T   T   T
  0.5625612146054668  0.4859741170103705  0.7628846765305628   T   T   T
  0.4636968145893491  0.6951802124973099  0.8298557327896938   T   T   T
  0.7647083946240680  0.4307991663424635  0.7053894373330839   T   T   T
  0.7335114190763167  0.6157308256980072  0.6939630736357566   T   T   T
  0.6362225707612285  0.5833354315372683  0.8000682428348839   T   T   T
  0.5947012001823494  0.7851459109066583  0.7125938291128564   T   T   T
  0.4837381572412768  0.7799314079000211  0.7572723912200455   T   T   T
  0.3495273595628192  0.5009501460970233  0.6972973972318472   T   T   T
  0.4310157897636939  0.3723014947004046  0.8154445012882113   T   T   T
  0.3727541036121892  0.2986170322932275  0.7554471387713543   T   T   T
  0.4412189578819354  0.2284224277836188  0.6970221849544784   T   T   T
  0.3890770144099470  0.8156332807367214  0.7065541622623923   T   T   T
  0.2901843635396011  0.5361457236310965  0.7776988309167071   T   T   T
  0.5557816738994767  0.2081387139031543  0.7121500607335634   T   T   T
  0.4542824903068747  0.5799369036780055  0.7027573574008791   T   T   T
  0.6141312938045465  0.3188874616066498  0.6974748092981111   T   T   T
  0.7053784925332849  0.7576180074478196  0.6883957562005690   T   T   T
  0.6565138899713239  0.4416553691488015  0.8129101063385206   T   T   T
  0.3686658601788292  0.6180705310256351  0.8201423796184750   T   T   T
  0.5713352656951514  0.5102633890010840  0.8571413294243323   T   T   T
  0.6644628001728067  0.1936849769641542  0.7530173570984063   T   T   T
  0.4725208689543322  0.4511054449409271  0.8794404053528413   T   T   T
  0.5172363083114805  0.3771411418320874  0.7340277973674197   T   T   T
  0.2838124511580483  0.3378103913016588  0.7025918519394561   T   T   T
  0.6692984766935771  0.6811285310310498  0.7488525711985224   T   T   T
  0.3983648799398780  0.3822717012722865  0.6902955062141604   T   T   T
  0.3762764615906120  0.4923825041610428  0.8334985092990864   T   T   T
  0.4641571687104909  0.5735684962309496  0.8631959698238838   T   T   T
  0.3268737298774377  0.4137871644516094  0.7695518891539962   T   T   T
  0.4872035097070392  0.2685498011298954  0.7753456238577530   T   T   T
  0.4263506968083543  0.6984638205315500  0.6992831096818074   T   T   T
  0.6999528785858308  0.3463691386934518  0.7570542148274254   T   T   T
  0.7745579684471128  0.4292471158242406  0.7960260935162176   T   T   T
  0.2564213451090945  0.5921226405134251  0.6950140847596774   T   T   T
  0.6477031875382137  0.4409266201105783  0.6971488845535073   T   T   T
  0.5661578881533417  0.6405571894612100  0.8608718737855716   T   T   T
  0.5461678687314079  0.6647974431877851  0.7013421324287991   T   T   T
  0.4431590915048408  0.4744866541384583  0.7558776204701710   T   T   T
  0.3729822532097239  0.7370669344909448  0.7779791783610435   T   T   T
  0.2499947136006336  0.1886272118578999  0.4541637831510314   T   T   T
  0.7494168062960951  0.9384977069837818  0.4553086498353749   T   T   T
  0.7489825422296877  0.6886381775413439  0.4572785988950059   T   T   T
  0.7493617736953756  0.4383578348265084  0.4559544882063881   T   T   T
  0.7502001259110491  0.1900479041894035  0.4557433982013116   T   T   T
  0.4175254945655207  0.9357174405937433  0.4539567523944243   T   T   T
  0.4168757550035484  0.6845654275777668  0.4547559536007824   T   T   T
  0.4171915413727504  0.4353716953544247  0.4540189517284692   T   T   T
  0.0845218361503851  0.6868274415166352  0.4530300047047807   T   T   T
  0.0838675553791792  0.9365418026227923  0.4534518623704317   T   T   T
  0.0826402355051592  0.4368017225287734  0.4528358488919199   T   T   T
  0.0838334505423883  0.1865406791025068  0.4530021660780825   T   T   T
  0.9165445262097848  0.8120175649085958  0.4540896321563906   T   T   T
  0.9161402712631324  0.5623748526672008  0.4538390260437771   T   T   T
  0.2512335974512852  0.4393297968661182  0.4549564150400279   T   T   T
  0.9167931541607403  0.0619984177332746  0.4542376841374821   T   T   T
  0.9161992448421113  0.3123064361168072  0.4536794285213995   T   T   T
  0.4173253380450454  0.1871441863667996  0.4535626826566377   T   T   T
  0.2524433923200536  0.6872855999758352  0.4560648520720335   T   T   T
  0.9166422874375387  0.9367119500831803  0.4532600880236697   T   T   T
  0.5829170036599988  0.1892761867298758  0.4551764890042150   T   T   T
 -0.0001069430676556  0.1256527218092444  0.4988970085950115   T   T   T
  0.5837127561483726  0.8100044861922175  0.4554741756088163   T   T   T
 -0.0002068158649070  0.3728316051265192  0.4988392501578370   T   T   T
  0.9997653393003902  0.6270488422283180  0.4976752567228235   T   T   T
  0.3337233791573185  0.1256484029519706  0.4984140313360011   T   T   T
  0.0000290688486997  0.8750943523734626  0.4995104156515031   T   T   T
  0.3334763781982615  0.8738080806758926  0.4988564613591731   T   T   T
  0.6668611455921308  0.1273377567493691  0.5002291402155785   T   T   T
  0.3356639838509660  0.6251451890137146  0.5044171071876677   T   T   T
  0.3344954299321035  0.3785477594850121  0.5029948396108770   T   T   T
  0.6660810452387842  0.3779280732945494  0.5037496633627857   T   T   T
  0.9153246661050167  0.6866387128181757  0.4529617403394273   T   T   T
  0.9161767182759690  0.4369903722515555  0.4537536747206291   T   T   T
  0.9164414558978412  0.1872926873189235  0.4536899461489666   T   T   T
  0.5827366256433401  0.9362766871912002  0.4537796593793151   T   T   T
  0.5827761769140483  0.6860080661475374  0.4545508146827466   T   T   T
  0.5828291743051525  0.4387757500870907  0.4561136327338413   T   T   T
  0.2500001219383754  0.9360129115196006  0.4540736457860642   T   T   T
  0.6654187356587433  0.6258140706897675  0.5029456853676247   T   T   T
  0.5846254937340370  0.5624108799061454  0.4550400703218068   T   T   T
  0.5839048601550485  0.0628982346405190  0.4547080858985313   T   T   T
  0.9166666865332829  0.6874999999963620  0.3605200052333331   F   F   F
  0.9166666865332829  0.4374999701794380  0.3605200052333331   F   F   F
  0.9166666865332829  0.1875000000030838  0.3605200052333331   F   F   F
  0.5833333134730552  0.9375000000154046  0.3605200052333331   F   F   F
  0.5833333134730552  0.6874999999963620  0.3605200052333331   F   F   F
  0.5833333134730552  0.4374999701794380  0.3605200052333331   F   F   F
  0.5833333134730552  0.1875000000030838  0.3605200052333331   F   F   F
  0.2499999999799343  0.9375000000154046  0.3605200052333331   F   F   F
  0.9166666865332829  0.9375000000154046  0.3605200052333331   F   F   F
  0.2499999999799343  0.6874999999963620  0.3605200052333331   F   F   F
  0.2499999999799343  0.1875000000030838  0.3605200052333331   F   F   F
  0.7499999404149307  0.9375000000154046  0.3605200052333331   F   F   F
  0.7499999404149307  0.6874999999963620  0.3605200052333331   F   F   F
  0.7499999404149307  0.4374999701794380  0.3605200052333331   F   F   F
  0.7499999404149307  0.1875000000030838  0.3605200052333331   F   F   F
  0.4166666269218169  0.9375000000154046  0.3605200052333331   F   F   F
  0.4166666269218169  0.6874999999963620  0.3605200052333331   F   F   F
  0.4166666269218169  0.4374999701794380  0.3605200052333331   F   F   F
  0.2499999999799343  0.4374999701794380  0.3605200052333331   F   F   F
  0.0833333358191695  0.0625000000159659  0.3605200052333331   F   F   F
  0.0833333358191695  0.3124999999901945  0.3605200052333331   F   F   F
  0.0833333358191695  0.5625000000092442  0.3605200052333331   F   F   F
  0.9166666865332829  0.3124999999901945  0.3605200052333331   F   F   F
  0.9166666865332829  0.0625000000159659  0.3605200052333331   F   F   F
  0.5833333134730552  0.8124999999834799  0.3605200052333331   F   F   F
  0.5833333134730552  0.5625000000092442  0.3605200052333331   F   F   F
  0.5833333134730552  0.3124999999901945  0.3605200052333331   F   F   F
  0.5833333134730552  0.0625000000159659  0.3605200052333331   F   F   F
  0.2499999999799343  0.8124999999834799  0.3605200052333331   F   F   F
  0.2499999999799343  0.5625000000092442  0.3605200052333331   F   F   F
  0.2499999999799343  0.3124999999901945  0.3605200052333331   F   F   F
  0.2499999999799343  0.0625000000159659  0.3605200052333331   F   F   F
  0.7499999404149307  0.8124999999834799  0.3605200052333331   F   F   F
  0.7499999404149307  0.5625000000092442  0.3605200052333331   F   F   F
  0.7499999404149307  0.3124999999901945  0.3605200052333331   F   F   F
  0.7499999404149307  0.0625000000159659  0.3605200052333331   F   F   F
  0.4166666269218169  0.8124999999834799  0.3605200052333331   F   F   F
  0.4166666269218169  0.5625000000092442  0.3605200052333331   F   F   F
  0.4166666269218169  0.3124999999901945  0.3605200052333331   F   F   F
  0.4166666269218169  0.0625000000159659  0.3605200052333331   F   F   F
  0.0833333358191695  0.8124999999834799  0.3605200052333331   F   F   F
  0.4166666269218169  0.1875000000030838  0.3605200052333331   F   F   F
  0.0833333358191695  0.9375000000154046  0.3605200052333331   F   F   F
  0.0833333358191695  0.6874999999963620  0.3605200052333331   F   F   F
  0.0833333358191695  0.4374999701794380  0.3605200052333331   F   F   F
  0.8333332538436267  0.4999999999932783  0.4070133268666680   F   F   F
  0.8333332538436267  0.7500000000123208  0.4070133268666680   F   F   F
  0.0834673504029027  0.0616845965221004  0.4542428369962084   T   T   T
  0.0834634129143444  0.3119633174484380  0.4540361336157612   T   T   T
  0.0839557421992959  0.5624805385356666  0.4538902324196756   T   T   T
  0.0834987962792412  0.8120462116174338  0.4541834701636474   T   T   T
  0.4169051973722604  0.0615608693519400  0.4553593112383232   T   T   T
  0.4154000374043560  0.3112681533652304  0.4575063385655508   T   T   T
  0.4159311529207488  0.5594012878778271  0.4578570378276183   T   T   T
  0.4166404928880512  0.8097789533736774  0.4551552453073600   T   T   T
  0.7491113293334131  0.0642911179201185  0.4533502721468573   T   T   T
  0.7473674652595313  0.3140617741687516  0.4547993603135579   T   T   T
  0.7481272832285440  0.5642454926533415  0.4536919993477154   T   T   T
  0.7491629430673694  0.8133157624624644  0.4531028843100847   T   T   T
  0.2506912484559816  0.0619380163009788  0.4542137600356527   T   T   T
  0.9132544656410599  0.3110848018907795  0.5465179988022859   T   T   T
  0.2522817341215327  0.3141726375911898  0.4541553832793701   T   T   T
  0.2519081247903250  0.5645618452656699  0.4538294249282198   T   T   T
  0.2502269342976863  0.8104677806330144  0.4555473769466221   T   T   T
  0.8333332538436267  0.2500000000190425  0.4070133268666680   F   F   F
  0.5846415030233714  0.3144039825395991  0.4541613034091984   T   T   T
  0.8333332538436267  0.0000000000000000  0.4070133268666680   F   F   F
  0.5000000000021103  0.4999999999932783  0.4070133268666680   F   F   F
  0.0833333358191695  0.1875000000030838  0.3605200052333331   F   F   F
  0.0000000000000000  0.0000000000000000  0.4070133268666680   F   F   F
  0.0000000000000000  0.2500000000190425  0.4070133268666680   F   F   F
  0.0000000000000000  0.4999999999932783  0.4070133268666680   F   F   F
  0.0000000000000000  0.7500000000123208  0.4070133268666680   F   F   F
  0.3333333432766779  0.0000000000000000  0.4070133268666680   F   F   F
  0.3333333432766779  0.2500000000190425  0.4070133268666680   F   F   F
  0.3333333432766779  0.4999999999932783  0.4070133268666680   F   F   F
  0.3333333432766779  0.7500000000123208  0.4070133268666680   F   F   F
  0.6666666865533486  0.0000000000000000  0.4070133268666680   F   F   F
  0.6666666865533486  0.2500000000190425  0.4070133268666680   F   F   F
  0.6666666865533486  0.4999999999932783  0.4070133268666680   F   F   F
  0.6666666865533486  0.7500000000123208  0.4070133268666680   F   F   F
  0.1666666716383389  0.0000000000000000  0.4070133268666680   F   F   F
  0.1666666716383389  0.2500000000190425  0.4070133268666680   F   F   F
  0.1666666716383389  0.4999999999932783  0.4070133268666680   F   F   F
  0.1666666716383389  0.7500000000123208  0.4070133268666680   F   F   F
  0.5000000000021103  0.0000000000000000  0.4070133268666680   F   F   F
  0.5000000000021103  0.2500000000190425  0.4070133268666680   F   F   F
  0.5000000000021103  0.7500000000123208  0.4070133268666680   F   F   F
  0.1671903788087946  0.1239299512853727  0.4989455822492298   T   T   T
  0.9174581160609648  0.0635331571141294  0.5474186156605297   T   T   T
  0.1677690853879859  0.8732380100298787  0.4999277538919487   T   T   T
  0.2519599233096949  0.1882175635779616  0.5471510214849558   T   T   T
  0.7491762232071604  0.9344308865314640  0.5475106068130481   T   T   T
  0.7517196221263334  0.6803945322412213  0.5530428084288920   T   T   T
  0.7529808294592879  0.4345031531778218  0.5494776248783868   T   T   T
  0.4233110699049424  0.4437581973568187  0.5457080801919358   T   T   T
  0.4231303446274405  0.6878690295316809  0.5466843803893193   T   T   T
  0.7535836200830468  0.1851254977897754  0.5507168679155586   T   T   T
  0.4158091250645393  0.9368609871041297  0.5460689699933577   T   T   T
  0.0836019671795324  0.9389600863767856  0.5457015172716708   T   T   T
  0.4156440494368367  0.1917203267250025  0.5466132849103257   T   T   T
  0.0866018199605717  0.6897210139326055  0.5451237870309954   T   T   T
  0.0827700020431232  0.4388983968897691  0.5448800932523518   T   T   T
  0.0845222004926077  0.1888748696658218  0.5455782491225181   T   T   T
  0.4996955330770044  0.1256162965298792  0.4996999279416154   T   T   T
  0.9995829346340357  0.4989330829685837  0.5944518515334410   T   T   T
  0.9993704687594200  0.7539117849202831  0.5921228581184507   T   T   T
  0.3344489282584482  0.2542467881105321  0.5926717401364835   T   T   T
  0.3339593319856526 -0.0003446306665676  0.5921130895008312   T   T   T
 -0.0001127258129525  0.9991290782110750  0.5931431648017654   T   T   T
  0.0028641641305500  0.2501618898385719  0.5911247805072127   T   T   T
  0.3334487344488888  0.4966469195252669  0.5909262369438101   T   T   T
  0.3356497103395794  0.7399993847531584  0.5910293564709354   T   T   T
  0.6642994310757987  0.2469628537631251  0.5894575158945889   T   T   T
  0.6657333163470993  0.0006590984102144  0.5918945027755032   T   T   T
  0.6659534587946685  0.7420408886738772  0.5899752965342366   T   T   T
  0.6669664412753443  0.4934244997165951  0.5909911369241558   T   T   T
  0.1674962221585106  0.9982410189350994  0.5922728266663846   T   T   T
  0.1687742417314399  0.2490350731581506  0.5931472357714993   T   T   T
  0.1707395979932659  0.7498687346641475  0.5950877527864117   T   T   T
  0.2482773611380969  0.4359427591766837  0.5491961832816151   T   T   T
  0.1654661258042558  0.5031777943714505  0.5879037568307280   T   T   T
  0.2491133332078091  0.6834112884158572  0.5519534648238840   T   T   T
  0.5809531435234383  0.1860420335637058  0.5495044842879864   T   T   T
  0.9150646896350247  0.8131350875573481  0.5468638972430249   T   T   T
  0.9167954289666593  0.5634550922019075  0.5465552245857006   T   T   T
  0.5812716612476360  0.5602445485476092  0.5493989649295768   T   T   T
  0.5862854682815378  0.8147957496757074  0.5504230648192987   T   T   T
  0.5834623638706349  0.3112975008928479  0.5455382118430591   T   T   T
  0.5829501697587438  0.0631540144640591  0.5466906285554285   T   T   T
  0.2535524303654172  0.8128839159477215  0.5514040455153677   T   T   T
  0.2520279162141345  0.5590213173645300  0.5440582054679154   T   T   T
  0.2495612753744389  0.3137588807676927  0.5459563982004764   T   T   T
  0.2510773006381677  0.0625875864578126  0.5472664575191668   T   T   T
  0.7485499024752171  0.8083531894302219  0.5456735842214657   T   T   T
  0.7465368495569576  0.5575769559393436  0.5445014056928502   T   T   T
  0.4139721063136532  0.8115913030533746  0.5479937653273083   T   T   T
  0.7487301588163839  0.0603332140650596  0.5445688414226203   T   T   T
  0.7501193732350949  0.3107938035840333  0.5487360661570274   T   T   T
  0.4160720551242584  0.3195929549197231  0.5529839539138633   T   T   T
  0.4204208087533594  0.5649102059452989  0.5553871178374939   T   T   T
  0.4165713275633859  0.0654719837173667  0.5473737350086962   T   T   T
  0.0848754595204889  0.8129068947981042  0.5473166950951968   T   T   T
  0.0826318461524537  0.5640141384748834  0.5463707913248939   T   T   T
  0.0871021898584833  0.3137061223775977  0.5471896037186887   T   T   T
  0.0823335743013655  0.0632775867461802  0.5476221468664023   T   T   T
  0.9159130537456297  0.9388848396925982  0.5460656756593723   T   T   T
  0.9132210721465011  0.6894776817527635  0.5449502210376499   T   T   T
  0.5833358902114160  0.9383804967212463  0.5455782758236661   T   T   T
  0.9143290604737472  0.1893458123635184  0.5461980945736915   T   T   T
  0.9151908013661136  0.4366588431756144  0.5459380705124555   T   T   T
  0.5766593232082162  0.4358797116131803  0.5517701476486441   T   T   T
  0.5795181360212839  0.6864800472731406  0.5469869248694835   T   T   T
  0.2517237228062147  0.9373770822916947  0.5451868962322324   T   T   T
  0.4978459022609585  0.5043434670230333  0.6089749823225594   T   T   T
  0.4993193512136066  0.2532022005804572  0.5903594600753008   T   T   T
  0.4994291733596604 -0.0001514214373095  0.5909841861292962   T   T   T
  0.7536176368085713  0.6934532756022482  0.6574549793635948   T   T   T
  0.7484286751012869  0.9367311740288272  0.6398741358509925   T   T   T
  0.2533716282449181  0.1863321254593574  0.6411258532330619   T   T   T
  0.7437944087563255  0.1941559679438101  0.6473309793883020   T   T   T
  0.7557828181857859  0.4358339469065441  0.6388163825471306   T   T   T
  0.4174808982871755  0.9346995428051198  0.6398865199772366   T   T   T
  0.4217747109685551  0.6759773002776351  0.6337411398577200   T   T   T
  0.5905664279164481  0.8101070606073654  0.6457941077228759   T   T   T
  0.9157356734064457  0.0626638452016103  0.6411691967284461   T   T   T
  0.9130631644145333  0.5614013633089842  0.6427361829711636   T   T   T
  0.9162561996552623  0.3117905730610515  0.6389267347527137   T   T   T
  0.9138757330014747  0.8126349484971512  0.6415642733316791   T   T   T
  0.5814205365727380  0.0647766235863985  0.6398310879034901   T   T   T
  0.5846147899424182  0.3187262555992931  0.6336755661410296   T   T   T
  0.5924687527582431  0.5642518782859455  0.6396115439340488   T   T   T
  0.2476730377390275  0.5738307166426583  0.6289756989182098   T   T   T
  0.2617826616713568  0.7982128573850946  0.6471417072379415   T   T   T
  0.2497878299803005  0.3163905857751381  0.6413745833941946   T   T   T
  0.2510515436844836  0.0590637682421298  0.6423448730819373   T   T   T
  0.9166666865332829  0.5625000000092442  0.3605200052333331   F   F   F
  0.4997894551027741  0.3731363212081406  0.5004264536376792   T   T   T
  0.4999792952315119  0.8726086938897903  0.5008696850038371   T   T   T
  0.5003903568610986  0.6209327477320735  0.4999913923855710   T   T   T
  0.8322593755892176  0.6230478192661287  0.4999799647356824   T   T   T
  0.8326938586987851  0.8748385169536725  0.4984118110066496   T   T   T
  0.8326162776652463  0.3731721987903259  0.4991953529326789   T   T   T
  0.8331749215581349  0.1237626683486722  0.4984595536906775   T   T   T
  0.1667886599306624  0.3762842136494747  0.4976308740069880   T   T   T
  0.1677582839473994  0.6243323659912943  0.4999951153090990   T   T   T
  0.5817456728773736  0.4381278176558311  0.6458001765056360   T   T   T
  0.5802465579490881  0.6847999542057233  0.6382100514381314   T   T   T
  0.9185455520421189  0.1863651711678194  0.6400902813862331   T   T   T
  0.5818564469128273  0.9347854809276746  0.6390859780132109   T   T   T
  0.8304112890487635  0.7504650362045547  0.5928882978216894   T   T   T
  0.8316622129060326  0.2478905527185414  0.6003383814570507   T   T   T
  0.8333302639917114  0.5035763066983688  0.5892650875850945   T   T   T
  0.8323128461100200  0.0016814421751375  0.5921155335652145   T   T   T
  0.5011234966277016  0.7564470810354125  0.5927587367570734   T   T   T
  0.4174355335028453  0.0649461576103992  0.6401761692365215   T   T   T
  0.4267979903599018  0.3049432699652344  0.6547524055161454   T   T   T
  0.4119111159156861  0.8124824232475197  0.6397206499865984   T   T   T
  0.3984444849739276  0.5510099729069567  0.6521122498773926   T   T   T
  0.7522224406046167  0.5709310705939352  0.6343584261669613   T   T   T
  0.7410870439283850  0.8099255403622035  0.6399997395291580   T   T   T
  0.7466917931371593  0.3118789120863615  0.6409013775718645   T   T   T
  0.7480216562298276  0.0672366958004597  0.6386895610381551   T   T   T
  0.0846123830278815  0.3114342971351248  0.6411517166095571   T   T   T
  0.6665496539262811  0.8748411984879623  0.4992267168472515   T   T   T
  0.0867537855157081  0.5619649699209439  0.6419383460956799   T   T   T
  0.0846525363777142  0.0597631754939914  0.6423113650647763   T   T   T
  0.0871657732391962  0.4368329805606441  0.6394198101826528   T   T   T
  0.0843944901771702  0.1852279532939253  0.6412331136364831   T   T   T
  0.4188886490654650  0.1882640978417478  0.6396023841739179   T   T   T
  0.4150609022079437  0.4192212257399855  0.6298464882424062   T   T   T
  0.0841751492758395  0.9348960966677227  0.6406651839549198   T   T   T
  0.0828960261393156  0.6872424230992953  0.6398800926013715   T   T   T
  0.9124802488753722  0.4359642545174457  0.6396230137544190   T   T   T
  0.9165980979284312  0.6874492044759793  0.6397673836900921   T   T   T
  0.9144876878810290  0.9368818363601464  0.6409281638321147   T   T   T
  0.2409333458449156  0.4421318649720684  0.6417027629177564   T   T   T
  0.2537366054715982  0.6765724676271514  0.6635678515363050   T   T   T
  0.5784054095455290  0.1904087187456695  0.6440706763957468   T   T   T
  0.2518160594506755  0.9298548378006166  0.6375541861680176   T   T   T
  0.0839603977091562  0.8117882359460089  0.6418423764178626   T   T   T
  0.9166666865332829  0.8124999999834799  0.3605200052333331   F   F   F
  0.0017084625415278  0.1213583992719020  0.6201473428757385   T   T   T
  0.8333332538436267  0.6249999999803961  0.4070133268666680   F   F   F
  0.9993892784401686  0.5002533102779705  0.5071515672973377   T   T   T
  0.3310967511045521  0.4993601925181522  0.5010403979663852   T   T   T
  0.3297063868186949  0.2480259385164703  0.5023540841786092   T   T   T
  0.3330837902159333  0.0010878419985800  0.5058535553847646   T   T   T
  0.3337347691485117  0.7508961183813503  0.5016675345021920   T   T   T
  0.6659600893744411  0.0002673264303772  0.5056448960582226   T   T   T
  0.6683767139742423  0.4997019731844999  0.5007518359458930   T   T   T
  0.6652204911283538  0.2484576091953605  0.5011687961110896   T   T   T
  0.6655139396908217  0.7519408528395682  0.5021232732595378   T   T   T
  0.1659482084613358  0.0011581426776072  0.5065332649241399   T   T   T
  0.1664925832170837  0.2483088244865177  0.5062205932868803   T   T   T
  0.1633635151098770  0.4998166917937341  0.5022204585490387   T   T   T
  0.5000600502178694  0.9993651797279877  0.5055070146651816   T   T   T
  0.1642837337273461  0.7514028008321757  0.5033856226710907   T   T   T
  0.5009182053669395  0.7527043755898759  0.5039067440779013   T   T   T
  0.8342626476820572  0.0003615904511425  0.5062558023608411   T   T   T
  0.5012953843383107  0.4997700925421842  0.5003131089920123   T   T   T
  0.5003895350162797  0.2478148729816866  0.5015727225939633   T   T   T
  0.8340102044413964  0.2484515047656513  0.5037322045723841   T   T   T
 -0.0003489434655195  0.7507405450392134  0.5065368284524406   T   T   T
  0.0012337883806963  0.2494501042104580  0.5053408688261138   T   T   T
 -0.0000257036324057  0.0002545555462009  0.5065555904463176   T   T   T
  0.8333332538436267  0.8749999404036828  0.4070133268666680   F   F   F
  0.0000000000000000  0.6249999999803961  0.4070133268666680   F   F   F
  0.0000000000000000  0.8749999404036828  0.4070133268666680   F   F   F
  0.3333333432766779  0.1249999999871179  0.4070133268666680   F   F   F
  0.3333333432766779  0.3750000000061604  0.4070133268666680   F   F   F
  0.3333333432766779  0.6249999999803961  0.4070133268666680   F   F   F
  0.3333333432766779  0.8749999404036828  0.4070133268666680   F   F   F
  0.6666666865533486  0.1249999999871179  0.4070133268666680   F   F   F
  0.6666666865533486  0.3750000000061604  0.4070133268666680   F   F   F
  0.6666666865533486  0.6249999999803961  0.4070133268666680   F   F   F
  0.8360635026925807  0.4999378440820965  0.5029772455083001   T   T   T
  0.6666666865533486  0.8749999404036828  0.4070133268666680   F   F   F
  0.1666666716383389  0.3750000000061604  0.4070133268666680   F   F   F
  0.1666666716383389  0.6249999999803961  0.4070133268666680   F   F   F
  0.1666666716383389  0.8749999404036828  0.4070133268666680   F   F   F
  0.5000000000021103  0.1249999999871179  0.4070133268666680   F   F   F
  0.5000000000021103  0.3750000000061604  0.4070133268666680   F   F   F
  0.5000000000021103  0.6249999999803961  0.4070133268666680   F   F   F
  0.5000000000021103  0.8749999404036828  0.4070133268666680   F   F   F
  0.8333332538436267  0.1249999999871179  0.4070133268666680   F   F   F
  0.8333332538436267  0.3750000000061604  0.4070133268666680   F   F   F
  0.1666666716383389  0.1249999999871179  0.4070133268666680   F   F   F
  0.0000000000000000  0.3750000000061604  0.4070133268666680   F   F   F
  0.8357911872767569  0.7516892601511715  0.5025482584817468   T   T   T
  0.8369845421823724  0.3736298875738814  0.6024186332821412   T   T   T
  0.8321129726629380  0.8758704027822559  0.6183338721049076   T   T   T
  0.8406325702247109  0.6266793153553104  0.6030728571503531   T   T   T
  0.9988379888581486  0.8746278026360145  0.6217837490785102   T   T   T
  0.3314193852653627  0.1194355986635328  0.6135375630225931   T   T   T
  0.3344442088628458  0.6240415280426136  0.5955428683389283   T   T   T
  0.3257314281749883  0.3742151184536114  0.5928713940492409   T   T   T
  0.6701144073512226  0.3737877933409846  0.5941338094553192   T   T   T
  0.6635851668833213  0.1223180500702429  0.6127600809951402   T   T   T
  0.3343913730131443  0.8786285299839718  0.6030475609081420   T   T   T
  0.1586684690757844  0.6271298610796706  0.6017902986803952   T   T   T
  0.1661416522021414  0.8726860204123356  0.6184061365059762   T   T   T
  0.5016910927327357  0.3718523238936604  0.5951757509955792   T   T   T
  0.4993536098314147  0.1203608118248963  0.6061880394341013   T   T   T
  0.1679114488308837  0.1219804195476741  0.6215416338597095   T   T   T
  0.1634965538231913  0.3718239460756116  0.6079445792552467   T   T   T
  0.6653349818935299  0.8807678184176793  0.6068406019326426   T   T   T
  0.6662438059717657  0.6267259667050962  0.5934964839018041   T   T   T
  0.0008511584975863  0.3752492234998243  0.6238048246574976   T   T   T
 -0.0004031646415691  0.6222567866845211  0.6440367526217332   T   T   T
  0.8337155773592441  0.1246101072767448  0.6160577503365121   T   T   T
  0.5002735679347432  0.8763011004593629  0.6096986696740351   T   T   T
  0.0000000000000000  0.1249999999871179  0.4070133268666680   F   F   F
  0.5039284802172768  0.6250098185259566  0.5938111980513521   T   T   T
  0.9163476616166737  0.9998618907170058  0.6036546327540928   T   T   T
  0.5844516760293311  0.7500905003411281  0.5993912446989501   T   T   T
  0.5905859776597642  0.5012600558913274  0.5938514257422359   T   T   T
  0.2422692904056374  0.4982048664304138  0.5940506769787927   T   T   T
  0.2492652082885608  0.7524410771187947  0.5922260900565861   T   T   T
  0.5779572755778373  0.2465931047676153  0.5970832786345398   T   T   T
  0.5822147637473735  0.0001527702896501  0.6042393579849542   T   T   T
  0.2495233386617567  0.9972518686854105  0.6043284692572809   T   T   T
  0.2485605932175050  0.2458572960360018  0.6038590028414718   T   T   T
  0.4168210647519792 -0.0002676157115653  0.6049005018045548   T   T   T
  0.4125182312694684  0.2489995561452401  0.5911443335970555   T   T   T
  0.4160368335776456  0.7500228592088088  0.5945674280950951   T   T   T
  0.7564630525897438  0.5027744646699880  0.5956425146803729   T   T   T
  0.7517531559159991  0.7525786019119428  0.5905521007990024   T   T   T
  0.7414863405869605  0.2475820264871730  0.5931969844153446   T   T   T
  0.7495684053790566  0.0015807881511416  0.6040895118069473   T   T   T
  0.0852714229805250  0.2480213423122941  0.6042061729073840   T   T   T
  0.0811859954924170  0.5006896742644349  0.6033342920328332   T   T   T
  0.0800095462325384  0.7507367548450858  0.6031060392596344   T   T   T
  0.0836043315471544  0.9981820944295987  0.6036650589009592   T   T   T