Sr1 Ti1 O3                              
   1.00000000000000     
    23.6707801818999997    0.0000000000000000    0.0000000000000000
     0.0000000000000000   22.3170261383000010    0.0000000000000000
     0.0000000000000000    0.0000000000000000   30.0000000000000000
   Sr   Ti   O 
   24   24   72
Selective dynamics
Direct
 -0.0000000000000000  0.1249999999871179  0.6222245005575204   F   F   F
 -0.0000000000000000  0.6249999999803961  0.6222245005575204   F   F   F
 -0.0000000000000000  0.3750000000061604  0.6222245005575204   F   F   F
  0.6666666865533486  0.6249999999803961  0.6222245005575204   F   F   F
  0.6666666865533486  0.8749999404036828  0.6222245005575204   F   F   F
  0.1666666716383389  0.3750000000061604  0.6222245005575204   F   F   F
  0.1666666716383389  0.1249999999871179  0.6222245005575204   F   F   F
  0.5000000000021103  0.1249999999871179  0.6222245005575204   F   F   F
  0.5000000000021103  0.3750000000061604  0.6222245005575204   F   F   F
  0.1666666716383389  0.8749999404036828  0.6222245005575204   F   F   F
  0.1666666716383389  0.6249999999803961  0.6222245005575204   F   F   F
  0.3333333432766779  0.8749999404036828  0.6222245005575204   F   F   F
  0.6666666865533486  0.1249999999871179  0.6222245005575204   F   F   F
  0.6666666865533486  0.3750000000061604  0.6222245005575204   F   F   F
  0.3333333432766779  0.3750000000061604  0.6222245005575204   F   F   F
  0.3333333432766779  0.6249999999803961  0.6222245005575204   F   F   F
  0.3333333432766779  0.1249999999871179  0.6222245005575204   F   F   F
  0.0000000000000000  0.8749999404036828  0.6222245005575204   F   F   F
  0.8333332538436267  0.6249999999803961  0.6222245005575204   F   F   F
  0.8333332538436267  0.8749999404036828  0.6222245005575204   F   F   F
  0.8333332538436267  0.1249999999871179  0.6222245005575204   F   F   F
  0.8333332538436267  0.3750000000061604  0.6222245005575204   F   F   F
  0.5000000000021103  0.8749999404036828  0.6222245005575204   F   F   F
  0.5000000000021103  0.6249999999803961  0.6222245005575204   F   F   F
  0.0833333358191695 -0.0000000000000000  0.5995922770538773   F   F   F
  0.0833333358191695  0.7500000000123208  0.5995922770538773   F   F   F
  0.0833333358191695  0.4999999999932783  0.5995922770538773   F   F   F
  0.0833333358191695  0.2500000000190425  0.5995922770538773   F   F   F
  0.7499999404149307 -0.0000000000000000  0.5995922770538773   F   F   F
  0.7499999404149307  0.2500000000190425  0.5995922770538773   F   F   F
  0.7499999404149307  0.7500000000123208  0.5995922770538773   F   F   F
  0.7499999404149307  0.4999999999932783  0.5995922770538773   F   F   F
  0.4166666269218169  0.4999999999932783  0.5995922770538773   F   F   F
  0.4166666269218169  0.7500000000123208  0.5995922770538773   F   F   F
  0.4166666269218169  0.2500000000190425  0.5995922770538773   F   F   F
  0.4166666269218169 -0.0000000000000000  0.5995922770538773   F   F   F
  0.2499999999799343  0.2500000000190425  0.5995922770538773   F   F   F
  0.2499999999799343 -0.0000000000000000  0.5995922770538773   F   F   F
  0.5833333134730552 -0.0000000000000000  0.5995922770538773   F   F   F
  0.5833333134730552  0.2500000000190425  0.5995922770538773   F   F   F
  0.2499999999799343  0.7500000000123208  0.5995922770538773   F   F   F
  0.2499999999799343  0.4999999999932783  0.5995922770538773   F   F   F
  0.5833333134730552  0.4999999999932783  0.5995922770538773   F   F   F
  0.5833333134730552  0.7500000000123208  0.5995922770538773   F   F   F
  0.9166666865332829  0.2500000000190425  0.5995922770538773   F   F   F
  0.9166666865332829 -0.0000000000000000  0.5995922770538773   F   F   F
  0.9166666865332829  0.7500000000123208  0.5995922770538773   F   F   F
  0.9166666865332829  0.4999999999932783  0.5995922770538773   F   F   F
  0.0000000000000000  0.4999999999932783  0.5897405245237228   F   F   F
 -0.0000000000000000  0.7500000000123208  0.5897405245237228   F   F   F
  0.3333333432766779  0.2500000000190425  0.5897405245237228   F   F   F
  0.3333333432766779 -0.0000000000000000  0.5897405245237228   F   F   F
 -0.0000000000000000 -0.0000000000000000  0.5897405245237228   F   F   F
  0.0000000000000000  0.2500000000190425  0.5897405245237228   F   F   F
  0.3333333432766779  0.4999999999932783  0.5897405245237228   F   F   F
  0.3333333432766779  0.7500000000123208  0.5897405245237228   F   F   F
  0.6666666865533486  0.2500000000190425  0.5897405245237228   F   F   F
  0.6666666865533486 -0.0000000000000000  0.5897405245237228   F   F   F
  0.6666666865533486  0.7500000000123208  0.5897405245237228   F   F   F
  0.6666666865533486  0.4999999999932783  0.5897405245237228   F   F   F
  0.1666666716383389 -0.0000000000000000  0.5897405245237228   F   F   F
  0.1666666716383389  0.2500000000190425  0.5897405245237228   F   F   F
  0.1666666716383389  0.7500000000123208  0.5897405245237228   F   F   F
  0.1666666716383389  0.4999999999932783  0.5897405245237228   F   F   F
  0.5000000000021103  0.4999999999932783  0.5897405245237228   F   F   F
  0.5000000000021103  0.2500000000190425  0.5897405245237228   F   F   F
  0.5000000000021103 -0.0000000000000000  0.5897405245237228   F   F   F
  0.8333332538436267  0.7500000000123208  0.5897405245237228   F   F   F
  0.8333332538436267  0.2500000000190425  0.5897405245237228   F   F   F
  0.8333332538436267  0.4999999999932783  0.5897405245237228   F   F   F
  0.8333332538436267 -0.0000000000000000  0.5897405245237228   F   F   F
  0.5000000000021103  0.7500000000123208  0.5897405245237228   F   F   F
  0.4166666269218169  0.0624072485312794  0.6377098110280861   F   F   F
  0.4166666269218169  0.3124072485055079  0.6377098110280861   F   F   F
  0.4166666269218169  0.8124072484987931  0.6377098110280861   F   F   F
  0.4166666269218169  0.5624072485245574  0.6377098110280861   F   F   F
  0.7499999404149307  0.5624072485245574  0.6377098110280861   F   F   F
  0.7499999404149307  0.8124072484987931  0.6377098110280861   F   F   F
  0.7499999404149307  0.3124072485055079  0.6377098110280861   F   F   F
  0.7499999404149307  0.0624072485312794  0.6377098110280861   F   F   F
  0.0833333358191695  0.3124072485055079  0.6377098110280861   F   F   F
  0.0833333358191695  0.5624072485245574  0.6377098110280861   F   F   F
  0.0833333358191695  0.8124072484987931  0.6377098110280861   F   F   F
  0.0833333358191695  0.0624072485312794  0.6377098110280861   F   F   F
  0.0833333358191695  0.4375927216641246  0.6377098110280861   F   F   F
  0.0833333358191695  0.1875927514877703  0.6377098110280861   F   F   F
  0.4166666269218169  0.1875927514877703  0.6377098110280861   F   F   F
  0.4166666269218169  0.4375927216641246  0.6377098110280861   F   F   F
  0.0833333358191695  0.9375927515000914  0.6377098110280861   F   F   F
  0.0833333358191695  0.6875927514810488  0.6377098110280861   F   F   F
  0.9166666865332829  0.4375927216641246  0.6377098110280861   F   F   F
  0.9166666865332829  0.6875927514810488  0.6377098110280861   F   F   F
  0.9166666865332829  0.9375927515000914  0.6377098110280861   F   F   F
  0.2499999999799343  0.4375927216641246  0.6377098110280861   F   F   F
  0.2499999999799343  0.6875927514810488  0.6377098110280861   F   F   F
  0.5833333134730552  0.1875927514877703  0.6377098110280861   F   F   F
  0.2499999999799343  0.9375927515000914  0.6377098110280861   F   F   F
  0.5833333134730552  0.9375927515000914  0.6377098110280861   F   F   F
  0.9166666865332829  0.1875927514877703  0.6377098110280861   F   F   F
  0.5833333134730552  0.6875927514810488  0.6377098110280861   F   F   F
  0.5833333134730552  0.4375927216641246  0.6377098110280861   F   F   F
  0.7499999404149307  0.6875927514810488  0.6377098110280861   F   F   F
  0.7499999404149307  0.9375927515000914  0.6377098110280861   F   F   F
  0.2499999999799343  0.1875927514877703  0.6377098110280861   F   F   F
  0.7499999404149307  0.1875927514877703  0.6377098110280861   F   F   F
  0.7499999404149307  0.4375927216641246  0.6377098110280861   F   F   F
  0.4166666269218169  0.9375927515000914  0.6377098110280861   F   F   F
  0.4166666269218169  0.6875927514810488  0.6377098110280861   F   F   F
  0.5833333134730552  0.8124072484987931  0.6377098110280861   F   F   F
  0.9166666865332829  0.0624072485312794  0.6377098110280861   F   F   F
  0.9166666865332829  0.5624072485245574  0.6377098110280861   F   F   F
  0.9166666865332829  0.3124072485055079  0.6377098110280861   F   F   F
  0.9166666865332829  0.8124072484987931  0.6377098110280861   F   F   F
  0.5833333134730552  0.0624072485312794  0.6377098110280861   F   F   F
  0.5833333134730552  0.3124072485055079  0.6377098110280861   F   F   F
  0.5833333134730552  0.5624072485245574  0.6377098110280861   F   F   F
  0.2499999999799343  0.5624072485245574  0.6377098110280861   F   F   F
  0.2499999999799343  0.8124072484987931  0.6377098110280861   F   F   F
  0.2499999999799343  0.3124072485055079  0.6377098110280861   F   F   F
  0.2499999999799343  0.0624072485312794  0.6377098110280861   F   F   F
