Au  O Sr Ti  H                          
   1.00000000000000     
    23.6707801818999997    0.0000000000000000    0.0000000000000000
     0.0000000000000000   22.3170261383000010    0.0000000000000000
     0.0000000000000000    0.0000000000000000   30.0000000000000000
   Au   O    Sr   Ti   H 
    50   264    72    72     1
Selective dynamics
Direct
  0.7170525780853988  0.5236875961404017  0.7528740519861832   T   T   T
  0.6236294754337950  0.5683962138794630  0.7038798567497879   T   T   T
  0.7230021724943234  0.2552467718339586  0.6918908645791259   T   T   T
  0.2909513451844161  0.7455775760294264  0.6984147082392925   T   T   T
  0.5137943287714525  0.6043037488681430  0.7768213490004584   T   T   T
  0.5772786092708391  0.7254855269963097  0.7925709528502879   T   T   T
  0.5483978759121081  0.3870898646199530  0.8302642338985455   T   T   T
  0.2413032559233240  0.4682009776865659  0.7092942890106925   T   T   T
  0.2830505468480926  0.6610655258706131  0.7656287138073956   T   T   T
  0.5980493722469420  0.2913580587719817  0.7857811537546322   T   T   T
  0.5146191459745167  0.4834713533334530  0.6780450763834680   T   T   T
  0.5629187655689349  0.4861643226396799  0.7624809712592024   T   T   T
  0.4635417647034494  0.6952246283382869  0.8300064561953273   T   T   T
  0.7627431433226733  0.4284926096925368  0.7040676243248771   T   T   T
  0.7336928672853837  0.6148480585095135  0.6942419613563418   T   T   T
  0.6361406452554517  0.5832965122597792  0.8000191756102907   T   T   T
  0.5950314938217369  0.7850545053909821  0.7125432525918570   T   T   T
  0.4838748162895261  0.7790691724222255  0.7570094027156857   T   T   T
  0.3495863300590560  0.5004683837543198  0.6978008010425806   T   T   T
  0.4297558172363269  0.3724784784965600  0.8165988722292040   T   T   T
  0.3699595789410750  0.2992577832116821  0.7564749585237732   T   T   T
  0.4354485530783079  0.2273400409434776  0.6980206589975010   T   T   T
  0.3894059624765954  0.8158335974649139  0.7065074300298335   T   T   T
  0.2893002928576520  0.5371235309431555  0.7779800079586957   T   T   T
  0.5519023138139865  0.2132301746212809  0.7103750333615775   T   T   T
  0.4537800926765103  0.5797033420373982  0.7031271485352741   T   T   T
  0.6169372598567895  0.3181343536366125  0.6966669379579773   T   T   T
  0.7056828491320166  0.7571379326361234  0.6882619900934427   T   T   T
  0.6559475280870606  0.4403027905481837  0.8122591186823168   T   T   T
  0.3682105611217505  0.6185207191180677  0.8202229745341252   T   T   T
  0.5699529052764105  0.5105820395381545  0.8567883490649867   T   T   T
  0.6643302100657336  0.1966976341596687  0.7527953369908061   T   T   T
  0.4706176635786641  0.4523878581922631  0.8809231673386353   T   T   T
  0.5179212542663997  0.3769603221457689  0.7334713021496816   T   T   T
  0.2824765251251877  0.3397049743666274  0.7025977716996438   T   T   T
  0.6694547555159792  0.6810717181694858  0.7487879176438214   T   T   T
  0.3979141103239369  0.3816343745994777  0.6906819571597297   T   T   T
  0.3759816750124639  0.4928351191425456  0.8329667175219134   T   T   T
  0.4629373262462927  0.5742534603004360  0.8638739482510044   T   T   T
  0.3258870588999829  0.4146943004023156  0.7696209159418148   T   T   T
  0.4837970577560188  0.2695002146811701  0.7753259493450499   T   T   T
  0.4244760809859417  0.6978838017107581  0.6993238530740449   T   T   T
  0.7006474410414475  0.3415155562177690  0.7576991993519586   T   T   T
  0.7738801584846645  0.4264128207845178  0.7940319047749365   T   T   T
  0.2561396911713153  0.5920186427227668  0.6948427336415772   T   T   T
  0.6475780802198775  0.4428684513081556  0.6953591701610559   T   T   T
  0.5655531560808501  0.6399845444797476  0.8608226343045874   T   T   T
  0.5447046579821583  0.6654311157688967  0.7012470017064688   T   T   T
  0.4437184100807802  0.4734791702992321  0.7559957418281789   T   T   T
  0.3729341317752416  0.7376393148809386  0.7780661401621123   T   T   T
  0.2499494487075468  0.1886090064376152  0.4542106257025079   T   T   T
  0.7494779775330240  0.9384297216670632  0.4553062536770784   T   T   T
  0.7490298104091572  0.6886658461764985  0.4574595853022524   T   T   T
  0.7496325657962380  0.4382057562407856  0.4557631500820958   T   T   T
  0.7501656692596095  0.1895661138979705  0.4554686281075451   T   T   T
  0.4175718238441772  0.9357021856627098  0.4539307946355272   T   T   T
  0.4168626734910223  0.6845885022694707  0.4548024754614338   T   T   T
  0.4167211244420669  0.4355006374713677  0.4539824217624057   T   T   T
  0.0843641983473704  0.6869198708157094  0.4530895424766744   T   T   T
  0.0838795655616443  0.9366731572831936  0.4534635983662708   T   T   T
  0.0828714438628736  0.4368474688789013  0.4529497800751998   T   T   T
  0.0838438900719238  0.1865811586090175  0.4529886647802199   T   T   T
  0.9165925766793686  0.8120023625747426  0.4541014356868004   T   T   T
  0.9161123159173915  0.5623678774003196  0.4538561179031074   T   T   T
  0.2511884691675613  0.4392554307342681  0.4549130352961028   T   T   T
  0.9161480872205082  0.0621252911780317  0.4541090029605057   T   T   T
  0.9162755461679325  0.3122874205066229  0.4538296428432727   T   T   T
  0.4172814449186585  0.1870673298162229  0.4535349549732756   T   T   T
  0.2524447887630772  0.6873096513547563  0.4560880866924864   T   T   T
  0.9167096115678628  0.9367730395347941  0.4533175983778203   T   T   T
  0.5827736498860652  0.1893938978170392  0.4552128837624782   T   T   T
  0.0000696774377342  0.1250966548962459  0.4984023670580590   T   T   T
  0.5836794320074654  0.8099635450919856  0.4554275658477259   T   T   T
  0.0000188147585593  0.3736632653535326  0.4985486413483753   T   T   T
  0.9997075192653881  0.6269830107817373  0.4977136992488392   T   T   T
  0.3336091036422901  0.1256021299560893  0.4985832787648989   T   T   T
  0.0000587476293494  0.8751134301940032  0.4995293292578284   T   T   T
  0.3335330617889594  0.8738408092950702  0.4988434349115421   T   T   T
  0.6660287041921487  0.1260860840790826  0.4991706607876257   T   T   T
  0.3357402192773185  0.6251364899071236  0.5043238694023991   T   T   T
  0.3343755156385310  0.3785343608337920  0.5030031927198900   T   T   T
  0.6654826550672313  0.3785041705274505  0.5031805438097635   T   T   T
  0.9153340697347971  0.6866839433102353  0.4529770235517254   T   T   T
  0.9157625652346343  0.4370138565052500  0.4537000761357363   T   T   T
  0.9158496200105362  0.1869365787325507  0.4532141478594659   T   T   T
  0.5827176103705667  0.9362320207279073  0.4538386560151255   T   T   T
  0.5827845909666763  0.6859899014709088  0.4545979105153955   T   T   T
  0.5827657150658758  0.4389236921570885  0.4560420992856113   T   T   T
  0.2499828609609402  0.9359697516978054  0.4540654383851663   T   T   T
  0.6654354159639115  0.6258356181546691  0.5029741210193275   T   T   T
  0.5846324523829778  0.5624819456413044  0.4550361724465408   T   T   T
  0.5830132415056749  0.0626448380509058  0.4546589992002769   T   T   T
  0.9166666865332829  0.6874999999963620  0.3605200052333331   F   F   F
  0.9166666865332829  0.4374999701794380  0.3605200052333331   F   F   F
  0.9166666865332829  0.1875000000030838  0.3605200052333331   F   F   F
  0.5833333134730552  0.9375000000154046  0.3605200052333331   F   F   F
  0.5833333134730552  0.6874999999963620  0.3605200052333331   F   F   F
  0.5833333134730552  0.4374999701794380  0.3605200052333331   F   F   F
  0.5833333134730552  0.1875000000030838  0.3605200052333331   F   F   F
  0.2499999999799343  0.9375000000154046  0.3605200052333331   F   F   F
  0.9166666865332829  0.9375000000154046  0.3605200052333331   F   F   F
  0.2499999999799343  0.6874999999963620  0.3605200052333331   F   F   F
  0.2499999999799343  0.1875000000030838  0.3605200052333331   F   F   F
  0.7499999404149307  0.9375000000154046  0.3605200052333331   F   F   F
  0.7499999404149307  0.6874999999963620  0.3605200052333331   F   F   F
  0.7499999404149307  0.4374999701794380  0.3605200052333331   F   F   F
  0.7499999404149307  0.1875000000030838  0.3605200052333331   F   F   F
  0.4166666269218169  0.9375000000154046  0.3605200052333331   F   F   F
  0.4166666269218169  0.6874999999963620  0.3605200052333331   F   F   F
  0.4166666269218169  0.4374999701794380  0.3605200052333331   F   F   F
  0.2499999999799343  0.4374999701794380  0.3605200052333331   F   F   F
  0.0833333358191695  0.0625000000159659  0.3605200052333331   F   F   F
  0.0833333358191695  0.3124999999901945  0.3605200052333331   F   F   F
  0.0833333358191695  0.5625000000092442  0.3605200052333331   F   F   F
  0.9166666865332829  0.3124999999901945  0.3605200052333331   F   F   F
  0.9166666865332829  0.0625000000159659  0.3605200052333331   F   F   F
  0.5833333134730552  0.8124999999834799  0.3605200052333331   F   F   F
  0.5833333134730552  0.5625000000092442  0.3605200052333331   F   F   F
  0.5833333134730552  0.3124999999901945  0.3605200052333331   F   F   F
  0.5833333134730552  0.0625000000159659  0.3605200052333331   F   F   F
  0.2499999999799343  0.8124999999834799  0.3605200052333331   F   F   F
  0.2499999999799343  0.5625000000092442  0.3605200052333331   F   F   F
  0.2499999999799343  0.3124999999901945  0.3605200052333331   F   F   F
  0.2499999999799343  0.0625000000159659  0.3605200052333331   F   F   F
  0.7499999404149307  0.8124999999834799  0.3605200052333331   F   F   F
  0.7499999404149307  0.5625000000092442  0.3605200052333331   F   F   F
  0.7499999404149307  0.3124999999901945  0.3605200052333331   F   F   F
  0.7499999404149307  0.0625000000159659  0.3605200052333331   F   F   F
  0.4166666269218169  0.8124999999834799  0.3605200052333331   F   F   F
  0.4166666269218169  0.5625000000092442  0.3605200052333331   F   F   F
  0.4166666269218169  0.3124999999901945  0.3605200052333331   F   F   F
  0.4166666269218169  0.0625000000159659  0.3605200052333331   F   F   F
  0.0833333358191695  0.8124999999834799  0.3605200052333331   F   F   F
  0.4166666269218169  0.1875000000030838  0.3605200052333331   F   F   F
  0.0833333358191695  0.9375000000154046  0.3605200052333331   F   F   F
  0.0833333358191695  0.6874999999963620  0.3605200052333331   F   F   F
  0.0833333358191695  0.4374999701794380  0.3605200052333331   F   F   F
  0.8333332538436267  0.4999999999932783  0.4070133268666680   F   F   F
  0.8333332538436267  0.7500000000123208  0.4070133268666680   F   F   F
  0.0836889218923830  0.0618585529401634  0.4541946088717246   T   T   T
  0.0834269567507404  0.3120580672508916  0.4539613587939265   T   T   T
  0.0839353654064268  0.5625096702048182  0.4539336514430693   T   T   T
  0.0835171096824452  0.8121234452078091  0.4541989166892170   T   T   T
  0.4168828833586197  0.0615468808178617  0.4553595089143775   T   T   T
  0.4155019073235573  0.3113183983967787  0.4573807833511470   T   T   T
  0.4160717322857925  0.5594943672178182  0.4578672302141900   T   T   T
  0.4166773771461539  0.8097499477649105  0.4551262613669493   T   T   T
  0.7495701001140478  0.0640497851485538  0.4533775179109421   T   T   T
  0.7473260545921140  0.3139622414265659  0.4551566270479799   T   T   T
  0.7482230109561439  0.5641565747146945  0.4538517304145355   T   T   T
  0.7494274310949023  0.8131866175448724  0.4530543195717840   T   T   T
  0.2505032304229262  0.0620101278846736  0.4542686412575977   T   T   T
  0.9156712882260647  0.3124186838237685  0.5465426293425560   T   T   T
  0.2522641147665121  0.3141649424741145  0.4541512423201753   T   T   T
  0.2519057237613899  0.5645495022919170  0.4538016160694883   T   T   T
  0.2501612577289119  0.8104350777684542  0.4554930045541377   T   T   T
  0.8333332538436267  0.2500000000190425  0.4070133268666680   F   F   F
  0.5842066509535286  0.3146433328776817  0.4541081261890497   T   T   T
  0.8333332538436267  0.0000000000000000  0.4070133268666680   F   F   F
  0.5000000000021103  0.4999999999932783  0.4070133268666680   F   F   F
  0.0833333358191695  0.1875000000030838  0.3605200052333331   F   F   F
  0.0000000000000000  0.0000000000000000  0.4070133268666680   F   F   F
  0.0000000000000000  0.2500000000190425  0.4070133268666680   F   F   F
  0.0000000000000000  0.4999999999932783  0.4070133268666680   F   F   F
  0.0000000000000000  0.7500000000123208  0.4070133268666680   F   F   F
  0.3333333432766779  0.0000000000000000  0.4070133268666680   F   F   F
  0.3333333432766779  0.2500000000190425  0.4070133268666680   F   F   F
  0.3333333432766779  0.4999999999932783  0.4070133268666680   F   F   F
  0.3333333432766779  0.7500000000123208  0.4070133268666680   F   F   F
  0.6666666865533486  0.0000000000000000  0.4070133268666680   F   F   F
  0.6666666865533486  0.2500000000190425  0.4070133268666680   F   F   F
  0.6666666865533486  0.4999999999932783  0.4070133268666680   F   F   F
  0.6666666865533486  0.7500000000123208  0.4070133268666680   F   F   F
  0.1666666716383389  0.0000000000000000  0.4070133268666680   F   F   F
  0.1666666716383389  0.2500000000190425  0.4070133268666680   F   F   F
  0.1666666716383389  0.4999999999932783  0.4070133268666680   F   F   F
  0.1666666716383389  0.7500000000123208  0.4070133268666680   F   F   F
  0.5000000000021103  0.0000000000000000  0.4070133268666680   F   F   F
  0.5000000000021103  0.2500000000190425  0.4070133268666680   F   F   F
  0.5000000000021103  0.7500000000123208  0.4070133268666680   F   F   F
  0.1670821312255787  0.1242971108304690  0.4993124780341787   T   T   T
  0.9176230425198804  0.0633482518355236  0.5474586235343220   T   T   T
  0.1678014725881158  0.8732024594101235  0.4999471414572509   T   T   T
  0.2518971966784600  0.1881151348723290  0.5472766586005838   T   T   T
  0.7491712908167284  0.9342391649717648  0.5475218658417174   T   T   T
  0.7518262834680437  0.6801184404924667  0.5533686948207216   T   T   T
  0.7520095641887768  0.4355223015936948  0.5488376659395009   T   T   T
  0.4231634876203897  0.4435062974560135  0.5459857295839832   T   T   T
  0.4231266156033907  0.6878051127308046  0.5467888135520919   T   T   T
  0.7489634986313661  0.1842353700900340  0.5503371133580992   T   T   T
  0.4160191355677063  0.9368514179429471  0.5459741890232032   T   T   T
  0.0836194369969228  0.9389445388800493  0.5457396196388984   T   T   T
  0.4157226055294848  0.1913382068367475  0.5464998386814656   T   T   T
  0.0863696129271951  0.6896049518370591  0.5451817950127004   T   T   T
  0.0828371967392006  0.4385145540920332  0.5452980731171817   T   T   T
  0.0838053928082672  0.1888790744522668  0.5456626378683967   T   T   T
  0.4994732566456012  0.1255772013017311  0.4996306885439733   T   T   T
  0.9996937433068435  0.4988264117576768  0.5946604799605355   T   T   T
  0.9994516977715175  0.7537527107516878  0.5921992798962858   T   T   T
  0.3346609265555862  0.2545772658612039  0.5927096420517984   T   T   T
  0.3339749131230407  0.9998067693147673  0.5920231309760167   T   T   T
  0.9996974515563615  0.9985122403295718  0.5927890553768247   T   T   T
  0.0011766968238415  0.2497768030742969  0.5918861394873756   T   T   T
  0.3333912697642992  0.4964816505587346  0.5911487949888392   T   T   T
  0.3356242354879883  0.7399224976912893  0.5911790639599164   T   T   T
  0.6637250993961576  0.2470158400370318  0.5907325989257959   T   T   T
  0.6657952203663221  0.0005837706658907  0.5918765873912504   T   T   T
  0.6659827219145387  0.7420092469384104  0.5899677627910851   T   T   T
  0.6668006730835517  0.4941295134361679  0.5913726250794166   T   T   T
  0.1673642301055078  0.9982746913592518  0.5922847933777030   T   T   T
  0.1685369538864444  0.2492379418101440  0.5930999240107679   T   T   T
  0.1706073107362134  0.7499376484255509  0.5948830787940926   T   T   T
  0.2483385976740942  0.4359318844594053  0.5491353693321177   T   T   T
  0.1654595849940692  0.5031212855369500  0.5876626609174015   T   T   T
  0.2491601726415869  0.6832934519022790  0.5519735368909772   T   T   T
  0.5807928951704650  0.1858953351306129  0.5495259752805780   T   T   T
  0.9153757938379211  0.8130732706267296  0.5469541120992089   T   T   T
  0.9167600720628699  0.5634339509367533  0.5466364601679263   T   T   T
  0.5811813022073918  0.5601503815973768  0.5492664663912028   T   T   T
  0.5862606682202353  0.8146685752061963  0.5503928516641133   T   T   T
  0.5830718388722568  0.3115248974941725  0.5455616918813155   T   T   T
  0.5826975321218261  0.0631395037997666  0.5467238412281611   T   T   T
  0.2537525474095517  0.8127546805302134  0.5512701693816122   T   T   T
  0.2523848577515130  0.5589473341413259  0.5440292591233398   T   T   T
  0.2494898104385124  0.3137466860148548  0.5459642075152643   T   T   T
  0.2510584192488955  0.0624891624061135  0.5472969697466490   T   T   T
  0.7485703792671793  0.8082629486585993  0.5456771452790550   T   T   T
  0.7465968923908871  0.5578229573859089  0.5447311128318090   T   T   T
  0.4138597391988511  0.8114254735757175  0.5480278299228321   T   T   T
  0.7483129989226484  0.0598658289723988  0.5444081558717657   T   T   T
  0.7477853041634713  0.3123786191335952  0.5491207602555020   T   T   T
  0.4161202686377000  0.3193778553906958  0.5525550171938461   T   T   T
  0.4204025896848569  0.5646165490830249  0.5555468295172991   T   T   T
  0.4164379572643570  0.0652781103589594  0.5473240383668067   T   T   T
  0.0848701674706821  0.8129219388371693  0.5473128488096592   T   T   T
  0.0824111178028425  0.5640313351328116  0.5464090702897729   T   T   T
  0.0863924250556383  0.3134207852218411  0.5469147581537100   T   T   T
  0.0823267684275981  0.0631992471701950  0.5475271935177610   T   T   T
  0.9157310341083573  0.9387219587915602  0.5460831561448141   T   T   T
  0.9132527593592159  0.6894572641180613  0.5449477217363815   T   T   T
  0.5835499317666141  0.9381623902987616  0.5456442471043298   T   T   T
  0.9167982463538128  0.1888418920550096  0.5454431270937194   T   T   T
  0.9156919663691307  0.4373422092631521  0.5458476714423707   T   T   T
  0.5766652018654762  0.4360431447038010  0.5517659635019110   T   T   T
  0.5795678018519027  0.6864178457534896  0.5471605293024621   T   T   T
  0.2515269134269490  0.9372666657356005  0.5451979501378823   T   T   T
  0.4976750703046115  0.5041815944235606  0.6090346686532589   T   T   T
  0.4986268702060337  0.2527746695934657  0.5908805662986446   T   T   T
  0.4995846226380972  0.0000349590475376  0.5910020694223370   T   T   T
  0.7533578028433294  0.6923830908981206  0.6571936967053879   T   T   T
  0.7483680819639605  0.9367542328327176  0.6398763838788062   T   T   T
  0.2534479055296416  0.1863646673660247  0.6411335686061045   T   T   T
  0.7470076631691558  0.1932153846791530  0.6457880306982573   T   T   T
  0.7545293031782612  0.4324062192516141  0.6374672033243426   T   T   T
  0.4173104640426730  0.9349376115985369  0.6397065807528267   T   T   T
  0.4216092425705324  0.6755595436798467  0.6337160598025747   T   T   T
  0.5905770314219477  0.8104157965342559  0.6457855611268862   T   T   T
  0.9163249890878893  0.0623139424625442  0.6414725521768581   T   T   T
  0.9129166182858783  0.5615568631697826  0.6425342803297891   T   T   T
  0.9154071438198788  0.3120288692623573  0.6395012161602263   T   T   T
  0.9139304428777214  0.8126076556174398  0.6415970360660965   T   T   T
  0.5821249048252061  0.0654597292018420  0.6397816648521240   T   T   T
  0.5844654387702682  0.3199667408773506  0.6339465436537011   T   T   T
  0.5912896217491191  0.5645226689524268  0.6395143140505010   T   T   T
  0.2475402399632319  0.5737483052014972  0.6288837491114182   T   T   T
  0.2617171035996977  0.7983076966149469  0.6469170199491524   T   T   T
  0.2493602251151075  0.3162870495810924  0.6414877116270754   T   T   T
  0.2508053733329781  0.0592869973322670  0.6422221052087937   T   T   T
  0.9166666865332829  0.5625000000092442  0.3605200052333331   F   F   F
  0.4995743140078790  0.3741300888134105  0.4999081657751087   T   T   T
  0.4999894656983335  0.8725942037295117  0.5009146915028392   T   T   T
  0.5003505834264363  0.6210336899462338  0.5001321426891328   T   T   T
  0.8322848937686457  0.6230704587701915  0.4999912327245751   T   T   T
  0.8327510261181953  0.8746081356911642  0.4984836580547483   T   T   T
  0.8324445584137155  0.3730809649401828  0.4997780936996107   T   T   T
  0.8328808085005514  0.1245397057593879  0.4995728970116532   T   T   T
  0.1667325264940296  0.3762194892336559  0.4977987519189275   T   T   T
  0.1677489074461887  0.6242869564746304  0.5000530391552467   T   T   T
  0.5813484181569136  0.4378387827368199  0.6458887407599204   T   T   T
  0.5806584072941140  0.6852053403816323  0.6387458626475936   T   T   T
  0.9168168085810541  0.1864237395303477  0.6400337927098659   T   T   T
  0.5817975157601036  0.9352767203883275  0.6390679372139531   T   T   T
  0.8304850072188413  0.7505854816447305  0.5928423059274687   T   T   T
  0.8319379900801619  0.2492742752944296  0.5910079513216759   T   T   T
  0.8331884172655768  0.5023823165346518  0.5892423975800549   T   T   T
  0.8322644876358468  0.0019470455721530  0.5922412937362574   T   T   T
  0.5011100331299220  0.7563290559494316  0.5928526955130198   T   T   T
  0.4176237087932970  0.0651154806884732  0.6401197678675049   T   T   T
  0.4270750169200244  0.3042413395050556  0.6555962849494540   T   T   T
  0.4119980034296690  0.8124504910371785  0.6397697111496792   T   T   T
  0.3981911245293706  0.5505132987228024  0.6524465083901342   T   T   T
  0.7535125818240828  0.5682468642372084  0.6357711263251239   T   T   T
  0.7411166956115683  0.8098340875163911  0.6400015502043532   T   T   T
  0.7468803952722004  0.3099971854325378  0.6425326211577599   T   T   T
  0.7477745053991385  0.0672345733065779  0.6388356784692099   T   T   T
  0.0838692313759700  0.3118370293302890  0.6405605014848412   T   T   T
  0.6665787903427570  0.8744644850700450  0.4989015350237521   T   T   T
  0.0870025993410886  0.5617865037929893  0.6419516057481143   T   T   T
  0.0836037996738549  0.0604663126704345  0.6415361928880268   T   T   T
  0.0871441284875604  0.4365299513133893  0.6397210531800416   T   T   T
  0.0838338579870656  0.1855807780409083  0.6411203413148636   T   T   T
  0.4177153263905071  0.1872014658452841  0.6396328778867827   T   T   T
  0.4154280800844577  0.4182962593940038  0.6301920418667076   T   T   T
  0.0841611633161082  0.9352663690871466  0.6408283112310891   T   T   T
  0.0830186104071613  0.6871160826946452  0.6398540429914427   T   T   T
  0.9125217144837477  0.4360856580170715  0.6397067375163183   T   T   T
  0.9165260749018143  0.6874081999086951  0.6397299617325445   T   T   T
  0.9143662238202299  0.9366039797944578  0.6409378618974084   T   T   T
  0.2406207700329276  0.4420056927302617  0.6415723027443533   T   T   T
  0.2539278548267877  0.6764479810943175  0.6635721964910124   T   T   T
  0.5795378709544547  0.1913119673660856  0.6451937444852661   T   T   T
  0.2518818664900838  0.9299693738382762  0.6373869028982262   T   T   T
  0.0840196041508612  0.8118297103727155  0.6418435001368733   T   T   T
  0.9166666865332829  0.8124999999834799  0.3605200052333331   F   F   F
  0.0006874698027729  0.1229292314567866  0.6192776337118513   T   T   T
  0.8333332538436267  0.6249999999803961  0.4070133268666680   F   F   F
  0.9996117168019666  0.5005459760042619  0.5073112065893089   T   T   T
  0.3312072274291165  0.4991924747522020  0.5010518425281165   T   T   T
  0.3300910153514786  0.2481096217086333  0.5028715804106996   T   T   T
  0.3330652342129719  0.0009289972615014  0.5057758778892665   T   T   T
  0.3337702539375733  0.7508865678884227  0.5016780991396022   T   T   T
  0.6658354281290569  0.0000256797657969  0.5055740951638197   T   T   T
  0.6685788045653058  0.4997848980603922  0.5007126200120322   T   T   T
  0.6668841074102343  0.2477811119745642  0.5027880544434984   T   T   T
  0.6654583371816001  0.7519108978244243  0.5021324226708503   T   T   T
  0.1659847109786979  0.0011099382302456  0.5065181162373847   T   T   T
  0.1664037395324366  0.2482888125371673  0.5062034779920802   T   T   T
  0.1634056395531246  0.4998621997180243  0.5021764155964824   T   T   T
  0.5001099206615038  0.9992845102529037  0.5055208566325513   T   T   T
  0.1642336054087348  0.7513061107341310  0.5033488789981334   T   T   T
  0.5009599169817615  0.7526155799084986  0.5039486298517089   T   T   T
  0.8342552099398755  0.0002655982077889  0.5064566670640991   T   T   T
  0.5012539345100525  0.4996229927066814  0.5003078813821910   T   T   T
  0.5012118905776629  0.2478664642319245  0.5021636526987114   T   T   T
  0.8358782939062608  0.2483923678598889  0.5027064602360390   T   T   T
  0.9997602421427065  0.7506558011743836  0.5065550679795187   T   T   T
  0.0009288652544790  0.2497826652279626  0.5059139271466990   T   T   T
  0.0000238873753683  0.9999872008523507  0.5064686190641312   T   T   T
  0.8333332538436267  0.8749999404036828  0.4070133268666680   F   F   F
  0.0000000000000000  0.6249999999803961  0.4070133268666680   F   F   F
  0.0000000000000000  0.8749999404036828  0.4070133268666680   F   F   F
  0.3333333432766779  0.1249999999871179  0.4070133268666680   F   F   F
  0.3333333432766779  0.3750000000061604  0.4070133268666680   F   F   F
  0.3333333432766779  0.6249999999803961  0.4070133268666680   F   F   F
  0.3333333432766779  0.8749999404036828  0.4070133268666680   F   F   F
  0.6666666865533486  0.1249999999871179  0.4070133268666680   F   F   F
  0.6666666865533486  0.3750000000061604  0.4070133268666680   F   F   F
  0.6666666865533486  0.6249999999803961  0.4070133268666680   F   F   F
  0.8361746455380977  0.5000069118693287  0.5029116545963661   T   T   T
  0.6666666865533486  0.8749999404036828  0.4070133268666680   F   F   F
  0.1666666716383389  0.3750000000061604  0.4070133268666680   F   F   F
  0.1666666716383389  0.6249999999803961  0.4070133268666680   F   F   F
  0.1666666716383389  0.8749999404036828  0.4070133268666680   F   F   F
  0.5000000000021103  0.1249999999871179  0.4070133268666680   F   F   F
  0.5000000000021103  0.3750000000061604  0.4070133268666680   F   F   F
  0.5000000000021103  0.6249999999803961  0.4070133268666680   F   F   F
  0.5000000000021103  0.8749999404036828  0.4070133268666680   F   F   F
  0.8333332538436267  0.1249999999871179  0.4070133268666680   F   F   F
  0.8333332538436267  0.3750000000061604  0.4070133268666680   F   F   F
  0.1666666716383389  0.1249999999871179  0.4070133268666680   F   F   F
  0.0000000000000000  0.3750000000061604  0.4070133268666680   F   F   F
  0.8359197784714042  0.7517298449019300  0.5025200276400545   T   T   T
  0.8380532420636383  0.3727531839235320  0.6030869174950396   T   T   T
  0.8320121713476052  0.8757906350266674  0.6182931245679775   T   T   T
  0.8403902266579849  0.6265642214405155  0.6033467807929683   T   T   T
  0.9989714478133346  0.8745994626235446  0.6218385844636453   T   T   T
  0.3313744504017513  0.1196083994788018  0.6129727274490366   T   T   T
  0.3343361540280905  0.6238784904797616  0.5955120215250650   T   T   T
  0.3261046258219912  0.3736119388412708  0.5928581879072994   T   T   T
  0.6709939902319845  0.3721449745139223  0.5936365866792509   T   T   T
  0.6651034463889580  0.1238807513998973  0.6116294078250223   T   T   T
  0.3344195365295535  0.8786469591189497  0.6029777543285924   T   T   T
  0.1586538203252176  0.6269500353597877  0.6016554502218897   T   T   T
  0.1660497042660324  0.8729228313321339  0.6181949882671646   T   T   T
  0.5020880699731496  0.3708730495472039  0.5950415414722064   T   T   T
  0.5003054324052818  0.1220722685249339  0.6067495045473602   T   T   T
  0.1675959453188821  0.1224915837107973  0.6215903763428113   T   T   T
  0.1634065788916697  0.3714580684870402  0.6077399096245438   T   T   T
  0.6652773999416494  0.8809141463054229  0.6069005234835958   T   T   T
  0.6664849263241348  0.6263675608780048  0.5936212306889772   T   T   T
  0.0002773785283048  0.3751005516402608  0.6228042913656641   T   T   T
  0.9997371588039355  0.6221115482585394  0.6428008950840619   T   T   T
  0.8342714938531849  0.1240062842480526  0.6178261934047422   T   T   T
  0.5003004852756165  0.8764189467661014  0.6095971042198908   T   T   T
  0.0000000000000000  0.1249999999871179  0.4070133268666680   F   F   F
  0.5040688273348690  0.6248878791015118  0.5939386058974659   T   T   T
  0.9164387473870247  0.9997761713733447  0.6038033541701834   T   T   T
  0.5844919517907083  0.7500395451448095  0.5994754630108019   T   T   T
  0.5904737642415273  0.5010562694979382  0.5935655745031125   T   T   T
  0.2422989651694479  0.4979267319361443  0.5939736068796383   T   T   T
  0.2492349126110358  0.7524945008062176  0.5921568303614423   T   T   T
  0.5848795007416479  0.2471278701688789  0.5969831990017082   T   T   T
  0.5825009945421266  0.0008882641265955  0.6043068059298142   T   T   T
  0.2494416782654353  0.9974492454178354  0.6042225465875721   T   T   T
  0.2493073645433496  0.2459735773354972  0.6037556112089798   T   T   T
  0.4170287310886332  0.0000636296994772  0.6046439122844025   T   T   T
  0.4148660869260205  0.2483681493143829  0.5912235534473054   T   T   T
  0.4160681030734005  0.7499573007751139  0.5945728835129889   T   T   T
  0.7563218702042612  0.5024419527008928  0.5948979508811544   T   T   T
  0.7518087590638780  0.7525448237654586  0.5904794444062860   T   T   T
  0.7544815141759824  0.2479991790752353  0.5927686190951084   T   T   T
  0.7496233396502588  0.0016705822176115  0.6041291691053172   T   T   T
  0.0838830843607424  0.2481075834380283  0.6038087111219071   T   T   T
  0.0813672972937237  0.5001501962618793  0.6035854216469290   T   T   T
  0.0802208440404767  0.7507454099602617  0.6031619094407410   T   T   T
  0.0832763608100429  0.9981858527471152  0.6035084885057791   T   T   T