 C  H                                   
   1.00000000000000     
    23.6707801818999997    0.0000000000000000    0.0000000000000000
     0.0000000000000000   22.3170261383000010    0.0000000000000000
     0.0000000000000000    0.0000000000000000   30.0000000000000000
   C    H 
     2     6
Direct
  0.5000000000000000  0.4999995774054753  0.5254785877188013
  0.5000000000000000  0.5000004225945247  0.4745214122811987
  0.5000000000000000  0.5456522190154871  0.5385872547280144
  0.4627256588822704  0.4771739549636820  0.5385870568300746
  0.5372743411177296  0.4771739549636820  0.5385870568300746
  0.5000000000000000  0.4543477809845129  0.4614127452719856
  0.4627256588822704  0.5228260450363180  0.4614129431699254
  0.5372743411177296  0.5228260450363179  0.4609129431699253
 
  0.00000000E+00  0.00000000E+00  0.00000000E+00
  0.00000000E+00  0.00000000E+00  0.00000000E+00
  0.00000000E+00  0.00000000E+00  0.00000000E+00
  0.00000000E+00  0.00000000E+00  0.00000000E+00
  0.00000000E+00  0.00000000E+00  0.00000000E+00
  0.00000000E+00  0.00000000E+00  0.00000000E+00
  0.00000000E+00  0.00000000E+00  0.00000000E+00
  0.00000000E+00  0.00000000E+00  0.00000000E+00
