Au  C  H  O Sr Ti                       
   1.00000000000000     
    23.6707801818999997    0.0000000000000000    0.0000000000000000
     0.0000000000000000   22.3170261383000010    0.0000000000000000
     0.0000000000000000    0.0000000000000000   30.0000000000000000
   Au   H    O    Sr   Ti
    50     1   265    72    72
Selective dynamics
Direct
  0.7138154058285693  0.5227349402349049  0.7529190520631843   F   F   F
  0.6199387560337115  0.5706884179685190  0.7043659791810839   F   F   F
  0.7251997404131316  0.2579937823566567  0.6911772788936617   F   F   F
  0.2943639569490912  0.7465270004103530  0.6962028902967816   F   F   F
  0.5117867302917958  0.6035547112606423  0.7768619843640892   F   F   F
  0.5783817546401551  0.7258049940766966  0.7940168037435242   F   F   F
  0.2402375172235622  0.4693448102852571  0.7091550508282651   F   F   F
  0.2854095382838224  0.6625570808556418  0.7643623180144417   F   F   F
  0.5968874878321273  0.2962092521558546  0.7870722393060987   F   F   F
  0.5139634330809955  0.4839107882515208  0.6781149922245859   F   F   F
  0.5622998355070692  0.4860818694905831  0.7625825277036711   F   F   F
  0.5526701990529332  0.2150457109054642  0.7108574872794620   F   F   F
  0.5439609366511107  0.3873511800074994  0.8313971413181065   F   F   F
  0.3918082979252020  0.8170402503828527  0.7066542134208618   F   F   F
  0.4638247695130246  0.6953613425365006  0.8303640625382513   F   F   F
  0.4372491383316444  0.2283830197712788  0.6977249008045376   F   F   F
  0.3694085044847242  0.2992000533812273  0.7559426529143849   F   F   F
  0.3491241846175797  0.4996512244141300  0.6976115870011839   F   F   F
  0.4262023472645708  0.3729289057194123  0.8174170829743730   F   F   F
  0.5965054614352638  0.7845382627687556  0.7129995735996246   F   F   F
  0.6344315464065744  0.5836523592757459  0.8002488278435820   F   F   F
  0.7317246650950437  0.6136109475487217  0.6942422930608032   F   F   F
  0.4857963832465586  0.7753391132412304  0.7544655704303409   F   F   F
  0.7621685905290150  0.4284256577462671  0.7046478379750880   F   F   F
  0.4834309506833705  0.2711510850850445  0.7752175192861017   F   F   F
  0.2891141689570844  0.5384660933395011  0.7772087873446196   F   F   F
  0.6183976715947992  0.3186912527275467  0.6970834382248512   F   F   F
  0.3682394693105806  0.6191383229540364  0.8202113585090345   F   F   F
  0.5686264682741253  0.5101421402209354  0.8570586310911494   F   F   F
  0.6810195791182352  0.2147677838430795  0.7651919562319307   T   T   T
  0.4682900795815073  0.4526388001837276  0.8819351931526995   F   F   F
  0.5180796981683429  0.3771489565634454  0.7332002895195586   F   F   F
  0.2819989358121688  0.3399017838289780  0.7022846577618864   F   F   F
  0.6690653463034053  0.6809288684617911  0.7488704335944547   F   F   F
  0.3975257750615313  0.3817617313846995  0.6904485919323378   F   F   F
  0.4521831315103597  0.5794785140768610  0.7027926441902181   F   F   F
  0.3745961621497997  0.4936235862057217  0.8328789266834349   F   F   F
  0.3246842949269677  0.4150636889013484  0.7694156054157730   F   F   F
  0.4150681891755852  0.6950173158767541  0.6996539987152346   F   F   F
  0.7030551282594928  0.3383160299521180  0.7597765723598684   F   F   F
  0.7717831833485675  0.4270857229654297  0.7947390802217740   F   F   F
  0.2568313036087986  0.5930435596672154  0.6944666176672456   F   F   F
  0.6477242990760246  0.4446964651294394  0.6943087222553075   F   F   F
  0.5647249651667394  0.6398361693419545  0.8613573490295749   F   F   F
  0.5399071747884818  0.6680238360284747  0.7016398664660812   F   F   F
  0.4429655536818800  0.4731879740110259  0.7561809840154723   F   F   F
  0.3743998430627755  0.7398259603664741  0.7791386942531418   F   F   F
  0.4622524505524055  0.5742870569607348  0.8644124489113523   F   F   F
  0.6531798098715740  0.4371508836958782  0.8122698226980702   F   F   F
  0.7065745246047967  0.7563767333269098  0.6884185096056825   F   F   F
  0.7230109056954817  0.1123113780386404  0.7692972909423901   T   T   T
  0.2494629288497521  0.3136810192418693  0.5459665537540985   F   F   F
  0.7505878105820827  0.1897462543048931  0.4556259164398284   F   F   F
  0.4170766600373526  0.9357295311460661  0.4539199428156664   F   F   F
  0.4171835374369337  0.6847382984345458  0.4547451394189963   F   F   F
  0.4168452653490249  0.4354507278261863  0.4539106592226574   F   F   F
  0.0845785524327098  0.6869080589274859  0.4530585174688113   F   F   F
  0.0838830415338236  0.9366827008053775  0.4534690635220429   F   F   F
  0.0827883083715975  0.4367964723173046  0.4528520913883725   F   F   F
  0.0838605985955780  0.1865914694622148  0.4529778303128040   F   F   F
  0.9165017426422608  0.8120210756951849  0.4540871555521520   F   F   F
  0.0833333358191695  0.3124999999901945  0.3605200052333331   F   F   F
  0.7465398583278358  0.5575980997132390  0.5446927848246403   F   F   F
  0.9163175339689289  0.0618841013945186  0.4542318893476036   F   F   F
  0.9162240502899337  0.3121325807144189  0.4539054911349751   F   F   F
  0.4172225086608847  0.1871699446069002  0.4534801672907278   F   F   F
  0.2521869935704117  0.6875597204797117  0.4559989682715226   F   F   F
  0.9167229174161520  0.9366369487517900  0.4533323669038793   F   F   F
  0.5827384928970361  0.1901781740480288  0.4555862959853485   F   F   F
  0.0001695820447551  0.1249711845999073  0.4983224485324271   F   F   F
  0.5828836500491690  0.8106057401671478  0.4552271801248793   F   F   F
  0.0001098101086754  0.3734983664627123  0.4984725867838549   F   F   F
  0.9998592314755470  0.6271299250684805  0.4977247569738168   F   F   F
  0.3337326430180312  0.1257444769355089  0.4985056602975533   F   F   F
  0.0001589288038488  0.8748157260769389  0.4994111110167054   F   F   F
  0.3333745570739310  0.8736525966680873  0.4992181410732144   F   F   F
  0.6660115000672064  0.1260773452753128  0.4990152887453903   F   F   F
  0.2511752337506366  0.4392911574707057  0.4549177497462225   F   F   F
  0.0833333358191695  0.5625000000092442  0.3605200052333331   F   F   F
  0.9166666865332829  0.0625000000159659  0.3605200052333331   F   F   F
  0.7499008973886134  0.8132174172331972  0.4530341133777966   F   F   F
  0.7496555510636753  0.4382579208281143  0.4558474934948507   F   F   F
  0.2505430521220831  0.0620250774869433  0.4542398739498026   F   F   F
  0.7490504494281254  0.6886294911157407  0.4575248272679815   F   F   F
  0.2498769465324386  0.1884824029545342  0.4540921393033557   F   F   F
  0.2500265756427353  0.9360549809425791  0.4540108484976955   F   F   F
  0.6654356063407008  0.6257817862939490  0.5030025933726492   F   F   F
  0.5844521779209160  0.5627625282694098  0.4548675262580346   F   F   F
  0.5832204240015031  0.0636137444657052  0.4538768945317955   F   F   F
  0.9166666865332829  0.6874999999963620  0.3605200052333331   F   F   F
  0.9166666865332829  0.4374999701794380  0.3605200052333331   F   F   F
  0.9166666865332829  0.1875000000030838  0.3605200052333331   F   F   F
  0.5833333134730552  0.9375000000154046  0.3605200052333331   F   F   F
  0.5833333134730552  0.6874999999963620  0.3605200052333331   F   F   F
  0.5833333134730552  0.4374999701794380  0.3605200052333331   F   F   F
  0.5833333134730552  0.1875000000030838  0.3605200052333331   F   F   F
  0.2499999999799343  0.9375000000154046  0.3605200052333331   F   F   F
  0.9166666865332829  0.9375000000154046  0.3605200052333331   F   F   F
  0.2499999999799343  0.6874999999963620  0.3605200052333331   F   F   F
  0.2499999999799343  0.1875000000030838  0.3605200052333331   F   F   F
  0.7499999404149307  0.9375000000154046  0.3605200052333331   F   F   F
  0.7499999404149307  0.6874999999963620  0.3605200052333331   F   F   F
  0.7499999404149307  0.4374999701794380  0.3605200052333331   F   F   F
  0.7499999404149307  0.1875000000030838  0.3605200052333331   F   F   F
  0.4166666269218169  0.9375000000154046  0.3605200052333331   F   F   F
  0.4166666269218169  0.6874999999963620  0.3605200052333331   F   F   F
  0.4166666269218169  0.4374999701794380  0.3605200052333331   F   F   F
  0.2499999999799343  0.4374999701794380  0.3605200052333331   F   F   F
  0.0833333358191695  0.0625000000159659  0.3605200052333331   F   F   F
  0.9153509225991527  0.6866971702479390  0.4532164880259586   F   F   F
  0.6656033161203823  0.3784832832334075  0.5031479248112873   F   F   F
  0.3344098013202981  0.3784708642091275  0.5029634583757812   F   F   F
  0.3356357283161131  0.6257849390569490  0.5037704291088474   F   F   F
  0.9177573799276857  0.0633691965261889  0.5476108735925536   F   F   F
  0.7494947941129908  0.9384182489029058  0.4553542087866376   F   F   F
  0.9154615672760329  0.3128292450992234  0.5467691905241097   F   F   F
  0.2522899053848988  0.3141171560997833  0.4541343212338376   F   F   F
  0.2519160079206699  0.5645810634866777  0.4537859477132145   F   F   F
  0.2499999999799343  0.8124999999834799  0.3605200052333331   F   F   F
  0.2499999999799343  0.5625000000092442  0.3605200052333331   F   F   F
  0.2499999999799343  0.3124999999901945  0.3605200052333331   F   F   F
  0.2499999999799343  0.0625000000159659  0.3605200052333331   F   F   F
  0.7499999404149307  0.5625000000092442  0.3605200052333331   F   F   F
  0.7499999404149307  0.3124999999901945  0.3605200052333331   F   F   F
  0.7499999404149307  0.0625000000159659  0.3605200052333331   F   F   F
  0.4166666269218169  0.8124999999834799  0.3605200052333331   F   F   F
  0.4166666269218169  0.5625000000092442  0.3605200052333331   F   F   F
  0.4166666269218169  0.3124999999901945  0.3605200052333331   F   F   F
  0.7499999404149307  0.8124999999834799  0.3605200052333331   F   F   F
  0.0835195614614648  0.3120139190872351  0.4540291808294441   F   F   F
  0.4166666269218169  0.0625000000159659  0.3605200052333331   F   F   F
  0.4169935450149396  0.0615837741292964  0.4553460611028655   F   F   F
  0.0835395201014251  0.8120454124210497  0.4541808200380828   F   F   F
  0.0839451056689455  0.5624995388274314  0.4538871500509458   F   F   F
  0.4160574420016587  0.5595230789762695  0.4578712202989763   F   F   F
  0.0837850799062423  0.0618729792917989  0.4541689162563998   F   F   F
  0.4155884102216660  0.3113826721581816  0.4573608479430860   F   F   F
  0.8333332538436267  0.7500000000123208  0.4070133268666680   F   F   F
  0.0833333358191695  0.4374999701794380  0.3605200052333331   F   F   F
  0.0833333358191695  0.6874999999963620  0.3605200052333331   F   F   F
  0.0833333358191695  0.9375000000154046  0.3605200052333331   F   F   F
  0.4166666269218169  0.1875000000030838  0.3605200052333331   F   F   F
  0.0833333358191695  0.8124999999834799  0.3605200052333331   F   F   F
  0.8333332538436267  0.4999999999932783  0.4070133268666680   F   F   F
  0.6838958530301652  0.1253682690515418  0.7682677284541790   T   T   T
  0.2510868291026398  0.0625618997347104  0.5472568400408164   F   F   F
  0.4143365175079268  0.8117267183065096  0.5479380159964649   F   F   F
  0.5833333134730552  0.0625000000159659  0.3605200052333331   F   F   F
  0.5833333134730552  0.3124999999901945  0.3605200052333331   F   F   F
  0.5833333134730552  0.8124999999834799  0.3605200052333331   F   F   F
  0.7494787972063364  0.0640057430338103  0.4533460544367216   F   F   F
  0.2502811353112051  0.8107379013798734  0.4553196432003972   F   F   F
  0.8333332538436267  0.2500000000190425  0.4070133268666680   F   F   F
  0.5842704417212659  0.3150872187575686  0.4540856679515386   F   F   F
  0.8333332538436267  0.0000000000000000  0.4070133268666680   F   F   F
  0.7479865619450834  0.8078292261209725  0.5454959035224789   F   F   F
  0.0833333358191695  0.1875000000030838  0.3605200052333331   F   F   F
  0.0000000000000000  0.0000000000000000  0.4070133268666680   F   F   F
  0.0000000000000000  0.2500000000190425  0.4070133268666680   F   F   F
  0.0000000000000000  0.4999999999932783  0.4070133268666680   F   F   F
  0.7482814604071919  0.5641650192447685  0.4538748723432562   F   F   F
  0.3333333432766779  0.0000000000000000  0.4070133268666680   F   F   F
  0.3333333432766779  0.4999999999932783  0.4070133268666680   F   F   F
  0.3333333432766779  0.7500000000123208  0.4070133268666680   F   F   F
  0.6666666865533486  0.0000000000000000  0.4070133268666680   F   F   F
  0.5826693159596701  0.4393499919911221  0.4564429096071336   F   F   F
  0.6666666865533486  0.2500000000190425  0.4070133268666680   F   F   F
  0.6666666865533486  0.7500000000123208  0.4070133268666680   F   F   F
  0.1666666716383389  0.0000000000000000  0.4070133268666680   F   F   F
  0.1666666716383389  0.2500000000190425  0.4070133268666680   F   F   F
  0.1666666716383389  0.4999999999932783  0.4070133268666680   F   F   F
  0.1666666716383389  0.7500000000123208  0.4070133268666680   F   F   F
  0.5000000000021103  0.0000000000000000  0.4070133268666680   F   F   F
  0.5000000000021103  0.2500000000190425  0.4070133268666680   F   F   F
  0.5000000000021103  0.7500000000123208  0.4070133268666680   F   F   F
  0.9166666865332829  0.3124999999901945  0.3605200052333331   F   F   F
  0.3333333432766779  0.2500000000190425  0.4070133268666680   F   F   F
  0.7473464526754512  0.3141252373634416  0.4548026870695097   F   F   F
  0.0000000000000000  0.7500000000123208  0.4070133268666680   F   F   F
  0.4166875411412576  0.8098812024639415  0.4551319811230172   F   F   F
  0.5833333134730552  0.5625000000092442  0.3605200052333331   F   F   F
  0.6666666865533486  0.4999999999932783  0.4070133268666680   F   F   F
  0.5828191053102927  0.6861160000674360  0.4546274785523750   F   F   F
  0.5000000000021103  0.4999999999932783  0.4070133268666680   F   F   F
  0.9159169487174097  0.1866142451996140  0.4530147737878991   F   F   F
  0.4157947556518522  0.9370585369232245  0.5460067462708338   F   F   F
  0.4988848814348614  0.2532172901095890  0.5912749184039967   F   F   F
  0.4161016363141243  0.1915706986363617  0.5464293803792089   F   F   F
  0.0860819092918561  0.6893280377268240  0.5453288943220329   F   F   F
  0.0828738156392106  0.4389191658901268  0.5448669996170494   F   F   F
  0.0836422873804992  0.1889497389820889  0.5454815176370502   F   F   F
  0.4995952498378173  0.1256363594582268  0.4994848381446957   F   F   F
  0.9997953980554684  0.4995221954410027  0.5941364452058622   F   F   F
  0.5805711910866762  0.1851621237529315  0.5501356568014941   F   F   F
  0.9998425571314797  0.7531819527918628  0.5923312417713760   F   F   F
  0.3340464561533096  0.9998765718246432  0.5919721886739566   F   F   F
  0.9999487474348783  0.9992606584129859  0.5932357440777380   F   F   F
  0.0011933622669673  0.2499753603639903  0.5919089125449659   F   F   F
  0.3332972056392478  0.4962383819894995  0.5909601332967824   F   F   F
  0.3354119696633049  0.7410154053975688  0.5903793731306664   F   F   F
  0.6639586751629167  0.2460613645221343  0.5909486889116806   F   F   F
  0.6658752271432604  0.0009779773905478  0.5921105020559310   F   F   F
  0.6657368224457514  0.7415187455124297  0.5903647170090451   F   F   F
  0.6666515333522582  0.4944326876953156  0.5912613234837707   F   F   F
  0.1675085491370396  0.9983054421152175  0.5922951391006208   F   F   F
  0.1685429588171559  0.2481977343392927  0.5931149271537990   F   F   F
  0.1707374036554654  0.7501105907569610  0.5950030445551846   F   F   F
  0.2485057693401842  0.4358231446240310  0.5490924932267802   F   F   F
  0.1657329741378746  0.5027537693942605  0.5873506303820903   F   F   F
  0.3347647758915073  0.2543427079596157  0.5926241725951513   F   F   F
  0.4995467756632905  0.9999441392647626  0.5909517311155312   F   F   F
  0.8327876848474602  0.8747173225776592  0.4989234764684483   F   F   F
  0.7483451319801233  0.9368485931158332  0.6399155597841357   F   F   F
  0.8323495582967553  0.0017882539851044  0.5923171181435194   F   F   F
  0.7483707998429239  0.1831208311393056  0.5504580944628401   F   F   F
  0.4230107670318404  0.6878773020276228  0.5467873732486908   F   F   F
  0.4232256749389762  0.4437041455614761  0.5457577110232066   F   F   F
  0.7519989997279524  0.4347302883313660  0.5491835744495006   F   F   F
  0.5835170444332931  0.3112257945673846  0.5457784506522572   F   F   F
  0.2530303441532809  0.8125274809879173  0.5506616764132204   F   F   F
  0.5826141149645068  0.0616792655382596  0.5454731190351083   F   F   F
  0.5826835083060047  0.9371695624043141  0.4543236042664276   F   F   F
  0.5857224057406256  0.8142599963351529  0.5503156750061891   F   F   F
  0.7482113978985581  0.3109615456296098  0.5482329666453012   F   F   F
  0.5811472251635763  0.5600040165617841  0.5489089629927975   F   F   F
  0.2525625980299679  0.5591002692943761  0.5438775166982452   F   F   F
  0.4160472377761550  0.3195615280351305  0.5526191083251746   F   F   F
  0.5766418471286414  0.4357706978478717  0.5521891725830130   F   F   F
  0.4165656327817899  0.0654543819756555  0.5473284028609768   F   F   F
  0.0849714113284534  0.8128891132072837  0.5473260932872606   F   F   F
  0.0819564036829163  0.5643815767470386  0.5462994009384872   F   F   F
  0.0867075489146458  0.3135358877087810  0.5471272169155981   F   F   F
  0.5007555594408402  0.7561949094810814  0.5928169968762234   F   F   F
  0.0823372842464067  0.0632533834029090  0.5476079244926453   F   F   F
  0.9140557609376856  0.6890763925180750  0.5454084598966276   F   F   F
  0.5838563204396507  0.9376431995856365  0.5461188384245474   F   F   F
  0.9175009212364387  0.1891071275418810  0.5451231567502930   F   F   F
  0.9157336460372676  0.4376590061598264  0.5456938842948702   F   F   F
  0.5795369006949542  0.6860938011359110  0.5473815029111009   F   F   F
  0.2515512260062636  0.9372907829921573  0.5452201167444386   F   F   F
  0.4973623527937363  0.5044271943333527  0.6091235325637925   F   F   F
  0.9176020710720962  0.5638158162674642  0.5471174340649725   F   F   F
  0.4200290179488633  0.5648625292134781  0.5553935389990627   F   F   F
  0.9156001663431752  0.8128867859972999  0.5468406465782252   F   F   F
  0.0835943469960156  0.9389320703855475  0.5457344961866681   F   F   F
  0.2491155246292109  0.6831896469274383  0.5519296411803580   F   F   F
  0.7489065701427151  0.9339475359184419  0.5476540986717353   F   F   F
  0.7518001126143545  0.6799873203976574  0.5534161064260843   F   F   F
  0.9163219521103017  0.9388532922122010  0.5460494646621470   F   F   F
  0.4177096913960625  0.0651766991505127  0.6400202805490309   F   F   F
  0.9161115448781771  0.5621971277110944  0.4540777519060839   F   F   F
  0.4121651996802456  0.8125929563533276  0.6396169234080844   F   F   F
  0.9162650799723124  0.0618758780860915  0.6422415193020470   F   F   F
  0.9133139152780316  0.5622694763381304  0.6412184047965965   F   F   F
  0.9150288074173361  0.3118212542515835  0.6395123538831484   F   F   F
  0.9141718439777264  0.8132470469547144  0.6415905330479674   F   F   F
  0.5815039200409089  0.0660596863474439  0.6389772722903828   F   F   F
  0.5862189834744953  0.3205020986661324  0.6342215882297211   F   F   F
  0.5907702389596281  0.5653490044654390  0.6388541275203110   F   F   F
  0.2476379439973755  0.5736542018634836  0.6287373260909206   F   F   F
  0.7532870036223756  0.6908571068239127  0.6571497424211117   F   F   F
  0.2619658295733203  0.7998662499013989  0.6461821045490552   F   F   F
  0.2510339536531419  0.0593821878372367  0.6423463248657981   F   F   F
  0.9166666865332829  0.5625000000092442  0.3605200052333331   F   F   F
  0.4996592572669272  0.3740053128894729  0.5002289685780994   F   F   F
  0.5003091557760300  0.6211022114396059  0.5000940407195884   F   F   F
  0.8324007868733929  0.6230329076109271  0.5000775278422864   F   F   F
  0.2519975140354731  0.1882296591984201  0.5471945411948766   F   F   F
  0.8324631460575631  0.3730674405857926  0.4997723619510879   F   F   F
  0.8329530931267044  0.1243528630145576  0.4997285141439747   F   F   F
  0.1667902945781279  0.3762361525460207  0.4977428706808809   F   F   F
  0.1677663689292572  0.6243212791348043  0.4999984445914905   F   F   F
  0.5808066755191277  0.4382831390593722  0.6461523341889972   F   F   F
  0.5784668444247956  0.6857737003608904  0.6395425760950246   F   F   F
  0.9172683770652199  0.1865427460687457  0.6407242988530015   F   F   F
  0.2491301263236707  0.3162128684567591  0.6412302606047291   F   F   F
  0.9159157032628684  0.4368974664226428  0.4535961221446598   F   F   F
  0.1670832533771218  0.1243124891394203  0.4993339958258360   F   F   F
  0.7484663621887790  0.0593053536517587  0.5443782622722537   F   F   F
  0.1677089181454150  0.8733233619776328  0.4998567824441622   F   F   F
  0.4270771563484601  0.3050402482876535  0.6551384964280516   F   F   F
  0.5910757483497235  0.8100292298038312  0.6459954379063149   F   F   F
  0.4203439360586430  0.6756933789579520  0.6336674743507018   F   F   F
  0.4998850687891832  0.8733691172124196  0.5008516219261381   F   F   F
  0.7538379977047143  0.4327534855142261  0.6380599957934336   F   F   F
  0.7532090395940685  0.5678370397483192  0.6358832777272667   F   F   F
  0.3972400982232713  0.5504825700568645  0.6519253936589422   F   F   F
  0.4175286990430607  0.9349018253785530  0.6396992407804305   F   F   F
  0.7411670909991059  0.8095054001449498  0.6400873695127274   F   F   F
  0.7473052139894492  0.3107090356960285  0.6399711109575108   F   F   F
  0.7485470849045228  0.0672033778793377  0.6394938991127148   F   F   F
  0.0843474911482360  0.3113235244295467  0.6406218993604114   F   F   F
  0.6664564190991129  0.8741203072377459  0.4986730500835677   F   F   F
  0.0869508433028798  0.5627603334084412  0.6402427356185072   F   F   F
  0.0872542103737644  0.4365137845174090  0.6395562330298787   F   F   F
  0.0836115881580568  0.1853787820950572  0.6411465341308329   F   F   F
  0.4178249890077055  0.1877573016821046  0.6398254873155125   F   F   F
  0.4152685647273202  0.4187101992049449  0.6301102957048812   F   F   F
  0.0843577146823833  0.9355637894382909  0.6407097471016883   F   F   F
  0.0832098608404621  0.6870910572733564  0.6389871582515525   F   F   F
  0.0843387498000467  0.0603669060007022  0.6422127104817434   F   F   F
  0.8331250322131751  0.5023157280514425  0.5891048043978131   F   F   F
  0.9125514514574746  0.4360016671441826  0.6397764400399808   F   F   F
  0.8304123881404522  0.7509180265810116  0.5928240564543117   F   F   F
  0.8321969084140903  0.2470152186046590  0.5907306579257607   F   F   F
  0.7471149783408251  0.1941525481361168  0.6466851963696243   F   F   F
  0.9166666865332829  0.8124999999834799  0.3605200052333331   F   F   F
  0.5818443666749360  0.9354998054663994  0.6390290829519216   F   F   F
  0.0843090986326160  0.8125346002283891  0.6422603479556699   F   F   F
  0.5799970145185895  0.1921286801727931  0.6460064062236199   F   F   F
  0.2547666659722765  0.6775829983375701  0.6627216230899435   F   F   F
  0.2406096526730437  0.4419645288915461  0.6415794715487948   F   F   F
  0.9146425776065641  0.9366705435602469  0.6408376604050190   F   F   F
  0.9163476144630707  0.6876074311529976  0.6390852447008015   F   F   F
  0.2520974920058734  0.9302609124079453  0.6373849458748992   F   F   F
  0.2535916526794608  0.1864712693294166  0.6412980544805649   F   F   F
  0.0008208239170102  0.1222990387152265  0.6198093469008441   F   F   F
  0.1666666716383389  0.3750000000061604  0.4070133268666680   F   F   F
  0.6652851687673831  0.7518977422620878  0.5021854575538640   F   F   F
  0.5011260963914310  0.7528233057576301  0.5039157049227185   F   F   F
  0.6659548842252363  0.9998805991238058  0.5057282644561880   F   F   F
  0.1644516256392876  0.7515033203448311  0.5033645768023973   F   F   F
  0.8333332538436267  0.6249999999803961  0.4070133268666680   F   F   F
  0.6684630674868757  0.4998698852563450  0.5006560822679162   F   F   F
  0.3312650435497346  0.4991329871428292  0.5009379409061836   F   F   F
  0.3302937241500885  0.2479967024430110  0.5027871278693894   F   F   F
  0.3338753985238938  0.7511381681725666  0.5015058393708429   F   F   F
  0.6669187280829263  0.2475068789653889  0.5026922964210172   F   F   F
  0.5013450483097159  0.4996916402742286  0.5002408530108298   F   F   F
  0.9998089925743017  0.5003153991214973  0.5068485515260690   F   F   F
  0.8362330253551420  0.5001708807778869  0.5028711284786027   F   F   F
  0.8363361803873914  0.2483249106441292  0.5024372568479265   F   F   F
  0.6666666865533486  0.3750000000061604  0.4070133268666680   F   F   F
  0.1660582322179280  0.0011779426040448  0.5065472695667594   F   F   F
  0.0000000000000000  0.8749999404036828  0.4070133268666680   F   F   F
  0.5014683170429919  0.2478964599456575  0.5023411334627070   F   F   F
  0.0000025742613232  0.7509905558968697  0.5065636463014656   F   F   F
  0.0010404758637179  0.2498194320348901  0.5059375020396146   F   F   F
  0.0001618216838324  0.0000183706298813  0.5066153087518970   F   F   F
  0.6666666865533486  0.6249999999803961  0.4070133268666680   F   F   F
  0.8333332538436267  0.8749999404036828  0.4070133268666680   F   F   F
  0.3333333432766779  0.6249999999803961  0.4070133268666680   F   F   F
  0.3333333432766779  0.1249999999871179  0.4070133268666680   F   F   F
  0.3333333432766779  0.3750000000061604  0.4070133268666680   F   F   F
  0.8344317249243431  0.0000420600070967  0.5066646969456698   F   F   F
  0.3333333432766779  0.8749999404036828  0.4070133268666680   F   F   F
  0.6666666865533486  0.1249999999871179  0.4070133268666680   F   F   F
  0.0000000000000000  0.6249999999803961  0.4070133268666680   F   F   F
  0.1664624741620599  0.2481317956304849  0.5061885099377861   F   F   F
  0.3332139889467740  0.0012427893788995  0.5057743603429898   F   F   F
  0.5002368019362891  0.9992623584781839  0.5054401687826484   F   F   F
  0.5006209421138976  0.8766146450706529  0.6095153434118856   F   F   F
  0.3261701784090150  0.3733836063631344  0.5927301048223086   F   F   F
  0.0000000000000000  0.3750000000061604  0.4070133268666680   F   F   F
  0.3340974146871361  0.6243495647823067  0.5950041229138137   F   F   F
  0.5000000000021103  0.8749999404036828  0.4070133268666680   F   F   F
  0.8333332538436267  0.3750000000061604  0.4070133268666680   F   F   F
  0.1666666716383389  0.1249999999871179  0.4070133268666680   F   F   F
  0.6651749969947502  0.1243357297477488  0.6145343852681577   F   F   F
  0.5000000000021103  0.6249999999803961  0.4070133268666680   F   F   F
  0.8393580984500773  0.6270312660283253  0.6042497416236969   F   F   F
  0.3316643035604443  0.1198155826915368  0.6133640309700539   F   F   F
  0.9992847725896894  0.8749295253141298  0.6221523211416695   F   F   F
  0.1637354992390172  0.4998638221523493  0.5020661457197022   F   F   F
  0.5000000000021103  0.1249999999871179  0.4070133268666680   F   F   F
  0.8319677515955632  0.8760770267351248  0.6184802534377170   F   F   F
  0.8380404478244827  0.3728297546276025  0.6029182058246221   F   F   F
  0.8361042313549873  0.7518013094920519  0.5026049328742559   F   F   F
  0.1666666716383389  0.8749999404036828  0.4070133268666680   F   F   F
  0.8333332538436267  0.1249999999871179  0.4070133268666680   F   F   F
  0.0000000000000000  0.1249999999871179  0.4070133268666680   F   F   F
  0.5037664206531431  0.6250149983272593  0.5940655819485912   F   F   F
  0.6710770039880316  0.3721941760548191  0.5931986892779832   F   F   F
  0.5000000000021103  0.3750000000061604  0.4070133268666680   F   F   F
  0.6666666865533486  0.8749999404036828  0.4070133268666680   F   F   F
  0.3345653359796401  0.8786957640880360  0.6028853327885244   F   F   F
  0.1596780245635259  0.6273854599078774  0.6014536338880987   F   F   F
  0.1663903476212951  0.8734810843011829  0.6181613433175741   F   F   F
  0.5022894860257807  0.3707828764435348  0.5953647508669704   F   F   F
  0.1666666716383389  0.6249999999803961  0.4070133268666680   F   F   F
  0.1678424872000619  0.1227502325704322  0.6222042877641272   F   F   F
  0.5002304960817696  0.1225469651618241  0.6068521679410708   F   F   F
  0.9997475673671161  0.6229470430867394  0.6267355478331496   F   F   F
  0.0003623239530981  0.3747765998574764  0.6239788486088003   F   F   F
  0.8346774832920190  0.1242643483293620  0.6193892318031828   F   F   F
  0.6653737154042858  0.8810704276349810  0.6073511716721285   F   F   F
  0.1634451300037298  0.3712731805830316  0.6075781317083297   F   F   F
  0.6664560932761034  0.6261683075471822  0.5935748787937172   F   F   F
  0.0837896835170113  0.2477535942492537  0.6037129535233063   F   F   F
  0.7497469672021140  0.0019148168283323  0.6043438678361142   F   F   F
  0.5824574650256196  0.0009959786534495  0.6041272405739448   F   F   F
  0.9164816841451611  0.9999923122803196  0.6039389802705699   F   F   F
  0.5847571567363445  0.7498340034279707  0.5997541947464669   F   F   F
  0.5903125087368934  0.5013643317355800  0.5935400331856684   F   F   F
  0.2426105769163840  0.4976760815407104  0.5940535928911359   F   F   F
  0.5850973060593603  0.2469774472321404  0.5972503924105794   F   F   F
  0.2497476185769969  0.9977306482138459  0.6042090518869045   F   F   F
  0.7546662200168655  0.2473273384843893  0.5917279901967234   F   F   F
  0.2493071094219914  0.2455979163540079  0.6036020472909200   F   F   F
  0.4171318733828500  0.0000782471860035  0.6046671997010122   F   F   F
  0.2495942281745300  0.7527807802908484  0.5919432197698313   F   F   F
  0.0817477448118638  0.4998984168953626  0.6031425130822115   F   F   F
  0.0813261645017178  0.6259179556027021  0.5054915252388170   F   F   F
  0.2467696517078082  0.3728325493157030  0.5027452731356234   F   F   F
  0.0836826964856598  0.9987177954969297  0.6036361239461456   F   F   F
  0.7509023502262124  0.1214293400172153  0.5043937541706214   F   F   F