Au  C  H  O Sr Ti                       
   1.00000000000000     
    23.6707801818999997    0.0000000000000000    0.0000000000000000
     0.0000000000000000   22.3170261383000010    0.0000000000000000
     0.0000000000000000    0.0000000000000000   30.0000000000000000
   Au   H    O    Sr   Ti
    50     1   265    72    72
Selective dynamics
Direct
  0.7138154058285685  0.5227349402349054  0.7529190520631827   F   F   F 
  0.6199387560337087  0.5706884179685191  0.7043659791810810   F   F   F
  0.7251997404131292  0.2579937823566586  0.6911772788936607   F   F   F
  0.2943639569490936  0.7465270004103546  0.6962028902967828   F   F   F
  0.5117867302917927  0.6035547112606424  0.7768619843640924   F   F   F
  0.5783817546401566  0.7258049940766966  0.7940168037435253   F   F   F
  0.2402375172235621  0.4693448102852585  0.7091550508282675   F   F   F
  0.2854095382838203  0.6625570808556392  0.7643623180144405   F   F   F
  0.5968874878321286  0.2962092521558561  0.7870722393061019   F   F   F
  0.5139634330809958  0.4839107882515192  0.6781149922245847   F   F   F
  0.5622998355070670  0.4860818694905845  0.7625825277036713   F   F   F
  0.5526701990529322  0.2150457109054661  0.7108574872794592   F   F   F
  0.5439609366511101  0.3873511800075010  0.8313971413181095   F   F   F
  0.3918082979252007  0.8170402503828534  0.7066542134208598   F   F   F
  0.4638247695130266  0.6953613425364988  0.8303640625382502   F   F   F
  0.4372491383316440  0.2283830197712795  0.6977249008045353   F   F   F
  0.3694085044847272  0.2992000533812273  0.7559426529143828   F   F   F
  0.3491241846175785  0.4996512244141307  0.6976115870011809   F   F   F
  0.4262023472645727  0.3729289057194127  0.8174170829743721   F   F   F
  0.5965054614352612  0.7845382627687547  0.7129995735996270   F   F   F
  0.6344315464065741  0.5836523592757471  0.8002488278435816   F   F   F
  0.7317246650950440  0.6136109475487229  0.6942422930608004   F   F   F
  0.4857963832465610  0.7753391132412272  0.7544655704303432   F   F   F
  0.7621685905290149  0.4284256577462662  0.7046478379750847   F   F   F
  0.4834309506833688  0.2711510850850462  0.7752175192860988   F   F   F
  0.2891141689570856  0.5384660933395004  0.7772087873446196   F   F   F
  0.6183976715948007  0.3186912527275489  0.6970834382248547   F   F   F
  0.3682394693105818  0.6191383229540388  0.8202113585090336   F   F   F
  0.5686264682741288  0.5101421402209375  0.8570586310911468   F   F   F
  0.6810195791182319  0.2147677838430818  0.7651919562319297   T   T   T
  0.4682900795815053  0.4526388001837294  0.8819351931527024   F   F   F
  0.5180796981683405  0.3771489565634459  0.7332002895195561   F   F   F
  0.2819989358121704  0.3399017838289763  0.7022846577618884   F   F   F
  0.6690653463034086  0.6809288684617913  0.7488704335944576   F   F   F
  0.3975257750615308  0.3817617313846966  0.6904485919323403   F   F   F
  0.4521831315103627  0.5794785140768588  0.7027926441902210   F   F   F
  0.3745961621497977  0.4936235862057245  0.8328789266834326   F   F   F
  0.3246842949269696  0.4150636889013515  0.7694156054157765   F   F   F
  0.4150681891755848  0.6950173158767566  0.6996539987152366   F   F   F
  0.7030551282594907  0.3383160299521191  0.7597765723598705   F   F   F
  0.7717831833485699  0.4270857229654314  0.7947390802217750   F   F   F
  0.2568313036087969  0.5930435596672124  0.6944666176672426   F   F   F
  0.6477242990760267  0.4446964651294398  0.6943087222553093   F   F   F
  0.5647249651667376  0.6398361693419580  0.8613573490295727   F   F   F
  0.5399071747884854  0.6680238360284727  0.7016398664660832   F   F   F
  0.4429655536818776  0.4731879740110293  0.7561809840154691   F   F   F
  0.3743998430627758  0.7398259603664714  0.7791386942531429   F   F   F
  0.4622524505524083  0.5742870569607380  0.8644124489113514   F   F   F
  0.6531798098715768  0.4371508836958776  0.8122698226980707   F   F   F
  0.7065745246047989  0.7563767333269071  0.6884185096056809   F   F   F
  0.7230109056954800  0.1123113780386403  0.7692972909423936   T   T   T
  0.2494629288497534  0.3136810192418667  0.5459665537540963   F   F   F
  0.7505878105820841  0.1897462543048935  0.4556259164398310   F   F   F
  0.4170766600373561  0.9357295311460675  0.4539199428156638   F   F   F
  0.4171835374369371  0.6847382984345435  0.4547451394189995   F   F   F
  0.4168452653490238  0.4354507278261865  0.4539106592226604   F   F   F
  0.0845785524327072  0.6869080589274840  0.4530585174688139   F   F   F
  0.0838830415338214  0.9366827008053811  0.4534690635220433   F   F   F
  0.0827883083715954  0.4367964723173041  0.4528520913883745   F   F   F
  0.0838605985955798  0.1865914694622147  0.4529778303128070   F   F   F
  0.9165017426422615  0.8120210756951857  0.4540871555521504   F   F   F
  0.0833333358191695  0.3124999999901945  0.3605200052333331   F   F   F
  0.7465398583278353  0.5575980997132415  0.5446927848246431   F   F   F
  0.9163175339689308  0.0618841013945199  0.4542318893476009   F   F   F
  0.9162240502899319  0.3121325807144197  0.4539054911349740   F   F   F
  0.4172225086608866  0.1871699446069013  0.4534801672907275   F   F   F
  0.2521869935704099  0.6875597204797086  0.4559989682715257   F   F   F
  0.9167229174161515  0.9366369487517887  0.4533323669038803   F   F   F
  0.5827384928970334  0.1901781740480278  0.4555862959853483   F   F   F
  0.0001695820447577  0.1249711845999095  0.4983224485324247   F   F   F
  0.5828836500491710  0.8106057401671466  0.4552271801248760   F   F   F
  0.0001098101086720  0.3734983664627146  0.4984725867838544   F   F   F
  0.9998592314755498  0.6271299250684830  0.4977247569738199   F   F   F
  0.3337326430180345  0.1257444769355120  0.4985056602975523   F   F   F
  0.0001589288038495  0.8748157260769378  0.4994111110167033   F   F   F
  0.3333745570739279  0.8736525966680881  0.4992181410732116   F   F   F
  0.6660115000672088  0.1260773452753124  0.4990152887453872   F   F   F
  0.2511752337506399  0.4392911574707041  0.4549177497462232   F   F   F
  0.0833333358191695  0.5625000000092442  0.3605200052333331   F   F   F
  0.9166666865332829  0.0625000000159659  0.3605200052333331   F   F   F
  0.7499008973886134  0.8132174172331998  0.4530341133777963   F   F   F
  0.7496555510636737  0.4382579208281122  0.4558474934948515   F   F   F
  0.2505430521220840  0.0620250774869399  0.4542398739497995   F   F   F
  0.7490504494281270  0.6886294911157438  0.4575248272679834   F   F   F
  0.2498769465324402  0.1884824029545343  0.4540921393033538   F   F   F
  0.2500265756427381  0.9360549809425797  0.4540108484976978   F   F   F
  0.6654356063407034  0.6257817862939495  0.5030025933726491   F   F   F
  0.5844521779209157  0.5627625282694106  0.4548675262580326   F   F   F
  0.5832204240015052  0.0636137444657022  0.4538768945317982   F   F   F
  0.9166666865332829  0.6874999999963620  0.3605200052333331   F   F   F
  0.9166666865332829  0.4374999701794380  0.3605200052333331   F   F   F
  0.9166666865332829  0.1875000000030838  0.3605200052333331   F   F   F
  0.5833333134730552  0.9375000000154046  0.3605200052333331   F   F   F
  0.5833333134730552  0.6874999999963620  0.3605200052333331   F   F   F
  0.5833333134730552  0.4374999701794380  0.3605200052333331   F   F   F
  0.5833333134730552  0.1875000000030838  0.3605200052333331   F   F   F
  0.2499999999799343  0.9375000000154046  0.3605200052333331   F   F   F
  0.9166666865332829  0.9375000000154046  0.3605200052333331   F   F   F
  0.2499999999799343  0.6874999999963620  0.3605200052333331   F   F   F
  0.2499999999799343  0.1875000000030838  0.3605200052333331   F   F   F
  0.7499999404149307  0.9375000000154046  0.3605200052333331   F   F   F
  0.7499999404149307  0.6874999999963620  0.3605200052333331   F   F   F
  0.7499999404149307  0.4374999701794380  0.3605200052333331   F   F   F
  0.7499999404149307  0.1875000000030838  0.3605200052333331   F   F   F
  0.4166666269218169  0.9375000000154046  0.3605200052333331   F   F   F
  0.4166666269218169  0.6874999999963620  0.3605200052333331   F   F   F
  0.4166666269218169  0.4374999701794380  0.3605200052333331   F   F   F
  0.2499999999799343  0.4374999701794380  0.3605200052333331   F   F   F
  0.0833333358191695  0.0625000000159659  0.3605200052333331   F   F   F
  0.9153509225991496  0.6866971702479397  0.4532164880259589   F   F   F
  0.6656033161203792  0.3784832832334108  0.5031479248112882   F   F   F
  0.3344098013202978  0.3784708642091292  0.5029634583757829   F   F   F
  0.3356357283161134  0.6257849390569463  0.5037704291088442   F   F   F
  0.9177573799276887  0.0633691965261878  0.5476108735925548   F   F   F
  0.7494947941129887  0.9384182489029024  0.4553542087866355   F   F   F
  0.9154615672760347  0.3128292450992239  0.5467691905241078   F   F   F
  0.2522899053849003  0.3141171560997834  0.4541343212338386   F   F   F
  0.2519160079206689  0.5645810634866754  0.4537859477132168   F   F   F
  0.2499999999799343  0.8124999999834799  0.3605200052333331   F   F   F
  0.2499999999799343  0.5625000000092442  0.3605200052333331   F   F   F
  0.2499999999799343  0.3124999999901945  0.3605200052333331   F   F   F
  0.2499999999799343  0.0625000000159659  0.3605200052333331   F   F   F
  0.7499999404149307  0.5625000000092442  0.3605200052333331   F   F   F
  0.7499999404149307  0.3124999999901945  0.3605200052333331   F   F   F
  0.7499999404149307  0.0625000000159659  0.3605200052333331   F   F   F
  0.4166666269218169  0.8124999999834799  0.3605200052333331   F   F   F
  0.4166666269218169  0.5625000000092442  0.3605200052333331   F   F   F
  0.4166666269218169  0.3124999999901945  0.3605200052333331   F   F   F
  0.7499999404149307  0.8124999999834799  0.3605200052333331   F   F   F
  0.0835195614614639  0.3120139190872356  0.4540291808294419   F   F   F
  0.4166666269218169  0.0625000000159659  0.3605200052333331   F   F   F
  0.4169935450149368  0.0615837741292932  0.4553460611028654   F   F   F
  0.0835395201014286  0.8120454124210499  0.4541808200380855   F   F   F
  0.0839451056689467  0.5624995388274300  0.4538871500509446   F   F   F
  0.4160574420016609  0.5595230789762671  0.4578712202989771   F   F   F
  0.0837850799062444  0.0618729792917989  0.4541689162564026   F   F   F
  0.4155884102216652  0.3113826721581838  0.4573608479430833   F   F   F
  0.8333332538436267  0.7500000000123208  0.4070133268666680   F   F   F
  0.0833333358191695  0.4374999701794380  0.3605200052333331   F   F   F
  0.0833333358191695  0.6874999999963620  0.3605200052333331   F   F   F
  0.0833333358191695  0.9375000000154046  0.3605200052333331   F   F   F
  0.4166666269218169  0.1875000000030838  0.3605200052333331   F   F   F
  0.0833333358191695  0.8124999999834799  0.3605200052333331   F   F   F
  0.8333332538436267  0.4999999999932783  0.4070133268666680   F   F   F
  0.6838958530301653  0.1253682690515392  0.7687677284541791   T   T   T
  0.2510868291026433  0.0625618997347121  0.5472568400408138   F   F   F
  0.4143365175079267  0.8117267183065091  0.5479380159964656   F   F   F
  0.5833333134730552  0.0625000000159659  0.3605200052333331   F   F   F
  0.5833333134730552  0.3124999999901945  0.3605200052333331   F   F   F
  0.5833333134730552  0.8124999999834799  0.3605200052333331   F   F   F
  0.7494787972063359  0.0640057430338118  0.4533460544367238   F   F   F
  0.2502811353112033  0.8107379013798757  0.4553196432003976   F   F   F
  0.8333332538436267  0.2500000000190425  0.4070133268666680   F   F   F
  0.5842704417212651  0.3150872187575655  0.4540856679515410   F   F   F
  0.8333332538436267  0.0000000000000000  0.4070133268666680   F   F   F
  0.7479865619450816  0.8078292261209717  0.5454959035224789   F   F   F
  0.0833333358191695  0.1875000000030838  0.3605200052333331   F   F   F
  0.0000000000000000  0.0000000000000000  0.4070133268666680   F   F   F
  0.0000000000000000  0.2500000000190425  0.4070133268666680   F   F   F
  0.0000000000000000  0.4999999999932783  0.4070133268666680   F   F   F
  0.7482814604071907  0.5641650192447706  0.4538748723432535   F   F   F
  0.3333333432766779  0.0000000000000000  0.4070133268666680   F   F   F
  0.3333333432766779  0.4999999999932783  0.4070133268666680   F   F   F
  0.3333333432766779  0.7500000000123208  0.4070133268666680   F   F   F
  0.6666666865533486  0.0000000000000000  0.4070133268666680   F   F   F
  0.5826693159596675  0.4393499919911203  0.4564429096071352   F   F   F
  0.6666666865533486  0.2500000000190425  0.4070133268666680   F   F   F
  0.6666666865533486  0.7500000000123208  0.4070133268666680   F   F   F
  0.1666666716383389  0.0000000000000000  0.4070133268666680   F   F   F
  0.1666666716383389  0.2500000000190425  0.4070133268666680   F   F   F
  0.1666666716383389  0.4999999999932783  0.4070133268666680   F   F   F
  0.1666666716383389  0.7500000000123208  0.4070133268666680   F   F   F
  0.5000000000021103  0.0000000000000000  0.4070133268666680   F   F   F
  0.5000000000021103  0.2500000000190425  0.4070133268666680   F   F   F
  0.5000000000021103  0.7500000000123208  0.4070133268666680   F   F   F
  0.9166666865332829  0.3124999999901945  0.3605200052333331   F   F   F
  0.3333333432766779  0.2500000000190425  0.4070133268666680   F   F   F
  0.7473464526754511  0.3141252373634440  0.4548026870695124   F   F   F
  0.0000000000000000  0.7500000000123208  0.4070133268666680   F   F   F
  0.4166875411412586  0.8098812024639425  0.4551319811230178   F   F   F
  0.5833333134730552  0.5625000000092442  0.3605200052333331   F   F   F
  0.6666666865533486  0.4999999999932783  0.4070133268666680   F   F   F
  0.5828191053102942  0.6861160000674368  0.4546274785523726   F   F   F
  0.5000000000021103  0.4999999999932783  0.4070133268666680   F   F   F
  0.9159169487174069  0.1866142451996145  0.4530147737878990   F   F   F
  0.4157947556518506  0.9370585369232266  0.5460067462708333   F   F   F
  0.4988848814348634  0.2532172901095864  0.5912749184039970   F   F   F
  0.4161016363141259  0.1915706986363621  0.5464293803792106   F   F   F
  0.0860819092918572  0.6893280377268213  0.5453288943220347   F   F   F
  0.0828738156392084  0.4389191658901265  0.5448669996170471   F   F   F
  0.0836422873804986  0.1889497389820910  0.5454815176370494   F   F   F
  0.4995952498378156  0.1256363594582271  0.4994848381446979   F   F   F
  0.9997953980554716  0.4995221954410045  0.5941364452058635   F   F   F
  0.5805711910866733  0.1851621237529337  0.5501356568014950   F   F   F
  0.9998425571314774  0.7531819527918658  0.5923312417713762   F   F   F
  0.3340464561533075  0.9998765718246398  0.5919721886739573   F   F   F
  0.9999487474348817  0.9992606584129867  0.5932357440777399   F   F   F
  0.0011933622669701  0.2499753603639887  0.5919089125449692   F   F   F
  0.3332972056392485  0.4962383819895005  0.5909601332967842   F   F   F
  0.3354119696633033  0.7410154053975697  0.5903793731306642   F   F   F
  0.6639586751629181  0.2460613645221341  0.5909486889116835   F   F   F
  0.6658752271432620  0.0009779773905452  0.5921105020559333   F   F   F
  0.6657368224457499  0.7415187455124299  0.5903647170090426   F   F   F
  0.6666515333522613  0.4944326876953182  0.5912613234837711   F   F   F
  0.1675085491370400  0.9983054421152159  0.5922951391006177   F   F   F
  0.1685429588171543  0.2481977343392918  0.5931149271537988   F   F   F
  0.1707374036554681  0.7501105907569607  0.5950030445551868   F   F   F
  0.2485057693401855  0.4358231446240314  0.5490924932267826   F   F   F
  0.1657329741378719  0.5027537693942579  0.5873506303820918   F   F   F
  0.3347647758915058  0.2543427079596171  0.5926241725951483   F   F   F
  0.4995467756632890  0.9999441392647599  0.5909517311155280   F   F   F
  0.8327876848474638  0.8747173225776596  0.4989234764684492   F   F   F
  0.7483451319801233  0.9368485931158318  0.6399155597841391   F   F   F
  0.8323495582967578  0.0017882539851067  0.5923171181435202   F   F   F
  0.7483707998429249  0.1831208311393030  0.5504580944628399   F   F   F
  0.4230107670318379  0.6878773020276262  0.5467873732486906   F   F   F
  0.4232256749389781  0.4437041455614738  0.5457577110232041   F   F   F
  0.7519989997279521  0.4347302883313631  0.5491835744495017   F   F   F
  0.5835170444332910  0.3112257945673814  0.5457784506522577   F   F   F
  0.2530303441532809  0.8125274809879138  0.5506616764132204   F   F   F
  0.5826141149645098  0.0616792655382572  0.5454731190351080   F   F   F
  0.5826835083060036  0.9371695624043144  0.4543236042664247   F   F   F
  0.5857224057406224  0.8142599963351527  0.5503156750061873   F   F   F
  0.7482113978985551  0.3109615456296121  0.5482329666453034   F   F   F
  0.5811472251635798  0.5600040165617810  0.5489089629927943   F   F   F
  0.2525625980299684  0.5591002692943771  0.5438775166982467   F   F   F
  0.4160472377761544  0.3195615280351340  0.5526191083251756   F   F   F
  0.5766418471286431  0.4357706978478719  0.5521891725830157   F   F   F
  0.4165656327817885  0.0654543819756563  0.5473284028609768   F   F   F
  0.0849714113284504  0.8128891132072840  0.5473260932872593   F   F   F
  0.0819564036829192  0.5643815767470404  0.5462994009384837   F   F   F
  0.0867075489146445  0.3135358877087817  0.5471272169155964   F   F   F
  0.5007555594408436  0.7561949094810807  0.5928169968762247   F   F   F
  0.0823372842464046  0.0632533834029056  0.5476079244926461   F   F   F
  0.9140557609376887  0.6890763925180742  0.5454084598966304   F   F   F
  0.5838563204396526  0.9376431995856378  0.5461188384245507   F   F   F
  0.9175009212364411  0.1891071275418841  0.5451231567502913   F   F   F
  0.9157336460372689  0.4376590061598248  0.5456938842948698   F   F   F
  0.5795369006949520  0.6860938011359101  0.5473815029111043   F   F   F
  0.2515512260062610  0.9372907829921605  0.5452201167444415   F   F   F
  0.4973623527937386  0.5044271943333526  0.6091235325637959   F   F   F
  0.9176020710720949  0.5638158162674608  0.5471174340649758   F   F   F
  0.4200290179488617  0.5648625292134777  0.5553935389990644   F   F   F
  0.9156001663431784  0.8128867859972992  0.5468406465782218   F   F   F
  0.0835943469960124  0.9389320703855450  0.5457344961866707   F   F   F
  0.2491155246292134  0.6831896469274409  0.5519296411803594   F   F   F
  0.7489065701427140  0.9339475359184400  0.5476540986717360   F   F   F
  0.7518001126143575  0.6799873203976603  0.5534161064260814   F   F   F
  0.9163219521103032  0.9388532922122019  0.5460494646621503   F   F   F
  0.4177096913960636  0.0651766991505106  0.6400202805490299   F   F   F
  0.9161115448781779  0.5621971277110953  0.4540777519060814   F   F   F
  0.4121651996802490  0.8125929563533256  0.6396169234080843   F   F   F
  0.9162650799723111  0.0618758780860891  0.6422415193020439   F   F   F
  0.9133139152780321  0.5622694763381292  0.6412184047965975   F   F   F
  0.9150288074173351  0.3118212542515855  0.6395123538831512   F   F   F
  0.9141718439777300  0.8132470469547108  0.6415905330479656   F   F   F
  0.5815039200409109  0.0660596863474445  0.6389772722903850   F   F   F
  0.5862189834744933  0.3205020986661346  0.6342215882297227   F   F   F
  0.5907702389596287  0.5653490044654402  0.6388541275203105   F   F   F
  0.2476379439973788  0.5736542018634838  0.6287373260909219   F   F   F
  0.7532870036223742  0.6908571068239139  0.6571497424211095   F   F   F
  0.2619658295733169  0.7998662499013983  0.6461821045490579   F   F   F
  0.2510339536531414  0.0593821878372370  0.6423463248658013   F   F   F
  0.9166666865332829  0.5625000000092442  0.3605200052333331   F   F   F
  0.4996592572669269  0.3740053128894729  0.5002289685780976   F   F   F
  0.5003091557760322  0.6211022114396081  0.5000940407195904   F   F   F
  0.8324007868733901  0.6230329076109262  0.5000775278422870   F   F   F
  0.2519975140354760  0.1882296591984174  0.5471945411948784   F   F   F
  0.8324631460575633  0.3730674405857937  0.4997723619510849   F   F   F
  0.8329530931267053  0.1243528630145583  0.4997285141439725   F   F   F
  0.1667902945781258  0.3762361525460242  0.4977428706808843   F   F   F
  0.1677663689292606  0.6243212791348065  0.4999984445914871   F   F   F
  0.5808066755191303  0.4382831390593703  0.6461523341889999   F   F   F
  0.5784668444247966  0.6857737003608935  0.6395425760950252   F   F   F
  0.9172683770652207  0.1865427460687436  0.6407242988529980   F   F   F
  0.2491301263236687  0.3162128684567600  0.6412302606047316   F   F   F
  0.9159157032628691  0.4368974664226399  0.4535961221446581   F   F   F
  0.1670832533771230  0.1243124891394173  0.4993339958258392   F   F   F
  0.7484663621887802  0.0593053536517600  0.5443782622722537   F   F   F
  0.1677089181454121  0.8733233619776355  0.4998567824441598   F   F   F
  0.4270771563484613  0.3050402482876567  0.6551384964280501   F   F   F
  0.5910757483497243  0.8100292298038327  0.6459954379063119   F   F   F
  0.4203439360586397  0.6756933789579520  0.6336674743507041   F   F   F
  0.4998850687891813  0.8733691172124203  0.5008516219261362   F   F   F
  0.7538379977047144  0.4327534855142253  0.6380599957934352   F   F   F
  0.7532090395940673  0.5678370397483211  0.6358832777272635   F   F   F
  0.3972400982232732  0.5504825700568626  0.6519253936589403   F   F   F
  0.4175286990430618  0.9349018253785556  0.6396992407804328   F   F   F
  0.7411670909991054  0.8095054001449474  0.6400873695127268   F   F   F
  0.7473052139894464  0.3107090356960305  0.6399711109575075   F   F   F
  0.7485470849045227  0.0672033778793355  0.6394938991127115   F   F   F
  0.0843474911482374  0.3113235244295466  0.6406218993604081   F   F   F
  0.6664564190991121  0.8741203072377477  0.4986730500835646   F   F   F
  0.0869508433028783  0.5627603334084430  0.6402427356185086   F   F   F
  0.0872542103737609  0.4365137845174055  0.6395562330298792   F   F   F
  0.0836115881580553  0.1853787820950557  0.6411465341308336   F   F   F
  0.4178249890077054  0.1877573016821024  0.6398254873155104   F   F   F
  0.4152685647273199  0.4187101992049429  0.6301102957048833   F   F   F
  0.0843577146823857  0.9355637894382931  0.6407097471016914   F   F   F
  0.0832098608404639  0.6870910572733562  0.6389871582515528   F   F   F
  0.0843387498000468  0.0603669060007038  0.6422127104817424   F   F   F
  0.8331250322131730  0.5023157280514442  0.5891048043978135   F   F   F
  0.9125514514574782  0.4360016671441825  0.6397764400399788   F   F   F
  0.8304123881404551  0.7509180265810108  0.5928240564543142   F   F   F
  0.8321969084140881  0.2470152186046559  0.5907306579257583   F   F   F
  0.7471149783408284  0.1941525481361167  0.6466851963696215   F   F   F
  0.9166666865332829  0.8124999999834799  0.3605200052333331   F   F   F
  0.5818443666749326  0.9354998054663979  0.6390290829519244   F   F   F
  0.0843090986326167  0.8125346002283903  0.6422603479556687   F   F   F
  0.5799970145185915  0.1921286801727920  0.6460064062236188   F   F   F
  0.2547666659722754  0.6775829983375665  0.6627216230899402   F   F   F
  0.2406096526730434  0.4419645288915487  0.6415794715487938   F   F   F
  0.9146425776065663  0.9366705435602466  0.6408376604050212   F   F   F
  0.9163476144630690  0.6876074311529985  0.6390852447007995   F   F   F
  0.2520974920058758  0.9302609124079433  0.6373849458749028   F   F   F
  0.2535916526794594  0.1864712693294174  0.6412980544805619   F   F   F
  0.0008208239170114  0.1222990387152247  0.6198093469008414   F   F   F
  0.1666666716383389  0.3750000000061604  0.4070133268666680   F   F   F
  0.6652851687673812  0.7518977422620889  0.5021854575538655   F   F   F
  0.5011260963914328  0.7528233057576332  0.5039157049227218   F   F   F
  0.6659548842252331 -0.0001194008761931  0.5057282644561896   F   F   F
  0.1644516256392892  0.7515033203448321  0.5033645768023978   F   F   F
  0.8333332538436267  0.6249999999803961  0.4070133268666680   F   F   F
  0.6684630674868779  0.4998698852563478  0.5006560822679187   F   F   F
  0.3312650435497322  0.4991329871428275  0.5009379409061817   F   F   F
  0.3302937241500856  0.2479967024430144  0.5027871278693908   F   F   F
  0.3338753985238926  0.7511381681725698  0.5015058393708427   F   F   F
  0.6669187280829291  0.2475068789653915  0.5026922964210196   F   F   F
  0.5013450483097182  0.4996916402742257  0.5002408530108267   F   F   F
  0.9998089925743033  0.5003153991214946  0.5068485515260687   F   F   F
  0.8362330253551437  0.5001708807778903  0.5028711284786009   F   F   F
  0.8363361803873938  0.2483249106441275  0.5024372568479243   F   F   F
  0.6666666865533486  0.3750000000061604  0.4070133268666680   F   F   F
  0.1660582322179297  0.0011779426040426  0.5065472695667609   F   F   F
  0.0000000000000000  0.8749999404036828  0.4070133268666680   F   F   F
  0.5014683170429892  0.2478964599456576  0.5023411334627065   F   F   F
  0.0000025742613214  0.7509905558968731  0.5065636463014638   F   F   F
  0.0010404758637160  0.2498194320348867  0.5059375020396127   F   F   F
  0.0001618216838316  0.0000183706298806  0.5066153087518935   F   F   F
  0.6666666865533486  0.6249999999803961  0.4070133268666680   F   F   F
  0.8333332538436267  0.8749999404036828  0.4070133268666680   F   F   F
  0.3333333432766779  0.6249999999803961  0.4070133268666680   F   F   F
  0.3333333432766779  0.1249999999871179  0.4070133268666680   F   F   F
  0.3333333432766779  0.3750000000061604  0.4070133268666680   F   F   F
  0.8344317249243467  0.0000420600070946  0.5066646969456715   F   F   F
  0.3333333432766779  0.8749999404036828  0.4070133268666680   F   F   F
  0.6666666865533486  0.1249999999871179  0.4070133268666680   F   F   F
  0.0000000000000000  0.6249999999803961  0.4070133268666680   F   F   F
  0.1664624741620627  0.2481317956304856  0.5061885099377866   F   F   F
  0.3332139889467767  0.0012427893788970  0.5057743603429901   F   F   F
  0.5002368019362902  0.9992623584781866  0.5054401687826472   F   F   F
  0.5006209421138944  0.8766146450706515  0.6095153434118822   F   F   F
  0.3261701784090160  0.3733836063631342  0.5927301048223060   F   F   F
  0.0000000000000000  0.3750000000061604  0.4070133268666680   F   F   F
  0.3340974146871357  0.6243495647823035  0.5950041229138135   F   F   F
  0.5000000000021103  0.8749999404036828  0.4070133268666680   F   F   F
  0.8333332538436267  0.3750000000061604  0.4070133268666680   F   F   F
  0.1666666716383389  0.1249999999871179  0.4070133268666680   F   F   F
  0.6651749969947514  0.1243357297477508  0.6145343852681581   F   F   F
  0.5000000000021103  0.6249999999803961  0.4070133268666680   F   F   F
  0.8393580984500790  0.6270312660283286  0.6042497416236978   F   F   F
  0.3316643035604431  0.1198155826915359  0.6133640309700555   F   F   F
  0.9992847725896885  0.8749295253141263  0.6221523211416697   F   F   F
  0.1637354992390193  0.4998638221523488  0.5020661457197054   F   F   F
  0.5000000000021103  0.1249999999871179  0.4070133268666680   F   F   F
  0.8319677515955614  0.8760770267351213  0.6184802534377178   F   F   F
  0.8380404478244811  0.3728297546276025  0.6029182058246194   F   F   F
  0.8361042313549844  0.7518013094920513  0.5026049328742572   F   F   F
  0.1666666716383389  0.8749999404036828  0.4070133268666680   F   F   F
  0.8333332538436267  0.1249999999871179  0.4070133268666680   F   F   F
  0.0000000000000000  0.1249999999871179  0.4070133268666680   F   F   F
  0.5037664206531414  0.6250149983272612  0.5940655819485914   F   F   F
  0.6710770039880285  0.3721941760548161  0.5931986892779813   F   F   F
  0.5000000000021103  0.3750000000061604  0.4070133268666680   F   F   F
  0.6666666865533486  0.8749999404036828  0.4070133268666680   F   F   F
  0.3345653359796366  0.8786957640880386  0.6028853327885262   F   F   F
  0.1596780245635231  0.6273854599078768  0.6014536338880953   F   F   F
  0.1663903476212974  0.8734810843011829  0.6181613433175770   F   F   F
  0.5022894860257817  0.3707828764435345  0.5953647508669679   F   F   F
  0.1666666716383389  0.6249999999803961  0.4070133268666680   F   F   F
  0.1678424872000596  0.1227502325704304  0.6222042877641280   F   F   F
  0.5002304960817662  0.1225469651618206  0.6068521679410732   F   F   F
  0.9997475673671128  0.6229470430867419  0.6267355478331474   F   F   F
  0.0003623239531003  0.3747765998574730  0.6239788486088022   F   F   F
  0.8346774832920205  0.1242643483293653  0.6193892318031848   F   F   F
  0.6653737154042867  0.8810704276349777  0.6073511716721316   F   F   F
  0.1634451300037321  0.3712731805830345  0.6075781317083271   F   F   F
  0.6664560932761024  0.6261683075471809  0.5935748787937151   F   F   F
  0.0837896835170127  0.2477535942492521  0.6037129535233046   F   F   F
  0.7497469672021163  0.0019148168283315  0.6043438678361148   F   F   F
  0.5824574650256173  0.0009959786534509  0.6041272405739468   F   F   F
  0.9164816841451591 -0.0000076877196781  0.6039389802705729   F   F   F
  0.5847571567363471  0.7498340034279728  0.5997541947464671   F   F   F
  0.5903125087368922  0.5013643317355790  0.5935400331856706   F   F   F
  0.2426105769163837  0.4976760815407075  0.5940535928911368   F   F   F
  0.5850973060593633  0.2469774472321423  0.5972503924105761   F   F   F
  0.2497476185770000  0.9977306482138489  0.6042090518869032   F   F   F
  0.7546662200168665  0.2473273384843883  0.5917279901967240   F   F   F
  0.2493071094219901  0.2455979163540068  0.6036020472909190   F   F   F
  0.4171318733828496  0.0000782471860031  0.6046671997010152   F   F   F
  0.2495942281745325  0.7527807802908519  0.5919432197698309   F   F   F
  0.0817477448118639  0.4998984168953624  0.6031425130822133   F   F   F
  0.0813261645017151  0.6259179556027035  0.5054915252388199   F   F   F
  0.2467696517078095  0.3728325493157064  0.5027452731356257   F   F   F
  0.0836826964856583  0.9987177954969294  0.6036361239461432   F   F   F
  0.7509023502262157  0.1214293400172124  0.5043937541706222   F   F   F