Au O  Sr Ti H                           
   1.00000000000000     
    23.6707801818999997    0.0000000000000000    0.0000000000000000
     0.0000000000000000   22.3170261383000010    0.0000000000000000
     0.0000000000000000    0.0000000000000000   30.0000000000000000
   Au   O    Sr   Ti   H 
    50   264    72    72     1
Selective dynamics
Direct
  0.7164839663609328  0.5266877854270646  0.7536825818992980   F   F   F
  0.6230375818864502  0.5690600252395299  0.7035555368103132   F   F   F
  0.7182441211440604  0.2579070664167418  0.6909431813825933   F   F   F
  0.2951336032691501  0.7460411244929546  0.6966831519079619   F   F   F
  0.5090703635704514  0.6019701871748850  0.7781233213907726   F   F   F
  0.5766468722680642  0.7208867980540532  0.7931032882877957   F   F   F
  0.5481916837871168  0.3798589602569322  0.8252611652033082   F   F   F
  0.2401303774516492  0.4683899282077704  0.7083666028234887   F   F   F
  0.2833878460025119  0.6613978322226686  0.7644336662303175   F   F   F
  0.6061960735036678  0.2839076991837644  0.7861087603198555   F   F   F
  0.5146664662004810  0.4849862180272453  0.6775326282108338   F   F   F
  0.5612296019054668  0.4857218179096634  0.7624674575776211   F   F   F
  0.4632608008325931  0.6945862458882885  0.8309165091379569   F   F   F
  0.7648414213845598  0.4330857058232027  0.7057559012213517   F   F   F
  0.7328005726514419  0.6160997944773285  0.6933242056482811   F   F   F
  0.6329131742713159  0.5859651627026139  0.7980843612421538   F   F   F
  0.5952928107572717  0.7827248797346158  0.7130782287806241   F   F   F
  0.4848688885891548  0.7762279665616560  0.7568462807966228   F   F   F
  0.3490740884108234  0.4999008179179967  0.6977665720449906   F   F   F
  0.4289378398917520  0.3723610145340643  0.8150943937952988   F   F   F
  0.3730379569458080  0.2984066063337636  0.7548771553149862   F   F   F
  0.4461072151829697  0.2299195301270061  0.6963470048517379   F   F   F
  0.3924140476719487  0.8180136954004098  0.7068040034848480   F   F   F
  0.2877062842058606  0.5369427630038146  0.7770365972690882   F   F   F
  0.5597496573312881  0.2078116547382294  0.7127577660222286   F   F   F
  0.4518160400616438  0.5797828297589334  0.7024996586648413   F   F   F
  0.6144291219681932  0.3207550865670683  0.6975169559021452   F   F   F
  0.7065564922501579  0.7582777393342894  0.6882638462139639   F   F   F
  0.6550544512051815  0.4361774691179718  0.8091434572628771   F   F   F
  0.3693534726583323  0.6180114216300794  0.8170015100144283   F   F   F
  0.5774056822738061  0.5071662234261467  0.8556147370923171   F   F   F
  0.6691580081299477  0.1884516253461257  0.7509651282325223   F   F   F
  0.4738501413062863  0.4521218732758854  0.8750737504934065   F   F   F
  0.5148387269174677  0.3779376334082372  0.7300059227613218   F   F   F
  0.2833190870167357  0.3377546172675849  0.7026496303656984   F   F   F
  0.6702418611661329  0.6820400255962298  0.7484729110768313   F   F   F
  0.3973526783209564  0.3824272156571595  0.6900132445521194   F   F   F
  0.3735941677281360  0.4928661163119514  0.8328540838641416   F   F   F
  0.4584369418984124  0.5777778092392296  0.8698882700245107   F   F   F
  0.3253165213366387  0.4138288337954918  0.7689084986414088   F   F   F
  0.4893178180890061  0.2713623704282355  0.7751759933557167   F   F   F
  0.4193853829336973  0.6971848111591967  0.6986201333741420   F   F   F
  0.7023657125828748  0.3448299564783497  0.7556759057320122   F   F   F
  0.7741872974288739  0.4307567580952210  0.7957314631062573   F   F   F
  0.2567596819389806  0.5922681697603451  0.6940686734714134   F   F   F
  0.6473877016826606  0.4430057359335606  0.6975802887852467   F   F   F
  0.5638073200898432  0.6360693455146986  0.8626636637588874   F   F   F
  0.5413014546005712  0.6651139341950980  0.7019864629834629   F   F   F
  0.4427508242727924  0.4754584395976309  0.7568716296703926   F   F   F
  0.3735118387430845  0.7384233748877733  0.7779529480901601   F   F   F
  0.2500100651963706  0.1887242452919082  0.4543677934972123   F   F   F
  0.7495448532189215  0.9384033326101715  0.4553059620167943   F   F   F
  0.7491030704959982  0.6887431280318665  0.4573246115989065   F   F   F
  0.7494581450933566  0.4386169959463544  0.4561420647038119   F   F   F
  0.7502670120155059  0.1896749730975458  0.4556093523242595   F   F   F
  0.4176592014035450  0.9357730340094648  0.4539779254202188   F   F   F
  0.4171125116709788  0.6847203547187917  0.4546263439440850   F   F   F
  0.4164869543889722  0.4354530948476949  0.4538238853770338   F   F   F
  0.0845872445311500  0.6868584032845035  0.4530052794264066   F   F   F
  0.0841651953155704  0.9367659222844580  0.4536262375463025   F   F   F
  0.0827634599384837  0.4367701015860561  0.4528535864616359   F   F   F
  0.0838732721849595  0.1865452764439866  0.4529717786119463   F   F   F
  0.9166003209356290  0.8120931033583290  0.4540707427715915   F   F   F
  0.9161725159507057  0.5623701453776278  0.4538890464559557   F   F   F
  0.2511809026848795  0.4393415807503018  0.4548788579980183   F   F   F
  0.9161365147581577  0.0621613886644710  0.4541009926313890   F   F   F
  0.9160791678883697  0.3121573471180881  0.4539293996565874   F   F   F
  0.4172813901397632  0.1871341225722034  0.4535431668197631   F   F   F
  0.2520674416815467  0.6876650357317118  0.4560999453484271   F   F   F
  0.9164896782947665  0.9369875295878316  0.4535738525504414   F   F   F
  0.5827368760234464  0.1895126572588453  0.4552498567984031   F   F   F
  0.0000596419606040  0.1250662396752062  0.4984117505010559   F   F   F
  0.5837523276145546  0.8099868411071114  0.4555292951529921   F   F   F
  0.9998541014374140  0.3732997611326425  0.4982698090175717   F   F   F
  0.9998003360921217  0.6272356666390380  0.4976685011669204   F   F   F
  0.3336316819171046  0.1256324328555962  0.4985377126120838   F   F   F
  0.0001243200698937  0.8752178850363919  0.4995507497982032   F   F   F
  0.3336358574335065  0.8741799343131689  0.4992121021031366   F   F   F
  0.6659869493938615  0.1260169164946774  0.4991321681388783   F   F   F
  0.3356807179615231  0.6258778068865922  0.5037849861141339   F   F   F
  0.3343670868862816  0.3783485071060113  0.5028501055010750   F   F   F
  0.6654086762390747  0.3786000058792638  0.5031933614695916   F   F   F
  0.9153578205446919  0.6867754190059046  0.4530451086531642   F   F   F
  0.9157579784279974  0.4370008341371516  0.4536756891523552   F   F   F
  0.9158700367644173  0.1868193296764957  0.4531621834341593   F   F   F
  0.5830094441043698  0.9363841472910863  0.4538476681126866   F   F   F
  0.5827945334936402  0.6860471463308428  0.4545779335290447   F   F   F
  0.5827280420645025  0.4392897370656001  0.4561238010368172   F   F   F
  0.2499949135169217  0.9360120871390833  0.4540804652601480   F   F   F
  0.6654126355308918  0.6258560780490612  0.5029060894365642   F   F   F
  0.5845197330654202  0.5627894098258182  0.4548955095677414   F   F   F
  0.5829987060551929  0.0626814519260606  0.4546323282040206   F   F   F
  0.9166666865332829  0.6874999999963620  0.3605200052333331   F   F   F
  0.9166666865332829  0.4374999701794380  0.3605200052333331   F   F   F
  0.9166666865332829  0.1875000000030838  0.3605200052333331   F   F   F
  0.5833333134730552  0.9375000000154046  0.3605200052333331   F   F   F
  0.5833333134730552  0.6874999999963620  0.3605200052333331   F   F   F
  0.5833333134730552  0.4374999701794380  0.3605200052333331   F   F   F
  0.5833333134730552  0.1875000000030838  0.3605200052333331   F   F   F
  0.2499999999799343  0.9375000000154046  0.3605200052333331   F   F   F
  0.9166666865332829  0.9375000000154046  0.3605200052333331   F   F   F
  0.2499999999799343  0.6874999999963620  0.3605200052333331   F   F   F
  0.2499999999799343  0.1875000000030838  0.3605200052333331   F   F   F
  0.7499999404149307  0.9375000000154046  0.3605200052333331   F   F   F
  0.7499999404149307  0.6874999999963620  0.3605200052333331   F   F   F
  0.7499999404149307  0.4374999701794380  0.3605200052333331   F   F   F
  0.7499999404149307  0.1875000000030838  0.3605200052333331   F   F   F
  0.4166666269218169  0.9375000000154046  0.3605200052333331   F   F   F
  0.4166666269218169  0.6874999999963620  0.3605200052333331   F   F   F
  0.4166666269218169  0.4374999701794380  0.3605200052333331   F   F   F
  0.2499999999799343  0.4374999701794380  0.3605200052333331   F   F   F
  0.0833333358191695  0.0625000000159659  0.3605200052333331   F   F   F
  0.0833333358191695  0.3124999999901945  0.3605200052333331   F   F   F
  0.0833333358191695  0.5625000000092442  0.3605200052333331   F   F   F
  0.9166666865332829  0.3124999999901945  0.3605200052333331   F   F   F
  0.9166666865332829  0.0625000000159659  0.3605200052333331   F   F   F
  0.5833333134730552  0.8124999999834799  0.3605200052333331   F   F   F
  0.5833333134730552  0.5625000000092442  0.3605200052333331   F   F   F
  0.5833333134730552  0.3124999999901945  0.3605200052333331   F   F   F
  0.5833333134730552  0.0625000000159659  0.3605200052333331   F   F   F
  0.2499999999799343  0.8124999999834799  0.3605200052333331   F   F   F
  0.2499999999799343  0.5625000000092442  0.3605200052333331   F   F   F
  0.2499999999799343  0.3124999999901945  0.3605200052333331   F   F   F
  0.2499999999799343  0.0625000000159659  0.3605200052333331   F   F   F
  0.7499999404149307  0.8124999999834799  0.3605200052333331   F   F   F
  0.7499999404149307  0.5625000000092442  0.3605200052333331   F   F   F
  0.7499999404149307  0.3124999999901945  0.3605200052333331   F   F   F
  0.7499999404149307  0.0625000000159659  0.3605200052333331   F   F   F
  0.4166666269218169  0.8124999999834799  0.3605200052333331   F   F   F
  0.4166666269218169  0.5625000000092442  0.3605200052333331   F   F   F
  0.4166666269218169  0.3124999999901945  0.3605200052333331   F   F   F
  0.4166666269218169  0.0625000000159659  0.3605200052333331   F   F   F
  0.0833333358191695  0.8124999999834799  0.3605200052333331   F   F   F
  0.4166666269218169  0.1875000000030838  0.3605200052333331   F   F   F
  0.0833333358191695  0.9375000000154046  0.3605200052333331   F   F   F
  0.0833333358191695  0.6874999999963620  0.3605200052333331   F   F   F
  0.0833333358191695  0.4374999701794380  0.3605200052333331   F   F   F
  0.8333332538436267  0.4999999999932783  0.4070133268666680   F   F   F
  0.8333332538436267  0.7500000000123208  0.4070133268666680   F   F   F
  0.0836856156196930  0.0618890121418687  0.4542154775765610   F   F   F
  0.0835719199758600  0.3119957932074300  0.4539841187528282   F   F   F
  0.0839221787015347  0.5624922773985759  0.4538677442241337   F   F   F
  0.0834950257547149  0.8121204625901868  0.4541710297071546   F   F   F
  0.4168729061768701  0.0615344535224338  0.4553687749233717   F   F   F
  0.4155268382573496  0.3113207882310505  0.4573625816884999   F   F   F
  0.4160850950013213  0.5595137328271989  0.4578583586093288   F   F   F
  0.4166171883974457  0.8099561579888359  0.4551030524900384   F   F   F
  0.7496054687184639  0.0640541700379913  0.4533693622470736   F   F   F
  0.7474292259054920  0.3142156039069448  0.4546682870490599   F   F   F
  0.7481483902855857  0.5644393455905714  0.4535820644475166   F   F   F
  0.7490470634377218  0.8134506724322250  0.4528630034728778   F   F   F
  0.2505217996906808  0.0620309899900491  0.4542286211749698   F   F   F
  0.9153906066785282  0.3128121794599537  0.5468582785443203   F   F   F
  0.2522039802693357  0.3143842576853260  0.4539328167987264   F   F   F
  0.2518895005253086  0.5647655391162019  0.4536506070206201   F   F   F
  0.2506031401339541  0.8107478725802579  0.4553587382231967   F   F   F
  0.8333332538436267  0.2500000000190425  0.4070133268666680   F   F   F
  0.5841473392626497  0.3148005299985641  0.4540394498469738   F   F   F
  0.8333332538436267  0.0000000000000000  0.4070133268666680   F   F   F
  0.5000000000021103  0.4999999999932783  0.4070133268666680   F   F   F
  0.0833333358191695  0.1875000000030838  0.3605200052333331   F   F   F
  0.0000000000000000  0.0000000000000000  0.4070133268666680   F   F   F
  0.0000000000000000  0.2500000000190425  0.4070133268666680   F   F   F
  0.0000000000000000  0.4999999999932783  0.4070133268666680   F   F   F
  0.0000000000000000  0.7500000000123208  0.4070133268666680   F   F   F
  0.3333333432766779  0.0000000000000000  0.4070133268666680   F   F   F
  0.3333333432766779  0.2500000000190425  0.4070133268666680   F   F   F
  0.3333333432766779  0.4999999999932783  0.4070133268666680   F   F   F
  0.3333333432766779  0.7500000000123208  0.4070133268666680   F   F   F
  0.6666666865533486  0.0000000000000000  0.4070133268666680   F   F   F
  0.6666666865533486  0.2500000000190425  0.4070133268666680   F   F   F
  0.6666666865533486  0.4999999999932783  0.4070133268666680   F   F   F
  0.6666666865533486  0.7500000000123208  0.4070133268666680   F   F   F
  0.1666666716383389  0.0000000000000000  0.4070133268666680   F   F   F
  0.1666666716383389  0.2500000000190425  0.4070133268666680   F   F   F
  0.1666666716383389  0.4999999999932783  0.4070133268666680   F   F   F
  0.1666666716383389  0.7500000000123208  0.4070133268666680   F   F   F
  0.5000000000021103  0.0000000000000000  0.4070133268666680   F   F   F
  0.5000000000021103  0.2500000000190425  0.4070133268666680   F   F   F
  0.5000000000021103  0.7500000000123208  0.4070133268666680   F   F   F
  0.1670653198850331  0.1243115488169835  0.4993367971289260   F   F   F
  0.9177337373160483  0.0632880187041422  0.5475226265912028   F   F   F
  0.1678514630149905  0.8732148201900074  0.4999296399361199   F   F   F
  0.2519013953551550  0.1880561028432197  0.5474172606586762   F   F   F
  0.7495081048848604  0.9341208513909507  0.5476200435951952   F   F   F
  0.7517695116556595  0.6803105000200773  0.5530112374163281   F   F   F
  0.7524366917189127  0.4343907801687692  0.5499155302120968   F   F   F
  0.4231302181141245  0.4439111057677394  0.5454998574067318   F   F   F
  0.4235086859621973  0.6880494348125836  0.5464890813888204   F   F   F
  0.7484024244118075  0.1836158895288023  0.5506993279047663   F   F   F
  0.4160976737463358  0.9369080953741076  0.5461111841457651   F   F   F
  0.0841057992796621  0.9384112891412144  0.5461140902919652   F   F   F
  0.4157166954985030  0.1914808906466519  0.5465360704322109   F   F   F
  0.0865263758267147  0.6896890098607713  0.5451033494305122   F   F   F
  0.0821440006671139  0.4387438293761434  0.5448441267310500   F   F   F
  0.0836174159697052  0.1889833171751292  0.5454784519959546   F   F   F
  0.4994741596856542  0.1255781297863265  0.4996327553478608   F   F   F
  0.9995094448740431  0.5011049091710120  0.5943309598650686   F   F   F
  0.9993977836536203  0.7527822337513186  0.5922178226062442   F   F   F
  0.3347935715400894  0.2542771694986925  0.5928456195964458   F   F   F
  0.3340132768461288  0.9997708939407914  0.5920761366020599   F   F   F
  0.9998654606616952  0.9991683503655793  0.5931609696417013   F   F   F
  0.0007600494369626  0.2499973285081154  0.5918886479458934   F   F   F
  0.3331546580146210  0.4964708432607807  0.5906058146224140   F   F   F
  0.3361325905990000  0.7411394393682826  0.5904626313123487   F   F   F
  0.6632759499029532  0.2472595045232282  0.5909374791777324   F   F   F
  0.6657386444902826  0.0003370018483650  0.5918895058281493   F   F   F
  0.6663950579826903  0.7414198312740510  0.5910220316020869   F   F   F
  0.6667973264006335  0.4941629014774378  0.5911373960078876   F   F   F
  0.1674833042548443  0.9984099633982595  0.5923492967113120   F   F   F
  0.1684498090578685  0.2489650463945310  0.5931747298230263   F   F   F
  0.1708206202698861  0.7501333731220541  0.5950634001891117   F   F   F
  0.2486665314579923  0.4357953341219556  0.5487793010429058   F   F   F
  0.1653669561468050  0.5023307717713692  0.5868244751168419   F   F   F
  0.2493249662744219  0.6832583852466527  0.5520368271481289   F   F   F
  0.5808281632075634  0.1860100417339368  0.5494504334544388   F   F   F
  0.9155514158846714  0.8129322055157004  0.5468284150344473   F   F   F
  0.9170173580763432  0.5639616322285335  0.5467223153536267   F   F   F
  0.5812079589052743  0.5602844878175119  0.5490174594534807   F   F   F
  0.5868537493986778  0.8150451084551165  0.5509032606609665   F   F   F
  0.5830827508544800  0.3118042643060761  0.5456075061487340   F   F   F
  0.5826485192380559  0.0632992633576492  0.5468672639953027   F   F   F
  0.2534248020051777  0.8125119786786215  0.5507973439269733   F   F   F
  0.2523287497767299  0.5590375243727124  0.5436886640352370   F   F   F
  0.2495464549199227  0.3137155654065324  0.5459744376831281   F   F   F
  0.2511422249624786  0.0623447430417059  0.5471978839637544   F   F   F
  0.7479537745999636  0.8079402726092084  0.5453488812516127   F   F   F
  0.7465723359658725  0.5574957945220405  0.5443453540204501   F   F   F
  0.4146715098969835  0.8115795098176903  0.5478088502292096   F   F   F
  0.7482494295654263  0.0596871991581054  0.5445156638509800   F   F   F
  0.7477398268403732  0.3111114828643267  0.5478627382170771   F   F   F
  0.4159673325918334  0.3197416322898334  0.5525899976957120   F   F   F
  0.4199830337460568  0.5651037781889414  0.5551822230760592   F   F   F
  0.4165333411653762  0.0653208538551908  0.5473406962318563   F   F   F
  0.0848648239314898  0.8127471577461591  0.5473052652153996   F   F   F
  0.0821745808945593  0.5644023398858025  0.5461896899552983   F   F   F
  0.0863988838584575  0.3135303899423860  0.5469005063166179   F   F   F
  0.0823641834872930  0.0631531801305414  0.5475795965040220   F   F   F
  0.9157440024567265  0.9385816242949474  0.5463646067569385   F   F   F
  0.9133184632369122  0.6894096846429747  0.5449866392241987   F   F   F
  0.5832478493127553  0.9386471049927820  0.5455863197983746   F   F   F
  0.9168999538574312  0.1889957140062961  0.5454018379519496   F   F   F
  0.9159465313913131  0.4376569215337867  0.5457725468680508   F   F   F
  0.5764674366930436  0.4363016044173662  0.5516628758083186   F   F   F
  0.5797640768665815  0.6864867281563818  0.5474085546090350   F   F   F
  0.2515169709963061  0.9372587086204476  0.5453102311385436   F   F   F
  0.4974499882517662  0.5046743317467985  0.6086661052857067   F   F   F
  0.4987742126762100  0.2533386320985969  0.5903091372562059   F   F   F
  0.4994971109855442  0.0000726635730004  0.5911417887312496   F   F   F
  0.7545544669502675  0.6933637445276304  0.6576177396577165   F   F   F
  0.7483400275584344  0.9368275125739558  0.6399605390900049   F   F   F
  0.2534021061571750  0.1864837304013705  0.6414486170640714   F   F   F
  0.7457794798738391  0.1939252474992088  0.6465218031451059   F   F   F
  0.7555320033076214  0.4360698361754345  0.6394471425343227   F   F   F
  0.4174116118825992  0.9347552787591908  0.6398978104594448   F   F   F
  0.4214027740317405  0.6754301011318518  0.6329554750930129   F   F   F
  0.5910181874899294  0.8098743035949383  0.6468540241233569   F   F   F
  0.9160117250797342  0.0625746114516019  0.6417746369908528   F   F   F
  0.9125140228938804  0.5616446029736011  0.6419957507045808   F   F   F
  0.9150326368992765  0.3118390234012836  0.6396324928802670   F   F   F
  0.9141551494568816  0.8132546730844510  0.6415077637259330   F   F   F
  0.5821648075447854  0.0654905820884437  0.6398297708392775   F   F   F
  0.5833600124160725  0.3202459477392026  0.6342187653997371   F   F   F
  0.5912975249648227  0.5650487908927389  0.6391760361679459   F   F   F
  0.2468968923487154  0.5733213503373875  0.6284404565884714   F   F   F
  0.2621656816396865  0.7988691748019505  0.6465316157225089   F   F   F
  0.2493571703259434  0.3161110068639559  0.6417136084931343   F   F   F
  0.2510059152173838  0.0594291740916120  0.6423178791462547   F   F   F
  0.9166666865332829  0.5625000000092442  0.3605200052333331   F   F   F
  0.4995626588695785  0.3741651779552839  0.4997274080080842   F   F   F
  0.5001857327489816  0.8727718729790439  0.5008698078327782   F   F   F
  0.5004407374316457  0.6212088367285489  0.5000221715004827   F   F   F
  0.8323130559826595  0.6230261150450218  0.4999726341227415   F   F   F
  0.8327222243639483  0.8742366283003307  0.4985970987118478   F   F   F
  0.8324023490187500  0.3731453124683242  0.4997653614962161   F   F   F
  0.8329144206036503  0.1244993222655424  0.4997797082580320   F   F   F
  0.1667024042679230  0.3762572214374771  0.4978448319446542   F   F   F
  0.1677525075390776  0.6243321439032172  0.5000023716595194   F   F   F
  0.5815106623661350  0.4391845600585995  0.6459039042667669   F   F   F
  0.5791304854767887  0.6850947138356460  0.6396619656871536   F   F   F
  0.9170589734834209  0.1865595679436041  0.6406067352910583   F   F   F
  0.5816946295606087  0.9351546535573121  0.6389912885390459   F   F   F
  0.8303633230267025  0.7507879919137039  0.5927364029450146   F   F   F
  0.8314837046228192  0.2481830059253056  0.5913912779300858   F   F   F
  0.8330769682210857  0.5033194965524999  0.5890215143664363   F   F   F
  0.8322084428622674  0.0020653008446203  0.5922972632556167   F   F   F
  0.5019736400995640  0.7566147966967520  0.5928617618888765   F   F   F
  0.4177001468669133  0.0652781659154016  0.6401283474594237   F   F   F
  0.4273861596682096  0.3054051855963991  0.6548225821805360   F   F   F
  0.4136246709458078  0.8122148559474169  0.6396814104407653   F   F   F
  0.3968587336163480  0.5506360450157715  0.6517894768791450   F   F   F
  0.7518549673509440  0.5710367942472416  0.6340647992869748   F   F   F
  0.7417568864911317  0.8106243566747011  0.6397700479632746   F   F   F
  0.7462072067533114  0.3123592712956196  0.6402555856850611   F   F   F
  0.7475892054376700  0.0671367409667099  0.6389508052576787   F   F   F
  0.0837655129260639  0.3117771211529785  0.6403975788978684   F   F   F
  0.6665910712247012  0.8750157976729085  0.4991672353282439   F   F   F
  0.0874183953461838  0.5621936464469215  0.6409211772208749   F   F   F
  0.0843036735949951  0.0604488056491590  0.6421717595919318   F   F   F
  0.0865296598656755  0.4364254976403501  0.6391597621854359   F   F   F
  0.0835313101167117  0.1857095812467335  0.6409787714085269   F   F   F
  0.4193460767269315  0.1888304542637016  0.6402412992366209   F   F   F
  0.4148386204431489  0.4192851456351505  0.6297777366217048   F   F   F
  0.0842813994097540  0.9354864239656706  0.6408297852356739   F   F   F
  0.0831357022648973  0.6869068836417824  0.6391063006608491   F   F   F
  0.9126380379380734  0.4359193518367235  0.6395529159180100   F   F   F
  0.9159784669325504  0.6873432611633135  0.6391715002519121   F   F   F
  0.9144231761350952  0.9371663612793668  0.6410049624021497   F   F   F
  0.2404827406453052  0.4416727876658300  0.6409678651674682   F   F   F
  0.2581381851459881  0.6765961045485227  0.6617624179287205   F   F   F
  0.5781175839896164  0.1907964993162921  0.6444401961996391   F   F   F
  0.2519413644022563  0.9301250477240472  0.6373906307780999   F   F   F
  0.0839507949048084  0.8120093817519560  0.6419017754114265   F   F   F
  0.9166666865332829  0.8124999999834799  0.3605200052333331   F   F   F
  0.0007082082363326  0.1225603358238914  0.6197677198951794   F   F   F
  0.8333332538436267  0.6249999999803961  0.4070133268666680   F   F   F
  0.9994588538482390  0.5007051493179375  0.5069582235750119   F   F   F
  0.3311890795586976  0.4992187502522469  0.5007260734171481   F   F   F
  0.3300517418009576  0.2480041470675829  0.5028385946412257   F   F   F
  0.3331871790154537  0.0010223362045707  0.5059006463058751   F   F   F
  0.3338025590559610  0.7511450981534296  0.5014193233359663   F   F   F
  0.6658110997490141  0.0001284007149565  0.5055509103436080   F   F   F
  0.6684666636985881  0.4997332435757187  0.5005559999868723   F   F   F
  0.6669180820583378  0.2477205629112333  0.5030269672685037   F   F   F
  0.6652121215519102  0.7518566802195537  0.5023481170419686   F   F   F
  0.1659677948188403  0.0011119937587125  0.5065548547826566   F   F   F
  0.1662966966067358  0.2481865181379987  0.5062689684347106   F   F   F
  0.1632960818297775  0.4998136262779909  0.5017770999703686   F   F   F
  0.5001223312991385  0.9994328591564852  0.5055237130471966   F   F   F
  0.1643469004915445  0.7515882787531041  0.5032152716263596   F   F   F
  0.5010499691408228  0.7527527768485669  0.5038882676828038   F   F   F
  0.8342557518771159  0.0003690376008620  0.5065002206179727   F   F   F
  0.5012711403103793  0.4997806207818627  0.5001888967914496   F   F   F
  0.5010716145534957  0.2478551302848544  0.5020342303537930   F   F   F
  0.8355049690499072  0.2484539994635213  0.5031518517953160   F   F   F
  0.9997037396795108  0.7509244416550871  0.5065097341878371   F   F   F
  0.0007533506005046  0.2497660081983852  0.5058755381817619   F   F   F
  0.0000694025270747  0.9999560963444338  0.5066837946092662   F   F   F
  0.8333332538436267  0.8749999404036828  0.4070133268666680   F   F   F
  0.0000000000000000  0.6249999999803961  0.4070133268666680   F   F   F
  0.0000000000000000  0.8749999404036828  0.4070133268666680   F   F   F
  0.3333333432766779  0.1249999999871179  0.4070133268666680   F   F   F
  0.3333333432766779  0.3750000000061604  0.4070133268666680   F   F   F
  0.3333333432766779  0.6249999999803961  0.4070133268666680   F   F   F
  0.3333333432766779  0.8749999404036828  0.4070133268666680   F   F   F
  0.6666666865533486  0.1249999999871179  0.4070133268666680   F   F   F
  0.6666666865533486  0.3750000000061604  0.4070133268666680   F   F   F
  0.6666666865533486  0.6249999999803961  0.4070133268666680   F   F   F
  0.8360856698538441  0.4999442170689576  0.5028397763773924   F   F   F
  0.6666666865533486  0.8749999404036828  0.4070133268666680   F   F   F
  0.1666666716383389  0.3750000000061604  0.4070133268666680   F   F   F
  0.1666666716383389  0.6249999999803961  0.4070133268666680   F   F   F
  0.1666666716383389  0.8749999404036828  0.4070133268666680   F   F   F
  0.5000000000021103  0.1249999999871179  0.4070133268666680   F   F   F
  0.5000000000021103  0.3750000000061604  0.4070133268666680   F   F   F
  0.5000000000021103  0.6249999999803961  0.4070133268666680   F   F   F
  0.5000000000021103  0.8749999404036828  0.4070133268666680   F   F   F
  0.8333332538436267  0.1249999999871179  0.4070133268666680   F   F   F
  0.8333332538436267  0.3750000000061604  0.4070133268666680   F   F   F
  0.1666666716383389  0.1249999999871179  0.4070133268666680   F   F   F
  0.0000000000000000  0.3750000000061604  0.4070133268666680   F   F   F
  0.8357903202064136  0.7518294743309610  0.5025979165565246   F   F   F
  0.8368263807719174  0.3724691673387781  0.6045178406342870   F   F   F
  0.8321200464423484  0.8761806621363633  0.6181652117012959   F   F   F
  0.8396987283438548  0.6269661532511392  0.6030664713016307   F   F   F
  0.9990321465443586  0.8750917021154478  0.6220947655229452   F   F   F
  0.3317759132530611  0.1201065948025928  0.6138221531364323   F   F   F
  0.3338461190531490  0.6243214718181065  0.5951956873867346   F   F   F
  0.3257833652847282  0.3735738397109927  0.5927121567764928   F   F   F
  0.6707075873159951  0.3721074678422056  0.5940407915002197   F   F   F
  0.6650841076035476  0.1244012770140728  0.6113831130209348   F   F   F
  0.3346041352195499  0.8784936574330402  0.6031632118433734   F   F   F
  0.1591425458176730  0.6271654964221085  0.6009488875591416   F   F   F
  0.1659240873473067  0.8733212732690347  0.6179259379655520   F   F   F
  0.5016506052214211  0.3715005007205008  0.5949851228402991   F   F   F
  0.5001911562174541  0.1219400509824524  0.6061392680666984   F   F   F
  0.1676243922465943  0.1227789392179162  0.6220935032772132   F   F   F
  0.1631705608219960  0.3712146948678239  0.6076499027180660   F   F   F
  0.6650454614696741  0.8807718177534483  0.6072345808717614   F   F   F
  0.6661301332514427  0.6262430323968999  0.5930491520238093   F   F   F
  0.9999392220933387  0.3745179606505005  0.6226617407734167   F   F   F
  0.9994984023918718  0.6219256260979833  0.6325213825420803   F   F   F
  0.8336137861737924  0.1248282784694652  0.6193626150129674   F   F   F
  0.5003807689270445  0.8765696341767111  0.6091276299660890   F   F   F
  0.0000000000000000  0.1249999999871179  0.4070133268666680   F   F   F
  0.5039181588161625  0.6247402282574015  0.5936076497975478   F   F   F
  0.9162539569053862  0.0003199294199447  0.6038577829126126   F   F   F
  0.5836953622743621  0.7493188320662227  0.6000399131872314   F   F   F
  0.5905131907828078  0.5009039092064285  0.5933814709417575   F   F   F
  0.2422904386533347  0.4976992049416751  0.5934039186991455   F   F   F
  0.2489975433387812  0.7525493819313311  0.5920421393275532   F   F   F
  0.5839040137958023  0.2475143194673208  0.5971122577126309   F   F   F
  0.5824769544018693  0.0008983574823205  0.6043645711550738   F   F   F
  0.2497387111948797  0.9976872521371618  0.6042176005766464   F   F   F
  0.2489346135182871  0.2456543428099422  0.6037342429515746   F   F   F
  0.4170465899212132  0.0000698497696234  0.6050114619157370   F   F   F
  0.4146809162925962  0.2488294211524433  0.5911921290234901   F   F   F
  0.4156080198380820  0.7501290095845405  0.5941533421234269   F   F   F
  0.7563188636348102  0.5025871352282678  0.5949294792831381   F   F   F
  0.7512660024040798  0.7527657277552322  0.5904548508531207   F   F   F
  0.7537609227458546  0.2480655475981806  0.5938026375598255   F   F   F
  0.7494884844970002  0.0017083516567240  0.6041679909638233   F   F   F
  0.0833340702286094  0.2480710848687906  0.6035790168506523   F   F   F
  0.0814071828428382  0.5001363830342669  0.6030509837095224   F   F   F
  0.0802455226530157  0.7510596332963786  0.6031273845206186   F   F   F
  0.0835586002708055  0.9986801733720156  0.6037367417568689   F   F   F