Au O  Sr Ti H 
 1.0000000000000000
    23.6707801818999997    0.0000000000000000    0.0000000000000000
     0.0000000000000000   22.3170261383000010    0.0000000000000000
     0.0000000000000000    0.0000000000000000   30.0000000000000000
 Au  O   Sr  Ti  H  
  50 264  72  72   1
Selective dynamics
Cartesian
 16.9597344715854206 11.7541050740991544 22.6104774569789662   F   F   F
 14.7477856458966308 12.6997274575323029 21.1066661043094896   F   F   F
 17.0013987085430465  5.7557187424746301 20.7282954414777301   F   F   F
  6.9860426472761539 16.6494192755559212 20.9004945572389076   F   F   F
 12.0500926731961293 13.4341844016592926 23.3436996417232336   F   F   F
 13.6496813560374495 16.0880495149276470 23.7930986486339577   F   F   F
 12.9761248444704886  8.4773223449214949 24.7578349560991988   F   F   F
  5.6840733796547456 10.4530702707293415 21.2509980847047508   F   F   F
  6.7080114089476330 14.7604327095282652 22.9330099869095925   F   F   F
 14.3491340030362675  6.3359755435486287 23.5832628095957055   F   F   F
 12.1825567884268242 10.8234501044292735 20.3259788463250892   F   F   F
 13.2847425382796018 10.8398665062325126 22.8740237273287264   F   F   F
 10.9657445833992462 15.5010994047926101 24.9274952741387033   F   F   F
 18.1043931596057917  9.6651850169804874 21.1726770366404615   F   F   F
 17.3459612724027004 13.7495152171517852 20.7997261694483804   F   F   F
 14.9815486224049028 13.0769998521674893 23.9425308372645276   F   F   F
 14.0910452673008137 17.4680916001351569 21.3923468634187053   F   F   F
 11.4772248788361253 17.3230998190359777 22.7053884238987145   F   F   F
  8.2628560139697935 11.1562996200335593 20.9329971613498032   F   F   F
 10.1532933197767310  8.3099904942406582 24.4528318138589071   F   F   F
  8.8300994783693607  6.6595480333919532 22.6463146594495939   F   F   F
 10.5597058281555860  5.1311201635500563 20.8904101455521527   F   F   F
  9.2887466627323416 18.2556330217383262 21.2041201045453676   F   F   F
  6.8102322103881079 11.9829656767271739 23.3110979180727540   F   F   F
 13.2497110955828443  4.6377381306363850 21.3827329806667912   F   F   F
 10.6948381669556749 12.9390285662676536 21.0749897599452964   F   F   F
 14.5440166834669107  7.1582996509099512 20.9255086770643430   F   F   F
 16.7247434141478806 16.9225041288144205 20.6479153864189726   F   F   F
 15.5056499216529318  9.7341839792433316 24.2743037178863936   F   F   F
  8.7428848607168455 13.7921770502864636 24.5100453004328678   F   F   F
 13.6676429808832989 11.3184418646641713 25.6684421127696076   F   F   F
 15.8394921174021093  4.2056798486545723 22.5289538469756963   F   F   F
 11.2164025340234055 10.0900156635951443 26.2522125148020997   F   F   F
 12.1866343339926413  8.4344440434188286 21.9001776828397112   F   F   F
  6.7063838301097700  7.5376786218921703 21.0794889109709978   F   F   F
 15.8651477643710734 15.2211050785978692 22.4541873323050218   F   F   F
  9.4056479032246152  8.5346381678180432 20.7003973365635581   F   F   F
  8.8432654215325464 10.9993060004162491 24.9856225159242591   F   F   F
 10.8515600789398672 12.8942824709215884 26.0966481007354112   F   F   F
  7.7004958660999634  9.2354289005962187 23.0672549592423621   F   F   F
 11.5825345110717350  6.0560011137980387 23.2552798006714170   F   F   F
  9.9271792109254999 15.5590916538655328 20.9586040012241668   F   F   F
 16.6255443898527382  7.6955791519961894 22.6702771719603255   F   F   F
 18.3256173370580555  9.6132098296604109 23.8719438931876375   F   F   F
  6.0777019907521410 13.2176642254247536 20.8220602041423959   F   F   F
 15.3241719789957340  9.8865705882461299 20.9274086635574861   F   F   F
 13.3457591387928769 14.1951762096228613 25.8799099127665251   F   F   F
 12.8130277439928015 14.8433650543796016 21.0595938895039616   F   F   F
 10.4802574367163839 10.6108184241756653 22.7061488901117379   F   F   F
  8.8413166302248936 16.4794137585021154 23.3385884427047081   F   F   F
  5.9179332965256934  4.2117639151103914 13.6310338049164095   F   F   F
 17.7423114570196212 20.9423717021290408 13.6591788605038822   F   F   F
 17.7318541152971534 15.3706983908616248 13.7197383479672279   F   F   F
 17.7402590080393168  9.7886269632374034 13.6842619411143751   F   F   F
 17.7594055191499791  4.2329813323992029 13.6682805697278695   F   F   F
  9.8863191473712355 20.8836712595055758 13.6193377626066390   F   F   F
  9.8733785748839544 15.2809220536853072 13.6387903183226129   F   F   F
  9.8585711459704353  9.7180180997195809 13.6147165613110470   F   F   F
  2.0022460714895431 15.3286369394112292 13.5901583827922483   F   F   F
  1.9922558372816248 20.9058295730909549 13.6087871263890712   F   F   F
  1.9590756672973060  9.7474097735239926 13.5856075938491188   F   F   F
  1.9853457890269244  4.1631358103768932 13.5891533583584465   F   F   F
 21.6966447115263357 18.1235030143809936 13.6221222831477355   F   F   F
 21.6865182337674014 12.5504292337920305 13.6166713936786241   F   F   F
  5.9456479333450458  9.8047975412465700 13.6463657399404745   F   F   F
 21.6856660574522735  1.3872573356180382 13.6230297789416337   F   F   F
 21.6843086123034574  6.9664236748967294 13.6178819896977181   F   F   F
  9.8773760599960028  4.1762771048117457 13.6062950045928321   F   F   F
  5.9666330030577752 15.3466385768195668 13.6829983604528600   F   F   F
 21.6940257138957158 20.9107751890727656 13.6072155765132017   F   F   F
 13.7938364962380327  4.2293589255843846 13.6574957039520779   F   F   F
  0.0014117717389991  2.7911065398504871 14.9523525150316505   F   F   F
 13.8178730276366721 18.0764975046664880 13.6658788545897423   F   F   F
 23.6673266490961929  8.3309405266182672 14.9480942705270969   F   F   F
 -0.0047262004736937 13.9980347672573924 14.9300550350075412   F   F   F
  7.8973222043773239  2.8037422878564957 14.9561313783625405   F   F   F
  0.0029427530466072 19.5322604170648830 14.9865224939461523   F   F   F
  7.8974210421082445 19.5090964436443990 14.9763630630941886   F   F   F
 15.7644306831162488  2.8123228192796752 14.9739650441663343   F   F   F
  7.9458244861695748 13.9677313756699615 15.1135495834241009   F   F   F
  7.9147298137474529  8.4436135224715745 15.0855031650322999   F   F   F
 15.7507425063841726  8.4492262271679941 15.0958008440878313   F   F   F
 21.6672337578963976 15.3267849770967022 13.5913532595948485   F   F   F
 21.6767058071902312  9.7525590378977949 13.6102706745707138   F   F   F
 21.6793583154391563  4.1692518635300617 13.5948655030247849   F   F   F
 13.8002883953662554 20.8973094905849770 13.6154300433805773   F   F   F
 13.7952012935408952 15.3105320967715439 13.6373380058714275   F   F   F
 13.7936273895377486  9.8036405443799879 13.6837140311045058   F   F   F
  5.9175746444522117 20.8890062144476971 13.6224139578044277   F   F   F
 15.7508362259104704 13.9672464526347913 15.0871826830969464   F   F   F
 13.8360381133744674 12.5597859694411955 13.6468652870323375   F   F   F
 13.8000342173645372  1.3988636010204580 13.6389698461205917   F   F   F
 21.6982156369999721 15.3429554700000619 10.8156001569999933   F   F   F
 21.6982156369999721  9.7636982699999884 10.8156001569999933   F   F   F
 21.6982156369999721  4.1844424010000720 10.8156001569999933   F   F   F
 13.8079546360000549 20.9222120050000342 10.8156001569999933   F   F   F
 13.8079546360000549 15.3429554700000619 10.8156001569999933   F   F   F
 13.8079546360000549  9.7636982699999884 10.8156001569999933   F   F   F
 13.8079546360000549  4.1844424010000720 10.8156001569999933   F   F   F
  5.9176950450000287 20.9222120050000342 10.8156001569999933   F   F   F
 21.6982156369999721 20.9222120050000342 10.8156001569999933   F   F   F
  5.9176950450000287 15.3429554700000619 10.8156001569999933   F   F   F
  5.9176950450000287  4.1844424010000720 10.8156001569999933   F   F   F
 17.7530837259999217 20.9222120050000342 10.8156001569999933   F   F   F
 17.7530837259999217 15.3429554700000619 10.8156001569999933   F   F   F
 17.7530837259999217  9.7636982699999884 10.8156001569999933   F   F   F
 17.7530837259999217  4.1844424010000720 10.8156001569999933   F   F   F
  9.8628241350000643 20.9222120050000342 10.8156001569999933   F   F   F
  9.8628241350000643 15.3429554700000619 10.8156001569999933   F   F   F
  9.8628241350000643  9.7636982699999884 10.8156001569999933   F   F   F
  5.9176950450000287  9.7636982699999884 10.8156001569999933   F   F   F
  1.9725650740000149  1.3948141340000613 10.8156001569999933   F   F   F
  1.9725650740000149  6.9740706679999214 10.8156001569999933   F   F   F
  1.9725650740000149 12.5533272030000536 10.8156001569999933   F   F   F
 21.6982156369999721  6.9740706679999214 10.8156001569999933   F   F   F
 21.6982156369999721  1.3948141340000613 10.8156001569999933   F   F   F
 13.8079546360000549 18.1325837370000720 10.8156001569999933   F   F   F
 13.8079546360000549 12.5533272030000536 10.8156001569999933   F   F   F
 13.8079546360000549  6.9740706679999214 10.8156001569999933   F   F   F
 13.8079546360000549  1.3948141340000613 10.8156001569999933   F   F   F
  5.9176950450000287 18.1325837370000720 10.8156001569999933   F   F   F
  5.9176950450000287 12.5533272030000536 10.8156001569999933   F   F   F
  5.9176950450000287  6.9740706679999214 10.8156001569999933   F   F   F
  5.9176950450000287  1.3948141340000613 10.8156001569999933   F   F   F
 17.7530837259999217 18.1325837370000720 10.8156001569999933   F   F   F
 17.7530837259999217 12.5533272030000536 10.8156001569999933   F   F   F
 17.7530837259999217  6.9740706679999214 10.8156001569999933   F   F   F
 17.7530837259999217  1.3948141340000613 10.8156001569999933   F   F   F
  9.8628241350000643 18.1325837370000720 10.8156001569999933   F   F   F
  9.8628241350000643 12.5533272030000536 10.8156001569999933   F   F   F
  9.8628241350000643  6.9740706679999214 10.8156001569999933   F   F   F
  9.8628241350000643  1.3948141340000613 10.8156001569999933   F   F   F
  1.9725650740000149 18.1325837370000720 10.8156001569999933   F   F   F
  9.8628241350000643  4.1844424010000720 10.8156001569999933   F   F   F
  1.9725650740000149 20.9222120050000342 10.8156001569999933   F   F   F
  1.9725650740000149 15.3429554700000619 10.8156001569999933   F   F   F
  1.9725650740000149  9.7636982699999884 10.8156001569999933   F   F   F
 19.7256482699999580 11.1585130689999925 12.2103998060000407   F   F   F
 19.7256482699999580 16.7377696039999648 12.2103998060000407   F   F   F
  1.9809038117207114  1.3811787016436567 13.6264643272969348   F   F   F
  1.9782125471279268  6.9628182720499341 13.6195235625849502   F   F   F
  1.9865034444301817 12.5531548572959046 13.6160323267240617   F   F   F
  1.9763924009219047 18.1241135910735345 13.6251308912147291   F   F   F
  9.8677069259025423  1.3732660076661638 13.6610632477010903   F   F   F
  9.8358444480696967  6.9477541683484647 13.7208774506549283   F   F   F
  9.8490588207412042 12.4866826002423359 13.7357507582799272   F   F   F
  9.8616538865571428 18.0758127487139539 13.6530915747011363   F   F   F
 17.7437462731848008  1.4294985870048866 13.6010808674122057   F   F   F
 17.6922329079365639  7.0123578454529936 13.6400486114718920   F   F   F
 17.7092560898924205 12.5966076290297639 13.6074619334255686   F   F   F
 17.7305283845319472 18.1537999188877315 13.5858901041862499   F   F   F
  5.9300464512521316  1.3843472249926096 13.6268586352490253   F   F   F
 21.6680098312635252  6.9810375853863142 16.4057483563296067   F   F   F
  5.9698649779556590  7.0161216962334008 13.6179845039618552   F   F   F
  5.9624209970631998 12.6038872984673507 13.6095182106186208   F   F   F
  5.9319718430047335 18.0934814639446948 13.6607621466958875   F   F   F
 19.7256482699999580  5.5792565349999723 12.2103998060000407   F   F   F
 13.8272232615279709  7.0254116563286377 13.6211834954092925   F   F   F
 19.7256482699999580  0.0000000000000000 12.2103998060000407   F   F   F
 11.8353900909999528 11.1585130689999925 12.2103998060000407   F   F   F
  1.9725650740000149  4.1844424010000720 10.8156001569999933   F   F   F
  0.0000000000000000  0.0000000000000000 12.2103998060000407   F   F   F
  0.0000000000000000  5.5792565349999723 12.2103998060000407   F   F   F
  0.0000000000000000 11.1585130689999925 12.2103998060000407   F   F   F
  0.0000000000000000 16.7377696039999648 12.2103998060000407   F   F   F
  7.8902602960000570  0.0000000000000000 12.2103998060000407   F   F   F
  7.8902602960000570  5.5792565349999723 12.2103998060000407   F   F   F
  7.8902602960000570 11.1585130689999925 12.2103998060000407   F   F   F
  7.8902602960000570 16.7377696039999648 12.2103998060000407   F   F   F
 15.7805205919999434  0.0000000000000000 12.2103998060000407   F   F   F
 15.7805205919999434  5.5792565349999723 12.2103998060000407   F   F   F
 15.7805205919999434 11.1585130689999925 12.2103998060000407   F   F   F
 15.7805205919999434 16.7377696039999648 12.2103998060000407   F   F   F
  3.9451301480000271  0.0000000000000000 12.2103998060000407   F   F   F
  3.9451301480000271  5.5792565349999723 12.2103998060000407   F   F   F
  3.9451301480000271 11.1585130689999925 12.2103998060000407   F   F   F
  3.9451301480000271 16.7377696039999648 12.2103998060000407   F   F   F
 11.8353900909999528  0.0000000000000000 12.2103998060000407   F   F   F
 11.8353900909999528  5.5792565349999723 12.2103998060000407   F   F   F
 11.8353900909999528 16.7377696039999648 12.2103998060000407   F   F   F
  3.9545664630174135  2.7742640842412376 14.9801039138678789   F   F   F
 21.7234735615218142  1.4124003676616257 16.4256787977359977   F   F   F
  3.9731750842382292 19.4875579665313019 14.9978891980835929   F   F   F
  5.9627025569657830  4.1968529626189737 16.4225178197603867   F   F   F
 17.7414415952819340 20.8467994568228363 16.4286013078558888   F   F   F
 17.7949708578554642 15.1825072111080281 16.5903371224898031   F   F   F
 17.8107635304743894  9.6943103952630132 16.4974659063630007   F   F   F
 10.0158223812987881  9.9067757505002465 16.3649957222020355   F   F   F
 10.0247810105364312 15.3552172211549767 16.3946724416646354   F   F   F
 17.7152692758530002  4.0977606060214331 16.5209798371430345   F   F   F
  9.8493565694494585 20.9090024536488670 16.3833355243728676   F   F   F
  1.9908498867719466 20.9425492682402208 16.3834227087588573   F   F   F
  9.8403385170909417  4.2732840415463080 16.3960821129663366   F   F   F
  2.0481468221305916 15.3918076603610352 16.3531004829153730   F   F   F
  1.9444125830530574  9.7914575082052853 16.3453238019314711   F   F   F
  1.9792894727973178  4.2175456290999529 16.3643535598786016   F   F   F
 11.8229430404583145  2.8025304048403141 14.9889826604358714   F   F   F
 23.6591683593464097 11.1831713559998516 17.8299287959519965   F   F   F
 23.6565252511428170 16.7998607870760708 17.7665346781873907   F   F   F
  7.9248250382386463  5.6747102380753409 17.7853685878933412   F   F   F
  7.9063548540607567 22.3119131723882269 17.7622840980617802   F   F   F
 -0.0031846511028856 22.2984661916707800 17.7948290892511451   F   F   F
  0.0179909631497115  5.5791969148207388 17.7566594383768255   F   F   F
  7.8860306764401438 11.0797527859546943 17.7181744386723921   F   F   F
  7.9565206640414567 16.5400282405069170 17.7138789393703604   F   F   F
 15.7002592100937957  5.5180968253880556 17.7281243753319977   F   F   F
 15.7585531123255880  0.0075208790586863 17.7566851748444421   F   F   F
 15.7740909318128075 16.5462857539969264 17.7306609480627095   F   F   F
 15.7836129391080604 11.0282463888501656 17.7341218802365788   F   F   F
  3.9644604791546985 22.2815412498980372 17.7704789013392705   F   F   F
  3.9873384018918681  5.5561594479098897 17.7952418946907436   F   F   F
  4.0434573529443556 16.7407460951760427 17.8519020056733098   F   F   F
  5.8861308047376850  9.7256558625488871 16.4633790312872641   F   F   F
  3.9143648683008352 11.2105289636940828 17.6047342535051783   F   F   F
  5.9017164705414293 15.2482952427621825 16.5611048144438087   F   F   F
 13.7486557747429607  4.1511909633625148 16.4835130036332558   F   F   F
 21.6718163106333144 18.1422292791597783 16.4048524510333991   F   F   F
 21.7065163060117747 12.5859464874424738 16.4016694606088258   F   F   F
 13.7576458352175113 12.5038835595074129 16.4705237836044098   F   F   F
 13.8912861009399169 18.1893829892863792 16.5270978198289740   F   F   F
 13.8020236233340032  6.9585439165521557 16.3682251844620659   F   F   F
 13.7917450221936253  1.4126513148878175 16.4060179198590816   F   F   F
  5.9987627809060822 18.1328510658526163 16.5239203178092318   F   F   F
  5.9728183695386576 12.4760550437163804 16.3106599210571659   F   F   F
  5.9069592795818870  7.0011984731691665 16.3792331304938159   F   F   F
  5.9447324014800484  1.3913492600474102 16.4159365189126838   F   F   F
 17.7046493847781008 18.0308241820049417 16.3604664375484639   F   F   F
 17.6719496545357480 12.4416482183406512 16.3303606206134653   F   F   F
  9.8155981584680649 18.1120411339101182 16.4342655068763115   F   F   F
 17.7116477684752525  1.3320407837332779 16.3354699155294369   F   F   F
 17.6995850743903773  6.9430830950084337 16.4358821465123697   F   F   F
  9.8462712926325633  7.1356823653148620 16.5776999308713862   F   F   F
  9.9413260719304422 12.6114357886947062 16.6554666922817596   F   F   F
  9.8596691571579278  1.4577672028623003 16.4202208869556543   F   F   F
  2.0088165924578893 18.1380995632501261 16.4191579564619303   F   F   F
  1.9451364408947922 12.5957817717490776 16.3856906986588804   F   F   F
  2.0451289877750392  6.9970659074956885 16.4070151894985159   F   F   F
  1.9496244821894047  1.4093911716900496 16.4273878951206420   F   F   F
 21.6763749850464471 20.9463506423184462 16.3909382027082238   F   F   F
 21.6189605793516400 15.3855739521743704 16.3495991767259561   F   F   F
 13.8059316326481465 20.9478119767634965 16.3675895939512586   F   F   F
 21.7037372565535591  4.2178222895051078 16.3620551385584463   F   F   F
 21.6811690029374624  9.7672009574773977 16.3731764060415053   F   F   F
 13.6454339759843730  9.7369543099645242 16.5498862742496087   F   F   F
 13.7234680208710245 15.3203422558619895 16.4222566382711008   F   F   F
  5.9536029324708624 20.9168270986318241 16.3593069341562263   F   F   F
 11.7750293233963212 11.2628302529224662 18.2599831585711740   F   F   F
 11.8063747486588113  5.6537648743855362 17.7092741176861068   F   F   F
 11.8234863156329570  0.0016216348579500 17.7342536619374904   F   F   F
 17.8608929224504820 15.4738168099726376 19.7285321897315882   F   F   F
 17.7137922936526273 20.9072040851915162 19.1988161727000914   F   F   F
  5.9982255524770061  4.1617622857351071 19.2434585119222348   F   F   F
 17.6531821322653251  4.3278348173160843 19.3956540943532723   F   F   F
 17.8840319706851822  9.7317819320513905 19.1834142760296480   F   F   F
  9.8804585102455214 20.8609579889827046 19.1969343137833803   F   F   F
  9.9749324321481847 15.0735912215541639 18.9886642527904712   F   F   F
 13.9898615995790667 18.0739860020657126 19.4056207237007712   F   F   F
 21.6827121884054499  1.3964792393592902 19.2532391097256550   F   F   F
 21.5999188488222273 12.5342372849969053 19.2598725211375239   F   F   F
 21.6595364073070513  6.9593196361883143 19.1889747864079752   F   F   F
 21.6387655949457702 18.1494257963202692 19.2452329117780678   F   F   F
 13.7802951890307313  1.4615550322803335 19.1948931251783037   F   F   F
 13.8085866208113703  7.1469371863804225 19.0265629619921128   F   F   F
 13.9964737355438800 12.6102086357680108 19.1752810850382964   F   F   F
  5.8442420663805903 12.7948275611248903 18.8532136976542475   F   F   F
  6.2056662213310227 17.8283842551373013 19.3959484716752470   F   F   F
  5.9024787655660704  7.0546576027872865 19.2514082547939687   F   F   F
  5.9415058434672776  1.3262824315800974 19.2695363743875703   F   F   F
 21.6982156369999721 12.5533272030000536 10.8156001569999933   F   F   F
 11.8250378851873403  8.3502540564698062 14.9918222402426373   F   F   F
 11.8397865300237424 19.4776727020463305 15.0260942349832938   F   F   F
 11.8458226898123851 13.8635338466139828 15.0006651450145476   F   F   F
 19.7014993906909233 13.9040900943033350 14.9991790236822311   F   F   F
 19.7111847255017665 19.5103616848377257 14.9579129613554880   F   F   F
 19.7036130265199851  8.3274936917396811 14.9929608448864968   F   F   F
 19.7157341604435992  2.7784546292008163 14.9933912477410676   F   F   F
  3.9459759672203050  8.3969422455443183 14.9353449583396980   F   F   F
  3.9708327309200970 13.9332367744689716 15.0000711497856898   F   F   F
 13.7648110622998487  9.8012933063655225 19.3771171280029968   F   F   F
 13.7084704183581607 15.2892766358812224 19.1898589706147185   F   F   F
 21.7075013751649450  4.1634547541473808 19.2182020587318405   F   F   F
 13.7691657093209709 20.8698708467914962 19.1697386561713294   F   F   F
 19.6553476904770186 16.7553552398599024 17.7820920883504350   F   F   F
 19.6818679969585766  5.5387066303168755 17.7417383379026603   F   F   F
 19.7195817893649625 11.2325943604782079 17.6706454309930656   F   F   F
 19.6990231165140699  0.0460913729328465 17.7689178976685334   F   F   F
 11.8821076919050341 16.8853921945059184 17.7858528566662919   F   F   F
  9.8872883584340574  1.4568145349943240 19.2038504237826650   F   F   F
 10.1165638382925902  6.8157355097272143 19.6446774654160521   F   F   F
  9.7908186637688708 18.1262201700940722 19.1904423132228672   F   F   F
  9.3939558466998552 12.2885590093070984 19.5536843063743362   F   F   F
 17.7969936608337456 12.7438430631467998 19.0219439786091797   F   F   F
 17.5579642085421099 18.0907249562518864 19.1931014388981929   F   F   F
 17.6633067612072026  6.9709300220446373 19.2076675705517381   F   F   F
 17.6960197482763810  1.4982924029942943 19.1685241577303849   F   F   F
  1.9827950432968859  6.9579381620948721 19.2119273669360595   F   F   F
 15.7787307181770906 19.5277504280917995 14.9750170598473229   F   F   F
  2.0692616200938660 12.5464903025421659 19.2276353166263263   F   F   F
  1.9955337261938333  1.3490375757012869 19.2651527877579483   F   F   F
  2.0482245578949012  9.7397192382602977 19.1747928655630808   F   F   F
  1.9772512800787785  4.1444855788160364 19.2293631422558953   F   F   F
  9.9262488023453077  4.2141341835100334 19.2072389770985872   F   F   F
  9.8195537954724283  9.3571975545406563 18.8933320986511930   F   F   F
  1.9950064788511939 20.8772749756666371 19.2248935570701711   F   F   F
  1.9678869335802818 15.3297188768118353 19.1731890198254646   F   F   F
 21.6028543816726675  9.7284235691309888 19.1865874775403995   F   F   F
 21.6819249421141507 15.3394575253660630 19.1751450075573189   F   F   F
 21.6451099955286992 20.9147661806071703 19.2301488720644542   F   F   F
  5.6924140913558219  9.8568231469142216 19.2290359550239920   F   F   F
  6.1103322371452782 15.0996129502813456 19.8528725378616429   F   F   F
 13.6844942499093580  4.2580104623378574 19.3332058859891731   F   F   F
  5.9636486554938442 20.7576250019451471 19.1217189233430958   F   F   F
  1.9871808122874595 18.1216345971032844 19.2570532623428754   F   F   F
 21.6982156369999721 18.1325837370000720 10.8156001569999933   F   F   F
  0.0167638414852661  2.7351822181005794 18.5930315968553224   F   F   F
 19.7256482699999580 13.9481413360000008 12.2103998060000407   F   F   F
 23.6579708302953975 11.1742499049098090 15.2087467072502687   F   F   F
  7.8395039008798024 11.1410778981088310 15.0217822025145509   F   F   F
  7.8125822288236000  5.5347150325140895 15.0851578392367713   F   F   F
  7.8868004739021451  0.0228155037994700 15.1770193891762180   F   F   F
  7.9013669995693503 16.7633247891460186 15.0425797000789014   F   F   F
 15.7602681848279751  0.0028655221118115 15.1665273103083464   F   F   F
 15.8231274553374330 11.1525598590566890 15.0166799996061950   F   F   F
 15.7864713197372364  5.5283862774844215 15.0908090180550971   F   F   F
 15.7460899035906863 16.7792051847151846 15.0704435112589969   F   F   F
  3.9285871884313721  0.0248163937788669 15.1966456434797088   F   F   F
  3.9363725503540947  5.5387850124593667 15.1880690530413442   F   F   F
  3.8653456575582252 11.1543537619243764 15.0533129991110943   F   F   F
 11.8382857682412475 22.3043692412711074 15.1657113914159112   F   F   F
  3.8902193551119901 16.7732152621729078 15.0964581487906919   F   F   F
 11.8602436796802468 16.7992033966074139 15.1166480304841748   F   F   F
 19.7474845181689922  0.0082358217843970 15.1950066185391481   F   F   F
 11.8654789738173356 11.1536171774046817 15.0056669037435721   F   F   F
 11.8607560434855852  5.5313894210788455 15.0610269106136911   F   F   F
 19.7770544632655714  5.5447544001926481 15.0945555538594629   F   F   F
 23.6637674689771522 16.7584003923049423 15.1952920256350890   F   F   F
  0.0178323964644278  5.5740345334222283 15.1762661454529244   F   F   F
  0.0016428119624702 22.3160463392712138 15.2005138382780043   F   F   F
 19.7256482699999580 19.5273965409999306 12.2103998060000407   F   F   F
  0.0000000000000000 13.9481413360000008 12.2103998060000407   F   F   F
  0.0000000000000000 19.5273965409999306 12.2103998060000407   F   F   F
  7.8902602960000570  2.7896282670000101 12.2103998060000407   F   F   F
  7.8902602960000570  8.3688848019999824 12.2103998060000407   F   F   F
  7.8902602960000570 13.9481413360000008 12.2103998060000407   F   F   F
  7.8902602960000570 19.5273965409999306 12.2103998060000407   F   F   F
 15.7805205919999434  2.7896282670000101 12.2103998060000407   F   F   F
 15.7805205919999434  8.3688848019999824 12.2103998060000407   F   F   F
 15.7805205919999434 13.9481413360000008 12.2103998060000407   F   F   F
 19.7908001043470136 11.1572681600198198 15.0851932913217421   F   F   F
 15.7805205919999434 19.5273965409999306 12.2103998060000407   F   F   F
  3.9451301480000271  8.3688848019999824 12.2103998060000407   F   F   F
  3.9451301480000271 13.9481413360000008 12.2103998060000407   F   F   F
  3.9451301480000271 19.5273965409999306 12.2103998060000407   F   F   F
 11.8353900909999528  2.7896282670000101 12.2103998060000407   F   F   F
 11.8353900909999528  8.3688848019999824 12.2103998060000407   F   F   F
 11.8353900909999528 13.9481413360000008 12.2103998060000407   F   F   F
 11.8353900909999528 19.5273965409999306 12.2103998060000407   F   F   F
 19.7256482699999580  2.7896282670000101 12.2103998060000407   F   F   F
 19.7256482699999580  8.3688848019999824 12.2103998060000407   F   F   F
  3.9451301480000271  2.7896282670000101 12.2103998060000407   F   F   F
  0.0000000000000000  8.3688848019999824 12.2103998060000407   F   F   F
 19.7838089477657562 16.7785980301883377 15.0779374966958457   F   F   F
 19.8083333096670380  8.3124041432102871 18.1355352190286787   F   F   F
 19.6969307042891941 19.5537467387703039 18.5449563510388451   F   F   F
 19.8763240176483436 13.9920200299350146 18.0919941390489818   F   F   F
 23.6478703355032600 19.5294443895198135 18.6628429656883519   F   F   F
  7.8533947122623413  2.6804220155916259 18.4146645940930718   F   F   F
  7.9023980986875504 13.9329986052666452 17.8558706216021044   F   F   F
  7.7115464265744675  8.3370571454153257 17.7813647032947948   F   F   F
 15.8761718656893542  8.3043320860911578 17.8212237450065629   F   F   F
 15.7430597135586581  2.7762665507609103 18.3414933906281377   F   F   F
  7.9203409327367069 19.6053659152640058 18.0948963553012518   F   F   F
  3.7670282196381177 13.9964687766920690 18.0284666267743496   F   F   F
  3.9275525984804105 19.4899336826784442 18.5377781389666225   F   F   F
 11.8744612043134250  8.2907863849710282 17.8495536852089955   F   F   F
 11.8399149077538173  2.7213393050810475 18.1841780420008767   F   F   F
  3.9678001419937776  2.7400607957590117 18.6628050983164684   F   F   F
  3.8623744773748685  8.2844080482862950 18.2294970815420569   F   F   F
 15.7421449294189610 19.6562076786816462 18.2170374261528707   F   F   F
 15.7678199567345860 13.9758821229299226 17.7914745607143239   F   F   F
 23.6693415214314271  8.3581271171000129 18.6798522232024844   F   F   F
 23.6589069751781693 13.8795304537072823 18.9756414762623997   F   F   F
 19.7322886891212477  2.7857959534020575 18.5808784503889406   F   F   F
 11.8444031885222429 19.5624274379618015 18.2738288989825897   F   F   F
  0.0000000000000000  2.7896282670000101 12.2103998060000407   F   F   F
 11.9281359670050939 13.9423440036680173 17.8082294939264933   F   F   F
 21.6884460047035326  0.0071398732273371 18.1157334873783213   F   F   F
 13.8165246135909197 16.7225679611423672 18.0011973956170195   F   F   F
 13.9779079335322116 11.1786856345365226 17.8014441282526370   F   F   F
  5.7352037135392555 11.1071661656944247 17.8021175609744731   F   F   F
  5.8939661142053827 16.7946642269230360 17.7612641798266999   F   F   F
 13.8214635578895670  5.5237835371556816 17.9133677313788766   F   F   F
 13.7876839486692990  0.0200486674145041 18.1309371346523100   F   F   F
  5.9115101356050275 22.2654124837936820 18.1265280172994601   F   F   F
  5.8924765162576369  5.4822743894763359 18.1120272885472247   F   F   F
  9.8718181556360367  0.0015588391344754 18.1503438574720448   F   F   F
  9.8158208151909374  5.5531326958371077 17.7357638707046590   F   F   F
  9.8377660794220088 16.7406487139953342 17.8246002637028624   F   F   F
 17.9026575685240203 11.2162502336625973 17.8478843784942534   F   F   F
 17.7830524010417577 16.7994924223299726 17.7136455255936092   F   F   F
 17.8421091120231914  5.5360853097602414 17.8140791267948551   F   F   F
 17.7409771653938790  0.0381253285765466 18.1250397289146683   F   F   F
  1.9725824580445130  5.5362088851732194 18.1073705055195013   F   F   F
  1.9269715303005048 11.1615567328906007 18.0915295112856995   F   F   F
  1.8994741273012046 16.7614174676973597 18.0938215356184884   F   F   F
  1.9778972593175650 22.2875715329453215 18.1121022527061442   F   F   F