CO                                      
   1.00000000000000     
    14.1335345897620392    0.0000000000000000    0.0000000000000000
     0.0000000000000000   17.3099740034466834    0.0000000000000000
     0.0000000000000000    0.0000000000000000   29.1610916380090863
   C    O 
     1     1
Direct
  0.8127478605614229  0.3831317134664332  0.4991370397232781
  0.8127478605614229  0.3831317134664332  0.5382968045079882
 
  0.00000000E+00  0.00000000E+00  0.00000000E+00
  0.00000000E+00  0.00000000E+00  0.00000000E+00
