CO
 1.0000000000000000
    14.1335345897620392    0.0000000000000000    0.0000000000000000
     0.0000000000000000   17.3099740034466834    0.0000000000000000
     0.0000000000000000    0.0000000000000000   29.1610916380090863
 C  O 
 1  1
Cartesian
 11.487 6.632 14.5563517
 11.487 6.632 15.6963517
