Au  C  H  O Sr Ti                       
   1.00000000000000     
    23.6707801818999997    0.0000000000000000    0.0000000000000000
     0.0000000000000000   27.8962826732999716    0.0000000000000000
     0.0000000000000000    0.0000000000000000   30.0000000000000000
   Au   C    H    O    Sr   Ti
    50     6    13   330    90    90
Selective dynamics
Direct
  0.7176405013081665  0.6198455807151894  0.7531998303828172   T   T   T
  0.7052567621161173  0.8054841464714451  0.6887373945232345   T   T   T
  0.6563375154631872  0.5531573425751464  0.8122172222038031   T   T   T
  0.3680889337809936  0.6949534738295600  0.8200215118137577   T   T   T
  0.5700635473573628  0.6087222862889667  0.8570386286235634   T   T   T
  0.6694672791025188  0.3547465834706607  0.7544882361700876   T   T   T
  0.4715246319019377  0.5613134309739390  0.8797435730320324   T   T   T
  0.5180124417202477  0.5013967152579977  0.7334849655791037   T   T   T
  0.2827005052899577  0.4712587202492233  0.7027632029362694   T   T   T
  0.6692458938384247  0.7447493047515330  0.7495905064320116   T   T   T
  0.3977121811499797  0.5059350209492025  0.6908878201307612   T   T   T
  0.6165819544290727  0.4546960868779813  0.6969003802253039   T   T   T
  0.3757746817123609  0.5942065030970635  0.8335543930028949   T   T   T
  0.3262416364164878  0.5319143745743118  0.7698717704811712   T   T   T
  0.4854059891110479  0.4155442726633881  0.7759551752006985   T   T   T
  0.4256307271389769  0.7588048932624506  0.6994995896822149   T   T   T
  0.7008442548643119  0.4742853508511841  0.7576456355345857   T   T   T
  0.7743193258983972  0.5423138554665090  0.7948420036805448   T   T   T
  0.2563156143769524  0.6744570656778159  0.6950089421544812   T   T   T
  0.6471634841323041  0.5539506738924400  0.6958558872219890   T   T   T
  0.5655803249042939  0.7124469180386894  0.8611757954462654   T   T   T
  0.5451429213348564  0.7318481036428659  0.7014344077032331   T   T   T
  0.3729331119741107  0.7905072025138918  0.7779963468723210   T   T   T
  0.4630513950298972  0.6592213483878729  0.8638557026597751   T   T   T
  0.4535078742754346  0.6639488203047280  0.7035152245282993   T   T   T
  0.4434017723222104  0.5790210793765596  0.7564433397695127   T   T   T
  0.2895533664021333  0.6300074317604824  0.7781855919704642   T   T   T
  0.5545360256981524  0.3692328267417208  0.7113869633539009   T   T   T
  0.6237130264735428  0.6543222832486644  0.7040740161452163   T   T   T
  0.7219343036925420  0.4043975410687999  0.6921184888206886   T   T   T
  0.2907805297370268  0.7976151420495895  0.6982763118135769   T   T   T
  0.5136444970727345  0.6839382884894354  0.7772222455544989   T   T   T
  0.5772559938195724  0.7810680198155373  0.7932998697616653   T   T   T
  0.5495765961576804  0.5087456047723267  0.8295363138909192   T   T   T
  0.2413561982043073  0.5750981772610811  0.7097731649632344   T   T   T
  0.2825894038028640  0.7295655197029556  0.7658266100404366   T   T   T
  0.5142574226500545  0.5867997351803061  0.6783746117544220   T   T   T
  0.5624429352443514  0.5888743926380683  0.7627947849443227   T   T   T
  0.6004315853844883  0.4311927324477773  0.7857485295480579   T   T   T
  0.7629294826080282  0.5435453842071573  0.7048929117214082   T   T   T
  0.3903455171470424  0.8529070635553867  0.7063384840145825   T   T   T
  0.4385843346435875  0.3823318259314403  0.6982066237406798   T   T   T
  0.4628346741583433  0.7564113350735527  0.8303723785466892   T   T   T
  0.4302297134775057  0.4976069911157869  0.8161497694396083   T   T   T
  0.3492977091417037  0.6009794871198459  0.6979874244122594   T   T   T
  0.3707120797729719  0.4393006994269057  0.7563051959733670   T   T   T
  0.5942194084400895  0.8278711679006349  0.7127840164494620   T   T   T
  0.6357278863499382  0.6662434245561396  0.8002207628055311   T   T   T
  0.7330872135949358  0.6923744166932887  0.6943387002433788   T   T   T
  0.4839720517407470  0.8239499004325727  0.7576396601776936   T   T   T
  0.7177485002566596  0.2907721798879380  0.7558046130595222   T   T   T
  0.6464465802664758  0.2524032046842005  0.8099558387445828   T   T   T
  0.5753695634920315  0.2128176511841242  0.8628702345371849   T   T   T
  0.6090383619916525  0.2087152519595492  0.8193352488939339   T   T   T
  0.6790120762850512  0.2490380444958358  0.7657536497721635   T   T   T
  0.5373872144183214  0.1694775712866545  0.8719815448658955   T   T   T
  0.7484368776938656  0.2983780147512444  0.7821166455882530   T   T   T
  0.7067150350338773  0.2172020776798405  0.7667188771426161   T   T   T
  0.6764067563153764  0.2574907038272191  0.8375200531622647   T   T   T
  0.6195558956344136  0.2846624470088356  0.8094995987232647   T   T   T
  0.6499970500008465  0.2427789262756291  0.7378887234562351   T   T   T
  0.5796796618898684  0.2037262138660128  0.7914022350282415   T   T   T
  0.6355076995417543  0.1764057207761028  0.8204266277250613   T   T   T
  0.6048095199251919  0.2175441418063060  0.8908091751789086   T   T   T
  0.5493033086418641  0.2453540950466084  0.8617267210436855   T   T   T
  0.5065387824398023  0.1644683243797198  0.8452638799475733   T   T   T
  0.5141155264982528  0.1738390854012781  0.9031893402068715   T   T   T
  0.7378450085688217  0.2888145657412801  0.7231466410007676   T   T   T
  0.5620773179246441  0.1364643097858067  0.8744338697656557   T   T   T
  0.5012522713393666  0.8041238141731392  0.5929598042374021   T   T   T
  0.8329973011681946  0.6024865191382746  0.5899879057357686   T   T   T
  0.8315409930768851  0.3974174692778489  0.5912035822210465   T   T   T
  0.8301559876421962  0.8001158329377689  0.5930244111800302   T   T   T
  0.5813784805338007  0.9478555620800937  0.6380378782810199   T   T   T
  0.8325846708369012  0.2021781174126159  0.5922366870383069   T   T   T
  0.9163528088955974  0.3491606386978751  0.6404596404284211   T   T   T
  0.5807673417173498  0.7473984622305634  0.6387213863783361   T   T   T
  0.5804744704351886  0.5499927637609200  0.6459772969093058   T   T   T
  0.1677885857598193  0.6997020680719116  0.5001165395372040   T   T   T
  0.4178336351437697  0.2524867248998718  0.6390012757482553   T   T   T
  0.7404389915771069  0.8473952406735407  0.6403921656412435   T   T   T
  0.4126473276139805  0.8501299899845679  0.6396346826380302   T   T   T
  0.5838144234366325  0.0505787562347668  0.6419145730702119   T   T   T
  0.7464879264578419  0.4480110552524609  0.6420665436445389   T   T   T
  0.1665145172742830  0.5008108316891711  0.4978161145145586   T   T   T
  0.0867998573014123  0.5497454992454411  0.6397965613549728   T   T   T
  0.0841363241443926  0.2486676492175451  0.6419677677265470   T   T   T
  0.0860477348936613  0.6499210733081071  0.6418309209226222   T   T   T
  0.6663310414627064  0.8988561174837933  0.4990055583460676   T   T   T
  0.0843437333759576  0.4499327920311681  0.6403353092927804   T   T   T
  0.7477959692434710  0.2539723984152474  0.6389799508229106   T   T   T
  0.7520611885078569  0.6558296762941094  0.6352648599758487   T   T   T
  0.4270065614622721  0.4440215673364001  0.6567093867960903   T   T   T
  0.8324448631957490  0.3002843974288584  0.5000986386095839   T   T   T
  0.7473108353590496  0.9470685701568766  0.6393659211003032   T   T   T
  0.8324492382285837  0.8996811062742902  0.4996990436526466   T   T   T
  0.4985120910348025  0.4027889997197079  0.5912300117748670   T   T   T
  0.4974363106227772  0.6032606422249323  0.6092851733083874   T   T   T
  0.2517285817481403  0.9499060924738399  0.5450029346787353   T   T   T
  0.5794469757990880  0.7487530853180291  0.5469415331580356   T   T   T
  0.5762672225482989  0.5481232710878376  0.5520305044919124   T   T   T
  0.9152243276412345  0.5493840028677772  0.5463222520742054   T   T   T
  0.9170970835024348  0.3510165135022013  0.5456450201056083   T   T   T
  0.5837472339008248  0.9506855579693144  0.5455329621116485   T   T   T
  0.9134811693311746  0.7507452998272616  0.5459384528704759   T   T   T
  0.9163114608326253  0.9504026671390094  0.5463154112783073   T   T   T
  0.0827721123128965  0.2500470922394246  0.5473566049537324   T   T   T
  0.0859641190713011  0.4502769852831744  0.5466816712391225   T   T   T
  0.0825380665058591  0.6507927853597177  0.5459604347028912   T   T   T
  0.0854981234389777  0.8497914614763376  0.5474338929484016   T   T   T
  0.4164372306321551  0.2524713099064906  0.5472918624301338   T   T   T
  0.4199915247935433  0.6518657806300389  0.5559009319081881   T   T   T
  0.4156328285227841  0.4552705369539124  0.5525046556200347   T   T   T
  0.7483770435714752  0.4493154061873896  0.5490243469158724   T   T   T
  0.7486049590780787  0.2483354771111143  0.5450166276829453   T   T   T
  0.4149651023928904  0.8488228475909635  0.5484490677424236   T   T   T
  0.7469081483396557  0.6462865972467089  0.5449027913530156   T   T   T
  0.5000511737414189  0.2003196621220838  0.5916534500451645   T   T   T
  0.8327045890501871  0.4983433651650801  0.4994885237366033   T   T   T
  0.7535072662293598  0.7541141271455022  0.6576517199590642   T   T   T
  0.2537346368375550  0.3491328256530571  0.6407030159157225   T   T   T
  0.8322579041289541  0.6988391071532813  0.5001967135125350   T   T   T
  0.5002873152463229  0.6961796311546953  0.5001568781756358   T   T   T
  0.5000531928079033  0.8981405399869532  0.5008317986604577   T   T   T
  0.4994681241197582  0.4982244869244630  0.5000630541480166   T   T   T
  0.9166666865332829  0.6500000000127244  0.3605200052333331   F   F   F
  0.2509394975470767  0.2487289220576369  0.6412561371221288   T   T   T
  0.2486514362875666  0.4528521209669549  0.6419389654211611   T   T   T
  0.2617378778981640  0.8403338991204494  0.6467351657941771   T   T   T
  0.2476226460119142  0.6590409409242425  0.6291543318258974   T   T   T
  0.5917258640865799  0.6511296929315844  0.6395942888711558   T   T   T
  0.5845741266448720  0.4560567876101925  0.6340678280586661   T   T   T
  0.5829738099732595  0.2528218146207475  0.6388498437516231   T   T   T
  0.9143659453018836  0.8500042243310989  0.6415321714859181   T   T   T
  0.9145424335318307  0.4495964125496831  0.6390844563839571   T   T   T
  0.9137728527285455  0.6493343886887711  0.6422747816148801   T   T   T
  0.9160453115520459  0.2504200054286173  0.6415069903221564   T   T   T
  0.5894383992345464  0.8477416693904254  0.6460092693921953   T   T   T
  0.4214415735761164  0.7409286551096412  0.6339938647091206   T   T   T
  0.4172986525932359  0.9474053250539725  0.6391384531268239   T   T   T
  0.7543828987179583  0.5469459259380868  0.6384485607451160   T   T   T
  0.7461559220387971  0.3541830462126078  0.6465355957536016   T   T   T
  0.0839842801650111  0.3488867027716255  0.6416800765363109   T   T   T
  0.4181662421748386  0.3504723660294252  0.6401851175446419   T   T   T
  0.4166666269218169  0.1500000000001833  0.3605200052333331   F   F   F
  0.0845204569112193  0.9488305096809851  0.6405738179755889   T   T   T
  0.4173490416986773  0.0504587880265672  0.5476132307298864   T   T   T
  0.0837213271075079  0.0496843031197527  0.5466017647150582   T   T   T
  0.9161686221008634  0.1506849483477065  0.5463830261759149   T   T   T
  0.5829051366506265  0.1499478074145455  0.5475718285110590   T   T   T
  0.2501872501253594  0.1504049286155531  0.5463063462721482   T   T   T
  0.7500929674333421  0.1486949664139719  0.5479257740150962   T   T   T
  0.4165970797903790  0.1512784737955936  0.5461941456157655   T   T   T
  0.0835382481274214  0.1504962080996411  0.5462914024924602   T   T   T
  0.4999550501371827  0.1001730846521315  0.4988211885875120   T   T   T
  0.8332165871809296  0.1000197328815249  0.4988458434166257   T   T   T
  0.1667689443353018  0.0998445691791660  0.4987198968475672   T   T   T
  0.6663217867050560  0.0998098601272450  0.4991618050236714   T   T   T
  0.3336296331857050  0.0996115871060884  0.4989369532279896   T   T   T
  0.0000060999122039  0.1000396882841265  0.4991334867544163   T   T   T
  0.9166195413535552  0.1499753094211520  0.4537428662251327   T   T   T
  0.7502336003204415  0.0487470558115827  0.5461968949565443   T   T   T
  0.2500478018182270  0.0499554867354026  0.5469002636512460   T   T   T
  0.5824245206899175  0.0502673607367646  0.5474598560967755   T   T   T
  0.9162661963990310  0.0498565484416940  0.5466038219586286   T   T   T
  0.9156621581881488  0.0499461338922926  0.6403279786732498   T   T   T
  0.7502521173912735  0.1510921711674857  0.6416538683389147   T   T   T
  0.2509095383606056  0.1482275611873158  0.6410135260311237   T   T   T
  0.9157484426146385  0.1498641486593609  0.6403301398306431   T   T   T
  0.5832478152245658  0.1508379342370529  0.6427075537300410   T   T   T
  0.4166550410453284  0.1501059132104779  0.6415482896706582   T   T   T
  0.0830699565711274  0.1485053002209311  0.6404720658604517   T   T   T
  0.5834306272058389  0.1508115023605206  0.4545656692097064   T   T   T
  0.0830494513538655  0.0492198228155702  0.6406728176250549   T   T   T
  0.4175493129618399  0.0494994043706855  0.6428876745634713   T   T   T
  0.8325322486460394  0.9976381839296621  0.5920975385769891   T   T   T
  0.4997861986582940  0.0001064386188774  0.5916281148976386   T   T   T
  0.1672995788733084  0.9986105556049321  0.5921920437705462   T   T   T
  0.6660182505601608 -0.0000018199376436  0.5918728197235007   T   T   T
  0.9997692037741078  0.9990878540258146  0.5923158105571124   T   T   T
  0.3340318138934495  0.0001006848896461  0.5919674604790779   T   T   T
  0.7500899413515775  0.0495963013965109  0.6406175247196246   T   T   T
  0.4153301519181309  0.5348126533426348  0.6303624177641014   T   T   T
  0.2501354554248301  0.1498254200935338  0.4536976196238983   T   T   T
  0.4166522780481916  0.1500385697322199  0.4538301099545202   T   T   T
  0.5833333134730552  0.1500000000001833  0.3605200052333331   F   F   F
  0.2499999999799343  0.1500000000001833  0.3605200052333331   F   F   F
  0.7499999404149307  0.1500000000001833  0.3605200052333331   F   F   F
  0.7479281035099126  0.8468897769588865  0.5462743339175998   T   T   T
  0.0833333358191695  0.1500000000001833  0.3605200052333331   F   F   F
  0.9166666865332829  0.8499999999890662  0.3605200052333331   F   F   F
  0.0843391431081249  0.8496556904240686  0.6418922637174986   T   T   T
  0.2520771796306229  0.9452919675225847  0.6373077147361829   T   T   T
  0.5802222591668700  0.3531256121312709  0.6455158131627636   T   T   T
  0.2544709442636867  0.7418251956637008  0.6635084380898978   T   T   T
  0.2407307386831569  0.5537668530630414  0.6420927338889967   T   T   T
  0.9157542817134406  0.9493772951990161  0.6414142782177495   T   T   T
  0.9153597478107780  0.7499465357223226  0.6404675828187217   T   T   T
  0.9125526555993823  0.5487117532431544  0.6395531202125609   T   T   T
  0.0840570193923257  0.7498079393266189  0.6407548419191060   T   T   T
  0.9166666865332829  0.1500000000001833  0.3605200052333331   F   F   F
  0.0833333358191695  0.0500000000120124  0.3605200052333331   F   F   F
  0.4166666269218169  0.0500000000120124  0.3605200052333331   F   F   F
  0.7499999404149307  0.0500000000120124  0.3605200052333331   F   F   F
  0.0833851607775260  0.1498980902108788  0.4537648942653795   T   T   T
  0.9166071282218637  0.0497089502750611  0.4538858056470633   T   T   T
  0.5831225033621679  0.0489262497004383  0.4546274682612641   T   T   T
  0.2501861264444452  0.0491057451084646  0.4541801363778895   T   T   T
  0.7499706717332374  0.0499350929363030  0.4536720578233410   T   T   T
  0.4168961307074479  0.0486073576928711  0.4547715509774435   T   T   T
  0.0833185044337524  0.0496719256850774  0.4538998765285852   T   T   T
  0.7497686167746962  0.1507677178775023  0.4545144274653492   T   T   T
  0.8333332538436267  0.0000000000000000  0.4070133268666680   F   F   F
  0.1666666716383389  0.0000000000000000  0.4070133268666680   F   F   F
  0.6666666865533486  0.0000000000000000  0.4070133268666680   F   F   F
  0.3333333432766779  0.0000000000000000  0.4070133268666680   F   F   F
  0.0000000000000000  0.0000000000000000  0.4070133268666680   F   F   F
  0.9166666865332829  0.0500000000120124  0.3605200052333331   F   F   F
  0.5833333134730552  0.0500000000120124  0.3605200052333331   F   F   F
  0.2499999999799343  0.0500000000120124  0.3605200052333331   F   F   F
  0.5000000000021103  0.0000000000000000  0.4070133268666680   F   F   F
  0.2513732374853402  0.2508328520810302  0.5475086623579191   T   T   T
  0.3978627645341804  0.6406999344821924  0.6525947196260483   T   T   T
  0.2524170181772368  0.6472003616521801  0.5442314498955603   T   T   T
  0.0833333358191695  0.4500000000005357  0.3605200052333331   F   F   F
  0.0833333358191695  0.2500000000242011  0.3605200052333331   F   F   F
  0.2499999999799343  0.5499999761504029  0.3605200052333331   F   F   F
  0.4166666269218169  0.5499999761504029  0.3605200052333331   F   F   F
  0.4166666269218169  0.7500000000008953  0.3605200052333331   F   F   F
  0.4166666269218169  0.9500000000130839  0.3605200052333331   F   F   F
  0.7499999404149307  0.3500000000123720  0.3605200052333331   F   F   F
  0.7499999404149307  0.5499999761504029  0.3605200052333331   F   F   F
  0.0833333358191695  0.6500000000127244  0.3605200052333331   F   F   F
  0.7499999404149307  0.7500000000008953  0.3605200052333331   F   F   F
  0.2499999999799343  0.3500000000123720  0.3605200052333331   F   F   F
  0.2499999999799343  0.7500000000008953  0.3605200052333331   F   F   F
  0.9166666865332829  0.9500000000130839  0.3605200052333331   F   F   F
  0.2499999999799343  0.9500000000130839  0.3605200052333331   F   F   F
  0.5833333134730552  0.3500000000123720  0.3605200052333331   F   F   F
  0.5833333134730552  0.5499999761504029  0.3605200052333331   F   F   F
  0.5833333134730552  0.7500000000008953  0.3605200052333331   F   F   F
  0.5833333134730552  0.9500000000130839  0.3605200052333331   F   F   F
  0.7499999404149307  0.9500000000130839  0.3605200052333331   F   F   F
  0.9166666865332829  0.3500000000123720  0.3605200052333331   F   F   F
  0.9166666865332829  0.4500000000005357  0.3605200052333331   F   F   F
  0.5833333134730552  0.8499999999890662  0.3605200052333331   F   F   F
  0.0833333358191695  0.9500000000130839  0.3605200052333331   F   F   F
  0.4166666269218169  0.3500000000123720  0.3605200052333331   F   F   F
  0.0833333358191695  0.8499999999890662  0.3605200052333331   F   F   F
  0.4166666269218169  0.2500000000242011  0.3605200052333331   F   F   F
  0.4166666269218169  0.4500000000005357  0.3605200052333331   F   F   F
  0.4166666269218169  0.6500000000127244  0.3605200052333331   F   F   F
  0.4166666269218169  0.8499999999890662  0.3605200052333331   F   F   F
  0.7499999404149307  0.2500000000242011  0.3605200052333331   F   F   F
  0.9166666865332829  0.2500000000242011  0.3605200052333331   F   F   F
  0.7499999404149307  0.4500000000005357  0.3605200052333331   F   F   F
  0.7499999404149307  0.8499999999890662  0.3605200052333331   F   F   F
  0.2499999999799343  0.2500000000242011  0.3605200052333331   F   F   F
  0.2499999999799343  0.4500000000005357  0.3605200052333331   F   F   F
  0.2499999999799343  0.6500000000127244  0.3605200052333331   F   F   F
  0.2499999999799343  0.8499999999890662  0.3605200052333331   F   F   F
  0.5833333134730552  0.2500000000242011  0.3605200052333331   F   F   F
  0.5833333134730552  0.4500000000005357  0.3605200052333331   F   F   F
  0.5833333134730552  0.6500000000127244  0.3605200052333331   F   F   F
  0.7499999404149307  0.6500000000127244  0.3605200052333331   F   F   F
  0.9166666865332829  0.5499999761504029  0.3605200052333331   F   F   F
  0.9166666865332829  0.7500000000008953  0.3605200052333331   F   F   F
  0.5832800394306208  0.2518990498015619  0.4539035004375451   T   T   T
  0.4168527963730081  0.3504928204672988  0.4542289071118411   T   T   T
  0.9162078091924747  0.4496794536754338  0.4539579524676114   T   T   T
  0.9160173158593001  0.2499029521237121  0.4543035534375361   T   T   T
  0.2510490013658367  0.5517869407994777  0.4553269678281052   T   T   T
  0.9161981862401057  0.6497813317416407  0.4540011836914985   T   T   T
  0.9161633227267335  0.8495510451068581  0.4542607890388245   T   T   T
  0.0837413508469095  0.3499563287438398  0.4537809739778559   T   T   T
  0.0833073564401171  0.5503711875028132  0.4538154424428531   T   T   T
  0.2516303717361724  0.7501116702861556  0.4561831245945848   T   T   T
  0.0837881171576080  0.9493598488660689  0.4536419007371764   T   T   T
  0.4172403911271671  0.5480062595504148  0.4540455203740216   T   T   T
  0.4172006872384231  0.7469542951445691  0.4544963501879073   T   T   T
  0.4173019741968766  0.9478329557650148  0.4541531791432362   T   T   T
  0.7501902914560480  0.3518752995461650  0.4555942613424429   T   T   T
  0.7496995434552494  0.5507799568655850  0.4561881300439833   T   T   T
  0.7488803791451210  0.7505935226852543  0.4570760521740699   T   T   T
  0.7494355519195368  0.9496310541484163  0.4547554314365888   T   T   T
  0.2500071629048644  0.3510910535241135  0.4544218568286136   T   T   T
  0.0845164491534091  0.7499610714703595  0.4536253738724312   T   T   T
  0.9164467827720937  0.9495568114474360  0.4537634118168047   T   T   T
  0.5828151092553793  0.3530111282418945  0.4561495633413365   T   T   T
  0.0000745176897109  0.2998825585368501  0.4986952364017667   T   T   T
  0.5844986664488169  0.6495860115051739  0.4550775389482170   T   T   T
  0.6653631443253832  0.7000222479771866  0.5030755342075774   T   T   T
  0.2507095522671164  0.9482194390494729  0.4536267504529938   T   T   T
  0.5826379522357449  0.5511736962287341  0.4562690726688556   T   T   T
  0.5828065279173731  0.7479667023644899  0.4542967810611194   T   T   T
  0.5826838059201639  0.9479255844878834  0.4535980519343284   T   T   T
  0.9158647873366019  0.3498471921897108  0.4536954430124335   T   T   T
  0.9159161019101235  0.5498099745296369  0.4539821437745777   T   T   T
  0.9151017300547755  0.7496536622114682  0.4535285445342498   T   T   T
  0.6657046342848337  0.5026050032595802  0.5035314091661174   T   T   T
  0.3340659533083961  0.5027935099432617  0.5030384290975115   T   T   T
  0.3355233956459618  0.7003922124978663  0.5040782043623352   T   T   T
  0.6659037421146873  0.3017598731080668  0.4999478223451070   T   T   T
  0.3336222582197076  0.8981446739449674  0.4996927379755584   T   T   T
  0.0001504518987296  0.8994417437071885  0.4993950468867064   T   T   T
  0.3336519607172669  0.3010327165605580  0.4988216135963823   T   T   T
  0.9998537707981450  0.7019746120877727  0.4976543996937780   T   T   T
 -0.0000113979205043  0.4993141999709865  0.4984447570170805   T   T   T
  0.5828826461546185  0.8469530614776420  0.4560657657805863   T   T   T
  0.0833333358191695  0.7500000000008953  0.3605200052333331   F   F   F
  0.2492956574663609  0.4511880633601413  0.5462091903036702   T   T   T
  0.2501087536629615  0.0482003905290681  0.6420033258338091   T   T   T
  0.3338616224892917  0.2000649119757217  0.5921177926341217   T   T   T
  0.9164956588356037  0.6502230672818101  0.5462976231507385   T   T   T
  0.5810265092043669  0.6476127252184455  0.5493686644044176   T   T   T
  0.5858162894983883  0.8518220196898781  0.5508604931788127   T   T   T
  0.5831304340249788  0.4484228317767068  0.5453188183346236   T   T   T
  0.5831486845525361  0.2496974431813648  0.5459429771346080   T   T   T
  0.2527383323168355  0.8496475600694278  0.5509569731017538   T   T   T
  0.4232162953337349  0.5546387214513914  0.5461794842628819   T   T   T
  0.7528941026291169  0.5477305572687404  0.5495512970490241   T   T   T
  0.7512250193947628  0.7446876543261663  0.5527171691695122   T   T   T
  0.7481107394030282  0.9477482613390223  0.5471026557820430   T   T   T
  0.9152583986960444  0.8498129647290820  0.5468572269372594   T   T   T
  0.2525350052945579  0.3511070735024970  0.5473337597591027   T   T   T
  0.9167663675104483  0.2506799433257572  0.5471916491014049   T   T   T
  0.1672022446598323  0.3001440875475443  0.4998961218427306   T   T   T
  0.5000000000021103  0.8000000000129006  0.4070133268666680   F   F   F
  0.5000000000021103  0.4000000000243773  0.4070133268666680   F   F   F
  0.5000000000021103  0.2000000000121887  0.4070133268666680   F   F   F
  0.1666666716383389  0.8000000000129006  0.4070133268666680   F   F   F
  0.1666666716383389  0.6000000000007191  0.4070133268666680   F   F   F
  0.1666666716383389  0.4000000000243773  0.4070133268666680   F   F   F
  0.1666666716383389  0.2000000000121887  0.4070133268666680   F   F   F
  0.6666666865533486  0.8000000000129006  0.4070133268666680   F   F   F
  0.1678137950258926  0.8987606336697050  0.4994797473109607   T   T   T
  0.5801204596746585  0.3476286962036957  0.5508536496234905   T   T   T
  0.2493594222306412  0.7464657270257690  0.5523732151071821   T   T   T
  0.1654524458100658  0.6026534681679937  0.5882712634965771   T   T   T
  0.0839319649721752  0.9503961094404568  0.5459784451459098   T   T   T
  0.4157043073117470  0.3527754796595832  0.5475176987250450   T   T   T
  0.0866871959470785  0.7511953492256088  0.5459694924838744   T   T   T
  0.0831793058961087  0.5502272754807292  0.5459914438599006   T   T   T
  0.0836197569661931  0.3506272090819184  0.5463983095458189   T   T   T
  0.4994442186594354  0.3009126703506367  0.4996062392928060   T   T   T
  0.9995462627092819  0.5991070402867064  0.5941910779243208   T   T   T
  0.9997385234141797  0.8017026868970830  0.5928093661582599   T   T   T
  0.3346623023703963  0.4041186081917260  0.5932984463844304   T   T   T
  0.4226507354608464  0.7501751070919727  0.5466024328749698   T   T   T
  0.9999366670933794  0.2002043909177136  0.5926218496138796   T   T   T
  0.0010162403910701  0.3998858763210349  0.5923748205247107   T   T   T
  0.3332929842401293  0.5969046673868029  0.5913534806184569   T   T   T
  0.3355985173485015  0.7927265293011246  0.5912151224110166   T   T   T
  0.6635823747902224  0.3977526377852326  0.5906871797383176   T   T   T
  0.0833333358191695  0.5499999761504029  0.3605200052333331   F   F   F
  0.6662278229699109  0.2001347545518069  0.5921365406626851   T   T   T
  0.6656363658512144  0.7933321402510614  0.5904732595317170   T   T   T
  0.6666993054244992  0.5948773112242428  0.5910827356482909   T   T   T
  0.1671631894252994  0.1995041121680910  0.5922841293036230   T   T   T
  0.1684377835652635  0.3985660862273139  0.5930554218143163   T   T   T
  0.1709864205931282  0.7994959620630843  0.5957930351697759   T   T   T
  0.2478413055792424  0.5486736548765111  0.5494674475135468   T   T   T
  0.6666666865533486  0.6000000000007191  0.4070133268666680   F   F   F
  0.6666666865533486  0.4000000000243773  0.4070133268666680   F   F   F
  0.6666666865533486  0.2000000000121887  0.4070133268666680   F   F   F
  0.3333333432766779  0.8000000000129006  0.4070133268666680   F   F   F
  0.4156824590761847  0.6469742398948737  0.4582318454236153   T   T   T
  0.4170814630837751  0.8470673744821313  0.4555168388303532   T   T   T
  0.7490614855922642  0.2515596649248103  0.4535347161874754   T   T   T
  0.7475478473558087  0.4511665793423905  0.4551372345205890   T   T   T
  0.7483315666822331  0.6512543113794520  0.4538478357779018   T   T   T
  0.7499805421080133  0.8498648749699754  0.4537867664511341   T   T   T
  0.4150977865846551  0.4490205620674281  0.4572718266289085   T   T   T
  0.2501532345921562  0.2502942800002417  0.4543792112086292   T   T   T
  0.2519958910257128  0.4517456963435226  0.4539326744808576   T   T   T
  0.2519890577261596  0.6518767589568054  0.4538185216655959   T   T   T
  0.2506738811511229  0.8482913624131621  0.4555646000828746   T   T   T
  0.8333332538436267  0.4000000000243773  0.4070133268666680   F   F   F
  0.5844630447066311  0.4523296112941468  0.4537305100654173   T   T   T
  0.8333332538436267  0.2000000000121887  0.4070133268666680   F   F   F
  0.4160436021964684  0.9483850652004766  0.5467573523100978   T   T   T
  0.4162771723651735  0.2502202008955428  0.4550796421362299   T   T   T
  0.9151834833700612  0.4495617796788021  0.5464487120944734   T   T   T
  0.0838553732851306  0.6503924316074781  0.4537358521403200   T   T   T
  0.0837728576246891  0.8493856913737502  0.4543746206194641   T   T   T
  0.3333333432766779  0.6000000000007191  0.4070133268666680   F   F   F
  0.3333333432766779  0.4000000000243773  0.4070133268666680   F   F   F
  0.3333333432766779  0.2000000000121887  0.4070133268666680   F   F   F
  0.0000000000000000  0.8000000000129006  0.4070133268666680   F   F   F
  0.0000000000000000  0.6000000000007191  0.4070133268666680   F   F   F
  0.0000000000000000  0.4000000000243773  0.4070133268666680   F   F   F
  0.7475424545959798  0.3470861183731089  0.5508861041798875   T   T   T
  0.0000000000000000  0.2000000000121887  0.4070133268666680   F   F   F
  0.0833333358191695  0.3500000000123720  0.3605200052333331   F   F   F
  0.5000000000021103  0.6000000000007191  0.4070133268666680   F   F   F
  0.8333332538436267  0.6000000000007191  0.4070133268666680   F   F   F
  0.8333332538436267  0.8000000000129006  0.4070133268666680   F   F   F
  0.0839082523715744  0.2498129476030291  0.4542103256330599   T   T   T
  0.0833177643959549  0.4498520574653602  0.4538557075094397   T   T   T
  0.8325024978470196  0.1002536688348658  0.6176800559410587   T   T   T
  0.3340104826702739  0.0985236325905255  0.6199112434883591   T   T   T
  0.6670585672797059  0.1005972008043828  0.6191138440116176   T   T   T
  0.5002629084954711  0.1003446847265345  0.6202981692719524   T   T   T
  0.1669540658909970  0.0984351902461817  0.6197634107516172   T   T   T
  0.9993234970184873  0.0994398467286623  0.6187682602621898   T   T   T