Au  C  H  O Sr Ti                       
   1.00000000000000     
    23.6707801818999997    0.0000000000000000    0.0000000000000000
     0.0000000000000000   22.3170261383000010    0.0000000000000000
     0.0000000000000000    0.0000000000000000   30.0000000000000000
   Au   C    H    O    Sr   Ti
    50     3     6   264    72    72
Selective dynamics
Direct
  0.7158251220797924  0.5239192295973596  0.7522093766360337   T   T   T
  0.6560129000215300  0.4404842741335512  0.8125093624043725   T   T   T
  0.3689112434256856  0.6185629362828161  0.8206253525877231   T   T   T
  0.5705988016312691  0.5088104612988034  0.8560556302353091   T   T   T
  0.6585013311621040  0.1781940125539442  0.7408852324857530   T   T   T
  0.4725519345764971  0.4488852430426973  0.8775764775884368   T   T   T
  0.5165849900270679  0.3772708674740755  0.7317074641204461   T   T   T
  0.2819249211836772  0.3398292381682322  0.7023380037710149   T   T   T
  0.4522087968635443  0.5797655003984551  0.7027384572631817   T   T   T
  0.3976180056774844  0.3814782023990366  0.6901373850014578   T   T   T
  0.6161337609716685  0.3215951226562018  0.6961049402344192   T   T   T
  0.4635681140516086  0.5722827380903971  0.8641068662189416   T   T   T
  0.6696749173736503  0.6814262160776560  0.7485904115823797   T   T   T
  0.3746174704031175  0.7397968577128292  0.7793051730547624   T   T   T
  0.3758952124688083  0.4926309789572669  0.8328114455688710   T   T   T
  0.5399270768207508  0.6681484477026096  0.7016776177852030   T   T   T
  0.5651320862201646  0.6389225188608266  0.8607311959589238   T   T   T
  0.4439337074123549  0.4741587091887063  0.7562165882457058   T   T   T
  0.2568956014902339  0.5928735795490981  0.6945157388357789   T   T   T
  0.7734948459143430  0.4271787730585856  0.7937648090239027   T   T   T
  0.6989016445170295  0.3427896118648905  0.7576795463674256   T   T   T
  0.4149475950201481  0.6950500040664616  0.6996390797117208   T   T   T
  0.6483562551591396  0.4461252529909199  0.6943065278172018   T   T   T
  0.3252401796650561  0.4148135120214291  0.7692348501645583   T   T   T
  0.6206404605124490  0.5713490679772406  0.7040329084299733   T   T   T
  0.7066057676173458  0.7572009569795696  0.6881341467499085   T   T   T
  0.7630499962745697  0.4291022231362350  0.7039278973939140   T   T   T
  0.5525661630365609  0.2131287293070087  0.7089380185414890   T   T   T
  0.7190094679937838  0.2569087196615066  0.6908005111006547   T   T   T
  0.2934583605656982  0.7464297833587700  0.6969643272804740   T   T   T
  0.5123502077763240  0.6031252223555389  0.7766376698811088   T   T   T
  0.5788261906159569  0.7257447273434208  0.7939057816434811   T   T   T
  0.2405013090787925  0.4693737270998926  0.7089371281070774   T   T   T
  0.2862272309969253  0.6620638796904128  0.7643623232165256   T   T   T
  0.6024552438289460  0.2787713658396154  0.7824068777815150   T   T   T
  0.5145200700952137  0.4849113511466240  0.6779365539561474   T   T   T
  0.4852892240581688  0.2702236878319860  0.7750996152566996   T   T   T
  0.2896387390553175  0.5379775218020613  0.7775956586466040   T   T   T
  0.5632424045915815  0.4852419890821884  0.7622894511879073   T   T   T
  0.3915967504991616  0.8168641773384194  0.7065796938881275   T   T   T
  0.4642899302642940  0.6947021095339030  0.8302918129938035   T   T   T
  0.4359462991519120  0.2271705554618807  0.6981352348750292   T   T   T
  0.3697227596212930  0.2987855736173054  0.7554732413297544   T   T   T
  0.3495062429065345  0.4994285096372342  0.6977186164295909   T   T   T
  0.4290763676561576  0.3712862519004238  0.8148470331217311   T   T   T
  0.5968625042345637  0.7847717508498635  0.7129503625691838   T   T   T
  0.6355096341039865  0.5838043167875228  0.7996622873312756   T   T   T
  0.7326847132701848  0.6145849700052743  0.6939218566288184   T   T   T
  0.4860098041615343  0.7751623217341247  0.7544528946121188   T   T   T
  0.5500658313632411  0.3804156961188860  0.8258394953166516   T   T   T
  0.6436340978677088  0.0301995088861801  0.7583378060498169   T   T   T
  0.7129374553860809  0.1113761047974298  0.7314096452457257   T   T   T
  0.7024157572080497  0.0490312866395436  0.7429241862910316   T   T   T
  0.7181145817954618  0.0212917702823791  0.7150600580764950   T   T   T
  0.7350336954744745  0.0406077481743416  0.7689944831885426   T   T   T
  0.7542061644064179  0.1213074692722013  0.7171381325949725   T   T   T
  0.6301680977295776  0.0556536773271897  0.7876326787813210   T   T   T
  0.6130428828043692  0.0367918913624812  0.7314915147605170   T   T   T
  0.6435825653181202  0.9827036921392905  0.7670883689850925   T   T   T
  0.4136428522841910  0.8123929214674949  0.6398854199096835   T   T   T
  0.9140896122530376  0.6890170989397952  0.5454856229383940   T   T   T
  0.9157458160791168  0.9387514717962848  0.5465606510622407   T   T   T
  0.0823167200438165  0.0632383299505108  0.5475966429844950   T   T   T
  0.0866706421379518  0.3134936568933733  0.5471293265509284   T   T   T
  0.0848549821724622  0.8128823556900961  0.5473299623097593   T   T   T
  0.4167213205720413  0.0654288512488062  0.5473547655851740   T   T   T
  0.5766440136220554  0.4358758703588770  0.5521373759413246   T   T   T
  0.2500191878680085  0.9361079330652824  0.4540917687789224   T   T   T
  0.4159371692361386  0.3197116702951454  0.5525509022488184   T   T   T
  0.2525889854808090  0.5591556418571654  0.5438604380425099   T   T   T
  0.5811331476018101  0.5600320069046080  0.5488476146323734   T   T   T
  0.5844824520214306  0.9379765056404992  0.5465329205057785   T   T   T
  0.9154245658005714  0.4373552618181394  0.5457207503590314   T   T   T
  0.5795816905384368  0.6861865205845133  0.5474370122637546   T   T   T
  0.2515599704585614  0.9373760933025066  0.5452945334822963   T   T   T
  0.4974575619132935  0.5043877890503702  0.6088944782942920   T   T   T
  0.9178384331834023  0.5638977473069168  0.5471519508527116   T   T   T
  0.4200394573654503  0.5650372917583266  0.5554225074005712   T   T   T
  0.9156036785200961  0.8129258565260559  0.5468078956991597   T   T   T
  0.0836278455398077  0.9389574040689782  0.5458228158562801   T   T   T
  0.2492520311835566  0.6833110851146634  0.5521350464813449   T   T   T
  0.7485795729061748  0.9330713494125621  0.5486583059090245   T   T   T
  0.7518094206083353  0.6799646863257380  0.5534193892998526   T   T   T
  0.7519661594801479  0.4356067037458268  0.5488246100387846   T   T   T
  0.4230904889021775  0.4439392292929511  0.5455940657424719   T   T   T
  0.4231295637549783  0.6879750898737016  0.5468328931747451   T   T   T
  0.9164522774375098  0.1888281184989808  0.5456520953868976   T   T   T
  0.7475767099193954  0.3126006071821451  0.5493352135031494   T   T   T
  0.5861737912746938  0.8145566495699335  0.5504728035437786   T   T   T
  0.7490652985196549  0.1846066942338995  0.5508314710976631   T   T   T
  0.4161568110363343  0.9371925917736426  0.5462215538390351   T   T   T
  0.0829543219829579  0.4388984982733520  0.5448511462254948   T   T   T
  0.0836614007912971  0.1888465308370636  0.5456669394132070   T   T   T
  0.4997422518337770  0.1256090277523657  0.4995189332336229   T   T   T
  0.9995009580517124  0.4986864460174082  0.5941601571815337   T   T   T
  0.5806314494722975  0.1854939353310624  0.5499957552084093   T   T   T
  0.9992408336997158  0.7535747712112805  0.5928092366102122   T   T   T
  0.3341689485372253  0.9998420446994289  0.5920736478343946   T   T   T
  0.9996713203473134  0.9988884976026821  0.5933459076357894   T   T   T
  0.0012671540228573  0.2496386818337645  0.5923378325496100   T   T   T
  0.3332258368765940  0.4963969492783244  0.5909042834116459   T   T   T
  0.3356865977340301  0.7417428963643945  0.5905646194521272   T   T   T
  0.6633647456220469  0.2477090148067567  0.5905660209029899   T   T   T
  0.6668972207769205  0.0029146402802575  0.5922739352250165   T   T   T
  0.6658064301743418  0.7411543914189439  0.5907795266026048   T   T   T
  0.3971729115552849  0.5505132491647411  0.6520021412271939   T   T   T
  0.6666108369815636  0.4946699479699975  0.5912874651390346   T   T   T
  0.1685275721807315  0.2482409042998699  0.5931149802396175   T   T   T
  0.1706560363795894  0.7504859390200310  0.5948837647433224   T   T   T
  0.2483268313848911  0.4360917845452986  0.5489392777903320   T   T   T
  0.1654577981849741  0.5033297066868629  0.5873010220324494   T   T   T
  0.3346852612585836  0.2546214791658447  0.5926780615707712   T   T   T
  0.5003251413141419  0.0001478476101746  0.5914036409872560   T   T   T
  0.8326301127053809  0.8746101322312874  0.4991147077242113   T   T   T
  0.7476884548325718  0.9411519481831837  0.6433578150970684   T   T   T
  0.8316927261405128  0.0019286418896052  0.5926006642151468   T   T   T
  0.5010128403834894  0.7564504109851927  0.5926940698941230   T   T   T
  0.4178907212486881  0.0651209202287689  0.6401037714734484   T   T   T
  0.4275559827190714  0.3045514368503589  0.6553002847396271   T   T   T
  0.4158519466819005  0.1914610170108216  0.5464656260647033   T   T   T
  0.4985490978299172  0.2531713485098944  0.5905175642878943   T   T   T
  0.1675076648985131  0.9982855716675016  0.5923425854473755   T   T   T
  0.9160921264500785  0.0623477557606242  0.4541714613331984   T   T   T
  0.7412951033615915  0.8104930807200341  0.6397423010275981   T   T   T
  0.9128248175797183  0.8137090565268623  0.6420527483351400   T   T   T
  0.9156744286654849  0.0632526375751942  0.6409139346331468   T   T   T
  0.0843343124388928  0.3113358918911449  0.6409603281435889   T   T   T
  0.6664813277347601  0.8743816926397491  0.4985192553213279   T   T   T
  0.0862974152823682  0.5630747428191721  0.6398753494414112   T   T   T
  0.0841568642280844  0.0602205920268135  0.6421668176349377   T   T   T
  0.0874085341375183  0.4367430665025581  0.6397599007483544   T   T   T
  0.0840903179725399  0.1852987816798062  0.6413450510996265   T   T   T
  0.4179037653932826  0.1872448758568748  0.6395157334512251   T   T   T
  0.0842844805559455  0.9353758095029279  0.6409011403394075   T   T   T
  0.0831344317895356  0.6871663977905633  0.6388705856928246   T   T   T
  0.9124420282451005  0.4361095952188195  0.6399789901593752   T   T   T
  0.9156783588958544  0.6878510061462885  0.6389249210183588   T   T   T
  0.9137775460563641  0.9378331205761574  0.6419190308458781   T   T   T
  0.4150201109404729  0.4187761241332266  0.6299311398604531   T   T   T
  0.7547250405927055  0.4325235029257289  0.6372723740287933   T   T   T
  0.4177596275126700  0.9348850626235912  0.6398228146944483   T   T   T
  0.2405640767553489  0.4421877013794448  0.6413506147053437   T   T   T
  0.7458493608203519  0.1940784997145669  0.6465667301404261   T   T   T
  0.2535919911579799  0.1863898304669677  0.6412390194855381   T   T   T
  0.8300899337475973  0.7513387809849673  0.5924883534016416   T   T   T
  0.8314857659775775  0.2495174292919485  0.5913281483100556   T   T   T
  0.5838043979415806  0.9366868946115572  0.6399767871949478   T   T   T
  0.9166666865332829  0.8124999999834799  0.3605200052333331   F   F   F
  0.0841787955141856  0.8125947233454798  0.6424044150845538   T   T   T
  0.2521344914743694  0.9301675746945750  0.6374270337745171   T   T   T
  0.5782750312719989  0.1914917896943555  0.6443947490295613   T   T   T
  0.2547957373619638  0.6773083765824046  0.6629089197757926   T   T   T
  0.8332390834170841  0.5028237276398134  0.5888840595863084   T   T   T
  0.4203779057594135  0.6756627473524848  0.6336419838189680   T   T   T
  0.7456519707627800  0.3117848550674067  0.6423897511370144   T   T   T
  0.0854223581838020  0.6893362152900511  0.5453944538613065   T   T   T
  0.7486434002746761  0.0714824635191456  0.6398416384399118   T   T   T
  0.2520116395606830  0.1882445044267546  0.5471689959017979   T   T   T
  0.5830487414577412  0.0666630151535593  0.6399219314507212   T   T   T
  0.5830764021348412  0.3208448892774610  0.6336657218626166   T   T   T
  0.2475356880185515  0.5738978273309511  0.6287344243462260   T   T   T
  0.7539664084491224  0.6918580203004118  0.6572695709433269   T   T   T
  0.2618540517372793  0.7994810277973227  0.6464275115267233   T   T   T
  0.2510384393648869  0.0593260561050789  0.6423005496887828   T   T   T
  0.9166666865332829  0.5625000000092442  0.3605200052333331   F   F   F
  0.4995354193154368  0.3743011340432201  0.4998258591075142   T   T   T
  0.5001525129227904  0.8734558601049632  0.5011114295204520   T   T   T
  0.5003368937840894  0.6211727594085839  0.5000396670002869   T   T   T
  0.8323896115497788  0.6230407805785697  0.5000438218937671   T   T   T
  0.8323237774858236  0.3730237118363682  0.4998957240837577   T   T   T
  0.8329884157162724  0.1248795208447535  0.5002839000201307   T   T   T
  0.1667246597128269  0.3761990580845395  0.4977007018801697   T   T   T
  0.1675877502064669  0.6243500877693960  0.5002729037246532   T   T   T
  0.5813443854309227  0.4390341972842381  0.6460600291555253   T   T   T
  0.5777577737033296  0.6862905179031413  0.6396128689793721   T   T   T
  0.9161421433359809  0.1861680751284881  0.6397062079142670   T   T   T
  0.2490618836398537  0.3162636673673803  0.6412268019007147   T   T   T
  0.1677704458149677  0.8732717631200105  0.4999111818525740   T   T   T
  0.5827793300320895  0.6862081696547120  0.4546340084434670   T   T   T
  0.5824677142266746  0.9375228069302817  0.4546182033110758   T   T   T
  0.9158047923925390  0.1869070169205606  0.4532920212960788   T   T   T
  0.9158040422280391  0.4368702296556436  0.4536678710518915   T   T   T
  0.1670739974501332  0.1243281140693782  0.4993440690929967   T   T   T
  0.7491072837675307  0.0608197647841037  0.5448513794038887   T   T   T
  0.7533250757575471  0.5680039113357583  0.6358008886993940   T   T   T
  0.9153301331603926  0.3119043300850154  0.6398673725796823   T   T   T
  0.9133304568763975  0.5626380125419257  0.6408657057055595   T   T   T
  0.5913316966722734  0.8106187341659077  0.6460236788755777   T   T   T
  0.5827775917830897  0.4395827758449910  0.4564443158013780   T   T   T
  0.5905468058304107  0.5661272098832267  0.6387481936689378   T   T   T
  0.6653879078511156  0.6258814029374318  0.5029651391838882   T   T   T
  0.5837315962744695  0.0637979869257653  0.4542180501422136   T   T   T
  0.9166666865332829  0.6874999999963620  0.3605200052333331   F   F   F
  0.9166666865332829  0.4374999701794380  0.3605200052333331   F   F   F
  0.9166666865332829  0.1875000000030838  0.3605200052333331   F   F   F
  0.5833333134730552  0.9375000000154046  0.3605200052333331   F   F   F
  0.5833333134730552  0.6874999999963620  0.3605200052333331   F   F   F
  0.5833333134730552  0.4374999701794380  0.3605200052333331   F   F   F
  0.5833333134730552  0.1875000000030838  0.3605200052333331   F   F   F
  0.2499999999799343  0.9375000000154046  0.3605200052333331   F   F   F
  0.9166666865332829  0.9375000000154046  0.3605200052333331   F   F   F
  0.2499999999799343  0.6874999999963620  0.3605200052333331   F   F   F
  0.2499999999799343  0.1875000000030838  0.3605200052333331   F   F   F
  0.7499999404149307  0.9375000000154046  0.3605200052333331   F   F   F
  0.7499999404149307  0.6874999999963620  0.3605200052333331   F   F   F
  0.7496094512518021  0.4382899992684616  0.4558046294662000   T   T   T
  0.7499999404149307  0.4374999701794380  0.3605200052333331   F   F   F
  0.4166666269218169  0.9375000000154046  0.3605200052333331   F   F   F
  0.4166666269218169  0.6874999999963620  0.3605200052333331   F   F   F
  0.4166666269218169  0.4374999701794380  0.3605200052333331   F   F   F
  0.2499999999799343  0.4374999701794380  0.3605200052333331   F   F   F
  0.0833333358191695  0.0625000000159659  0.3605200052333331   F   F   F
  0.9153082788365225  0.6868598061389599  0.4533113008791322   T   T   T
  0.6653906337149718  0.3785653432014259  0.5031912913042588   T   T   T
  0.3343458157740843  0.3785037178547319  0.5029707832721210   T   T   T
  0.3356916898833350  0.6258683407923462  0.5037718251676268   T   T   T
  0.9171103453709611  0.0634932896228328  0.5474714742537287   T   T   T
  0.2498736928581481  0.1885043519953211  0.4541022186375855   T   T   T
  0.7495430429801468  0.9387452062382255  0.4556019294252395   T   T   T
  0.7490787556748763  0.6886926168394343  0.4575047029365692   T   T   T
  0.7506349795454523  0.1899558492013263  0.4557398764578474   T   T   T
  0.7499999404149307  0.1875000000030838  0.3605200052333331   F   F   F
  0.2518074251693870  0.5646268267751072  0.4538643371813177   T   T   T
  0.4172840237013335  0.9360432113980249  0.4541071391642424   T   T   T
  0.4172113340666595  0.6850684276126178  0.4548891707159127   T   T   T
  0.0000000000000000  0.0000000000000000  0.4070133268666680   F   F   F
  0.5834210837538069  0.0627769722155730  0.5461768926973108   T   T   T
  0.4164619029640945  0.4354622269122482  0.4538173183861416   T   T   T
  0.0844093905974559  0.6869440130076601  0.4531500317656891   T   T   T
  0.0841494211263055  0.9367598112352263  0.4536049810722997   T   T   T
  0.0827785439828533  0.4367646909409360  0.4528119933739692   T   T   T
  0.0838591441914995  0.1865684078706223  0.4529740912386852   T   T   T
  0.9165601483115249  0.8122768528929176  0.4540913794063862   T   T   T
  0.0833333358191695  0.3124999999901945  0.3605200052333331   F   F   F
  0.9161052693733691  0.5621792525143956  0.4540819879112269   T   T   T
  0.5827218333627463  0.3112480682407672  0.5451073340541984   T   T   T
  0.9160914887804895  0.3121812784489292  0.4538710592607030   T   T   T
  0.4173087396103179  0.1871414685151714  0.4535689798840287   T   T   T
  0.2520742028831078  0.6875924303331563  0.4561731154234595   T   T   T
  0.2522493978843999  0.3141804026374554  0.4541223738917864   T   T   T
  0.9164406779616844  0.9372071805348269  0.4537077872599476   T   T   T
  0.0000821156728658  0.1251948071918793  0.4984929284648269   T   T   T
  0.5831020434102649  0.8106331737738334  0.4553063954096075   T   T   T
  0.0000067322624786  0.3734312759643308  0.4984085866228153   T   T   T
  0.9996575758504205  0.6271309002024251  0.4976501658672147   T   T   T
  0.3337439666058631  0.1256783974179358  0.4985248781396830   T   T   T
  0.0000813804825583  0.8752408858773477  0.4995371052654488   T   T   T
  0.3335916298512439  0.8742020802515568  0.4992753061903274   T   T   T
  0.6664685135679345  0.1269961380541328  0.5003079988352028   T   T   T
  0.2511208290704809  0.4392956233788778  0.4548971952700652   T   T   T
  0.0833333358191695  0.5625000000092442  0.3605200052333331   F   F   F
  0.9166666865332829  0.0625000000159659  0.3605200052333331   F   F   F
  0.7498213476400382  0.8133490026581347  0.4528558183771775   T   T   T
  0.2505406658100284  0.0620594570320623  0.4542740646142018   T   T   T
  0.9155734297290250  0.3124760088369655  0.5466926653661427   T   T   T
  0.5833436068998273  0.1902544132033506  0.4556265920739458   T   T   T
  0.2505776830009832  0.8108293650443007  0.4553460157092216   T   T   T
  0.0810742973533501  0.5643522252430722  0.5462598284746889   T   T   T
  0.2499999999799343  0.3124999999901945  0.3605200052333331   F   F   F
  0.8333332538436267  0.0000000000000000  0.4070133268666680   F   F   F
  0.5000000000021103  0.4999999999932783  0.4070133268666680   F   F   F
  0.0833333358191695  0.1875000000030838  0.3605200052333331   F   F   F
  0.2532497719199547  0.8125982088137361  0.5506445187282583   T   T   T
  0.0000000000000000  0.2500000000190425  0.4070133268666680   F   F   F
  0.0000000000000000  0.4999999999932783  0.4070133268666680   F   F   F
  0.7481966959219806  0.5642526213818090  0.4538014048064227   T   T   T
  0.3333333432766779  0.0000000000000000  0.4070133268666680   F   F   F
  0.3333333432766779  0.4999999999932783  0.4070133268666680   F   F   F
  0.3333333432766779  0.7500000000123208  0.4070133268666680   F   F   F
  0.6666666865533486  0.0000000000000000  0.4070133268666680   F   F   F
  0.6666666865533486  0.2500000000190425  0.4070133268666680   F   F   F
  0.6666666865533486  0.4999999999932783  0.4070133268666680   F   F   F
  0.5844462785362979  0.5628399858885573  0.4548437052555931   T   T   T
  0.5842097079416744  0.3154521146743844  0.4537088855262694   T   T   T
  0.1666666716383389  0.2500000000190425  0.4070133268666680   F   F   F
  0.1666666716383389  0.7500000000123208  0.4070133268666680   F   F   F
  0.5000000000021103  0.0000000000000000  0.4070133268666680   F   F   F
  0.5000000000021103  0.2500000000190425  0.4070133268666680   F   F   F
  0.5000000000021103  0.7500000000123208  0.4070133268666680   F   F   F
  0.9166666865332829  0.3124999999901945  0.3605200052333331   F   F   F
  0.3333333432766779  0.2500000000190425  0.4070133268666680   F   F   F
  0.7473081766955482  0.3140334955064123  0.4552321449763083   T   T   T
  0.0000000000000000  0.7500000000123208  0.4070133268666680   F   F   F
  0.4169602536120964  0.8103987399370148  0.4550190689664814   T   T   T
  0.5833333134730552  0.5625000000092442  0.3605200052333331   F   F   F
  0.7494124195011931  0.0646018270107579  0.4533863333824494   T   T   T
  0.5833333134730552  0.8124999999834799  0.3605200052333331   F   F   F
  0.1666666716383389  0.0000000000000000  0.4070133268666680   F   F   F
  0.8333332538436267  0.2500000000190425  0.4070133268666680   F   F   F
  0.1666666716383389  0.4999999999932783  0.4070133268666680   F   F   F
  0.5833333134730552  0.3124999999901945  0.3605200052333331   F   F   F
  0.6666666865533486  0.7500000000123208  0.4070133268666680   F   F   F
  0.2499999999799343  0.8124999999834799  0.3605200052333331   F   F   F
  0.7499999404149307  0.5625000000092442  0.3605200052333331   F   F   F
  0.5833333134730552  0.0625000000159659  0.3605200052333331   F   F   F
  0.2499999999799343  0.0625000000159659  0.3605200052333331   F   F   F
  0.7499999404149307  0.3124999999901945  0.3605200052333331   F   F   F
  0.7499999404149307  0.0625000000159659  0.3605200052333331   F   F   F
  0.4166666269218169  0.8124999999834799  0.3605200052333331   F   F   F
  0.4166666269218169  0.5625000000092442  0.3605200052333331   F   F   F
  0.4166666269218169  0.3124999999901945  0.3605200052333331   F   F   F
  0.7499999404149307  0.8124999999834799  0.3605200052333331   F   F   F
  0.4166666269218169  0.0625000000159659  0.3605200052333331   F   F   F
  0.4169846421725929  0.0616499146537897  0.4553452187725628   T   T   T
  0.0834203074213509  0.8121665487758867  0.4541863626138740   T   T   T
  0.0839604759813260  0.5624757446931432  0.4539695331005500   T   T   T
  0.4160496634784603  0.5595297124030622  0.4578760910092540   T   T   T
  0.0836983328781306  0.0618762379511236  0.4542336993290758   T   T   T
  0.0834867448688348  0.3119519420185359  0.4540524843826044   T   T   T
  0.2492513472013262  0.3137955900261282  0.5459395919524221   T   T   T
  0.8333332538436267  0.7500000000123208  0.4070133268666680   F   F   F
  0.0833333358191695  0.4374999701794380  0.3605200052333331   F   F   F
  0.0833333358191695  0.6874999999963620  0.3605200052333331   F   F   F
  0.0833333358191695  0.9375000000154046  0.3605200052333331   F   F   F
  0.4166666269218169  0.1875000000030838  0.3605200052333331   F   F   F
  0.0833333358191695  0.8124999999834799  0.3605200052333331   F   F   F
  0.8333332538436267  0.4999999999932783  0.4070133268666680   F   F   F
  0.2499999999799343  0.5625000000092442  0.3605200052333331   F   F   F
  0.7474280763204650  0.8073026759958386  0.5450170926543089   T   T   T
  0.7464679430076573  0.5578030404382538  0.5446720885489947   T   T   T
  0.2511397411056893  0.0626132144701665  0.5472540677037838   T   T   T
  0.4155439090317672  0.3113588275523693  0.4573936454389471   T   T   T
  0.4144328610271872  0.8117743637511133  0.5478936295625975   T   T   T
  0.8307976821724985  0.8781100447347281  0.6191909070716186   T   T   T
  0.8383401581086225  0.3726763790139559  0.6028153276921595   T   T   T
  0.8333332538436267  0.3750000000061604  0.4070133268666680   F   F   F
  0.1666666716383389  0.8749999404036828  0.4070133268666680   F   F   F
  0.3340098488801501  0.6246714052321555  0.5950178845289766   T   T   T
  0.8360125242217410  0.7519914753938011  0.5026366313227394   T   T   T
  0.5000000000021103  0.1249999999871179  0.4070133268666680   F   F   F
  0.6649019898584377  0.1250211853074178  0.6061855889041007   T   T   T
  0.3316638072946134  0.1196081983216989  0.6130690543229197   T   T   T
  0.1663587854668920  0.2481688408535925  0.5062412586662165   T   T   T
  0.8392509715894475  0.6271173433025062  0.6039475297226403   T   T   T
  0.5000000000021103  0.6249999999803961  0.4070133268666680   F   F   F
  0.8333332538436267  0.1249999999871179  0.4070133268666680   F   F   F
  0.0000000000000000  0.1249999999871179  0.4070133268666680   F   F   F
  0.9985600722707866  0.8752613438426299  0.6234227241601032   T   T   T
  0.3349032618604732  0.8786399782563780  0.6031787804793914   T   T   T
  0.0004639910205487  0.3751750855290566  0.6248313693820117   T   T   T
  0.1666666716383389  0.6249999999803961  0.4070133268666680   F   F   F
  0.5014373963067738  0.3716408887384806  0.5947212067128284   T   T   T
  0.5000000000021103  0.8749999404036828  0.4070133268666680   F   F   F
  0.9992872685688486  0.6236751477033028  0.6245837000491884   T   T   T
  0.8355490678510220  0.1246207653806302  0.6107619834115449   T   T   T
  0.6664991365645838  0.6260647640926480  0.5932850347787981   T   T   T
  0.6662502678639363  0.8823783369162863  0.6073691652130779   T   T   T
  0.1633268903531973  0.3713652752489458  0.6076009159931928   T   T   T
  0.1678394191550680  0.1225247248554452  0.6217938002757920   T   T   T
  0.5003508666481864  0.1221899034061612  0.6062069118586568   T   T   T
  0.6703262671673322  0.3728497283773329  0.5931810845684268   T   T   T
  0.1662878583546269  0.8734510900601408  0.6182029237860761   T   T   T
  0.1595079638938700  0.6276076142193633  0.6015201494850022   T   T   T
  0.5004832417521252  0.9993380903956285  0.5058191040963311   T   T   T
  0.6666666865533486  0.8749999404036828  0.4070133268666680   F   F   F
  0.5000000000021103  0.3750000000061604  0.4070133268666680   F   F   F
  0.5037610827978788  0.6251776817069451  0.5940014932445093   T   T   T
  0.0000000000000000  0.3750000000061604  0.4070133268666680   F   F   F
  0.1666666716383389  0.1249999999871179  0.4070133268666680   F   F   F
  0.5017472533475520  0.8774062346702232  0.6099755267996264   T   T   T
  0.5009383886045501  0.2479776881129287  0.5019514414238512   T   T   T
  0.8362227554653802  0.5001056209948207  0.5027630291128611   T   T   T
  0.9995414985873763  0.5000140643875970  0.5068298891265285   T   T   T
  0.5011233478561550  0.4999326622777777  0.5002185674391039   T   T   T
  0.6684946846167644  0.5000455911200744  0.5005658195337022   T   T   T
  0.3338995433054177  0.7512582172650660  0.5015647847362620   T   T   T
  0.3332095675796148  0.0010481033410805  0.5058837053794295   T   T   T
  0.3300975790314950  0.2480779439001481  0.5028068252278384   T   T   T
  0.0009504350071312  0.1228647155584810  0.6198010110764515   T   T   T
  0.1666666716383389  0.3750000000061604  0.4070133268666680   F   F   F
  0.1641806861361722  0.7515553923247236  0.5034610353316843   T   T   T
  0.5011703962866969  0.7530681530229323  0.5038973168391244   T   T   T
  0.8333332538436267  0.6249999999803961  0.4070133268666680   F   F   F
  0.6663780813810589  0.0000412339726104  0.5059497234846745   T   T   T
  0.3257983490038731  0.3736160227713256  0.5926781742712287   T   T   T
  0.6666666865533486  0.3750000000061604  0.4070133268666680   F   F   F
  0.6651476946272314  0.7519500127181453  0.5021396497908199   T   T   T
  0.6668919613526602  0.2482985851623183  0.5024007964610968   T   T   T
  0.8359793014145031  0.2486671009012627  0.5026181662651784   T   T   T
  0.0000000000000000  0.8749999404036828  0.4070133268666680   F   F   F
  0.1634016388012262  0.4998679945721979  0.5019834085576521   T   T   T
  0.3311547643721579  0.4992830422366464  0.5008836325480188   T   T   T
  0.1659889493815924  0.0011804213335597  0.5065806753126455   T   T   T
  0.0000000000000000  0.6249999999803961  0.4070133268666680   F   F   F
  0.3333333432766779  0.8749999404036828  0.4070133268666680   F   F   F
  0.8340761103596387 -0.0000338557173804  0.5067507559357530   T   T   T
  0.6666666865533486  0.1249999999871179  0.4070133268666680   F   F   F
  0.3333333432766779  0.1249999999871179  0.4070133268666680   F   F   F
  0.3333333432766779  0.6249999999803961  0.4070133268666680   F   F   F
  0.8333332538436267  0.8749999404036828  0.4070133268666680   F   F   F
  0.6666666865533486  0.6249999999803961  0.4070133268666680   F   F   F
 -0.0000013458485229  0.0001177531911144  0.5067922044493397   T   T   T
  0.0010237792436229  0.2497821695560245  0.5062003656558248   T   T   T
  0.9996541293368486  0.7512241254081182  0.5067363813410892   T   T   T
  0.3333333432766779  0.3750000000061604  0.4070133268666680   F   F   F
  0.0833333358191695  0.2500000000190425  0.4070133268666680   F   F   F
  0.4167285174452144  0.7504964721863199  0.5942740960083525   T   T   T
  0.7524334740093714  0.6248052241836279  0.5023638761450970   T   T   T
  0.0833333358191695  0.7500000000123208  0.4070133268666680   F   F   F
  0.0833333358191695  0.4999999999932783  0.4070133268666680   F   F   F
  0.0833333358191695  0.0000000000000000  0.4070133268666680   F   F   F
  0.5834923583632360  0.3737642319666544  0.5016925408414730   T   T   T
  0.9166666865332829  0.7500000000123208  0.4070133268666680   F   F   F
  0.5831015230171591  0.1232593604616532  0.5042049164717186   T   T   T
  0.5839885493147059  0.8762881362335894  0.5059558211585850   T   T   T