Au  C H  O Sr Ti                        
   1.00000000000000     
    23.6707801818999997    0.0000000000000000    0.0000000000000000
     0.0000000000000000   22.3170261383000010    0.0000000000000000
     0.0000000000000000    0.0000000000000000   30.0000000000000000
   Au   C    H    O    Sr   Ti
    50     1     1   264    72    72
Selective dynamics
Direct
  0.7167017094745987  0.5256111699371004  0.7534556458639230   F   F   F
  0.7061749603031231  0.7572644117420708  0.6882141081323425   F   F   F
  0.6563147983914064  0.4412275374578698  0.8123287705521562   F   F   F
  0.3684078659523493  0.6183480948559108  0.8202866706735890   F   F   F
  0.5702730788660233  0.5095878212804692  0.8564261512600879   F   F   F
  0.6665220166667751  0.1875206298400016  0.7488332428631708   T   T   T
  0.4718816201015983  0.4495459272977698  0.8777443730232761   F   F   F
  0.5175715993885106  0.3772982772730558  0.7323673809123932   F   F   F
  0.2827810852647588  0.3397684434944708  0.7022162585188241   F   F   F
  0.6696264586021456  0.6811898133448580  0.7486455501430669   F   F   F
  0.3981147990283702  0.3814460709840901  0.6901903743836684   F   F   F
  0.6166942362844239  0.3210550208055736  0.6962224099434735   F   F   F
  0.3756858904630747  0.4925398173864295  0.8326464494770818   F   F   F
  0.3260242997515590  0.4143635142035436  0.7691081124995591   F   F   F
  0.4192637665587711  0.6968385830643484  0.6992987087968672   F   F   F
  0.7009048846133084  0.3443759418312666  0.7570535799939719   F   F   F
  0.7744531725334340  0.4286953688144166  0.7946516084014092   F   F   F
  0.2568918054171831  0.5929607038099505  0.6946272710525818   F   F   F
  0.6487417172769767  0.4451429900531920  0.6947232182644285   F   F   F
  0.5644085382676778  0.6392658114084924  0.8610520354274342   F   F   F
  0.5418038652760586  0.6663491863031226  0.7012312670659000   F   F   F
  0.4440458758233916  0.4739890617459821  0.7562324628583212   F   F   F
  0.3742342926719786  0.7391416849634140  0.7786646658970398   F   F   F
  0.4628636150092404  0.5727106201116214  0.8640330269919545   F   F   F
  0.4524824419507070  0.5797691121439570  0.7026852773903514   F   F   F
  0.4869975736678285  0.2694146969852937  0.7749290174807655   F   F   F
  0.2893510923837610  0.5375215988255775  0.7775464338594418   F   F   F
  0.5563778863402220  0.2120566565345072  0.7101104679661319   F   F   F
  0.6227207953278082  0.5702031305154662  0.7041017074384683   F   F   F
  0.7194375337672128  0.2571808049850901  0.6908047003672380   F   F   F
  0.2937967528440169  0.7463444606604241  0.6975257894968507   F   F   F
  0.5121854248446240  0.6032725232117713  0.7767451129756608   F   F   F
  0.5782748556366784  0.7252875907145864  0.7937452235102143   F   F   F
  0.2407007636377543  0.4694078015419691  0.7089700920962088   F   F   F
  0.2849526109026641  0.6619856550126073  0.7650097692617734   F   F   F
  0.6026473040600138  0.2864639140220362  0.7841986972416990   F   F   F
  0.5145681163238720  0.4842640198371697  0.6779810678115794   F   F   F
  0.5632645411437167  0.4858860790365469  0.7622579844785875   F   F   F
  0.5501115933937228  0.3833806139213110  0.8276761990343857   F   F   F
  0.7640154351790045  0.4315884060355302  0.7047713571176288   F   F   F
  0.3914273605460465  0.8172751615908496  0.7066205506251464   F   F   F
  0.4636151301701332  0.6949539513561191  0.8301642567400265   F   F   F
  0.4391064647986624  0.2280351920767885  0.6975764528725819   F   F   F
  0.3711593530871227  0.2983628203143596  0.7550775190305643   F   F   F
  0.3497041528471456  0.4994745996464189  0.6977351296133136   F   F   F
  0.4299237198730879  0.3707923969002564  0.8148578111377631   F   F   F
  0.5959994017580357  0.7844308851814006  0.7130430099223872   F   F   F
  0.6350633282312756  0.5841842998847895  0.8000622697413675   F   F   F
  0.7335595170301517  0.6152769589439231  0.6936886684725962   F   F   F
  0.4856053701469634  0.7770805147204669  0.7557043995482715   F   F   F
  0.7133774667186685  0.1194914178235820  0.7583186813577925   T   T   T
  0.7539337891866325  0.1162285519631894  0.7392681532464516   T   T   T
  0.4146552688446405  0.8118670887049788  0.5480002176934775   F   F   F
  0.2510754343341972  0.0625708833153098  0.5472658964532897   F   F   F
  0.7465028491725860  0.5579310100074579  0.5445139477288947   F   F   F
  0.7483536319723498  0.8082092008184532  0.5455941456285203   F   F   F
  0.2495225810388391  0.3137404070153806  0.5459666845051032   F   F   F
  0.5827907705708242  0.3111721803658298  0.5450655575593615   F   F   F
  0.2531509631665472  0.8126456701701343  0.5510045738598421   F   F   F
  0.5830645426433776  0.0620252499110947  0.5455088062572457   F   F   F
  0.5862064079861611  0.8146256367714599  0.5503891792763582   F   F   F
  0.7479340083132726  0.3116809893972814  0.5478441672887442   F   F   F
  0.5811037821537184  0.5600910002055812  0.5490888009830641   F   F   F
  0.2524033190770965  0.5590543097776859  0.5439548975125916   F   F   F
  0.4160909949703822  0.3195610563298459  0.5525994427739533   F   F   F
  0.5767500652042372  0.4358243344230672  0.5520797954656373   F   F   F
  0.4165271545629494  0.0654428000239946  0.5473817859333465   F   F   F
  0.0849051299421717  0.8129157657880413  0.5473353278994395   F   F   F
  0.0824388301997843  0.5643171943358354  0.5462813530292436   F   F   F
  0.0863242431730029  0.3134428039346702  0.5468846617628103   F   F   F
  0.0823229239143828  0.0632346421649359  0.5475854911634883   F   F   F
  0.9157063263519021  0.9386071125149016  0.5464252927645319   F   F   F
  0.9138649252747442  0.6892010447815267  0.5452327114085591   F   F   F
  0.5838841767897023  0.9378746566922302  0.5460987876952643   F   F   F
  0.9169550519455498  0.1889931533545521  0.5452734684279221   F   F   F
  0.9159844523432739  0.4376455304135902  0.5457774093413050   F   F   F
  0.5795485758995014  0.6862693238190971  0.5472558186850520   F   F   F
  0.2515303527403461  0.9373139830541675  0.5452680638401617   F   F   F
  0.4976188414421188  0.5044524269098929  0.6089728492940409   F   F   F
  0.9171892476073040  0.5637760353027943  0.5467771836608435   F   F   F
  0.4201377043519088  0.5650750237825903  0.5554287364336759   F   F   F
  0.9155795765123997  0.8128947550999115  0.5468645614718355   F   F   F
  0.0836498715029137  0.9388725253742720  0.5458275708335520   F   F   F
  0.2493260907803787  0.6832593458795415  0.5521000455327751   F   F   F
  0.7493183572223430  0.9340466397546123  0.5476312600895739   F   F   F
  0.7520104138035464  0.6803416329487177  0.5531580272865995   F   F   F
  0.7519989569950525  0.4352252617527057  0.5490039417898629   F   F   F
  0.4231255101741098  0.4439549644742868  0.5455902011472276   F   F   F
  0.4232154310273799  0.6880879440197418  0.5466347674877028   F   F   F
  0.7485720520358896  0.1837255538340443  0.5508452453139796   F   F   F
  0.4158567303555998  0.9372033656143586  0.5459943028520513   F   F   F
  0.4990272380044374  0.2526128324867827  0.5905157703565038   F   F   F
  0.4157979125791016  0.1914926016627447  0.5464761032029912   F   F   F
  0.0865406213386777  0.6896461653693606  0.5451794577785805   F   F   F
  0.0825479725748295  0.4386196890473215  0.5450533288344346   F   F   F
  0.0836016203277907  0.1889090517748073  0.5455749302150821   F   F   F
  0.4995206286999831  0.1256501605896716  0.4995945714534500   F   F   F
  0.9996546201251846  0.5005809370988814  0.5943403065754893   F   F   F
  0.5807987697581254  0.1852141744578120  0.5499194940240599   F   F   F
  0.9996957905834591  0.7533100774807835  0.5923518843530999   F   F   F
  0.3340174702991732  0.9998427796271443  0.5920043564817519   F   F   F
  0.9998133060369767  0.9993018040649204  0.5931640595159564   F   F   F
  0.0008177554923492  0.2499344039480178  0.5919113223505477   F   F   F
  0.3333238256461044  0.4964032904211493  0.5909347047073581   F   F   F
  0.3359394052326579  0.7411981187370031  0.5905334178784116   F   F   F
  0.6636519665099812  0.2480335400544789  0.5901317696183170   F   F   F
  0.6660984538957919  0.0005698991218992  0.5920115893623787   F   F   F
  0.6659704647728262  0.7418193987920034  0.5900149631364542   F   F   F
  0.6668235014732389  0.4943987993781889  0.5912776967888647   F   F   F
  0.1674483536057920  0.9984012927796684  0.5923257656511964   F   F   F
  0.1683999170099924  0.2491624199372495  0.5930756960449912   F   F   F
  0.1707780616189964  0.7501240936519906  0.5950863283213863   F   F   F
  0.2484859525726506  0.4358983433171204  0.5491138256433530   F   F   F
  0.1655730646107969  0.5027253148006139  0.5874357521548106   F   F   F
  0.3349459357386522  0.2544750390370751  0.5928978395541833   F   F   F
  0.4996845488480446  0.0000176121418960  0.5909981654596166   F   F   F
  0.8328251022032518  0.8743930491764900  0.4986050426384097   F   F   F
  0.7485909642265440  0.9370191439188247  0.6402462386838295   F   F   F
  0.8321625240282913  0.0020919904809844  0.5922612783803558   F   F   F
  0.5013285276134525  0.7564318371868310  0.5930353954652077   F   F   F
  0.4178582202914143  0.0652318324979007  0.6400757656111722   F   F   F
  0.4294077763604136  0.3049427098251343  0.6550461282623701   F   F   F
  0.4129834660431086  0.8126888688903691  0.6397400477382504   F   F   F
  0.3972455775039094  0.5505993957324975  0.6519995571994244   F   F   F
  0.7531067479612119  0.5696508127760325  0.6347938613743196   F   F   F
  0.7410600953412967  0.8100121133232463  0.6398843043772686   F   F   F
  0.7465964657979995  0.3122248283756548  0.6406045941162759   F   F   F
  0.7482806305104930  0.0675033667023968  0.6398447316897631   F   F   F
  0.0837522620177680  0.3118098099382109  0.6404207599603566   F   F   F
  0.6665685400951631  0.8745323283661790  0.4987964275388421   F   F   F
  0.0873316185869157  0.5621214685161178  0.6411006922390214   F   F   F
  0.0842548438925661  0.0606313242126291  0.6421198806077797   F   F   F
  0.0867392356401595  0.4364398228955366  0.6394052921596156   F   F   F
  0.0835604596644330  0.1857525360437293  0.6409927452379023   F   F   F
  0.4184809367955680  0.1874851691691291  0.6397651777040991   F   F   F
  0.4150295891332263  0.4187887991289045  0.6298833874843552   F   F   F
  0.0842823489135611  0.9356009887862839  0.6406881230961474   F   F   F
  0.0831575704767076  0.6870308070907925  0.6392214652847414   F   F   F
  0.9125590846350562  0.4360744837283548  0.6397250067329736   F   F   F
  0.9163117106890439  0.6875192315022645  0.6393692012249161   F   F   F
  0.9144137459556276  0.9371683510717119  0.6410449203899020   F   F   F
  0.2406033700688255  0.4420301134011169  0.6415512188150743   F   F   F
  0.2546514684546253  0.6775108697554728  0.6635083754168463   F   F   F
  0.5803341366029642  0.1915614815630136  0.6447891069357894   F   F   F
  0.2519563081271272  0.9301699866154607  0.6373739199284856   F   F   F
  0.0842544137045991  0.8123084734973745  0.6420978077508011   F   F   F
  0.9166666865332829  0.8124999999834799  0.3605200052333331   F   F   F
  0.8332787003702720  0.5030444486302557  0.5887557847519176   F   F   F
  0.8316300673966097  0.2492652992160203  0.5908453955857098   F   F   F
  0.8305866794774488  0.7509271896573679  0.5927940575131601   F   F   F
  0.5820677594069892  0.9358599952709667  0.6393326725380106   F   F   F
  0.2533289892695407  0.1864746149151699  0.6410727181229348   F   F   F
  0.7458719468417527  0.1938213721443773  0.6458005870833361   F   F   F
  0.7553063923132015  0.4348160170770399  0.6382697745667585   F   F   F
  0.4173695985817076  0.9349698462156653  0.6397702699755285   F   F   F
  0.4210724705949218  0.6758392781319955  0.6334758030953864   F   F   F
  0.5911226223168313  0.8101003700709839  0.6461329002205431   F   F   F
  0.9157553642297387  0.0627774774832019  0.6414789380450117   F   F   F
  0.9126357252838275  0.5617531577485408  0.6418436470801296   F   F   F
  0.9150283458724644  0.3118144507389289  0.6397048933950629   F   F   F
  0.9141565733057107  0.8132663796579251  0.6415437561888808   F   F   F
  0.5826160661043787  0.0665195469907545  0.6387443691724783   F   F   F
  0.5835943950537583  0.3206198346452425  0.6336528897786096   F   F   F
  0.5913138311451149  0.5648330157507857  0.6393714742318792   F   F   F
  0.2476281287274560  0.5739677993895853  0.6287922744557974   F   F   F
  0.7540448597756040  0.6930605942664485  0.6568996763981474   F   F   F
  0.2621234727991393  0.7989068164970021  0.6466477706186851   F   F   F
  0.2510008374520325  0.0594444603438689  0.6423217746736896   F   F   F
  0.9166666865332829  0.5625000000092442  0.3605200052333331   F   F   F
  0.4995390201521346  0.3742946511942407  0.4998177074301111   F   F   F
  0.5000098759562377  0.8734146223477381  0.5008920454992705   F   F   F
  0.5003194123618258  0.6211226948102819  0.5000349939259081   F   F   F
  0.8324167864249929  0.6230862258847978  0.4999896533397745   F   F   F
  0.2518705196533375  0.1883726403374126  0.5471104294976428   F   F   F
  0.8325392702563335  0.3732672721864176  0.4996275138448638   F   F   F
  0.8329313728919203  0.1245385828087748  0.5002262811956371   F   F   F
  0.1667332825310410  0.3762378140953686  0.4978612215117053   F   F   F
  0.1678436428591823  0.6243304834856929  0.4999966793310477   F   F   F
  0.5814440403825074  0.4384729163122998  0.6460469595034795   F   F   F
  0.5800662662858826  0.6853219214270183  0.6391734538499350   F   F   F
  0.9161517631341312  0.1863226087723717  0.6398818317745949   F   F   F
  0.2492226318586077  0.3162450041845304  0.6413212956100836   F   F   F
  0.1677407925954597  0.8732776501231427  0.4998930888637787   F   F   F
  0.7482021280397220  0.0598764710175530  0.5447330177181655   F   F   F
  0.1670772219977152  0.1243087746613369  0.4993164686940048   F   F   F
  0.9159358011143652  0.4370013535471884  0.4536245479699303   F   F   F
  0.9158061148744423  0.1868238748470858  0.4531836751099974   F   F   F
  0.5826785937352454  0.9372032803936676  0.4543163840815012   F   F   F
  0.5827733766444894  0.6861214495417158  0.4545603817843329   F   F   F
  0.5827063797077088  0.4395096708538304  0.4563594837973710   F   F   F
  0.2500703754704503  0.9360507266591185  0.4541026011346361   F   F   F
  0.6653711709506567  0.6260237965794531  0.5029696003701076   F   F   F
  0.5844879944349088  0.5627919472314034  0.4548612311001108   F   F   F
  0.5832315757039765  0.0637026585045533  0.4538622354852535   F   F   F
  0.9166666865332829  0.6874999999963620  0.3605200052333331   F   F   F
  0.9166666865332829  0.4374999701794380  0.3605200052333331   F   F   F
  0.9166666865332829  0.1875000000030838  0.3605200052333331   F   F   F
  0.5833333134730552  0.9375000000154046  0.3605200052333331   F   F   F
  0.5833333134730552  0.6874999999963620  0.3605200052333331   F   F   F
  0.5833333134730552  0.4374999701794380  0.3605200052333331   F   F   F
  0.5833333134730552  0.1875000000030838  0.3605200052333331   F   F   F
  0.2499999999799343  0.9375000000154046  0.3605200052333331   F   F   F
  0.9166666865332829  0.9375000000154046  0.3605200052333331   F   F   F
  0.2499999999799343  0.6874999999963620  0.3605200052333331   F   F   F
  0.2499999999799343  0.1875000000030838  0.3605200052333331   F   F   F
  0.7499999404149307  0.9375000000154046  0.3605200052333331   F   F   F
  0.7499999404149307  0.6874999999963620  0.3605200052333331   F   F   F
  0.7499999404149307  0.4374999701794380  0.3605200052333331   F   F   F
  0.7499999404149307  0.1875000000030838  0.3605200052333331   F   F   F
  0.4166666269218169  0.9375000000154046  0.3605200052333331   F   F   F
  0.4166666269218169  0.6874999999963620  0.3605200052333331   F   F   F
  0.4166666269218169  0.4374999701794380  0.3605200052333331   F   F   F
  0.2499999999799343  0.4374999701794380  0.3605200052333331   F   F   F
  0.0833333358191695  0.0625000000159659  0.3605200052333331   F   F   F
  0.9154297793010144  0.6867512174214880  0.4531130194495745   F   F   F
  0.6653904936219135  0.3785664931015162  0.5029867535482850   F   F   F
  0.3343705954045433  0.3784771377064473  0.5030048529978330   F   F   F
  0.3356672989671452  0.6256390448606695  0.5038588414404614   F   F   F
  0.9176240333138210  0.0633898643260906  0.5474715994088513   F   F   F
  0.2498733065510947  0.1884948154367763  0.4540947892460707   F   F   F
  0.7495301783633508  0.9383979347048310  0.4553168270839194   F   F   F
  0.7490624908828991  0.6886795308908518  0.4573612625280248   F   F   F
  0.7496294001409680  0.4383927126248750  0.4557125037501706   F   F   F
  0.7507725471507030  0.1898718441424236  0.4557441221286780   F   F   F
  0.4171758549815507  0.9358433400380193  0.4539933564788257   F   F   F
  0.4171063434483600  0.6847060412848336  0.4546841156192869   F   F   F
  0.4164656310480837  0.4354347850176765  0.4538412160352152   F   F   F
  0.0846018641018063  0.6868640899522802  0.4530195539190061   F   F   F
  0.0839076038538948  0.9366518207124841  0.4534989249811474   F   F   F
  0.0827836626784944  0.4367908387024215  0.4528728667623625   F   F   F
  0.0838534709407952  0.1865684238964391  0.4529871224847994   F   F   F
  0.9165767908319324  0.8120879231516369  0.4540698705669968   F   F   F
  0.0833333358191695  0.3124999999901945  0.3605200052333331   F   F   F
  0.9162155134540981  0.5623399586199724  0.4538833143192278   F   F   F
  0.9161066655533290  0.0622512040572971  0.4540933036532877   F   F   F
  0.9162330428967707  0.3121873267251516  0.4538740009173310   F   F   F
  0.4171562614752489  0.1871442048250884  0.4535357263993873   F   F   F
  0.2521768345396396  0.6876220339086316  0.4561348806902927   F   F   F
  0.9164628995926734  0.9371447528087415  0.4536594029704943   F   F   F
  0.5827076910305635  0.1902881726038501  0.4555694123158958   F   F   F
  0.0001676228852219  0.1250213451847273  0.4982996494693381   F   F   F
  0.5832586255902399  0.8105100877691456  0.4553325871605551   F   F   F
  0.9999622701236035  0.3734402327115163  0.4983671157769081   F   F   F
  0.0000034791059917  0.6271193742059964  0.4977195625606399   F   F   F
  0.3336310088802890  0.1256524562844632  0.4985249354263814   F   F   F
  0.0000646796417811  0.8751762579648030  0.4995339563857186   F   F   F
  0.3334370773889006  0.8737580145914734  0.4993202927165328   F   F   F
  0.6661220793019993  0.1264123299024789  0.4990530193947720   F   F   F
  0.2511745554086957  0.4392638411941405  0.4549391896723947   F   F   F
  0.0833333358191695  0.5625000000092442  0.3605200052333331   F   F   F
  0.9166666865332829  0.0625000000159659  0.3605200052333331   F   F   F
  0.7493644990698982  0.8131977979083942  0.4530307055533029   F   F   F
  0.2505232695307527  0.0620160802006993  0.4542542471325817   F   F   F
  0.9155728906073577  0.3128741764860195  0.5467886709494110   F   F   F
  0.2522711780199813  0.3141289772889522  0.4541830476088933   F   F   F
  0.2519405869555058  0.5645999134431179  0.4538177212169856   F   F   F
  0.2504787138672313  0.8108021606494944  0.4553557117949723   F   F   F
  0.8333332538436267  0.2500000000190425  0.4070133268666680   F   F   F
  0.5841558532495768  0.3153401038625319  0.4536990894151245   F   F   F
  0.8333332538436267  0.0000000000000000  0.4070133268666680   F   F   F
  0.5000000000021103  0.4999999999932783  0.4070133268666680   F   F   F
  0.0833333358191695  0.1875000000030838  0.3605200052333331   F   F   F
  0.0000000000000000  0.0000000000000000  0.4070133268666680   F   F   F
  0.0000000000000000  0.2500000000190425  0.4070133268666680   F   F   F
  0.0000000000000000  0.4999999999932783  0.4070133268666680   F   F   F
  0.7481611796824126  0.5642883228777720  0.4537439040616249   F   F   F
  0.3333333432766779  0.0000000000000000  0.4070133268666680   F   F   F
  0.3333333432766779  0.4999999999932783  0.4070133268666680   F   F   F
  0.3333333432766779  0.7500000000123208  0.4070133268666680   F   F   F
  0.6666666865533486  0.0000000000000000  0.4070133268666680   F   F   F
  0.6666666865533486  0.2500000000190425  0.4070133268666680   F   F   F
  0.6666666865533486  0.4999999999932783  0.4070133268666680   F   F   F
  0.6666666865533486  0.7500000000123208  0.4070133268666680   F   F   F
  0.1666666716383389  0.0000000000000000  0.4070133268666680   F   F   F
  0.1666666716383389  0.2500000000190425  0.4070133268666680   F   F   F
  0.1666666716383389  0.4999999999932783  0.4070133268666680   F   F   F
  0.1666666716383389  0.7500000000123208  0.4070133268666680   F   F   F
  0.5000000000021103  0.0000000000000000  0.4070133268666680   F   F   F
  0.5000000000021103  0.2500000000190425  0.4070133268666680   F   F   F
  0.5000000000021103  0.7500000000123208  0.4070133268666680   F   F   F
  0.9166666865332829  0.3124999999901945  0.3605200052333331   F   F   F
  0.3333333432766779  0.2500000000190425  0.4070133268666680   F   F   F
  0.7474505898502031  0.3141887871859268  0.4546179346738413   F   F   F
  0.0000000000000000  0.7500000000123208  0.4070133268666680   F   F   F
  0.4167154869345708  0.8099353096579023  0.4551638434754750   F   F   F
  0.5833333134730552  0.5625000000092442  0.3605200052333331   F   F   F
  0.7497363435266351  0.0640676867041776  0.4534158169298266   F   F   F
  0.5833333134730552  0.8124999999834799  0.3605200052333331   F   F   F
  0.5833333134730552  0.3124999999901945  0.3605200052333331   F   F   F
  0.5833333134730552  0.0625000000159659  0.3605200052333331   F   F   F
  0.2499999999799343  0.8124999999834799  0.3605200052333331   F   F   F
  0.2499999999799343  0.5625000000092442  0.3605200052333331   F   F   F
  0.2499999999799343  0.3124999999901945  0.3605200052333331   F   F   F
  0.2499999999799343  0.0625000000159659  0.3605200052333331   F   F   F
  0.7499999404149307  0.5625000000092442  0.3605200052333331   F   F   F
  0.7499999404149307  0.3124999999901945  0.3605200052333331   F   F   F
  0.7499999404149307  0.0625000000159659  0.3605200052333331   F   F   F
  0.4166666269218169  0.8124999999834799  0.3605200052333331   F   F   F
  0.4166666269218169  0.5625000000092442  0.3605200052333331   F   F   F
  0.4166666269218169  0.3124999999901945  0.3605200052333331   F   F   F
  0.7499999404149307  0.8124999999834799  0.3605200052333331   F   F   F
  0.0835506050912258  0.3120482672898461  0.4539657183278649   F   F   F
  0.4166666269218169  0.0625000000159659  0.3605200052333331   F   F   F
  0.4169369608231506  0.0615841521455138  0.4553450567091275   F   F   F
  0.0835117097322353  0.8120951892241948  0.4541826707543279   F   F   F
  0.0839666990833337  0.5624837693264908  0.4538642590168536   F   F   F
  0.4161061227620593  0.5595060922493431  0.4578686231493094   F   F   F
  0.0837914362952432  0.0618669456603769  0.4541765187594962   F   F   F
  0.4155715732305794  0.3113588163199879  0.4573723553208566   F   F   F
  0.8333332538436267  0.7500000000123208  0.4070133268666680   F   F   F
  0.0833333358191695  0.4374999701794380  0.3605200052333331   F   F   F
  0.0833333358191695  0.6874999999963620  0.3605200052333331   F   F   F
  0.0833333358191695  0.9375000000154046  0.3605200052333331   F   F   F
  0.4166666269218169  0.1875000000030838  0.3605200052333331   F   F   F
  0.0833333358191695  0.8124999999834799  0.3605200052333331   F   F   F
  0.8333332538436267  0.4999999999932783  0.4070133268666680   F   F   F
  0.8372848601232761  0.3725528269137470  0.6040401814393306   F   F   F
  0.8320808231101395  0.8762510965622994  0.6181421398585769   F   F   F
  0.5000000000021103  0.1249999999871179  0.4070133268666680   F   F   F
  0.9991271879595516  0.8750815667301950  0.6222229214775723   F   F   F
  0.3316429051737586  0.1198920811440587  0.6134438881436850   F   F   F
  0.8400307091217201  0.6270052913393798  0.6032391594892061   F   F   F
  0.8360870490233125  0.7517795456787937  0.5025927778656296   F   F   F
  0.5000000000021103  0.6249999999803961  0.4070133268666680   F   F   F
  0.1666666716383389  0.1249999999871179  0.4070133268666680   F   F   F
  0.8333332538436267  0.3750000000061604  0.4070133268666680   F   F   F
  0.8333332538436267  0.1249999999871179  0.4070133268666680   F   F   F
  0.5000000000021103  0.8749999404036828  0.4070133268666680   F   F   F
  0.3342671376129971  0.6244567070569929  0.5952178882674417   F   F   F
  0.0000000000000000  0.3750000000061604  0.4070133268666680   F   F   F
  0.3259502101694594  0.3735968627244546  0.5927076114624654   F   F   F
  0.5007638418599782  0.8768132772245920  0.6095506010403611   F   F   F
  0.6657497396748795  0.1246022616629290  0.6104000659355364   F   F   F
  0.1666666716383389  0.8749999404036828  0.4070133268666680   F   F   F
  0.5039874374127962  0.6250789703367374  0.5939186837731469   F   F   F
  0.0000000000000000  0.1249999999871179  0.4070133268666680   F   F   F
  0.8339857769347532  0.1243652081227538  0.6156054865822256   F   F   F
  0.9996434913471433  0.6220626469403285  0.6327629001826480   F   F   F
  0.9999698195096585  0.3747812412680958  0.6232174333754941   F   F   F
  0.6664565654505452  0.6264098036870891  0.5934329034748984   F   F   F
  0.6654108560975018  0.8812177952269309  0.6072539711645391   F   F   F
  0.1632707081187093  0.3713979417875990  0.6076174949402002   F   F   F
  0.1676877310281455  0.1227548762744135  0.6218343534861077   F   F   F
  0.5004943451821404  0.1223799347979266  0.6061997232086966   F   F   F
  0.5017646554413062  0.3713122054843652  0.5948723667634184   F   F   F
  0.1661337033183656  0.8734625777766496  0.6179446759213931   F   F   F
  0.1592726831344180  0.6272335421342277  0.6014222162991700   F   F   F
  0.3344908185050244  0.8785167128686950  0.6030689907303852   F   F   F
  0.6711932738661162  0.3725003129174667  0.5934875178222967   F   F   F
  0.1666666716383389  0.6249999999803961  0.4070133268666680   F   F   F
  0.5000000000021103  0.3750000000061604  0.4070133268666680   F   F   F
  0.6666666865533486  0.8749999404036828  0.4070133268666680   F   F   F
  0.5001720877369920  0.9992643893717243  0.5054676703277252   F   F   F
  0.1635451475470546  0.4998405340283369  0.5020629798390956   F   F   F
  0.1663362140245752  0.2482671305937387  0.5061792896518256   F   F   F
  0.1660157996124667  0.0011329272042317  0.5065871915670570   F   F   F
  0.6654590563603051  0.7519874599149290  0.5021591989853604   F   F   F
  0.6672542754029251  0.2479856819670374  0.5025486782270505   F   F   F
  0.6686465710165379  0.4998857697727885  0.5006207053361251   F   F   F
  0.3338721031167395  0.7511707727545769  0.5015988001833520   F   F   F
  0.3330726244144415  0.0010811163931663  0.5058114321586160   F   F   F
  0.3300991406763529  0.2480821271894911  0.5028250580168887   F   F   F
  0.3312175796169186  0.4992334891686170  0.5009595721944109   F   F   F
  0.9997508541416096  0.5005848609990480  0.5069771142411099   F   F   F
  0.8333332538436267  0.6249999999803961  0.4070133268666680   F   F   F
  0.0006390332192083  0.1227585594092133  0.6198390389121897   F   F   F
  0.1666666716383389  0.3750000000061604  0.4070133268666680   F   F   F
  0.1644742545319247  0.7515298789641349  0.5033740092871497   F   F   F
  0.5011598629351326  0.7528928006116402  0.5039199421289311   F   F   F
  0.6661064032736448  0.0000109878076699  0.5055943417754776   F   F   F
  0.5012680754448695  0.4999130996636509  0.5002893368903187   F   F   F
  0.8361872902038883  0.5000094885744133  0.5027303517885855   F   F   F
  0.6666666865533486  0.6249999999803961  0.4070133268666680   F   F   F
  0.6666666865533486  0.3750000000061604  0.4070133268666680   F   F   F
  0.6666666865533486  0.1249999999871179  0.4070133268666680   F   F   F
  0.3333333432766779  0.8749999404036828  0.4070133268666680   F   F   F
  0.8341450226064495  0.0002231701717861  0.5064890308133201   F   F   F
  0.3333333432766779  0.3750000000061604  0.4070133268666680   F   F   F
  0.3333333432766779  0.1249999999871179  0.4070133268666680   F   F   F
  0.3333333432766779  0.6249999999803961  0.4070133268666680   F   F   F
  0.0000000000000000  0.6249999999803961  0.4070133268666680   F   F   F
  0.8333332538436267  0.8749999404036828  0.4070133268666680   F   F   F
  0.0000691133630468  0.9999829440901706  0.5066857439391654   F   F   F
  0.0008756024676444  0.2498337490864984  0.5058995246444482   F   F   F
  0.9999024756058503  0.7508692474537924  0.5066410508407273   F   F   F
  0.8356774378205429  0.2486166505659000  0.5028487442014082   F   F   F
  0.5010297903269034  0.2479771367516932  0.5019493431965714   F   F   F
  0.0000000000000000  0.8749999404036828  0.4070133268666680   F   F   F
  0.0833333358191695  0.7500000000123208  0.4070133268666680   F   F   F
  0.0833333358191695  0.4999999999932783  0.4070133268666680   F   F   F
  0.0833333358191695  0.2500000000190425  0.4070133268666680   F   F   F
  0.0833333358191695  0.0000000000000000  0.4070133268666680   F   F   F
  0.9166666865332829  0.4999999999932783  0.4070133268666680   F   F   F
  0.9166666865332829  0.7500000000123208  0.4070133268666680   F   F   F
  0.5833141079979569  0.1232607949119355  0.5043746149709136   F   F   F
  0.7524742412166461  0.6247127402904553  0.5023636358279688   F   F   F
  0.5838685682715479  0.8758681542324140  0.5057557815107430   F   F   F
  0.9178113083646977  0.1249171847392176  0.5062925060167700   F   F   F
  0.9186238365870594  0.3744958226341382  0.5059385088199804   F   F   F
  0.5836786081578325  0.3737011940856263  0.5018411338916664   F   F   F
  0.5838610086599019  0.6274311446521494  0.5006717792359652   F   F   F
  0.0830339664929767  0.1247356030745337  0.5067388257635272   F   F   F
  0.4166666269218169  0.0000000000000000  0.4070133268666680   F   F   F
  0.2499999999799343  0.2500000000190425  0.4070133268666680   F   F   F
  0.4166666269218169  0.4999999999932783  0.4070133268666680   F   F   F