Au  C  H  O Sr Ti                       
   1.00000000000000     
    23.6707801818999997    0.0000000000000000    0.0000000000000000
     0.0000000000000000   22.3170261383000010    0.0000000000000000
     0.0000000000000000    0.0000000000000000   30.0000000000000000
   Au   C    H    O    Sr   Ti
    50     1     1   265    72    72
Selective dynamics
Direct
  0.7145539347228445  0.5251716751811473  0.7531876145737106   T   T   T
  0.5519837379243419  0.2154824208459274  0.7102285010908379   T   T   T
  0.6203573222424009  0.5717202385617589  0.7040921315784424   T   T   T
  0.7195186960618927  0.2589907315354281  0.6907570356470990   T   T   T
  0.2950341690536540  0.7467556611015174  0.6960238498327643   T   T   T
  0.5109959104663246  0.6043845807026490  0.7772045945425717   T   T   T
  0.5785296504672665  0.7257230980902354  0.7939850702933244   T   T   T
  0.2401777975666665  0.4698831631990062  0.7090769894369492   T   T   T
  0.2857771915768302  0.6632455093841451  0.7641889323360422   T   T   T
  0.5987004339235185  0.2904680307525512  0.7839251212836165   T   T   T
  0.5138261676238272  0.4850547183369989  0.6783022769566014   T   T   T
  0.2888203865145671  0.5391375280627251  0.7773204272608930   T   T   T
  0.5624854942292277  0.4866043501782910  0.7623796895784394   T   T   T
  0.7639726472156090  0.4319864825146237  0.7046140823603360   T   T   T
  0.3918947543496857  0.8181419343503273  0.7065918130175936   T   T   T
  0.4638136393104476  0.6966758071829940  0.8307838539875240   T   T   T
  0.4348195440944357  0.2275552088565171  0.6983849434377891   T   T   T
  0.3683506256319390  0.3000071008116368  0.7564680899720703   T   T   T
  0.3491387247174876  0.5001082380396574  0.6979465082082896   T   T   T
  0.4266440831180575  0.3726746187628732  0.8171643958921686   T   T   T
  0.5965291388672488  0.7845828148388303  0.7129960637141202   T   T   T
  0.6338401369732196  0.5846286254502878  0.8002028213046225   T   T   T
  0.7325944329375647  0.6145842254583713  0.6940016492084364   T   T   T
  0.5463691919487392  0.3863910924688241  0.8284767473440652   T   T   T
  0.4862735313677836  0.7768340899052824  0.7548901906279319   T   T   T
  0.4830930789535581  0.2713950538165411  0.7751389655502990   T   T   T
  0.4619863198163230  0.5746231710583274  0.8646647502494643   T   T   T
  0.7066151274080472  0.7569203561412989  0.6883998402880512   T   T   T
  0.6543575172542199  0.4419814745380812  0.8134818115958722   T   T   T
  0.3682421190775852  0.6202550642868808  0.8203618646002501   T   T   T
  0.5684592782415067  0.5110255220515678  0.8571055711935761   T   T   T
  0.6632013150649624  0.1916340271830086  0.7485572878462627   T   T   T
  0.4691642405576186  0.4522059014436505  0.8799596594504894   T   T   T
  0.5163999235821802  0.3781159116514129  0.7326928638690471   T   T   T
  0.2810519396905485  0.3413022719079449  0.7026948739415514   T   T   T
  0.6694571776932176  0.6812054841870651  0.7487839607124340   T   T   T
  0.3971343043641876  0.3821115527558727  0.6910797012150378   T   T   T
  0.4517225973408966  0.5800770877756166  0.7031682094507691   T   T   T
  0.6158302786836438  0.3228200142311013  0.6956147887953343   T   T   T
  0.3241820482064914  0.4161842228183104  0.7700648351013814   T   T   T
  0.4174544505429563  0.6969182155803962  0.6995938965825579   T   T   T
  0.6986173597327331  0.3464437963366296  0.7567068145315285   T   T   T
  0.7727985854334138  0.4292629891124258  0.7947813555012201   T   T   T
  0.2568917837337511  0.5936017614114651  0.6944036878342322   T   T   T
  0.6492521753230546  0.4474309389859309  0.6935145388246794   T   T   T
  0.5642474595570249  0.6403841632615888  0.8616901450157877   T   T   T
  0.5400699222070086  0.6678926158993554  0.7017476952832012   T   T   T
  0.4429388153572902  0.4740070264292066  0.7572562806711916   T   T   T
  0.3746677381033182  0.7409151931316467  0.7790068018303007   T   T   T
  0.3740596362868049  0.4946481960542671  0.8335247294363370   T   T   T
  0.7244379295720743  0.1256240082535589  0.7550060673560183   T   T   T
  0.7391650301069917  0.1061350859378035  0.7229193403198068   T   T   T
  0.7464343756557243  0.5578200425957901  0.5445905290045254   T   T   T
  0.7491020828524346  0.6886516002214406  0.4574447214700555   T   T   T
  0.7496399180492250  0.4383455568366149  0.4557351139511264   T   T   T
  0.7507468191057382  0.1898852644679780  0.4557492295277658   T   T   T
  0.4172188025319922  0.9360132768009224  0.4540358046930378   T   T   T
  0.4171738274026526  0.6851251968535367  0.4550222927213612   T   T   T
  0.4164118285361295  0.4355835979867091  0.4540086533795960   T   T   T
  0.0844013900752558  0.6869608479305970  0.4531529240748189   T   T   T
  0.0838880838658573  0.9366737549906520  0.4534712880377770   T   T   T
  0.0827053296933807  0.4368276688724497  0.4528109488696896   T   T   T
  0.0838584404977120  0.1865659620274006  0.4529861372412411   T   T   T
  0.9165770667849930  0.8121293960200693  0.4540740238254597   T   T   T
  0.7394070565350768  0.1106538952837536  0.7913362966047855   T   T   T
  0.9161001674562160  0.5621879658659820  0.4540801037540620   T   T   T
  0.9160992160116779  0.0622879938866624  0.4541146101729631   T   T   T
  0.9161641008946182  0.3121401660232324  0.4538763452075377   T   T   T
  0.4169500844589204  0.1872558062194860  0.4535928881853883   T   T   T
  0.2520473590037312  0.6876593734337442  0.4561201504639662   T   T   T
  0.9164370492362350  0.9371345233242316  0.4536448479233628   T   T   T
  0.5827383208739781  0.1904341509297814  0.4555992014141025   T   T   T
  0.0001072507319853  0.1251069566242420  0.4984208876265771   T   T   T
  0.5832784089292774  0.8104874395092455  0.4553337708470868   T   T   T
  0.0000068154062949  0.3734025400807534  0.4984355676333506   T   T   T
  0.9997251967280710  0.6272321458774012  0.4975816152272952   T   T   T
  0.3336829619534698  0.1257189319213601  0.4985139059914762   T   T   T
  0.0000388552826886  0.8751358282084369  0.4995061670066005   T   T   T
  0.3335098532395928  0.8741268361797668  0.4991865333762721   T   T   T
  0.6658549814994971  0.1271664250817901  0.4995497746902504   T   T   T
  0.2512719729902299  0.4395224500696654  0.4550039795317578   T   T   T
  0.0833333358191695  0.5625000000092442  0.3605200052333331   F   F   F
  0.7495053602966310  0.9384322229470725  0.4553481943079190   T   T   T
  0.9166666865332829  0.0625000000159659  0.3605200052333331   F   F   F
  0.2499754657429281  0.1887264821283320  0.4543304660093223   T   T   T
  0.3356109908002514  0.6257778345728310  0.5037654199117994   T   T   T
  0.5827608261285472  0.6861389056356478  0.4546185399689073   T   T   T
  0.5827664778333724  0.4396382207630589  0.4563911113559112   T   T   T
  0.2500499449125922  0.9360832748390203  0.4540290755026391   T   T   T
  0.6653883606136805  0.6260575296134865  0.5029850723965336   T   T   T
  0.5844826350871519  0.5628400356291224  0.4548444547059236   T   T   T
  0.5834538834494162  0.0640405540365366  0.4536993813451137   T   T   T
  0.9166666865332829  0.6874999999963620  0.3605200052333331   F   F   F
  0.9166666865332829  0.4374999701794380  0.3605200052333331   F   F   F
  0.9166666865332829  0.1875000000030838  0.3605200052333331   F   F   F
  0.5833333134730552  0.9375000000154046  0.3605200052333331   F   F   F
  0.5833333134730552  0.6874999999963620  0.3605200052333331   F   F   F
  0.5833333134730552  0.4374999701794380  0.3605200052333331   F   F   F
  0.5833333134730552  0.1875000000030838  0.3605200052333331   F   F   F
  0.2499999999799343  0.9375000000154046  0.3605200052333331   F   F   F
  0.9166666865332829  0.9375000000154046  0.3605200052333331   F   F   F
  0.2499999999799343  0.6874999999963620  0.3605200052333331   F   F   F
  0.2499999999799343  0.1875000000030838  0.3605200052333331   F   F   F
  0.7499999404149307  0.9375000000154046  0.3605200052333331   F   F   F
  0.7499999404149307  0.6874999999963620  0.3605200052333331   F   F   F
  0.7499999404149307  0.4374999701794380  0.3605200052333331   F   F   F
  0.7499999404149307  0.1875000000030838  0.3605200052333331   F   F   F
  0.4166666269218169  0.9375000000154046  0.3605200052333331   F   F   F
  0.4166666269218169  0.6874999999963620  0.3605200052333331   F   F   F
  0.4166666269218169  0.4374999701794380  0.3605200052333331   F   F   F
  0.2499999999799343  0.4374999701794380  0.3605200052333331   F   F   F
  0.0833333358191695  0.0625000000159659  0.3605200052333331   F   F   F
  0.9152945559750100  0.6868304036044578  0.4533185533159553   T   T   T
  0.6653990649371094  0.3785131129112293  0.5031350911098826   T   T   T
  0.3343028360047987  0.3784411953203224  0.5030586336626788   T   T   T
  0.9175484414891506  0.0633815781754355  0.5474319663354719   T   T   T
  0.7493666940221770  0.8131576122273573  0.4529982261992685   T   T   T
  0.2505245200911664  0.0620490259358808  0.4541866585613597   T   T   T
  0.9154383062260636  0.3123872167958841  0.5466831847137332   T   T   T
  0.5833333134730552  0.3124999999901945  0.3605200052333331   F   F   F
  0.5833333134730552  0.0625000000159659  0.3605200052333331   F   F   F
  0.2499999999799343  0.8124999999834799  0.3605200052333331   F   F   F
  0.2499999999799343  0.5625000000092442  0.3605200052333331   F   F   F
  0.2499999999799343  0.3124999999901945  0.3605200052333331   F   F   F
  0.2499999999799343  0.0625000000159659  0.3605200052333331   F   F   F
  0.7499999404149307  0.5625000000092442  0.3605200052333331   F   F   F
  0.7499999404149307  0.3124999999901945  0.3605200052333331   F   F   F
  0.7499999404149307  0.0625000000159659  0.3605200052333331   F   F   F
  0.4166666269218169  0.8124999999834799  0.3605200052333331   F   F   F
  0.4166666269218169  0.5625000000092442  0.3605200052333331   F   F   F
  0.4166666269218169  0.3124999999901945  0.3605200052333331   F   F   F
  0.7499999404149307  0.8124999999834799  0.3605200052333331   F   F   F
  0.0834529855221921  0.3119993838269324  0.4540342167528553   T   T   T
  0.4166666269218169  0.0625000000159659  0.3605200052333331   F   F   F
  0.4168275951914078  0.0615464251534641  0.4553286527804764   T   T   T
  0.0834671688956483  0.8121367217584945  0.4541820393785192   T   T   T
  0.0839729651878264  0.5625190943110530  0.4539803970355018   T   T   T
  0.4160290852854188  0.5595669641462163  0.4578690774234851   T   T   T
  0.0837132186052679  0.0618652180915556  0.4542030179610762   T   T   T
  0.4154500418719420  0.3113604513863328  0.4574067275924633   T   T   T
  0.8333332538436267  0.7500000000123208  0.4070133268666680   F   F   F
  0.0833333358191695  0.4374999701794380  0.3605200052333331   F   F   F
  0.0833333358191695  0.6874999999963620  0.3605200052333331   F   F   F
  0.0833333358191695  0.9375000000154046  0.3605200052333331   F   F   F
  0.4166666269218169  0.1875000000030838  0.3605200052333331   F   F   F
  0.0833333358191695  0.8124999999834799  0.3605200052333331   F   F   F
  0.8333332538436267  0.4999999999932783  0.4070133268666680   F   F   F
  0.4144705123222384  0.8116429365650549  0.5476625626718682   T   T   T
  0.5833333134730552  0.8124999999834799  0.3605200052333331   F   F   F
  0.7491455945749791  0.0642147147902234  0.4535177939644205   T   T   T
  0.5833333134730552  0.5625000000092442  0.3605200052333331   F   F   F
  0.4168747586015911  0.8104226590856677  0.4549141201200207   T   T   T
  0.2522493391466683  0.3144343037030278  0.4539393722222740   T   T   T
  0.2518230086394059  0.5648179316669028  0.4536467238206942   T   T   T
  0.2505187544987315  0.8108064263271592  0.4553236444534480   T   T   T
  0.8333332538436267  0.2500000000190425  0.4070133268666680   F   F   F
  0.2513991673570303  0.0623493223919072  0.5470666101696452   T   T   T
  0.8333332538436267  0.0000000000000000  0.4070133268666680   F   F   F
  0.5000000000021103  0.4999999999932783  0.4070133268666680   F   F   F
  0.0833333358191695  0.1875000000030838  0.3605200052333331   F   F   F
  0.0000000000000000  0.0000000000000000  0.4070133268666680   F   F   F
  0.0000000000000000  0.2500000000190425  0.4070133268666680   F   F   F
  0.0000000000000000  0.4999999999932783  0.4070133268666680   F   F   F
  0.7482421223897495  0.5642960964478356  0.4537946897189228   T   T   T
  0.3333333432766779  0.0000000000000000  0.4070133268666680   F   F   F
  0.3333333432766779  0.4999999999932783  0.4070133268666680   F   F   F
  0.5826588216644590  0.9372984220715033  0.4544029948561608   T   T   T
  0.3333333432766779  0.7500000000123208  0.4070133268666680   F   F   F
  0.6666666865533486  0.2500000000190425  0.4070133268666680   F   F   F
  0.6666666865533486  0.4999999999932783  0.4070133268666680   F   F   F
  0.6666666865533486  0.7500000000123208  0.4070133268666680   F   F   F
  0.1666666716383389  0.0000000000000000  0.4070133268666680   F   F   F
  0.1666666716383389  0.2500000000190425  0.4070133268666680   F   F   F
  0.1666666716383389  0.4999999999932783  0.4070133268666680   F   F   F
  0.1666666716383389  0.7500000000123208  0.4070133268666680   F   F   F
  0.5000000000021103  0.0000000000000000  0.4070133268666680   F   F   F
  0.5000000000021103  0.2500000000190425  0.4070133268666680   F   F   F
  0.5000000000021103  0.7500000000123208  0.4070133268666680   F   F   F
  0.9166666865332829  0.3124999999901945  0.3605200052333331   F   F   F
  0.3333333432766779  0.2500000000190425  0.4070133268666680   F   F   F
  0.7473345843078762  0.3141659195047797  0.4546668153570552   T   T   T
  0.0000000000000000  0.7500000000123208  0.4070133268666680   F   F   F
  0.6666666865533486  0.0000000000000000  0.4070133268666680   F   F   F
  0.9157370786058487  0.1867907578160417  0.4532107778369103   T   T   T
  0.5843572079622509  0.3154684865352827  0.4535828588400427   T   T   T
  0.1670852412768978  0.1242910176694614  0.4993174651633100   T   T   T
  0.4229536429486894  0.6877391959493289  0.5468317356856395   T   T   T
  0.7484952335953077  0.1837074293673412  0.5509507162137918   T   T   T
  0.4159546346627188  0.9371147991298490  0.5460831267602307   T   T   T
  0.4982250134547016  0.2535687840499256  0.5912472923221314   T   T   T
  0.4159961734010657  0.1913721137403732  0.5466317161165704   T   T   T
  0.0857085082386257  0.6893454286420256  0.5454362080986623   T   T   T
  0.0829041513962090  0.4389729855907540  0.5448367739751714   T   T   T
  0.0837325441164867  0.1888593599126347  0.5457041837351958   T   T   T
  0.4993515591199632  0.1256676210685872  0.4990527833728176   T   T   T
  0.9995359297438438  0.4986738316695558  0.5942064732438793   T   T   T
  0.5795292929146183  0.1848872258585281  0.5503938843013302   T   T   T
  0.9996512903804361  0.7537926833050298  0.5928276054760381   T   T   T
  0.3340602092364039  0.9998554330757505  0.5919849338141659   T   T   T
  0.9998591536832608  0.9991749291422671  0.5932777793308729   T   T   T
  0.0012116997895756  0.2498030187355222  0.5921801848550436   T   T   T
  0.3330479214306738  0.4961916858751816  0.5910655227881557   T   T   T
  0.3355670572699279  0.7411771197233779  0.5902977051245143   T   T   T
  0.6631644857762975  0.2475473595826187  0.5903677443439550   T   T   T
  0.6661386879445037  0.0010422064640505  0.5919523006968973   T   T   T
  0.6657540010908085  0.7413605811320940  0.5904661706288653   T   T   T
  0.6666107257520537  0.4944265574504725  0.5913747556328586   T   T   T
  0.1674807774762741  0.9983248104199396  0.5922722282001366   T   T   T
  0.1685367724702299  0.2484594227273225  0.5933143449983753   T   T   T
  0.1709150787927208  0.7504101602359319  0.5951109853185629   T   T   T
  0.2481806330231408  0.4358884705447179  0.5490745267849818   T   T   T
  0.1654801108900832  0.5034029857866935  0.5871833616871117   T   T   T
  0.3345392436285841  0.2545919691091355  0.5926541081812496   T   T   T
  0.4996696236549105  0.0000623663428842  0.5910138906860551   T   T   T
  0.8327224519121260  0.8742844862837466  0.4986308868139737   T   T   T
  0.4231979750908454  0.4434414124154260  0.5461520072222197   T   T   T
  0.7520143393327875  0.4351587110300202  0.5489148932609323   T   T   T
  0.7518317123888595  0.6801493278235383  0.5533739211545974   T   T   T
  0.7492850598974519  0.9339927539434739  0.5476349535912004   T   T   T
  0.7480586459644454  0.8080038579860650  0.5456076880932439   T   T   T
  0.9159318673072454  0.4368726781973776  0.4536136190700809   T   T   T
  0.2492220023275293  0.3137136412208765  0.5458542618560839   T   T   T
  0.5824780858429637  0.3110503543564553  0.5448328446391262   T   T   T
  0.2531810365360237  0.8125289963205621  0.5505885862118671   T   T   T
  0.5827643037748372  0.0618081792857850  0.5451994863367295   T   T   T
  0.5859100945941333  0.8143138262881452  0.5503748768229048   T   T   T
  0.7480156765761526  0.3114263187327250  0.5480611294535872   T   T   T
  0.5811484068017096  0.5599949525841376  0.5489037401107104   T   T   T
  0.2526114487182449  0.5590870232319851  0.5437919493367407   T   T   T
  0.4159297781285026  0.3194284375345559  0.5525694993885096   T   T   T
  0.5765275529053817  0.4358443823844930  0.5522478768382665   T   T   T
  0.4165598529583216  0.0654406053874337  0.5473183227923216   T   T   T
  0.0849937887376050  0.8128193487267814  0.5473318227705218   T   T   T
  0.7484554691786209  0.9373792189678921  0.6402722869821063   T   T   T
  0.0808541978815797  0.5644956238240602  0.5463896271986235   T   T   T
  0.0823125396028015  0.0632295558321200  0.5475818504702935   T   T   T
  0.9157380689455198  0.9386700490746929  0.5463710463572854   T   T   T
  0.9143954179832997  0.6889303645344284  0.5455256701859637   T   T   T
  0.5839215604035966  0.9376141460177033  0.5462596764519190   T   T   T
  0.9168734798450344  0.1888255137011660  0.5454223379441253   T   T   T
  0.9154678002515345  0.4373807165159933  0.5456963139726910   T   T   T
  0.5795214883536836  0.6861074383100286  0.5474131660578886   T   T   T
  0.2515022146126552  0.9372586054055931  0.5452696734865139   T   T   T
  0.4972439055883143  0.5042976267057223  0.6091446583290038   T   T   T
  0.9179853152198172  0.5638221337075633  0.5471109786459126   T   T   T
  0.4199086241372070  0.5647129048063142  0.5554563484571727   T   T   T
  0.9154935270564093  0.8128865169878622  0.5469147085311867   T   T   T
  0.0836137655718496  0.9389816056010120  0.5457631862875767   T   T   T
  0.2491046497981872  0.6832982511244071  0.5519435979877318   T   T   T
  0.0866983309581033  0.3135161148340773  0.5471302109657632   T   T   T
  0.8321039098286011  0.0021455955452324  0.5922542695700651   T   T   T
  0.0833333358191695  0.3124999999901945  0.3605200052333331   F   F   F
  0.4177071744588767  0.0651811956954350  0.6400510200585698   T   T   T
  0.4204054015583877  0.6761628054246570  0.6336827321594380   T   T   T
  0.5910915293614981  0.8101630915515229  0.6460363212085317   T   T   T
  0.9158465228129322  0.0626724247098847  0.6412935776552964   T   T   T
  0.9133944314008451  0.5624861245145244  0.6408395185630478   T   T   T
  0.9150695377225472  0.3117061535030138  0.6397733837856839   T   T   T
  0.9132210734922237  0.8131673952768183  0.6421931131702132   T   T   T
  0.5825444346826191  0.0669357520647875  0.6385625148857131   T   T   T
  0.5834251350840411  0.3217178860474491  0.6328392695077208   T   T   T
  0.5905655637526386  0.5661344431556871  0.6387268106484377   T   T   T
  0.2475553831847853  0.5739088451964981  0.6287193253373564   T   T   T
  0.7538915822691417  0.6919416044742120  0.6572664150905381   T   T   T
  0.2627698352370247  0.8004066005950299  0.6460645963053072   T   T   T
  0.2510345175215419  0.0594080160352939  0.6422763627382184   T   T   T
  0.9166666865332829  0.5625000000092442  0.3605200052333331   F   F   F
  0.5000122259138527  0.8734377418460690  0.5008847160937226   T   T   T
  0.5002817848497864  0.6210533827948201  0.5001085482682937   T   T   T
  0.8324661509661587  0.6230866610362471  0.5001869038272272   T   T   T
  0.2519131877062497  0.1880042835959983  0.5473745996707289   T   T   T
  0.8324495736123413  0.3730830241863330  0.4997178887914289   T   T   T
  0.8327108106985804  0.1244093957175182  0.5002707058713203   T   T   T
  0.1667113151374569  0.3761670904785732  0.4976114437027804   T   T   T
  0.1675580775367947  0.6242908475673481  0.5002487158380583   T   T   T
  0.5810608458729138  0.4396946621367935  0.6467013580358593   T   T   T
  0.5782610122896820  0.6859093147038449  0.6395764376638087   T   T   T
  0.9166803751296890  0.1860407618511084  0.6398270410623982   T   T   T
  0.2492203278054536  0.3163555853829055  0.6413939299635677   T   T   T
  0.7480001572922393  0.0602083025917567  0.5448659519827553   T   T   T
  0.1677077027118531  0.8733193021504222  0.4998636439023084   T   T   T
  0.5008183121178780  0.7563372940445149  0.5927226983804007   T   T   T
  0.4175480358096783  0.9349295641010542  0.6397796636683906   T   T   T
  0.7553587699805081  0.4341340308207199  0.6379258934871214   T   T   T
  0.4994685451199982  0.3742434333683231  0.4997536236915168   T   T   T
  0.2536596045979057  0.1864859352404203  0.6414506948687240   T   T   T
  0.4124231127814318  0.8128680593075603  0.6394000971995644   T   T   T
  0.4261882980116584  0.3045961641228221  0.6565161138414336   T   T   T
  0.7456369915994630  0.1945529860524513  0.6468953162181440   T   T   T
  0.3972009097162507  0.5506238423321085  0.6520841818171678   T   T   T
  0.7531688066395363  0.5684322008777365  0.6356122040851307   T   T   T
  0.7411189468153917  0.8098454958153062  0.6399719841462331   T   T   T
  0.7460940299310322  0.3125640603578509  0.6405172336878452   T   T   T
  0.7481778945655174  0.0681604168846279  0.6401846603307096   T   T   T
  0.0843413284908681  0.3112223787108889  0.6409737553826300   T   T   T
  0.0866112821302865  0.5626898319366188  0.6399085156140544   T   T   T
  0.0842235893722056  0.0603137281162963  0.6421744741380396   T   T   T
  0.0873779941782698  0.4365347758717686  0.6396904203780751   T   T   T
  0.0837453310351028  0.1853464631229436  0.6413507751883906   T   T   T
  0.4175264379604982  0.1873917855913669  0.6398098985842215   T   T   T
  0.4143958796011916  0.4184801875394717  0.6305106750048747   T   T   T
  0.6665067817254295  0.8743401148247282  0.4987806530521268   T   T   T
  0.0843861080217932  0.9355601189751573  0.6408708751782002   T   T   T
  0.8304103272003651  0.7508498871755638  0.5927504920799319   T   T   T
  0.8315000417050226  0.2485537275665388  0.5912088465240430   T   T   T
  0.8333134579440489  0.5030379401234577  0.5887439496637147   T   T   T
  0.9166666865332829  0.8124999999834799  0.3605200052333331   F   F   F
  0.2520827198382156  0.9303319450636480  0.6374670856926834   T   T   T
  0.5793352566167510  0.1927266170776298  0.6454991147870714   T   T   T
  0.0846035220131465  0.8125852712189677  0.6425003400143035   T   T   T
  0.2399617538630811  0.4422075727861526  0.6415743270076197   T   T   T
  0.9142597000328402  0.9370495068063129  0.6411876467116061   T   T   T
  0.9164552433404548  0.6873388393554996  0.6388268152487993   T   T   T
  0.9124064354152738  0.4360449424837680  0.6399847731289493   T   T   T
  0.0831420632018951  0.6870771896408031  0.6388839690192948   T   T   T
  0.2548700922121933  0.6780558046373544  0.6625975729596675   T   T   T
  0.5821161986464030  0.9361447610812663  0.6393563762107426   T   T   T
  0.5010782267887998  0.7528181605910017  0.5038709821731258   T   T   T
  0.9995420064029965  0.4999843294713495  0.5067595832288305   T   T   T
  0.1643318290631700  0.7515114289309908  0.5034235647781868   T   T   T
  0.1666666716383389  0.3750000000061604  0.4070133268666680   F   F   F
  0.0008512885100168  0.1225155515094362  0.6199077978986191   T   T   T
  0.8333332538436267  0.6249999999803961  0.4070133268666680   F   F   F
  0.6669286735457134  0.2482145597259410  0.5026011564818016   T   T   T
  0.3300850718562290  0.2480415662892989  0.5028771473740796   T   T   T
  0.3331434075087694  0.0010630260551336  0.5057222086942115   T   T   T
  0.3338806667029572  0.7511618015239897  0.5014795724037671   T   T   T
  0.1660110257866016  0.0011821230880910  0.5065514272054960   T   T   T
  0.6653506454108599  0.7518944808410530  0.5021848877252546   T   T   T
  0.6660209410937045 -0.0000480859655510  0.5056071056987879   T   T   T
  0.3311588105580323  0.4992187967525004  0.5009617577126206   T   T   T
  0.5010586695946978  0.4997419349818025  0.5003037725024246   T   T   T
  0.8357306247164894  0.2485054966500183  0.5028324372353741   T   T   T
  0.6666666865533486  0.6249999999803961  0.4070133268666680   F   F   F
  0.1664052937655371  0.2481794311515020  0.5063301787430402   T   T   T
  0.0000000000000000  0.8749999404036828  0.4070133268666680   F   F   F
  0.5009495709845507  0.2480043643870278  0.5021478190202343   T   T   T
  0.9998390694073976  0.7511561638639018  0.5067540204735516   T   T   T
  0.0010145972832142  0.2498186900917156  0.5061030982760674   T   T   T
  0.0000481221402759  0.0000135966139141  0.5067140554774501   T   T   T
  0.8333332538436267  0.8749999404036828  0.4070133268666680   F   F   F
  0.0000000000000000  0.6249999999803961  0.4070133268666680   F   F   F
  0.3333333432766779  0.6249999999803961  0.4070133268666680   F   F   F
  0.3333333432766779  0.1249999999871179  0.4070133268666680   F   F   F
  0.3333333432766779  0.3750000000061604  0.4070133268666680   F   F   F
  0.8340832985657234  0.0001940111508512  0.5065525915991191   T   T   T
  0.3333333432766779  0.8749999404036828  0.4070133268666680   F   F   F
  0.6666666865533486  0.1249999999871179  0.4070133268666680   F   F   F
  0.6666666865533486  0.3750000000061604  0.4070133268666680   F   F   F
  0.8361374271660852  0.5000080984429894  0.5027688572082558   T   T   T
  0.1634761508175978  0.4998641440117212  0.5019543818319083   T   T   T
  0.6685182853416830  0.4998191430335363  0.5006390005711694   T   T   T
  0.6666666865533486  0.8749999404036828  0.4070133268666680   F   F   F
  0.3258432410448295  0.3734380461354828  0.5928251067951630   T   T   T
  0.0000000000000000  0.3750000000061604  0.4070133268666680   F   F   F
  0.3340671218261962  0.6245904809439924  0.5950657695334806   T   T   T
  0.5000000000021103  0.8749999404036828  0.4070133268666680   F   F   F
  0.8333332538436267  0.1249999999871179  0.4070133268666680   F   F   F
  0.8333332538436267  0.3750000000061604  0.4070133268666680   F   F   F
  0.5000000000021103  0.6249999999803961  0.4070133268666680   F   F   F
  0.8361002340456378  0.7517394116668503  0.5026490378376760   T   T   T
  0.8394315816687096  0.6270621333641277  0.6039607653452062   T   T   T
  0.3315464580600920  0.1196953537423430  0.6128401193783677   T   T   T
  0.9989717581163414  0.8747844660716589  0.6238486953282893   T   T   T
  0.5000000000021103  0.1249999999871179  0.4070133268666680   F   F   F
  0.8316968226281072  0.8765585110579183  0.6182357935134497   T   T   T
  0.5002460942766496  0.9992815148487778  0.5054725758121567   T   T   T
  0.8376504230573809  0.3723828572040277  0.6036079891212963   T   T   T
  0.5009128545334011  0.8769421164451147  0.6094582062450438   T   T   T
  0.6654312844454024  0.1248264506178567  0.6094669094575332   T   T   T
  0.1666666716383389  0.1249999999871179  0.4070133268666680   F   F   F
  0.5036584332350329  0.6250053279389779  0.5941126659927334   T   T   T
  0.1666666716383389  0.8749999404036828  0.4070133268666680   F   F   F
  0.1666666716383389  0.6249999999803961  0.4070133268666680   F   F   F
  0.5000000000021103  0.3750000000061604  0.4070133268666680   F   F   F
  0.6709086682374824  0.3725666455329029  0.5930093263839527   T   T   T
  0.3345930741061670  0.8788187189588200  0.6027850545233685   T   T   T
  0.1595320106985857  0.6273872073723660  0.6014134146117995   T   T   T
  0.5012357489919593  0.3717765742383594  0.5948302472129425   T   T   T
  0.5002430833848063  0.1226231655520936  0.6066593838444858   T   T   T
  0.1664014386092534  0.8736281232665227  0.6181487345911610   T   T   T
  0.1633315929292914  0.3711005353357817  0.6076034096552522   T   T   T
  0.6654453262156859  0.8814524890594647  0.6072916693931036   T   T   T
  0.6664875471447381  0.6260739215522551  0.5933836307594196   T   T   T
  0.0002944557239529  0.3749513380475455  0.6252386201990102   T   T   T
  0.9996894562112194  0.6231138003279170  0.6246563437586191   T   T   T
  0.8345644604372622  0.1242876813808871  0.6146105161434634   T   T   T
  0.0000000000000000  0.1249999999871179  0.4070133268666680   F   F   F
  0.1678391147902083  0.1227733154301378  0.6221903476170103   T   T   T
  0.5902146264092363  0.5014380539903726  0.5935000599321830   T   T   T
  0.7496580553584079  0.0024002598957521  0.6049532567137638   T   T   T
  0.5825508917414093  0.0013129668040138  0.6041425946129934   T   T   T
  0.9165301724055257  0.9998877369259508  0.6038211481893752   T   T   T
  0.5847679883116079  0.7498612353266552  0.5997461284887314   T   T   T
  0.2422558533053523  0.4979435785285332  0.5939837095717299   T   T   T
  0.4148364206780332  0.2483130344683545  0.5912863881190727   T   T   T
  0.5842060105251745  0.2479145981600945  0.5969276936323259   T   T   T
  0.2496127708077565  0.9977030090173145  0.6041884220098058   T   T   T
  0.7540030643474032  0.2482925764146678  0.5930876793980041   T   T   T
  0.2494362212092316  0.2457821588998951  0.6038921922310020   T   T   T
  0.4171427099256919  0.0000838754632695  0.6046639483721109   T   T   T
  0.0839551450434388  0.2477721028680147  0.6039578616472536   T   T   T
  0.2496652080574432  0.7529417803346901  0.5919579396247503   T   T   T
  0.0814700664307281  0.4995873271026009  0.6030044611485663   T   T   T
  0.0809730637017846  0.6259176333134502  0.5054387097807327   T   T   T