Au  O Sr Ti  H                          
   1.00000000000000     
    23.6707801818999997    0.0000000000000000    0.0000000000000000
     0.0000000000000000   22.3170261383000010    0.0000000000000000
     0.0000000000000000    0.0000000000000000   30.0000000000000000
   Au   O    Sr   Ti   H 
    50   264    72    72     1
Selective dynamics
Direct
  0.7167054914155369  0.5257554263006439  0.7537363066393293   T   T   T
  0.6226835662135138  0.5690108706323977  0.7043644735378550   T   T   T
  0.7186657136683058  0.2593934220022505  0.6916160253237978   T   T   T
  0.2951011709258743  0.7462231207730836  0.6966886762454814   T   T   T
  0.5117996833639714  0.6035860070678979  0.7767717172480516   T   T   T
  0.5775531145308127  0.7248370018529398  0.7933989610125052   T   T   T
  0.5497808932848017  0.3838698782085127  0.8289077226197661   T   T   T
  0.2406229167149319  0.4687134363253680  0.7091312154841380   T   T   T
  0.2851095888856620  0.6620076253962324  0.7646667171371763   T   T   T
  0.6026491857351729  0.2885869176044148  0.7868772855151352   T   T   T
  0.5142331418013382  0.4840380875871307  0.6781088953321042   T   T   T
  0.5623704436319740  0.4858889785271313  0.7626574285245453   T   T   T
  0.4635028925799007  0.6951918006996722  0.8305114397019890   T   T   T
  0.7647763781794160  0.4321667674367980  0.7056611114468001   T   T   T
  0.7329447325937133  0.6153823313965173  0.6939583244977150   T   T   T
  0.6347627614620756  0.5839201959383732  0.8002126004145037   T   T   T
  0.5953755202970009  0.7844490563927429  0.7130034752048704   T   T   T
  0.4851720674397499  0.7786439336688709  0.7568779867678316   T   T   T
  0.3493734032043180  0.4997036720558357  0.6974385344284826   T   T   T
  0.4304912657395235  0.3720320425678925  0.8150314652100429   T   T   T
  0.3724821906271708  0.2987897655644577  0.7552024181980489   T   T   T
  0.4415808092977129  0.2282465161643070  0.6969796031393521   T   T   T
  0.3921264742801922  0.8179081352305763  0.7066798346547044   T   T   T
  0.2898523353774661  0.5374097180542019  0.7774322264428850   T   T   T
  0.5564860469053174  0.2097675217585464  0.7115663678222142   T   T   T
  0.4524784038744674  0.5800615582318613  0.7024588975937250   T   T   T
  0.6141441502870220  0.3208273827093663  0.6971561821946949   T   T   T
  0.7058301417999685  0.7572291021930859  0.6885037229315015   T   T   T
  0.6558575208366449  0.4412865621639578  0.8127786477806702   T   T   T
  0.3683192683522910  0.6188485241883013  0.8202586917551130   T   T   T
  0.5699352934572720  0.5098198158635746  0.8568422937648054   T   T   T
  0.6653042469072840  0.1934935498010285  0.7520171345886264   T   T   T
  0.4714658975961079  0.4500567599940096  0.8792384907361783   T   T   T
  0.5158688441727842  0.3774267028854527  0.7337983203993524   T   T   T
  0.2832085991564730  0.3378938781781379  0.7025342188126681   T   T   T
  0.6692478220051199  0.6810731327260612  0.7489306806513581   T   T   T
  0.3976900998491924  0.3820227826532512  0.6900242604991655   T   T   T
  0.3752460936098875  0.4925281305987638  0.8333161943280423   T   T   T
  0.4623515150859960  0.5729473310178934  0.8640446101069257   T   T   T
  0.3260261249156721  0.4142157082047127  0.7691088956312989   T   T   T
  0.4873238121157950  0.2686604288721867  0.7752568829184059   T   T   T
  0.4205974411072480  0.6975729391682346  0.6994796754534117   T   T   T
  0.6999897898550201  0.3470816662399189  0.7560750953007496   T   T   T
  0.7738359995378516  0.4300960436321262  0.7961116474255076   T   T   T
  0.2568608941108915  0.5923469338087485  0.6946814000868727   T   T   T
  0.6476992412739272  0.4433072908695580  0.6966565582752680   T   T   T
  0.5643500394708084  0.6392826265383201  0.8610864521963505   T   T   T
  0.5424279355941278  0.6661367176892766  0.7013569952161449   T   T   T
  0.4430841097365578  0.4751645109230326  0.7564379323710907   T   T   T
  0.3742167483288116  0.7392325534163965  0.7785719591322668   T   T   T
  0.2499127322059128  0.1886004154189171  0.4542005469332628   T   T   T
  0.7495062180636785  0.9386603338327157  0.4553850283192793   T   T   T
  0.7490411042012913  0.6887066432722277  0.4572536577527095   T   T   T
  0.7493101443381723  0.4384769520550413  0.4557346592064162   T   T   T
  0.7503207027608388  0.1901256193361317  0.4558885360515390   T   T   T
  0.4171941778169291  0.9358396572112336  0.4540184764011076   T   T   T
  0.4170138533469285  0.6847992954030987  0.4547695144985917   T   T   T
  0.4164512554451031  0.4354304694930672  0.4538106534796228   T   T   T
  0.0845225361554354  0.6867981403213373  0.4530008278930470   T   T   T
  0.0837289455619959  0.9366428183189418  0.4534066066727905   T   T   T
  0.0828327985357715  0.4368129144223830  0.4528585822600187   T   T   T
  0.0837216187527919  0.1865174361849632  0.4529823352353368   T   T   T
  0.9166456496344797  0.8123039673055633  0.4542659117722255   T   T   T
  0.9162326117066609  0.5624413596287169  0.4538279732630985   T   T   T
  0.2511777048444768  0.4392660279918772  0.4549223416083931   T   T   T
  0.9163231394267239  0.0613021931205814  0.4548788571086110   T   T   T
  0.9162045204302847  0.3120843256638328  0.4539874007618029   T   T   T
  0.4171414740308588  0.1871336243248018  0.4535456884789693   T   T   T
  0.2521799512642551  0.6876198853976102  0.4561242281397039   T   T   T
  0.9171582213460395  0.9363742101468907  0.4528087157618013   T   T   T
  0.5827767221002506  0.1896454897678384  0.4552512863235119   T   T   T
 -0.0001303784138156  0.1248708777857218  0.4988690898581460   T   T   T
  0.5831358911789900  0.8103883122057468  0.4554047805755582   T   T   T
  0.9999669050758468  0.3737252919570632  0.4981847749453255   T   T   T
 -0.0000347131709992  0.6270828108293499  0.4978627801398752   T   T   T
  0.3335624273765148  0.1255879650448588  0.4985080266099798   T   T   T
  0.0000414357356056  0.8748157813922178  0.4995139918187859   T   T   T
  0.3334846433961711  0.8740060984928497  0.4993061930555472   T   T   T
  0.6662165440646908  0.1258133856589335  0.4993255259338001   T   T   T
  0.3356397424895966  0.6255590513804267  0.5039721666571280   T   T   T
  0.3343097658438292  0.3784569755430677  0.5029730643894645   T   T   T
  0.6653927356375140  0.3785560973824170  0.5030863650390696   T   T   T
  0.9155261803704481  0.6869355734156326  0.4532248685462181   T   T   T
  0.9157476756446856  0.4369725789815170  0.4536518701068565   T   T   T
  0.9161024557474365  0.1865174800036362  0.4528479048303598   T   T   T
  0.5827371309468918  0.9370727458581434  0.4542630188862926   T   T   T
  0.5827875423164086  0.6860770291997972  0.4545396333871616   T   T   T
  0.5826889473374414  0.4393166609020328  0.4561035831056744   T   T   T
  0.2500549067992640  0.9360584282700628  0.4541104661107515   T   T   T
  0.6654224269365626  0.6260931145964155  0.5029477519841034   T   T   T
  0.5845938928241574  0.5626412298730260  0.4549779719005136   T   T   T
  0.5831579513434200  0.0633506459848075  0.4541156375250463   T   T   T
  0.9166666865332829  0.6874999999963620  0.3605200052333331   F   F   F
  0.9166666865332829  0.4374999701794380  0.3605200052333331   F   F   F
  0.9166666865332829  0.1875000000030838  0.3605200052333331   F   F   F
  0.5833333134730552  0.9375000000154046  0.3605200052333331   F   F   F
  0.5833333134730552  0.6874999999963620  0.3605200052333331   F   F   F
  0.5833333134730552  0.4374999701794380  0.3605200052333331   F   F   F
  0.5833333134730552  0.1875000000030838  0.3605200052333331   F   F   F
  0.2499999999799343  0.9375000000154046  0.3605200052333331   F   F   F
  0.9166666865332829  0.9375000000154046  0.3605200052333331   F   F   F
  0.2499999999799343  0.6874999999963620  0.3605200052333331   F   F   F
  0.2499999999799343  0.1875000000030838  0.3605200052333331   F   F   F
  0.7499999404149307  0.9375000000154046  0.3605200052333331   F   F   F
  0.7499999404149307  0.6874999999963620  0.3605200052333331   F   F   F
  0.7499999404149307  0.4374999701794380  0.3605200052333331   F   F   F
  0.7499999404149307  0.1875000000030838  0.3605200052333331   F   F   F
  0.4166666269218169  0.9375000000154046  0.3605200052333331   F   F   F
  0.4166666269218169  0.6874999999963620  0.3605200052333331   F   F   F
  0.4166666269218169  0.4374999701794380  0.3605200052333331   F   F   F
  0.2499999999799343  0.4374999701794380  0.3605200052333331   F   F   F
  0.0833333358191695  0.0625000000159659  0.3605200052333331   F   F   F
  0.0833333358191695  0.3124999999901945  0.3605200052333331   F   F   F
  0.0833333358191695  0.5625000000092442  0.3605200052333331   F   F   F
  0.9166666865332829  0.3124999999901945  0.3605200052333331   F   F   F
  0.9166666865332829  0.0625000000159659  0.3605200052333331   F   F   F
  0.5833333134730552  0.8124999999834799  0.3605200052333331   F   F   F
  0.5833333134730552  0.5625000000092442  0.3605200052333331   F   F   F
  0.5833333134730552  0.3124999999901945  0.3605200052333331   F   F   F
  0.5833333134730552  0.0625000000159659  0.3605200052333331   F   F   F
  0.2499999999799343  0.8124999999834799  0.3605200052333331   F   F   F
  0.2499999999799343  0.5625000000092442  0.3605200052333331   F   F   F
  0.2499999999799343  0.3124999999901945  0.3605200052333331   F   F   F
  0.2499999999799343  0.0625000000159659  0.3605200052333331   F   F   F
  0.7499999404149307  0.8124999999834799  0.3605200052333331   F   F   F
  0.7499999404149307  0.5625000000092442  0.3605200052333331   F   F   F
  0.7499999404149307  0.3124999999901945  0.3605200052333331   F   F   F
  0.7499999404149307  0.0625000000159659  0.3605200052333331   F   F   F
  0.4166666269218169  0.8124999999834799  0.3605200052333331   F   F   F
  0.4166666269218169  0.5625000000092442  0.3605200052333331   F   F   F
  0.4166666269218169  0.3124999999901945  0.3605200052333331   F   F   F
  0.4166666269218169  0.0625000000159659  0.3605200052333331   F   F   F
  0.0833333358191695  0.8124999999834799  0.3605200052333331   F   F   F
  0.4166666269218169  0.1875000000030838  0.3605200052333331   F   F   F
  0.0833333358191695  0.9375000000154046  0.3605200052333331   F   F   F
  0.0833333358191695  0.6874999999963620  0.3605200052333331   F   F   F
  0.0833333358191695  0.4374999701794380  0.3605200052333331   F   F   F
  0.8333332538436267  0.4999999999932783  0.4070133268666680   F   F   F
  0.8333332538436267  0.7500000000123208  0.4070133268666680   F   F   F
  0.0836316170342397  0.0618444258155987  0.4542380304523091   T   T   T
  0.0834170451889850  0.3120379358323094  0.4539704399619010   T   T   T
  0.0839484410485788  0.5624816789031726  0.4538864560823958   T   T   T
  0.0835042594330021  0.8119984226571011  0.4542666808764236   T   T   T
  0.4168773936878107  0.0615817481112592  0.4553291494752559   T   T   T
  0.4154662506065290  0.3113622603895632  0.4573593663475243   T   T   T
  0.4160520206143744  0.5595222702253947  0.4578623290132370   T   T   T
  0.4167720603074943  0.8101109049127961  0.4550898692349609   T   T   T
  0.7498033547660825  0.0647098059535885  0.4529467795534819   T   T   T
  0.7474868576553659  0.3142149755322791  0.4545019150813594   T   T   T
  0.7481123480892332  0.5642889614263051  0.4536875761445337   T   T   T
  0.7494098298317315  0.8132217568810471  0.4530475446859636   T   T   T
  0.2504832812316745  0.0620165243259289  0.4542311111901068   T   T   T
  0.9154210194889537  0.3134706233669629  0.5467035646487106   T   T   T
  0.2522551898397318  0.3141623757938692  0.4541599441798541   T   T   T
  0.2518998240227739  0.5646479453898454  0.4536854581180488   T   T   T
  0.2505374791547623  0.8108031312961074  0.4553487711297237   T   T   T
  0.8333332538436267  0.2500000000190425  0.4070133268666680   F   F   F
  0.5842270435041631  0.3150150429874450  0.4538693093099082   T   T   T
  0.8333332538436267  0.0000000000000000  0.4070133268666680   F   F   F
  0.5000000000021103  0.4999999999932783  0.4070133268666680   F   F   F
  0.0833333358191695  0.1875000000030838  0.3605200052333331   F   F   F
  0.0000000000000000  0.0000000000000000  0.4070133268666680   F   F   F
  0.0000000000000000  0.2500000000190425  0.4070133268666680   F   F   F
  0.0000000000000000  0.4999999999932783  0.4070133268666680   F   F   F
  0.0000000000000000  0.7500000000123208  0.4070133268666680   F   F   F
  0.3333333432766779  0.0000000000000000  0.4070133268666680   F   F   F
  0.3333333432766779  0.2500000000190425  0.4070133268666680   F   F   F
  0.3333333432766779  0.4999999999932783  0.4070133268666680   F   F   F
  0.3333333432766779  0.7500000000123208  0.4070133268666680   F   F   F
  0.6666666865533486  0.0000000000000000  0.4070133268666680   F   F   F
  0.6666666865533486  0.2500000000190425  0.4070133268666680   F   F   F
  0.6666666865533486  0.4999999999932783  0.4070133268666680   F   F   F
  0.6666666865533486  0.7500000000123208  0.4070133268666680   F   F   F
  0.1666666716383389  0.0000000000000000  0.4070133268666680   F   F   F
  0.1666666716383389  0.2500000000190425  0.4070133268666680   F   F   F
  0.1666666716383389  0.4999999999932783  0.4070133268666680   F   F   F
  0.1666666716383389  0.7500000000123208  0.4070133268666680   F   F   F
  0.5000000000021103  0.0000000000000000  0.4070133268666680   F   F   F
  0.5000000000021103  0.2500000000190425  0.4070133268666680   F   F   F
  0.5000000000021103  0.7500000000123208  0.4070133268666680   F   F   F
  0.1670590295269104  0.1243256638760784  0.4993115619599254   T   T   T
  0.9170845407188299  0.0669365914602330  0.5500594757867773   T   T   T
  0.1677798394286305  0.8732133036250063  0.4998230955552295   T   T   T
  0.2518702415390820  0.1882632720188618  0.5471528715842001   T   T   T
  0.7488703168450969  0.9339042725214516  0.5476155995682385   T   T   T
  0.7519939666548640  0.6804849555533021  0.5531232285489018   T   T   T
  0.7519853850701199  0.4351389390584744  0.5491865949389553   T   T   T
  0.4231492355522642  0.4439667841551926  0.5454902472885449   T   T   T
  0.4232883557467021  0.6879711347598698  0.5466623089684534   T   T   T
  0.7486367346207042  0.1832403662604572  0.5510968985267624   T   T   T
  0.4159380701504835  0.9371023632721766  0.5461049455444978   T   T   T
  0.0839291374997966  0.9390336881522952  0.5454151462487684   T   T   T
  0.4156271427465177  0.1914106812464741  0.5464771166360325   T   T   T
  0.0867109091264836  0.6898058290054417  0.5450533983989867   T   T   T
  0.0822595889801418  0.4388727797422337  0.5448647304583417   T   T   T
  0.0830929195225024  0.1887805427631052  0.5453450302010571   T   T   T
  0.4994522996080147  0.1255357132289633  0.4996127821111899   T   T   T
  0.9995304080460455  0.5014248915328523  0.5943512611188692   T   T   T
  0.9995370332506072  0.7533719803186290  0.5923470026917641   T   T   T
  0.3346110152331266  0.2544009807766194  0.5927136567188739   T   T   T
  0.3339457064287744  0.9997233125304725  0.5921377945501025   T   T   T
  0.9988993816440879  0.9985201913427358  0.5920161039941606   T   T   T
  0.0006962459991609  0.2504869662068163  0.5911543436836666   T   T   T
  0.3332480641292543  0.4964414112091112  0.5908306065215317   T   T   T
  0.3357574206515964  0.7405730669215687  0.5904593148414077   T   T   T
  0.6633699673561289  0.2477102630454476  0.5905108748374034   T   T   T
  0.6668155951942387  0.0020865770386301  0.5921704762376172   T   T   T
  0.6658989410035420  0.7417223637507399  0.5901389484364570   T   T   T
  0.6668273601619435  0.4942672035519518  0.5912574346934882   T   T   T
  0.1670564724647489  0.9987271800848699  0.5925756395431144   T   T   T
  0.1682680337163404  0.2491954575174946  0.5929943844035237   T   T   T
  0.1707816640921145  0.7500119553360551  0.5950477543633474   T   T   T
  0.2483657006326022  0.4358238584019982  0.5491025625205531   T   T   T
  0.1655266796841522  0.5026598224650493  0.5874238137780132   T   T   T
  0.2490872377528931  0.6831231660268374  0.5520271020432458   T   T   T
  0.5807268459437034  0.1857947206761045  0.5493553988420556   T   T   T
  0.9153629341098171  0.8136170796666597  0.5472021824511990   T   T   T
  0.9168477735249724  0.5638811128275374  0.5467017245308914   T   T   T
  0.5812012714986554  0.5602810483460218  0.5491652081747698   T   T   T
  0.5862088677389637  0.8148036032355129  0.5505211032876663   T   T   T
  0.5827598479736806  0.3115960434627504  0.5452659096925163   T   T   T
  0.5828135445153815  0.0624919621510980  0.5460574169828284   T   T   T
  0.2532399625893740  0.8124984226327966  0.5507903592176387   T   T   T
  0.2523273551187195  0.5589583114288010  0.5438368598733363   T   T   T
  0.2494669716332256  0.3136876649502282  0.5459429797459562   T   T   T
  0.2510724488620746  0.0624604552264478  0.5472932260725798   T   T   T
  0.7482819017870367  0.8081861869203613  0.5456050009845443   T   T   T
  0.7465118293436994  0.5580250380515746  0.5444661902578344   T   T   T
  0.4144566490292215  0.8117067071379556  0.5478909605917848   T   T   T
  0.7504740069192191  0.0594278356704789  0.5438232410131638   T   T   T
  0.7477339499879188  0.3114171083101418  0.5477491465632111   T   T   T
  0.4159587136893160  0.3197208651098908  0.5525795663004206   T   T   T
  0.4201667428731693  0.5650692598673747  0.5553544963997387   T   T   T
  0.4164157953916575  0.0652524182823349  0.5473087679105670   T   T   T
  0.0847941835666924  0.8131380539026197  0.5475046984132775   T   T   T
  0.0827798587759052  0.5643791655969815  0.5462492062000182   T   T   T
  0.0862460915946285  0.3135595874251788  0.5469109271525264   T   T   T
  0.0822038366193424  0.0633505660895060  0.5475371144295833   T   T   T
  0.9164303627095194  0.9400604989199006  0.5451306265099489   T   T   T
  0.9132641711301011  0.6894516194988497  0.5450032270339226   T   T   T
  0.5840899241935166  0.9380839453269212  0.5460410899274024   T   T   T
  0.9163781632618494  0.1906070225307076  0.5446366705945536   T   T   T
  0.9159743371491403  0.4379446653786018  0.5458206940408886   T   T   T
  0.5766306367714816  0.4361699708418001  0.5517633611715248   T   T   T
  0.5795412860469542  0.6864704884659850  0.5471440828513443   T   T   T
  0.2514773055220633  0.9373005153084962  0.5453197623741410   T   T   T
  0.4975017854754451  0.5044334146156454  0.6089948500338289   T   T   T
  0.4985491837095714  0.2528942384951639  0.5902438780303869   T   T   T
  0.4997722449821940  0.0001145878300680  0.5910992490142765   T   T   T
  0.7538827551942865  0.6929547917537890  0.6575224312426873   T   T   T
  0.7491381595284236  0.9371674377532513  0.6401886180969492   T   T   T
  0.2529897215394275  0.1864446953523241  0.6411071581587707   T   T   T
  0.7456621690027168  0.1948967050298006  0.6466482254362789   T   T   T
  0.7559913694965951  0.4365244674331483  0.6390861534769900   T   T   T
  0.4175319198166348  0.9349040900229297  0.6398003494631886   T   T   T
  0.4213423038244263  0.6761964218856020  0.6335804383133058   T   T   T
  0.5910631795625891  0.8101791708784053  0.6460975419901126   T   T   T
  0.9167304929471967  0.0614218888166313  0.6447832719516425   T   T   T
  0.9123052920887257  0.5617501624837982  0.6422311896006676   T   T   T
  0.9148532311646559  0.3128515943177890  0.6392058817626481   T   T   T
  0.9142828638847199  0.8117401121209126  0.6424773508959668   T   T   T
  0.5823042808809373  0.0660618776717239  0.6396638674613014   T   T   T
  0.5829810815333439  0.3200443348348171  0.6339228577306084   T   T   T
  0.5913775180595219  0.5648115973498610  0.6395104158640533   T   T   T
  0.2472914021185926  0.5735926409776463  0.6287746256964024   T   T   T
  0.2622089419534083  0.7989246171750221  0.6464534564559226   T   T   T
  0.2491852256281535  0.3163137240253523  0.6413628233281627   T   T   T
  0.2509756119415985  0.0593814088559213  0.6423797547696539   T   T   T
  0.9166666865332829  0.5625000000092442  0.3605200052333331   F   F   F
  0.4994855865980853  0.3742094143374451  0.4997255679383537   T   T   T
  0.5000220198948012  0.8734660265918958  0.5009203767290928   T   T   T
  0.5003587669266916  0.6210977882031458  0.5000117868855817   T   T   T
  0.8323081883681877  0.6230931897959024  0.4998555810855797   T   T   T
  0.8327954216271313  0.8746647369686236  0.4985432266460417   T   T   T
  0.8323928688500660  0.3732536410273681  0.4997148738923994   T   T   T
  0.8331246490277321  0.1253994479235647  0.4998793013037383   T   T   T
  0.1667092786731710  0.3762577363824559  0.4978393776054800   T   T   T
  0.1678286114528800  0.6243287658023433  0.4999445066454111   T   T   T
  0.5813694945181995  0.4389512517587315  0.6460454976300699   T   T   T
  0.5798622916057963  0.6852376262957185  0.6390445557914702   T   T   T
  0.9168316548284073  0.1860229277543728  0.6386069463186117   T   T   T
  0.5824788643673254  0.9360228477562399  0.6390453381801298   T   T   T
  0.8303195763650516  0.7512337087167315  0.5930389551453412   T   T   T
  0.8313945828614165  0.2487945057347375  0.5909652154520713   T   T   T
  0.8330450989083480  0.5037669894523146  0.5888826800337281   T   T   T
  0.8339343526677956  0.0001860417261625  0.5918006626944080   T   T   T
  0.5012875486061620  0.7565079502236161  0.5930094608558650   T   T   T
  0.4176807420054938  0.0651677959162902  0.6400188759327687   T   T   T
  0.4271921370514636  0.3050627553493193  0.6550498035079205   T   T   T
  0.4123662025337253  0.8128677488617198  0.6394374584132477   T   T   T
  0.3972126379010329  0.5507748341632274  0.6518240294172701   T   T   T
  0.7519178508838950  0.5711169776857277  0.6343116940985710   T   T   T
  0.7410390458675609  0.8099314143571386  0.6399990766995592   T   T   T
  0.7464639303573879  0.3129129436528764  0.6400607459457233   T   T   T
  0.7514475949253587  0.0679748012064299  0.6377248944914528   T   T   T
  0.0837041898549158  0.3117357046129563  0.6405226347966015   T   T   T
  0.6665199152305897  0.8742914455785320  0.4986368572901582   T   T   T
  0.0875018593951954  0.5620439616094740  0.6413154027003962   T   T   T
  0.0818761711729987  0.0610451863348230  0.6409413229629557   T   T   T
  0.0862833916710202  0.4365945865769381  0.6390599618484925   T   T   T
  0.0827131036957059  0.1851749091305604  0.6399312663430025   T   T   T
  0.4184555065318331  0.1879344481996855  0.6397644931394807   T   T   T
  0.4149632377051793  0.4191076047406764  0.6297736488925153   T   T   T
  0.0833656512867863  0.9353717346320254  0.6404044622609107   T   T   T
  0.0831174527074040  0.6868218782394774  0.6392886099696364   T   T   T
  0.9126237867253159  0.4365067280271683  0.6393706949168481   T   T   T
  0.9160097072736011  0.6868249916761170  0.6392863338218563   T   T   T
  0.9154286434719565  0.9362872494430626  0.6402452432817765   T   T   T
  0.2405956097038672  0.4419626562317873  0.6415844553511638   T   T   T
  0.2562746831886430  0.6768308660536321  0.6631778353773871   T   T   T
  0.5787616065399809  0.1909393233273387  0.6441956937839394   T   T   T
  0.2517161000890831  0.9301074276012609  0.6373935374170352   T   T   T
  0.0844537721901542  0.8117166430116358  0.6420555021720762   T   T   T
  0.9166666865332829  0.8124999999834799  0.3605200052333331   F   F   F
  0.0003125729370811  0.1231432210186931  0.6127328401943050   T   T   T
  0.8333332538436267  0.6249999999803961  0.4070133268666680   F   F   F
  0.9997576873559015  0.5009822081365209  0.5068425306628970   T   T   T
  0.3311927563063727  0.4992382190725930  0.5009457273993525   T   T   T
  0.3300088661490117  0.2480522342048250  0.5028012591092829   T   T   T
  0.3330743658296271  0.0010672214898206  0.5057963681422823   T   T   T
  0.3338813237121992  0.7510958599633142  0.5015309888882264   T   T   T
  0.6661965482181518  0.0003412848726863  0.5057608482100361   T   T   T
  0.6684903402962923  0.4997518663695751  0.5008151775529656   T   T   T
  0.6669025088866758  0.2478968502042103  0.5030244816556528   T   T   T
  0.6653547693532813  0.7519548379025729  0.5021539761938755   T   T   T
  0.1660492832641493  0.0011112157967676  0.5066296239570692   T   T   T
  0.1662855641233553  0.2482250419893628  0.5061878404718760   T   T   T
  0.1635907921605930  0.4998822715406914  0.5020313106246576   T   T   T
  0.5002780920124051  0.9993640496871470  0.5055160256426017   T   T   T
  0.1645074286985404  0.7515905412776501  0.5032782951249114   T   T   T
  0.5010479271468162  0.7528931116867046  0.5039582648959947   T   T   T
  0.8343481687943122  0.0000087288088458  0.5057550382811561   T   T   T
  0.5012813620921145  0.4998948051710507  0.5003081876793199   T   T   T
  0.5010315608220304  0.2479373511816553  0.5019484234193874   T   T   T
  0.8351800748218953  0.2492186349399542  0.5029243232802225   T   T   T
  0.0000066177022323  0.7506757080544076  0.5066657739627198   T   T   T
  0.0006988019539052  0.2502355273092514  0.5053935286734027   T   T   T
  0.0001520719628751  0.9998333968108636  0.5056790640368132   T   T   T
  0.8333332538436267  0.8749999404036828  0.4070133268666680   F   F   F
  0.0000000000000000  0.6249999999803961  0.4070133268666680   F   F   F
  0.0000000000000000  0.8749999404036828  0.4070133268666680   F   F   F
  0.3333333432766779  0.1249999999871179  0.4070133268666680   F   F   F
  0.3333333432766779  0.3750000000061604  0.4070133268666680   F   F   F
  0.3333333432766779  0.6249999999803961  0.4070133268666680   F   F   F
  0.3333333432766779  0.8749999404036828  0.4070133268666680   F   F   F
  0.6666666865533486  0.1249999999871179  0.4070133268666680   F   F   F
  0.6666666865533486  0.3750000000061604  0.4070133268666680   F   F   F
  0.6666666865533486  0.6249999999803961  0.4070133268666680   F   F   F
  0.8358325497960239  0.5000752489990415  0.5028564872624871   T   T   T
  0.6666666865533486  0.8749999404036828  0.4070133268666680   F   F   F
  0.1666666716383389  0.3750000000061604  0.4070133268666680   F   F   F
  0.1666666716383389  0.6249999999803961  0.4070133268666680   F   F   F
  0.1666666716383389  0.8749999404036828  0.4070133268666680   F   F   F
  0.5000000000021103  0.1249999999871179  0.4070133268666680   F   F   F
  0.5000000000021103  0.3750000000061604  0.4070133268666680   F   F   F
  0.5000000000021103  0.6249999999803961  0.4070133268666680   F   F   F
  0.5000000000021103  0.8749999404036828  0.4070133268666680   F   F   F
  0.8333332538436267  0.1249999999871179  0.4070133268666680   F   F   F
  0.8333332538436267  0.3750000000061604  0.4070133268666680   F   F   F
  0.1666666716383389  0.1249999999871179  0.4070133268666680   F   F   F
  0.0000000000000000  0.3750000000061604  0.4070133268666680   F   F   F
  0.8356609797216316  0.7517127251572805  0.5026987228616450   T   T   T
  0.8365686350468602  0.3728537888360616  0.6041317668205720   T   T   T
  0.8318236305480138  0.8741798788050196  0.6194032101422497   T   T   T
  0.8394770116546301  0.6270436659874875  0.6030794482105178   T   T   T
  0.9995549379499280  0.8728606001097079  0.6216284577583343   T   T   T
  0.3314441071207780  0.1198985811080018  0.6134349938725150   T   T   T
  0.3341637772097371  0.6242928112200022  0.5954756255086844   T   T   T
  0.3258337512252643  0.3735913298653092  0.5928040978993533   T   T   T
  0.6707915182428332  0.3722266309633485  0.5940612037121747   T   T   T
  0.6663534259530729  0.1243497775965821  0.6126759740735870   T   T   T
  0.3343044666006796  0.8787555469295015  0.6029432233132862   T   T   T
  0.1592695703931271  0.6271471093245667  0.6013507182923957   T   T   T
  0.1657612255339942  0.8734641061919550  0.6178756343197616   T   T   T
  0.5016387619860793  0.3715188622625779  0.5949766298837061   T   T   T
  0.5002399574343465  0.1220270235471462  0.6062633663275807   T   T   T
  0.1670979420241516  0.1222044270552205  0.6223194921501249   T   T   T
  0.1632242047752021  0.3715417585721044  0.6078740107140159   T   T   T
  0.6656259766661093  0.8814352441113534  0.6071959444614234   T   T   T
  0.6661124241540608  0.6264907709914076  0.5935348393760365   T   T   T
  0.0000095432996429  0.3747052683310892  0.6221279554497594   T   T   T
  0.9997801029078758  0.6218111804938191  0.6356061194399404   T   T   T
  0.8356334092537466  0.1240637560875828  0.6110456856229285   T   T   T
  0.5008863303556623  0.8770209765096860  0.6094661371954487   T   T   T
  0.0000000000000000  0.1249999999871179  0.4070133268666680   F   F   F
  0.5039093177433781  0.6250510559880270  0.5939266536162847   T   T   T
  0.9168854086567428  0.9938765271264883  0.6008554452926695   T   T   T
  0.5844415526482036  0.7501016694239956  0.5997448357452067   T   T   T
  0.5905390324351110  0.5012544424449379  0.5938064784484228   T   T   T
  0.2424240611113604  0.4979130252029782  0.5940080955772395   T   T   T
  0.2492603031570018  0.7526413482227928  0.5920284676073267   T   T   T
  0.5840135868900189  0.2473787038017624  0.5969441528417075   T   T   T
  0.5831202659797735  0.0015432691989175  0.6041676616758325   T   T   T
  0.2493173629375418  0.9976453188142200  0.6042909121803566   T   T   T
  0.2488796312797032  0.2458279603376052  0.6036416103280734   T   T   T
  0.4171330801356541  0.0000610723729317  0.6046836441227140   T   T   T
  0.4146460638886943  0.2487111127942713  0.5911432940309410   T   T   T
  0.4161477086190311  0.7503037844953045  0.5944165454468829   T   T   T
  0.7562726412803802  0.5026468268536954  0.5955572373074437   T   T   T
  0.7514593222401401  0.7526273889722702  0.5904892381802933   T   T   T
  0.7536037676014512  0.2481563585307326  0.5944020392284753   T   T   T
  0.7505902601146477  0.0016483705607616  0.6039742753041217   T   T   T
  0.0832592504330951  0.2484544265537441  0.6033614303080689   T   T   T
  0.0814322766753208  0.5005194776874147  0.6030260377581568   T   T   T
  0.0806290497123806  0.7508468866801623  0.6032281574621912   T   T   T
  0.0828528145998122  0.9984844075868795  0.6032682936048763   T   T   T