Au  O Sr Ti  H                          
   1.00000000000000     
    23.6707801818999997    0.0000000000000000    0.0000000000000000
     0.0000000000000000   22.3170261383000010    0.0000000000000000
     0.0000000000000000    0.0000000000000000   30.0000000000000000
   Au   O    Sr   Ti   H 
    50   264    72    72     1
Selective dynamics
Direct
  0.7179658770183410  0.5261966014466067  0.7542365280838961   T   T   T
  0.6242582733836226  0.5677740642155422  0.7038907892909914   T   T   T
  0.7185742350567002  0.2597091336107767  0.6915486443309169   T   T   T
  0.2927830667106255  0.7458387428896412  0.6979885196547353   T   T   T
  0.5135156026467844  0.6042014185400290  0.7767223019931758   T   T   T
  0.5774152531197607  0.7253197863355152  0.7927214877474437   T   T   T
  0.5502744072264255  0.3844145915996051  0.8293539360281116   T   T   T
  0.2416426417202715  0.4676378081526228  0.7092105573681412   T   T   T
  0.2829410592407245  0.6608799050348669  0.7659149196804209   T   T   T
  0.6025229481058899  0.2886272841818665  0.7874542411985550   T   T   T
  0.5144408402085995  0.4836387821761022  0.6780279505060958   T   T   T
  0.5623389407734753  0.4859473536494914  0.7626471022104910   T   T   T
  0.4633886677029844  0.6950911971331885  0.8300503912095356   T   T   T
  0.7648028861648646  0.4323448925577559  0.7056346362872524   T   T   T
  0.7332699152455335  0.6156010518027926  0.6938667695884029   T   T   T
  0.6354325844443399  0.5839982293943056  0.7999651638630743   T   T   T
  0.5947853168677781  0.7853458829983181  0.7125639305842673   T   T   T
  0.4842221639890336  0.7787516244215985  0.7569179454245670   T   T   T
  0.3494582960218077  0.5008094059521252  0.6973110049115449   T   T   T
  0.4310539085052421  0.3721652783310399  0.8156118769981421   T   T   T
  0.3726850513451355  0.2986863302346534  0.7557091338292153   T   T   T
  0.4410286393879206  0.2283524612824036  0.6971009603107385   T   T   T
  0.3907674220896207  0.8166570812634523  0.7068109541023877   T   T   T
  0.2898813556109964  0.5363073552267803  0.7776080998616970   T   T   T
  0.5555264733755674  0.2080084620966653  0.7117268861536165   T   T   T
  0.4535212231940650  0.5799662822158794  0.7028428185454877   T   T   T
  0.6133313053317396  0.3192900406792165  0.6975932823775574   T   T   T
  0.7053409758388772  0.7576079620844708  0.6883016549901113   T   T   T
  0.6561696592998236  0.4412667078312146  0.8123989224568501   T   T   T
  0.3684685458645508  0.6181168310919526  0.8199600227364406   T   T   T
  0.5713591805601234  0.5101120312793286  0.8570852628675355   T   T   T
  0.6646810673614242  0.1939563197169552  0.7519171336611578   T   T   T
  0.4725891427724827  0.4509919701754482  0.8793634939972221   T   T   T
  0.5160735882787375  0.3772515404890218  0.7340178362215086   T   T   T
  0.2834631913628783  0.3377502578558376  0.7026735709591855   T   T   T
  0.6694066175094785  0.6812632066891923  0.7487578772192004   T   T   T
  0.3974057381148234  0.3818635446510377  0.6899811893320776   T   T   T
  0.3761237897433918  0.4924014892973312  0.8334871459905455   T   T   T
  0.4635309078659038  0.5733049204365885  0.8632952781186515   T   T   T
  0.3267653276121072  0.4138749927906152  0.7694654785031694   T   T   T
  0.4873567117637659  0.2683900675738996  0.7753092446387398   T   T   T
  0.4233302651724170  0.6978168694234104  0.6991254099496842   T   T   T
  0.7000374708293117  0.3463975198204159  0.7563796221503891   T   T   T
  0.7742875413593747  0.4294938102801196  0.7959694125709259   T   T   T
  0.2561820244090854  0.5922392203110327  0.6948554363588240   T   T   T
  0.6476940994672301  0.4413798070433877  0.6965740515788058   T   T   T
  0.5650024971765616  0.6398581619788604  0.8610481480650126   T   T   T
  0.5447199748412764  0.6658084978268904  0.7015012684845934   T   T   T
  0.4428744503003159  0.4745324939565071  0.7560070884819987   T   T   T
  0.3730834749356582  0.7376874256774971  0.7782053395331751   T   T   T
  0.2500090170462698  0.1886757286559594  0.4542814147146245   T   T   T
  0.7494546186845246  0.9385316083807024  0.4553888237204133   T   T   T
  0.7490920789579473  0.6886346169312068  0.4573419160546747   T   T   T
  0.7494974345080995  0.4382985228603316  0.4558358669601771   T   T   T
  0.7506370463565997  0.1896733714231063  0.4556988722402079   T   T   T
  0.4175444883824824  0.9356870316643708  0.4539070352879902   T   T   T
  0.4168847809938845  0.6846077318086334  0.4546602845365215   T   T   T
  0.4164346058911896  0.4353869793015554  0.4537720194876966   T   T   T
  0.0843904396390210  0.6869205806812255  0.4530696662931242   T   T   T
  0.0837091624024069  0.9366178079828675  0.4535179148474675   T   T   T
  0.0828185212444900  0.4368709478698290  0.4528350169549903   T   T   T
  0.0837381679690228  0.1865307866163352  0.4530480905370796   T   T   T
  0.9166990614961069  0.8126370519606124  0.4544126133670256   T   T   T
  0.9161978138198806  0.5624078911291328  0.4537164738554489   T   T   T
  0.2510613883685141  0.4392427067896458  0.4549641713525539   T   T   T
  0.9161236427112879  0.0627662395373283  0.4538094298423248   T   T   T
  0.9162098638717440  0.3117430375170710  0.4541359613646156   T   T   T
  0.4171150453080462  0.1871376091384773  0.4535684618494107   T   T   T
  0.2524171298065954  0.6873097894709339  0.4560444628213107   T   T   T
  0.9165280473160312  0.9375745489856094  0.4538521160308230   T   T   T
  0.5826229961133335  0.1892442840160606  0.4550576515401902   T   T   T
  0.0001601589057000  0.1247128992200498  0.4992974146704722   T   T   T
  0.5838454667124484  0.8100350828858263  0.4554724398339577   T   T   T
 -0.0002204561066820  0.3735878865479830  0.4979603785870585   T   T   T
  0.9997182892256218  0.6270143196967508  0.4977128489577639   T   T   T
  0.3335751214404165  0.1255961767252831  0.4985453716436878   T   T   T
  0.9997045530680156  0.8752897644977935  0.5000168621679256   T   T   T
  0.3335443173625927  0.8737333834823321  0.4989687548829033   T   T   T
  0.6660747044235106  0.1261596819536300  0.4990063936648335   T   T   T
  0.3357215096444717  0.6251877067007009  0.5042668356325876   T   T   T
  0.3342997903153573  0.3784000125637030  0.5030368021194795   T   T   T
  0.6655074056396041  0.3785691945473671  0.5033447508663962   T   T   T
  0.9154151164466791  0.6870887468788283  0.4532971491750891   T   T   T
  0.9156772086922457  0.4369592152544735  0.4536886989219175   T   T   T
  0.9159031866842056  0.1864499161656381  0.4529438582641898   T   T   T
  0.5831047488464763  0.9364108995092647  0.4539592457404882   T   T   T
  0.5828255004176228  0.6860297935323971  0.4545297003074233   T   T   T
  0.5827976318206450  0.4391079046586655  0.4560756940841286   T   T   T
  0.2499920524663436  0.9358271023058219  0.4540973541664840   T   T   T
  0.6655289775896209  0.6260808815862039  0.5029428590497279   T   T   T
  0.5846830973735573  0.5625200232223900  0.4550023938364509   T   T   T
  0.5829771470713427  0.0627418289635578  0.4545723507794378   T   T   T
  0.9166666865332829  0.6874999999963620  0.3605200052333331   F   F   F
  0.9166666865332829  0.4374999701794380  0.3605200052333331   F   F   F
  0.9166666865332829  0.1875000000030838  0.3605200052333331   F   F   F
  0.5833333134730552  0.9375000000154046  0.3605200052333331   F   F   F
  0.5833333134730552  0.6874999999963620  0.3605200052333331   F   F   F
  0.5833333134730552  0.4374999701794380  0.3605200052333331   F   F   F
  0.5833333134730552  0.1875000000030838  0.3605200052333331   F   F   F
  0.2499999999799343  0.9375000000154046  0.3605200052333331   F   F   F
  0.9166666865332829  0.9375000000154046  0.3605200052333331   F   F   F
  0.2499999999799343  0.6874999999963620  0.3605200052333331   F   F   F
  0.2499999999799343  0.1875000000030838  0.3605200052333331   F   F   F
  0.7499999404149307  0.9375000000154046  0.3605200052333331   F   F   F
  0.7499999404149307  0.6874999999963620  0.3605200052333331   F   F   F
  0.7499999404149307  0.4374999701794380  0.3605200052333331   F   F   F
  0.7499999404149307  0.1875000000030838  0.3605200052333331   F   F   F
  0.4166666269218169  0.9375000000154046  0.3605200052333331   F   F   F
  0.4166666269218169  0.6874999999963620  0.3605200052333331   F   F   F
  0.4166666269218169  0.4374999701794380  0.3605200052333331   F   F   F
  0.2499999999799343  0.4374999701794380  0.3605200052333331   F   F   F
  0.0833333358191695  0.0625000000159659  0.3605200052333331   F   F   F
  0.0833333358191695  0.3124999999901945  0.3605200052333331   F   F   F
  0.0833333358191695  0.5625000000092442  0.3605200052333331   F   F   F
  0.9166666865332829  0.3124999999901945  0.3605200052333331   F   F   F
  0.9166666865332829  0.0625000000159659  0.3605200052333331   F   F   F
  0.5833333134730552  0.8124999999834799  0.3605200052333331   F   F   F
  0.5833333134730552  0.5625000000092442  0.3605200052333331   F   F   F
  0.5833333134730552  0.3124999999901945  0.3605200052333331   F   F   F
  0.5833333134730552  0.0625000000159659  0.3605200052333331   F   F   F
  0.2499999999799343  0.8124999999834799  0.3605200052333331   F   F   F
  0.2499999999799343  0.5625000000092442  0.3605200052333331   F   F   F
  0.2499999999799343  0.3124999999901945  0.3605200052333331   F   F   F
  0.2499999999799343  0.0625000000159659  0.3605200052333331   F   F   F
  0.7499999404149307  0.8124999999834799  0.3605200052333331   F   F   F
  0.7499999404149307  0.5625000000092442  0.3605200052333331   F   F   F
  0.7499999404149307  0.3124999999901945  0.3605200052333331   F   F   F
  0.7499999404149307  0.0625000000159659  0.3605200052333331   F   F   F
  0.4166666269218169  0.8124999999834799  0.3605200052333331   F   F   F
  0.4166666269218169  0.5625000000092442  0.3605200052333331   F   F   F
  0.4166666269218169  0.3124999999901945  0.3605200052333331   F   F   F
  0.4166666269218169  0.0625000000159659  0.3605200052333331   F   F   F
  0.0833333358191695  0.8124999999834799  0.3605200052333331   F   F   F
  0.4166666269218169  0.1875000000030838  0.3605200052333331   F   F   F
  0.0833333358191695  0.9375000000154046  0.3605200052333331   F   F   F
  0.0833333358191695  0.6874999999963620  0.3605200052333331   F   F   F
  0.0833333358191695  0.4374999701794380  0.3605200052333331   F   F   F
  0.8333332538436267  0.4999999999932783  0.4070133268666680   F   F   F
  0.8333332538436267  0.7500000000123208  0.4070133268666680   F   F   F
  0.0836872408747378  0.0618719186718111  0.4541873481583992   T   T   T
  0.0835354648567616  0.3118899016246601  0.4539551686573666   T   T   T
  0.0839461681048261  0.5625240285558738  0.4538878986278877   T   T   T
  0.0833601399235052  0.8121844865779269  0.4542980731569348   T   T   T
  0.4168467302619953  0.0615182087279335  0.4553528400767853   T   T   T
  0.4153312564542266  0.3113876068729700  0.4573466081459610   T   T   T
  0.4160738694737649  0.5594501288868586  0.4578940699534795   T   T   T
  0.4166556292061763  0.8097875233098374  0.4551392686067465   T   T   T
  0.7498598556143835  0.0643183036240409  0.4531936361686984   T   T   T
  0.7473518000163304  0.3140981574414047  0.4546198057276227   T   T   T
  0.7481205292095026  0.5641991405684681  0.4537509037626205   T   T   T
  0.7492363685749429  0.8133256398139241  0.4531441012858304   T   T   T
  0.2506247835277548  0.0617722460087591  0.4542462025004205   T   T   T
  0.9156180148950640  0.3131150034045852  0.5473098911841525   T   T   T
  0.2521926694422676  0.3142604513322887  0.4541215849948795   T   T   T
  0.2519649471104573  0.5646144005103639  0.4538100604671534   T   T   T
  0.2502340638309714  0.8104839272676322  0.4556329256432620   T   T   T
  0.8333332538436267  0.2500000000190425  0.4070133268666680   F   F   F
  0.5844507186919219  0.3147906984825511  0.4540373028645814   T   T   T
  0.8333332538436267  0.0000000000000000  0.4070133268666680   F   F   F
  0.5000000000021103  0.4999999999932783  0.4070133268666680   F   F   F
  0.0833333358191695  0.1875000000030838  0.3605200052333331   F   F   F
  0.0000000000000000  0.0000000000000000  0.4070133268666680   F   F   F
  0.0000000000000000  0.2500000000190425  0.4070133268666680   F   F   F
  0.0000000000000000  0.4999999999932783  0.4070133268666680   F   F   F
  0.0000000000000000  0.7500000000123208  0.4070133268666680   F   F   F
  0.3333333432766779  0.0000000000000000  0.4070133268666680   F   F   F
  0.3333333432766779  0.2500000000190425  0.4070133268666680   F   F   F
  0.3333333432766779  0.4999999999932783  0.4070133268666680   F   F   F
  0.3333333432766779  0.7500000000123208  0.4070133268666680   F   F   F
  0.6666666865533486  0.0000000000000000  0.4070133268666680   F   F   F
  0.6666666865533486  0.2500000000190425  0.4070133268666680   F   F   F
  0.6666666865533486  0.4999999999932783  0.4070133268666680   F   F   F
  0.6666666865533486  0.7500000000123208  0.4070133268666680   F   F   F
  0.1666666716383389  0.0000000000000000  0.4070133268666680   F   F   F
  0.1666666716383389  0.2500000000190425  0.4070133268666680   F   F   F
  0.1666666716383389  0.4999999999932783  0.4070133268666680   F   F   F
  0.1666666716383389  0.7500000000123208  0.4070133268666680   F   F   F
  0.5000000000021103  0.0000000000000000  0.4070133268666680   F   F   F
  0.5000000000021103  0.2500000000190425  0.4070133268666680   F   F   F
  0.5000000000021103  0.7500000000123208  0.4070133268666680   F   F   F
  0.1672312134679798  0.1242349189866338  0.4988150664929736   T   T   T
  0.9169922713968380  0.0639668398024961  0.5468710126487661   T   T   T
  0.1677222747692986  0.8732964440652387  0.4998703531095430   T   T   T
  0.2519514638482713  0.1879657474205851  0.5473689949078127   T   T   T
  0.7495386648410596  0.9343122577042738  0.5476708115475731   T   T   T
  0.7520169796456569  0.6803297307379239  0.5531829664990595   T   T   T
  0.7528213998732081  0.4347428061125234  0.5494369293576963   T   T   T
  0.4230883363784013  0.4441039495263941  0.5454977259576342   T   T   T
  0.4233654227373409  0.6881894783747218  0.5463335162032465   T   T   T
  0.7485469680058808  0.1831159849208376  0.5510137723666263   T   T   T
  0.4159930503844840  0.9370810246489217  0.5459542691050870   T   T   T
  0.0835439842397164  0.9391730608611837  0.5455783289095686   T   T   T
  0.4157316960205726  0.1914271481674716  0.5464468050357770   T   T   T
  0.0865606969055253  0.6897333333745530  0.5450920339686475   T   T   T
  0.0822433983808724  0.4386066448283053  0.5448672775597889   T   T   T
  0.0831882737586687  0.1880815854320956  0.5454995164408649   T   T   T
  0.4994323764151057  0.1254211842985662  0.4996381559145529   T   T   T
  0.9995546667524091  0.5012947296191164  0.5944350838591779   T   T   T
  0.9995450033234051  0.7537492613615996  0.5921584864485472   T   T   T
  0.3346478908765189  0.2542098594426933  0.5926700111208082   T   T   T
  0.3339311579524640  0.9996528137602433  0.5920519591505055   T   T   T
  0.9985704738071360 -0.0008235779058863  0.5923150721816892   T   T   T
  0.0002318637512255  0.2482230354720618  0.5917532195265973   T   T   T
  0.3334211152632460  0.4965624869300129  0.5909991110299543   T   T   T
  0.3357929278985899  0.7404819386508904  0.5902606702386282   T   T   T
  0.6634915662816356  0.2476466208127497  0.5903363044486584   T   T   T
  0.6660945288239470  0.0005023868409588  0.5921181866909094   T   T   T
  0.6660591507918221  0.7420368193257798  0.5899609395780756   T   T   T
  0.6669523014702214  0.4933048180016221  0.5911201775252380   T   T   T
  0.1672683860304448  0.9975970495376776  0.5924504958773364   T   T   T
  0.1682883769901195  0.2491375320913838  0.5929315127901914   T   T   T
  0.1708172393182058  0.7496797453885059  0.5951041425512249   T   T   T
  0.2482422115071669  0.4359005465943653  0.5490488264901533   T   T   T
  0.1652905240868624  0.5029822963553098  0.5875735876597141   T   T   T
  0.2491675899347542  0.6833249648979052  0.5519542428714113   T   T   T
  0.5807716061456539  0.1860454973452331  0.5491406171750622   T   T   T
  0.9152188195502127  0.8137279324327689  0.5471105069994264   T   T   T
  0.9167697604916552  0.5635426445561067  0.5465828089864887   T   T   T
  0.5816646480824670  0.5603241852085616  0.5492501220270616   T   T   T
  0.5861553549615632  0.8148042628222426  0.5504108564693863   T   T   T
  0.5828386604304435  0.3118560290797174  0.5455003242011407   T   T   T
  0.5830374242255886  0.0631182472092696  0.5466207276084539   T   T   T
  0.2531784390966135  0.8128613003940254  0.5513362276022149   T   T   T
  0.2522783092365963  0.5590411341979116  0.5440205669093473   T   T   T
  0.2495108401962107  0.3136986653076067  0.5460101162467534   T   T   T
  0.2510180497332993  0.0623383660463681  0.5473023649443900   T   T   T
  0.7486809782338743  0.8082333799120062  0.5455038974232982   T   T   T
  0.7464974622293895  0.5576902533944987  0.5445731587316955   T   T   T
  0.4145733135486701  0.8118746728844919  0.5479883929410128   T   T   T
  0.7487515504510593  0.0595257820518811  0.5438687259578376   T   T   T
  0.7481603286357885  0.3112426167482085  0.5477524360180939   T   T   T
  0.4159670584701080  0.3196760427017016  0.5526395776176003   T   T   T
  0.4201532643550583  0.5651336257077680  0.5554888995075972   T   T   T
  0.4163674646192978  0.0653138058611442  0.5472647141125534   T   T   T
  0.0848227980350919  0.8131151602969885  0.5473779533041164   T   T   T
  0.0827158497022791  0.5642417326415049  0.5462002932335407   T   T   T
  0.0847803535327619  0.3131353478121092  0.5469564184709105   T   T   T
  0.0823343261804047  0.0633106517267140  0.5474946735893088   T   T   T
  0.9151663692220375  0.9396059522539237  0.5471109843511667   T   T   T
  0.9131964927527558  0.6893280203005880  0.5451924249526930   T   T   T
  0.5833395818921752  0.9384867811637896  0.5457209567226667   T   T   T
  0.9167726092550056  0.1886209130235293  0.5450355626563183   T   T   T
  0.9161784210789991  0.4378468171467760  0.5458220909276473   T   T   T
  0.5762582540124578  0.4363645479255795  0.5515380580807904   T   T   T
  0.5795309510452373  0.6864375944530761  0.5471282970916288   T   T   T
  0.2517102330120169  0.9372015657400926  0.5452567676731994   T   T   T
  0.4976436433458601  0.5045615214336009  0.6089614242913988   T   T   T
  0.4985788183405847  0.2528698771297579  0.5903207051481764   T   T   T
  0.4996440415439495  0.0001413512932494  0.5910571386247644   T   T   T
  0.7536110502159172  0.6933613417339516  0.6574368377908212   T   T   T
  0.7492944074798595  0.9372314497592164  0.6401381458736903   T   T   T
  0.2533814345627098  0.1866434677156967  0.6414117180732843   T   T   T
  0.7450235792022636  0.1951178442148456  0.6465477317084877   T   T   T
  0.7562092390475423  0.4363375977334761  0.6391032650198734   T   T   T
  0.4175151037252833  0.9348793944192693  0.6398280345681840   T   T   T
  0.4214285607511646  0.6759280499695350  0.6333694987345614   T   T   T
  0.5904769877378629  0.8106233873088103  0.6458697372041351   T   T   T
  0.9163078140077116  0.0663937154717187  0.6416758190060582   T   T   T
  0.9125301555430986  0.5617630651967049  0.6426172750028253   T   T   T
  0.9152318598829010  0.3099835250691731  0.6400631009947683   T   T   T
  0.9144293529177111  0.8126157458476170  0.6418351433528451   T   T   T
  0.5821183904089422  0.0654957120090522  0.6397424887625272   T   T   T
  0.5832472750034159  0.3194636850849494  0.6340070466306266   T   T   T
  0.5917229607432045  0.5644178228074231  0.6394855944519100   T   T   T
  0.2473709459729983  0.5736269209797701  0.6289163898470607   T   T   T
  0.2621344637377441  0.7983594133160242  0.6468468964653660   T   T   T
  0.2494037129623982  0.3162566782659602  0.6413821078762899   T   T   T
  0.2509519156021130  0.0590731492460417  0.6424767625870978   T   T   T
  0.9166666865332829  0.5625000000092442  0.3605200052333331   F   F   F
  0.4994192639569133  0.3738867275302536  0.4997006853129356   T   T   T
  0.5001708951457855  0.8729132399066001  0.5007472564524653   T   T   T
  0.5004714022039046  0.6209237197256642  0.5000100687114503   T   T   T
  0.8322321105362467  0.6230643207765593  0.4998486157107253   T   T   T
  0.8328764055047315  0.8749970722922841  0.4984464814592017   T   T   T
  0.8326266638704883  0.3732431648557746  0.4994357239430971   T   T   T
  0.8327142880088670  0.1250050924689612  0.5009711990408662   T   T   T
  0.1664774380659552  0.3759486900422548  0.4980605509655631   T   T   T
  0.1677496773953272  0.6244339371136989  0.4999253277623176   T   T   T
  0.5815222231252170  0.4382803090405675  0.6458620343096046   T   T   T
  0.5805644109435321  0.6852398591794273  0.6387389805423948   T   T   T
  0.9158759991652217  0.1820440289312709  0.6384927579908701   T   T   T
  0.5819434685689423  0.9354605484179268  0.6392093955799414   T   T   T
  0.8305659539993430  0.7507774232344560  0.5930292951885620   T   T   T
  0.8314084968241789  0.2478670165527721  0.5908945023978178   T   T   T
  0.8332884720285875  0.5038455585168287  0.5890571784602791   T   T   T
  0.8334646285700041  0.0026641632606734  0.5916430528378289   T   T   T
  0.5013271454345229  0.7564828087017540  0.5929638015369252   T   T   T
  0.4176789527410125  0.0651784552590943  0.6400380341439101   T   T   T
  0.4269408824860819  0.3048497449358536  0.6548427554332185   T   T   T
  0.4119720362158551  0.8124793297922084  0.6396649826417758   T   T   T
  0.3981052840328138  0.5510778364555367  0.6521412370781532   T   T   T
  0.7520619998861429  0.5709408727458272  0.6342872718883202   T   T   T
  0.7410040055098935  0.8100533272603071  0.6398630787296432   T   T   T
  0.7469410638995435  0.3128549797951226  0.6399203006428901   T   T   T
  0.7503865513589457  0.0690925009651448  0.6365817460149471   T   T   T
  0.0833822020339403  0.3110196848075033  0.6404936141639977   T   T   T
  0.6666262288501902  0.8748839005663130  0.4993451338997347   T   T   T
  0.0872906490217730  0.5619395267550099  0.6417559785925369   T   T   T
  0.0827807264884910  0.0614031606086490  0.6400868522440804   T   T   T
  0.0860122973110287  0.4364826218930870  0.6389054420627602   T   T   T
  0.0827886081222673  0.1844142533547453  0.6396923515885402   T   T   T
  0.4184662379202310  0.1879438512644409  0.6398278515758130   T   T   T
  0.4151287624491536  0.4190638282862429  0.6298281327068840   T   T   T
  0.0836191029848722  0.9351081858447426  0.6404452415141463   T   T   T
  0.0830520812861967  0.6869471490097271  0.6397625453069802   T   T   T
  0.9128701454666818  0.4358116374432350  0.6392291183018115   T   T   T
  0.9166958473049014  0.6873077167626338  0.6398201840732733   T   T   T
  0.9146969123551959  0.9368994467014640  0.6399110864117671   T   T   T
  0.2405563991194453  0.4418297826269335  0.6415477548292688   T   T   T
  0.2554692295329724  0.6767751017879736  0.6634212367410293   T   T   T
  0.5787131413820246  0.1906610921424876  0.6441611605091491   T   T   T
  0.2519852025794747  0.9298196957531031  0.6376390340823271   T   T   T
  0.0843771850794916  0.8116287720661248  0.6419135236316931   T   T   T
  0.9166666865332829  0.8124999999834799  0.3605200052333331   F   F   F
  0.0034822953585148  0.1235391885344918  0.6056843798236223   T   T   T
  0.8333332538436267  0.6249999999803961  0.4070133268666680   F   F   F
  0.9995526677051304  0.5006458011734035  0.5068638631198445   T   T   T
  0.3311927089142028  0.4993083656275840  0.5009998850817443   T   T   T
  0.3299777099935648  0.2481337858679997  0.5028018895180375   T   T   T
  0.3330714842600684  0.0008960272233000  0.5057827922928493   T   T   T
  0.3338764686270296  0.7508916889283475  0.5016199642838933   T   T   T
  0.6658033859674432  0.0000373878900202  0.5057148627945599   T   T   T
  0.6686355729914464  0.4998098344970786  0.5007422409727239   T   T   T
  0.6669682873114686  0.2480752823680422  0.5029404931036561   T   T   T
  0.6654633046534246  0.7519748246493934  0.5020521937238887   T   T   T
  0.1661069676674661  0.0007894277135732  0.5065850182112024   T   T   T
  0.1663905491417355  0.2483259499215498  0.5062826316250923   T   T   T
  0.1633017537048863  0.4997960034571942  0.5021232105723817   T   T   T
  0.5000362526912223  0.9993437358051518  0.5054994185991454   T   T   T
  0.1643401861002785  0.7513819213754641  0.5033390415334837   T   T   T
  0.5009138624062097  0.7527202059582754  0.5038539481141205   T   T   T
  0.8342813182022222 -0.0001078044082020  0.5059392733077976   T   T   T
  0.5013200715819001  0.4999109547702248  0.5002391774007222   T   T   T
  0.5010409568414529  0.2480569778283055  0.5019730823858848   T   T   T
  0.8353766418871021  0.2491348500693735  0.5029933104412787   T   T   T
  0.9996619229561138  0.7510303340655251  0.5065521335895310   T   T   T
  0.0004785732743887  0.2502580733457035  0.5057070495162627   T   T   T
 -0.0000917543203960  0.9995229530064883  0.5060113917096167   T   T   T
  0.8333332538436267  0.8749999404036828  0.4070133268666680   F   F   F
  0.0000000000000000  0.6249999999803961  0.4070133268666680   F   F   F
  0.0000000000000000  0.8749999404036828  0.4070133268666680   F   F   F
  0.3333333432766779  0.1249999999871179  0.4070133268666680   F   F   F
  0.3333333432766779  0.3750000000061604  0.4070133268666680   F   F   F
  0.3333333432766779  0.6249999999803961  0.4070133268666680   F   F   F
  0.3333333432766779  0.8749999404036828  0.4070133268666680   F   F   F
  0.6666666865533486  0.1249999999871179  0.4070133268666680   F   F   F
  0.6666666865533486  0.3750000000061604  0.4070133268666680   F   F   F
  0.6666666865533486  0.6249999999803961  0.4070133268666680   F   F   F
  0.8359562576428636  0.4998154962896298  0.5029211153697390   T   T   T
  0.6666666865533486  0.8749999404036828  0.4070133268666680   F   F   F
  0.1666666716383389  0.3750000000061604  0.4070133268666680   F   F   F
  0.1666666716383389  0.6249999999803961  0.4070133268666680   F   F   F
  0.1666666716383389  0.8749999404036828  0.4070133268666680   F   F   F
  0.5000000000021103  0.1249999999871179  0.4070133268666680   F   F   F
  0.5000000000021103  0.3750000000061604  0.4070133268666680   F   F   F
  0.5000000000021103  0.6249999999803961  0.4070133268666680   F   F   F
  0.5000000000021103  0.8749999404036828  0.4070133268666680   F   F   F
  0.8333332538436267  0.1249999999871179  0.4070133268666680   F   F   F
  0.8333332538436267  0.3750000000061604  0.4070133268666680   F   F   F
  0.1666666716383389  0.1249999999871179  0.4070133268666680   F   F   F
  0.0000000000000000  0.3750000000061604  0.4070133268666680   F   F   F
  0.8359404578765447  0.7518746089146989  0.5026238859289286   T   T   T
  0.8371395005109535  0.3715727002636326  0.6050143453078084   T   T   T
  0.8322400589997367  0.8752244388661169  0.6183971970592023   T   T   T
  0.8403115977168077  0.6269168103578844  0.6032270172991835   T   T   T
  0.9993596304444529  0.8741045882144125  0.6206298258065205   T   T   T
  0.3314520564759751  0.1198961569544838  0.6133620213037522   T   T   T
  0.3341013878302594  0.6241725571817606  0.5955645167938530   T   T   T
  0.3258994613634758  0.3737702194056402  0.5927501885197030   T   T   T
  0.6712427106154032  0.3718651735290149  0.5942295391711913   T   T   T
  0.6653977500404359  0.1245291244454694  0.6118672873139787   T   T   T
  0.3343726936143451  0.8785911371584160  0.6031706856807856   T   T   T
  0.1588158952991310  0.6269910820745855  0.6013749749047490   T   T   T
  0.1660820713989407  0.8731135402451798  0.6182806223393008   T   T   T
  0.5017686405681596  0.3712466978414759  0.5950881894928389   T   T   T
  0.5001576688125106  0.1219156522488185  0.6061991015976962   T   T   T
  0.1678821045426619  0.1225262808602742  0.6228892846497709   T   T   T
  0.1631254057416944  0.3713516838854303  0.6081120670520900   T   T   T
  0.6655062183766320  0.8813217752544387  0.6071828423328647   T   T   T
  0.6663121245921904  0.6265820479734123  0.5934161855410435   T   T   T
 -0.0003946300665835  0.3735552279369068  0.6217157138365751   T   T   T
  0.9997669395950911  0.6217449414884542  0.6409197248815878   T   T   T
  0.8330652419382923  0.1233478130358002  0.6031601105838431   T   T   T
  0.5004924868466950  0.8765655781645386  0.6096353363633261   T   T   T
  0.0000000000000000  0.1249999999871179  0.4070133268666680   F   F   F
  0.5041226787933177  0.6249505024064828  0.5939052459787681   T   T   T
  0.9167262969076637 -0.0036287126367546  0.6022157403746073   T   T   T
  0.5843698629601768  0.7501719485586360  0.5994844516838824   T   T   T
  0.5908117403414336  0.5010278959474086  0.5937266943608500   T   T   T
  0.2422183920080068  0.4978202997331413  0.5940200713929780   T   T   T
  0.2492458046652821  0.7525332307754717  0.5921747587927559   T   T   T
  0.5839443560562835  0.2471112132549443  0.5969636498099831   T   T   T
  0.5825602165566982  0.0009042021675312  0.6043081315894752   T   T   T
  0.2495058636650517  0.9972246792869394  0.6044517263408457   T   T   T
  0.2491017234849833  0.2459102808571408  0.6037151320768803   T   T   T
  0.4169910776690872 -0.0000013003771399  0.6047241495999783   T   T   T
  0.4146111861396377  0.2487324342289838  0.5911241705678018   T   T   T
  0.4161209706396439  0.7503550641671050  0.5943630895326301   T   T   T
  0.7565365011113403  0.5026388638703976  0.5955323661352486   T   T   T
  0.7517123684230895  0.7527021432926446  0.5904802393568063   T   T   T
  0.7534756472622947  0.2480615993125310  0.5943845884031232   T   T   T
  0.7501310042960232  0.0019541054215564  0.6039542535403715   T   T   T
  0.0835207702604360  0.2477975499605517  0.6034332679268625   T   T   T
  0.0810824252143529  0.5007118730141011  0.6031338747462452   T   T   T
  0.0804594172020708  0.7506951026382717  0.6032327884701085   T   T   T
  0.0833831282393466  0.9980482215917004  0.6033274266809515   T   T   T