Au O  Sr Ti H                           
   1.00000000000000     
    23.6707801818999997    0.0000000000000000    0.0000000000000000
     0.0000000000000000   22.3170261383000010    0.0000000000000000
     0.0000000000000000    0.0000000000000000   30.0000000000000000
   Au   O    Sr   Ti   H 
    50   264    72    72     1
Selective dynamics
Direct
  0.7187320570215618  0.5257994263507015  0.7538703391056600   F   F   F
  0.6248310642220645  0.5666127651839474  0.7039635124500734   F   F   F
  0.7189086000569489  0.2589755252573624  0.6917965169370248   F   F   F
  0.2906559052699436  0.7455529916379575  0.6987947768812717   F   F   F
  0.5137321706876818  0.6042900772342037  0.7766907989349505   F   F   F
  0.5772060548908797  0.7253925864024922  0.7925683876816620   F   F   F
  0.5502002040811433  0.3843370441219278  0.8296008632898122   F   F   F
  0.2416848147402959  0.4674493313357004  0.7093991244394076   F   F   F
  0.2824572582181162  0.6603769030052788  0.7661517315240829   F   F   F
  0.6024695762307104  0.2889124601861397  0.7878146023793065   F   F   F
  0.5145500567174395  0.4831312994259420  0.6779680337467795   F   F   F
  0.5622624085695946  0.4858879311992865  0.7627072468916936   F   F   F
  0.4634814195552650  0.6951102119439199  0.8299085185246113   F   F   F
  0.7646325148944015  0.4313808352627859  0.7054513072089321   F   F   F
  0.7335558844642946  0.6156173037248465  0.6939155193771001   F   F   F
  0.6360987147262733  0.5834089499081685  0.8000345175389398   F   F   F
  0.5947084387947257  0.7851158472357582  0.7125316938692876   F   F   F
  0.4838309481156173  0.7791649720096743  0.7572051732435341   F   F   F
  0.3495042368186390  0.5006097802661316  0.6974189297315618   F   F   F
  0.4309458955841095  0.3721341878130033  0.8157242837428313   F   F   F
  0.3727988731983558  0.2986134927733062  0.7557169576631182   F   F   F
  0.4409968272464511  0.2282934993739616  0.6970798347617873   F   F   F
  0.3894312414485697  0.8160022494719996  0.7066947852000212   F   F   F
  0.2899842634624719  0.5360552207097342  0.7777073661534502   F   F   F
  0.5554537709013161  0.2080410907265318  0.7116857874246563   F   F   F
  0.4539863566348217  0.5800021948481415  0.7027092192557163   F   F   F
  0.6136017924200985  0.3189276775601400  0.6976275285469598   F   F   F
  0.7053900501137917  0.7576150306290899  0.6883239124458527   F   F   F
  0.6562317816100816  0.4411823900243093  0.8122605933091478   F   F   F
  0.3684086205492036  0.6179766552965518  0.8200713602939231   F   F   F
  0.5713627779030475  0.5100794697946327  0.8570320557487889   F   F   F
  0.6645060235650320  0.1939092145494001  0.7522054027988361   F   F   F
  0.4725553415226500  0.4509750557241574  0.8794860618638438   F   F   F
  0.5162068215047881  0.3771485810356481  0.7341594012507855   F   F   F
  0.2836667506412169  0.3373132107828667  0.7026665977297739   F   F   F
  0.6693790730269384  0.6810994256648115  0.7487633599499617   F   F   F
  0.3976225422933268  0.3818803341345856  0.6901078434254373   F   F   F
  0.3761398991113793  0.4922837200537415  0.8335296597941237   F   F   F
  0.4634741242575515  0.5733459291451553  0.8633813825089831   F   F   F
  0.3267912787369340  0.4137867078683044  0.7695159426389466   F   F   F
  0.4873888311658590  0.2683800608165541  0.7752350633211762   F   F   F
  0.4260586579793255  0.6985497125921469  0.6988693582750898   F   F   F
  0.7001493663056806  0.3460237903557442  0.7565581230734111   F   F   F
  0.7742590165691823  0.4291910406754695  0.7959555300677437   F   F   F
  0.2563670873685595  0.5920467959034781  0.6949589461898853   F   F   F
  0.6475126810959040  0.4408420782974005  0.6969891453650092   F   F   F
  0.5653063322960534  0.6397463986901641  0.8606865705127262   F   F   F
  0.5458925866432267  0.6647501015520021  0.7013667459991453   F   F   F
  0.4429005205278145  0.4745893933693921  0.7559845755420298   F   F   F
  0.3729332451106444  0.7365873835213108  0.7775951529784635   F   F   F
  0.2501403113953486  0.1884794746894514  0.4540927603515073   F   F   F
  0.7495176208223668  0.9383944059182525  0.4553173238739845   F   F   F
  0.7490521320962884  0.6886049320766077  0.4572899098880399   F   F   F
  0.7496439409564886  0.4383596882752556  0.4558022248200544   F   F   F
  0.7501661288390409  0.1898751788027653  0.4557421077818447   F   F   F
  0.4175103475508166  0.9357368982038636  0.4539640320166853   F   F   F
  0.4168874202366055  0.6845185797795637  0.4547770297405265   F   F   F
  0.4165688146617654  0.4353352945627833  0.4537745009619840   F   F   F
  0.0845757864792418  0.6868106731907773  0.4530623191418002   F   F   F
  0.0839256111671176  0.9365773563862945  0.4534994816194455   F   F   F
  0.0827027296667566  0.4367380882738416  0.4528919954055723   F   F   F
  0.0837955361219898  0.1865365003169686  0.4529360144456405   F   F   F
  0.9166690492781484  0.8121521149349249  0.4541782071259419   F   F   F
  0.9163863609873459  0.5615135429887488  0.4543459672669456   F   F   F
  0.2512256725755577  0.4392208518745377  0.4549313443845122   F   F   F
  0.9161513587193895  0.0623166777611530  0.4542873335737525   F   F   F
  0.9161299073224427  0.3100555598558046  0.4552889079022009   F   F   F
  0.4170983383975937  0.1871130786053712  0.4535923850760852   F   F   F
  0.2524294476209263  0.6872889164502141  0.4560870851738272   F   F   F
  0.9164200266509468  0.9372580748844683  0.4536833180026392   F   F   F
  0.5825937373589980  0.1890362597076063  0.4550733258938493   F   F   F
  0.9997747801216903  0.1252030325874571  0.4986541092274663   F   F   F
  0.5836945346632803  0.8099407999188131  0.4554111858922951   F   F   F
  0.9999375182592161  0.3732234119591169  0.4985824802878369   F   F   F
  0.9998526710889024  0.6270959850524065  0.4977283645576094   F   F   F
  0.3335510612350916  0.1251523787473303  0.4983776092192116   F   F   F
  0.0000976624169411  0.8751611289283971  0.4995311114017866   F   F   F
  0.3335133445329106  0.8737739091608958  0.4988432443898461   F   F   F
  0.6659431875598614  0.1257393204066730  0.4991628442400042   F   F   F
  0.3356235103907395  0.6251076470681056  0.5044200233301197   F   F   F
  0.3343630783073976  0.3784558939100577  0.5029943486676842   F   F   F
  0.6656044471093452  0.3784897878322013  0.5032390313965038   F   F   F
  0.9153021281365596  0.6865923087103809  0.4529102018059987   F   F   F
  0.9158977115450568  0.4352298708469036  0.4523539476261931   F   F   F
  0.9158915092154771  0.1859289353152178  0.4524816710755530   F   F   F
  0.5826603432051201  0.9361009652896328  0.4537623190736682   F   F   F
  0.5827761008091699  0.6859571778338776  0.4545810322137172   F   F   F
  0.5828280469227636  0.4389293444357918  0.4559995600820343   F   F   F
  0.2499857511961707  0.9359429956828720  0.4540803664628896   F   F   F
  0.6654388780587226  0.6258212142921593  0.5029503662765080   F   F   F
  0.5846087460666141  0.5624445889474998  0.4550544190566228   F   F   F
  0.5829050672582454  0.0623504843704126  0.4547696081280037   F   F   F
  0.9166666865332829  0.6874999999963620  0.3605200052333331   F   F   F
  0.9166666865332829  0.4374999701794380  0.3605200052333331   F   F   F
  0.9166666865332829  0.1875000000030838  0.3605200052333331   F   F   F
  0.5833333134730552  0.9375000000154046  0.3605200052333331   F   F   F
  0.5833333134730552  0.6874999999963620  0.3605200052333331   F   F   F
  0.5833333134730552  0.4374999701794380  0.3605200052333331   F   F   F
  0.5833333134730552  0.1875000000030838  0.3605200052333331   F   F   F
  0.2499999999799343  0.9375000000154046  0.3605200052333331   F   F   F
  0.9166666865332829  0.9375000000154046  0.3605200052333331   F   F   F
  0.2499999999799343  0.6874999999963620  0.3605200052333331   F   F   F
  0.2499999999799343  0.1875000000030838  0.3605200052333331   F   F   F
  0.7499999404149307  0.9375000000154046  0.3605200052333331   F   F   F
  0.7499999404149307  0.6874999999963620  0.3605200052333331   F   F   F
  0.7499999404149307  0.4374999701794380  0.3605200052333331   F   F   F
  0.7499999404149307  0.1875000000030838  0.3605200052333331   F   F   F
  0.4166666269218169  0.9375000000154046  0.3605200052333331   F   F   F
  0.4166666269218169  0.6874999999963620  0.3605200052333331   F   F   F
  0.4166666269218169  0.4374999701794380  0.3605200052333331   F   F   F
  0.2499999999799343  0.4374999701794380  0.3605200052333331   F   F   F
  0.0833333358191695  0.0625000000159659  0.3605200052333331   F   F   F
  0.0833333358191695  0.3124999999901945  0.3605200052333331   F   F   F
  0.0833333358191695  0.5625000000092442  0.3605200052333331   F   F   F
  0.9166666865332829  0.3124999999901945  0.3605200052333331   F   F   F
  0.9166666865332829  0.0625000000159659  0.3605200052333331   F   F   F
  0.5833333134730552  0.8124999999834799  0.3605200052333331   F   F   F
  0.5833333134730552  0.5625000000092442  0.3605200052333331   F   F   F
  0.5833333134730552  0.3124999999901945  0.3605200052333331   F   F   F
  0.5833333134730552  0.0625000000159659  0.3605200052333331   F   F   F
  0.2499999999799343  0.8124999999834799  0.3605200052333331   F   F   F
  0.2499999999799343  0.5625000000092442  0.3605200052333331   F   F   F
  0.2499999999799343  0.3124999999901945  0.3605200052333331   F   F   F
  0.2499999999799343  0.0625000000159659  0.3605200052333331   F   F   F
  0.7499999404149307  0.8124999999834799  0.3605200052333331   F   F   F
  0.7499999404149307  0.5625000000092442  0.3605200052333331   F   F   F
  0.7499999404149307  0.3124999999901945  0.3605200052333331   F   F   F
  0.7499999404149307  0.0625000000159659  0.3605200052333331   F   F   F
  0.4166666269218169  0.8124999999834799  0.3605200052333331   F   F   F
  0.4166666269218169  0.5625000000092442  0.3605200052333331   F   F   F
  0.4166666269218169  0.3124999999901945  0.3605200052333331   F   F   F
  0.4166666269218169  0.0625000000159659  0.3605200052333331   F   F   F
  0.0833333358191695  0.8124999999834799  0.3605200052333331   F   F   F
  0.4166666269218169  0.1875000000030838  0.3605200052333331   F   F   F
  0.0833333358191695  0.9375000000154046  0.3605200052333331   F   F   F
  0.0833333358191695  0.6874999999963620  0.3605200052333331   F   F   F
  0.0833333358191695  0.4374999701794380  0.3605200052333331   F   F   F
  0.8333332538436267  0.4999999999932783  0.4070133268666680   F   F   F
  0.8333332538436267  0.7500000000123208  0.4070133268666680   F   F   F
  0.0833050752151507  0.0616570212795935  0.4543192592657448   F   F   F
  0.0835283038427193  0.3119163250257273  0.4540131930004279   F   F   F
  0.0839361459101085  0.5624539083605384  0.4539460170905301   F   F   F
  0.0835259163843887  0.8120169692585009  0.4542071659845988   F   F   F
  0.4169771480846194  0.0615175985053540  0.4553397106818835   F   F   F
  0.4154910721138592  0.3113207252161345  0.4573546629802365   F   F   F
  0.4159714352784363  0.5594108798499917  0.4578896332851485   F   F   F
  0.4166789118695391  0.8097419354973709  0.4551359961893127   F   F   F
  0.7494545655012033  0.0641091302668997  0.4532918307522138   F   F   F
  0.7475768172414732  0.3141686033930853  0.4545511259952875   F   F   F
  0.7481252127163245  0.5642770644106889  0.4536857571851698   F   F   F
  0.7492455469498083  0.8132110536747348  0.4530437156683007   F   F   F
  0.2504521435844396  0.0618603001687887  0.4541331657154473   F   F   F
  0.9155914561562284  0.3171931526763743  0.5504301474927971   F   F   F
  0.2522859256889660  0.3141172146767843  0.4541949865317036   F   F   F
  0.2519343483920267  0.5645471565304518  0.4538643939606857   F   F   F
  0.2502398763736124  0.8104364625068925  0.4555636010769888   F   F   F
  0.8333332538436267  0.2500000000190425  0.4070133268666680   F   F   F
  0.5842822586619931  0.3145342121113899  0.4541578970543725   F   F   F
  0.8333332538436267  0.0000000000000000  0.4070133268666680   F   F   F
  0.5000000000021103  0.4999999999932783  0.4070133268666680   F   F   F
  0.0833333358191695  0.1875000000030838  0.3605200052333331   F   F   F
  0.0000000000000000  0.0000000000000000  0.4070133268666680   F   F   F
  0.0000000000000000  0.2500000000190425  0.4070133268666680   F   F   F
  0.0000000000000000  0.4999999999932783  0.4070133268666680   F   F   F
  0.0000000000000000  0.7500000000123208  0.4070133268666680   F   F   F
  0.3333333432766779  0.0000000000000000  0.4070133268666680   F   F   F
  0.3333333432766779  0.2500000000190425  0.4070133268666680   F   F   F
  0.3333333432766779  0.4999999999932783  0.4070133268666680   F   F   F
  0.3333333432766779  0.7500000000123208  0.4070133268666680   F   F   F
  0.6666666865533486  0.0000000000000000  0.4070133268666680   F   F   F
  0.6666666865533486  0.2500000000190425  0.4070133268666680   F   F   F
  0.6666666865533486  0.4999999999932783  0.4070133268666680   F   F   F
  0.6666666865533486  0.7500000000123208  0.4070133268666680   F   F   F
  0.1666666716383389  0.0000000000000000  0.4070133268666680   F   F   F
  0.1666666716383389  0.2500000000190425  0.4070133268666680   F   F   F
  0.1666666716383389  0.4999999999932783  0.4070133268666680   F   F   F
  0.1666666716383389  0.7500000000123208  0.4070133268666680   F   F   F
  0.5000000000021103  0.0000000000000000  0.4070133268666680   F   F   F
  0.5000000000021103  0.2500000000190425  0.4070133268666680   F   F   F
  0.5000000000021103  0.7500000000123208  0.4070133268666680   F   F   F
  0.1671010360530332  0.1239160774048287  0.4989480462382829   F   F   F
  0.9174905543992153  0.0640295136201345  0.5477218918014515   F   F   F
  0.1677858063013176  0.8732198709102903  0.4999306806684629   F   F   F
  0.2518524475661934  0.1879579015404502  0.5471655455508824   F   F   F
  0.7493408355962572  0.9339746008133929  0.5476363034787113   F   F   F
  0.7517805891375318  0.6803327016964715  0.5530950390127103   F   F   F
  0.7530275411450802  0.4343746540471614  0.5494712033354645   F   F   F
  0.4231419988753089  0.4438760282773302  0.5455466379822127   F   F   F
  0.4231807464403374  0.6879639041246435  0.5465873979852987   F   F   F
  0.7484816712401212  0.1835457203095388  0.5507183963678273   F   F   F
  0.4159111130986020  0.9366989701532091  0.5460908828747719   F   F   F
  0.0837760054398089  0.9386786236245896  0.5458779218317247   F   F   F
  0.4155978345925178  0.1912558810702762  0.5464661661156924   F   F   F
  0.0865928223549162  0.6896953390320135  0.5451566612026539   F   F   F
  0.0823017882402297  0.4384222967182154  0.5449934574850417   F   F   F
  0.0837844345780994  0.1894612081361302  0.5449318700735475   F   F   F
  0.4993789765021290  0.1254915975504716  0.4996772510025167   F   F   F
  0.9995968073481905  0.5004279757105579  0.5939725099119286   F   F   F
  0.9995129143578652  0.7537350299691781  0.5921704230191622   F   F   F
  0.3346302569817681  0.2542567543934595  0.5926886450714335   F   F   F
  0.3340047025319777  0.9997873206968109  0.5920315041951980   F   F   F
  0.9999325023517258  0.9992094449825117  0.5932315760554374   F   F   F
  0.9994926713668875  0.2498632815036927  0.5909351857495935   F   F   F
  0.3333668516897177  0.4965194117879719  0.5911049311520244   F   F   F
  0.3356699740834443  0.7399548136025800  0.5910851062684443   F   F   F
  0.6636099593904774  0.2474418619721703  0.5908473037521560   F   F   F
  0.6657780139672482  0.0003573469858367  0.5918810296022343   F   F   F
  0.6659638768955674  0.7420469047559664  0.5899753995904362   F   F   F
  0.6671671726253265  0.4929997218310902  0.5909952801069736   F   F   F
  0.1675109625166726  0.9982613450605342  0.5922821678018337   F   F   F
  0.1682647016422152  0.2487216845321853  0.5933008665784172   F   F   F
  0.1707496325570688  0.7498825965879092  0.5950930101860479   F   F   F
  0.2484037678701796  0.4359230257718139  0.5491192736096693   F   F   F
  0.1653191177774502  0.5023764777463455  0.5881286957137704   F   F   F
  0.2491244235160295  0.6834048385330789  0.5519485627022789   F   F   F
  0.5808987739752638  0.1860907530122944  0.5491621020521151   F   F   F
  0.9153487658302950  0.8133337502978009  0.5471728412276846   F   F   F
  0.9166243946816479  0.5649045609081327  0.5471450901322186   F   F   F
  0.5815011997257500  0.5601639997352734  0.5494498204701443   F   F   F
  0.5862693924684379  0.8146687251858253  0.5503689168879831   F   F   F
  0.5831722224408509  0.3117331801850085  0.5456371982276664   F   F   F
  0.5826370540173471  0.0632428515021886  0.5469424800427092   F   F   F
  0.2535715078331648  0.8128488325236347  0.5514405182436235   F   F   F
  0.2518515543556532  0.5589956759873616  0.5441897812938166   F   F   F
  0.2493959199216036  0.3137215989627293  0.5460138628089695   F   F   F
  0.2510750194290807  0.0623969604121157  0.5472447476772828   F   F   F
  0.7484891032572989  0.8082257635954733  0.5456917942946404   F   F   F
  0.7465032781641625  0.5576203532049178  0.5444809620326012   F   F   F
  0.4139694354573606  0.8114658693648948  0.5479713449766450   F   F   F
  0.7483859446482626  0.0597267485329311  0.5446161949211898   F   F   F
  0.7481213033496772  0.3111293810226812  0.5478883355895405   F   F   F
  0.4159864173875931  0.3195031601668248  0.5524998801407222   F   F   F
  0.4202802031921777  0.5648806341555144  0.5555043221890799   F   F   F
  0.4165121371625133  0.0651295311687150  0.5473111731099252   F   F   F
  0.0848799477713698  0.8128527100199037  0.5473316578620242   F   F   F
  0.0829583939678642  0.5639984457609870  0.5464922666268635   F   F   F
  0.0857448589382699  0.3136361646953887  0.5471075203593898   F   F   F
  0.0822786348294784  0.0633653890018806  0.5476355349321125   F   F   F
  0.9157798175171550  0.9386558063611901  0.5461949109138970   F   F   F
  0.9132259438946733  0.6899299083643626  0.5450192354637906   F   F   F
  0.5835386398138454  0.9381656533672285  0.5456469043144452   F   F   F
  0.9159569867239910  0.1906994866536138  0.5443913137943710   F   F   F
  0.9163996726013366  0.4400717727395644  0.5439950257510375   F   F   F
  0.5765025695111063  0.4361171889839213  0.5516186120634075   F   F   F
  0.5795319780639900  0.6864686493452723  0.5470959466976737   F   F   F
  0.2516562460779994  0.9372503944385002  0.5451970302103391   F   F   F
  0.4977588820391148  0.5044450782289971  0.6090847232878431   F   F   F
  0.4985818854409345  0.2527675003705525  0.5903007656842334   F   F   F
  0.4995971577116478  0.9999818987576461  0.5909990829168947   F   F   F
  0.7536341674056715  0.6934738720758347  0.6574109213048303   F   F   F
  0.7485637358476396  0.9364831349565819  0.6398826450581794   F   F   F
  0.2534405436205276  0.1862339246642790  0.6411829450537638   F   F   F
  0.7458077828299210  0.1941235730965900  0.6467461548658022   F   F   F
  0.7563058526037452  0.4360334489621707  0.6389092668429655   F   F   F
  0.4174197961286126  0.9349027220580197  0.6397897738466796   F   F   F
  0.4217638188357711  0.6756281903236072  0.6334399625628464   F   F   F
  0.5900231580548265  0.8105297706919146  0.6456981061187861   F   F   F
  0.9159148262602343  0.0603640418201650  0.6427323455368992   F   F   F
  0.9128578848317090  0.5615056590420409  0.6427845037772641   F   F   F
  0.9143217176953868  0.3097625156319666  0.6443175758178228   F   F   F
  0.9139679606912097  0.8126142056124550  0.6415931455522070   F   F   F
  0.5821549190175261  0.0654742945302758  0.6398157735246244   F   F   F
  0.5831158560660015  0.3194512575910551  0.6341742214828443   F   F   F
  0.5924922215003718  0.5642785043350500  0.6395411439389491   F   F   F
  0.2474512088374965  0.5735748396805107  0.6289736518278275   F   F   F
  0.2618501954413404  0.7982959897161876  0.6470862678870120   F   F   F
  0.2491321306605627  0.3158805313538835  0.6416967733490182   F   F   F
  0.2510264490973100  0.0591992278076887  0.6422764803918355   F   F   F
  0.9166666865332829  0.5625000000092442  0.3605200052333331   F   F   F
  0.4996063445860273  0.3740841618059250  0.4997960889751525   F   F   F
  0.5000033885306649  0.8726068208715958  0.5008838816304220   F   F   F
  0.5004113834795092  0.6209475960581230  0.5001226096283702   F   F   F
  0.8322838472134748  0.6231104872931255  0.4999078424817469   F   F   F
  0.8327673911401448  0.8743126791076392  0.4985970246965152   F   F   F
  0.8326458780517285  0.3729858360609910  0.4997480961091725   F   F   F
  0.8327338511802793  0.1243401500366303  0.4996288104377058   F   F   F
  0.1667206469599876  0.3761856782250490  0.4977634040395245   F   F   F
  0.1677411996324736  0.6243083360944155  0.5000127902606266   F   F   F
  0.5816734260999326  0.4381818209024004  0.6458189339099789   F   F   F
  0.5807029060159365  0.6850818677140325  0.6385590271288848   F   F   F
  0.9171730926028587  0.1852076734736343  0.6388832295931266   F   F   F
  0.5818591694893058  0.9353773590634660  0.6391532064733667   F   F   F
  0.8304783866802552  0.7506201973975237  0.5928256258025755   F   F   F
  0.8318687870607846  0.2480549637060960  0.5914249197838473   F   F   F
  0.8333517069221728  0.5038243169364165  0.5889619381310212   F   F   F
  0.8322495707181616  0.0020662865571666  0.5922789367218186   F   F   F
  0.5010847328489589  0.7563475735137715  0.5928016864738908   F   F   F
  0.4177592141663879  0.0651676508927537  0.6400100917041911   F   F   F
  0.4269942097058319  0.3049315330465561  0.6548485163934004   F   F   F
  0.4119629641361442  0.8124301059681969  0.6397700819847856   F   F   F
  0.3980423772196673  0.5509012593062081  0.6522698909727680   F   F   F
  0.7524939889550240  0.5706146449310978  0.6344860830159718   F   F   F
  0.7409984514334127  0.8099750771329326  0.6399487309873138   F   F   F
  0.7471814121962481  0.3126297187965292  0.6402615331059422   F   F   F
  0.7476437612701758  0.0666212763268206  0.6393454944418977   F   F   F
  0.0822020204335985  0.3114910793571752  0.6397899802872260   F   F   F
  0.6666108089149461  0.8745664018236639  0.4989244781075470   F   F   F
  0.0869639776597708  0.5610250134163905  0.6424811517957849   F   F   F
  0.0845997811331571  0.0597931987329900  0.6423480245108735   F   F   F
  0.0849366521597261  0.4350680461760490  0.6384227249127576   F   F   F
  0.0827522466452848  0.1850743658769147  0.6400737200732891   F   F   F
  0.4184861206941051  0.1878837455822193  0.6398126129528023   F   F   F
  0.4151609363773900  0.4189541700513786  0.6298389865992675   F   F   F
  0.0843394443878651  0.9348302484990825  0.6407217790116562   F   F   F
  0.0830117177510274  0.6870416591132980  0.6398007335470197   F   F   F
  0.9130407141547394  0.4347499870290790  0.6374002805304144   F   F   F
  0.9166371803613131  0.6875220486162235  0.6397868629162389   F   F   F
  0.9144841282369356  0.9357270410387173  0.6406965910953204   F   F   F
  0.2405946271094379  0.4417148463636806  0.6417004916447766   F   F   F
  0.2540118674085008  0.6765401964959565  0.6635685058272713   F   F   F
  0.5788341189497928  0.1904700219692259  0.6441725870034816   F   F   F
  0.2519528258117063  0.9299307703521791  0.6374172796025519   F   F   F
  0.0840509142894845  0.8118294662935952  0.6418411458039230   F   F   F
  0.9166666865332829  0.8124999999834799  0.3605200052333331   F   F   F
  0.0009510317701711  0.1198091057165982  0.6191990766079130   F   F   F
  0.8333332538436267  0.6249999999803961  0.4070133268666680   F   F   F
  0.9996895602379965  0.5012967651696627  0.5068349593547552   F   F   F
  0.3310880658709436  0.4992317298769890  0.5010941013525567   F   F   F
  0.3301276266440922  0.2479346270280161  0.5027791259086811   F   F   F
  0.3331591813705828  0.0008861299144272  0.5057801862638698   F   F   F
  0.3337693130488475  0.7508524735027891  0.5016873359659044   F   F   F
  0.6659184985126458  0.0001314320089207  0.5056597517324022   F   F   F
  0.6685995008158940  0.4995950356937300  0.5007614047681344   F   F   F
  0.6671552225877448  0.2477186323965057  0.5031548493042948   F   F   F
  0.6654750532448190  0.7518938312852441  0.5021514644282874   F   F   F
  0.1660019487343973  0.0011027973878086  0.5065997660416599   F   F   F
  0.1666008931534648  0.2481479676793796  0.5062172219077397   F   F   F
  0.1634681925746690  0.4997877996055777  0.5023728194584365   F   F   F
  0.5002110328341800  0.9992337634443302  0.5054976655871641   F   F   F
  0.1643180668473576  0.7512896031599325  0.5033760358359558   F   F   F
  0.5008975047807240  0.7526227802609853  0.5039324127383651   F   F   F
  0.8341349262958246  0.0002597787789469  0.5065611963604226   F   F   F
  0.5013432633375530  0.4997102579307366  0.5003685634653579   F   F   F
  0.5011743999181562  0.2479004457725154  0.5019659345425467   F   F   F
  0.8349628914650893  0.2487306041558597  0.5029278066676994   F   F   F
  0.9999240346188643  0.7507084948680358  0.5064823557703235   F   F   F
  0.0008703768762572  0.2494577157267699  0.5047913999920155   F   F   F
  0.0002905915547728  0.0000139148692284  0.5067460408936810   F   F   F
  0.8333332538436267  0.8749999404036828  0.4070133268666680   F   F   F
  0.0000000000000000  0.6249999999803961  0.4070133268666680   F   F   F
  0.0000000000000000  0.8749999404036828  0.4070133268666680   F   F   F
  0.3333333432766779  0.1249999999871179  0.4070133268666680   F   F   F
  0.3333333432766779  0.3750000000061604  0.4070133268666680   F   F   F
  0.3333333432766779  0.6249999999803961  0.4070133268666680   F   F   F
  0.3333333432766779  0.8749999404036828  0.4070133268666680   F   F   F
  0.6666666865533486  0.1249999999871179  0.4070133268666680   F   F   F
  0.6666666865533486  0.3750000000061604  0.4070133268666680   F   F   F
  0.6666666865533486  0.6249999999803961  0.4070133268666680   F   F   F
  0.8360105374635580  0.5000840506873416  0.5028025237262668   F   F   F
  0.6666666865533486  0.8749999404036828  0.4070133268666680   F   F   F
  0.1666666716383389  0.3750000000061604  0.4070133268666680   F   F   F
  0.1666666716383389  0.6249999999803961  0.4070133268666680   F   F   F
  0.1666666716383389  0.8749999404036828  0.4070133268666680   F   F   F
  0.5000000000021103  0.1249999999871179  0.4070133268666680   F   F   F
  0.5000000000021103  0.3750000000061604  0.4070133268666680   F   F   F
  0.5000000000021103  0.6249999999803961  0.4070133268666680   F   F   F
  0.5000000000021103  0.8749999404036828  0.4070133268666680   F   F   F
  0.8333332538436267  0.1249999999871179  0.4070133268666680   F   F   F
  0.8333332538436267  0.3750000000061604  0.4070133268666680   F   F   F
  0.1666666716383389  0.1249999999871179  0.4070133268666680   F   F   F
  0.0000000000000000  0.3750000000061604  0.4070133268666680   F   F   F
  0.8357897366852427  0.7517684802195390  0.5025217345839579   F   F   F
  0.8368962354541125  0.3721842108721560  0.6031863115490452   F   F   F
  0.8318387474956452  0.8755618800518619  0.6176068063890341   F   F   F
  0.8405307963154129  0.6266182730352483  0.6031453863517839   F   F   F
  0.9993948755178792  0.8744540923965687  0.6210594795067550   F   F   F
  0.3316206069119900  0.1197710339332403  0.6133108850336200   F   F   F
  0.3342631979140620  0.6239258542734234  0.5956076829050119   F   F   F
  0.3257764175544153  0.3735021380762760  0.5928551770470420   F   F   F
  0.6712160978892854  0.3717286889126541  0.5943394787111487   F   F   F
  0.6654934411654310  0.1242864257125120  0.6120181106392266   F   F   F
  0.3345018606251173  0.8785755825361221  0.6029972789424392   F   F   F
  0.1585709478506843  0.6266750996625206  0.6018409746601137   F   F   F
  0.1663039136599025  0.8726425679522265  0.6182174272617331   F   F   F
  0.5018304192711938  0.3710965692475767  0.5950482812951137   F   F   F
  0.5003041987235051  0.1218912096568232  0.6060993817418208   F   F   F
  0.1676836662728007  0.1224631482997580  0.6217271316308555   F   F   F
  0.1629654601858661  0.3708376096911579  0.6084940918846016   F   F   F
  0.6651860117216941  0.8807835221449096  0.6068655847556101   F   F   F
  0.6663406743941280  0.6266262288054349  0.5935227349737460   F   F   F
  0.9990796392295422  0.3733035665709465  0.6155485425190577   F   F   F
  0.9998548550904758  0.6216819124933153  0.6423243056046744   F   F   F
  0.8336467889410031  0.1222669286480667  0.6183007377853045   F   F   F
  0.5003796733472541  0.8764333880726483  0.6097370933940596   F   F   F
  0.0000000000000000  0.1249999999871179  0.4070133268666680   F   F   F
  0.5041036420879337  0.6247896935326764  0.5938404045915533   F   F   F
  0.9163955028434074  0.9993961053890530  0.6039502325122754   F   F   F
  0.5844074337210046  0.7500807833513434  0.5994245040854693   F   F   F
  0.5909486103847428  0.5007528437890798  0.5937535887518806   F   F   F
  0.2422679633384988  0.4976506109034347  0.5941907766409997   F   F   F
  0.2492799233041225  0.7524407610886428  0.5922586513349302   F   F   F
  0.5843730148020825  0.2471454818555472  0.5971936003832141   F   F   F
  0.5825413389561049  0.0009069081679414  0.6043101844258061   F   F   F
  0.2496312347037772  0.9974393833487909  0.6042292519896222   F   F   F
  0.2490160841894138  0.2455871565690728  0.6037143632331237   F   F   F
  0.4170622653373997  0.0000236938426426  0.6046766771137513   F   F   F
  0.4147089674325812  0.2486506598680549  0.5911225594468874   F   F   F
  0.4160563878756420  0.7499382430275219  0.5945939264660538   F   F   F
  0.7565498383960971  0.5026152077735375  0.5955493604512867   F   F   F
  0.7517681174714284  0.7525076148580609  0.5905659433284498   F   F   F
  0.7540393468240083  0.2476423650335207  0.5944829294663165   F   F   F
  0.7493160592114734  0.0014654915675152  0.6042608292717375   F   F   F
  0.0833516508075789  0.2477767024488315  0.6031377340584996   F   F   F
  0.0810244697489750  0.5000807238324043  0.6035864536411140   F   F   F
  0.0803084189060570  0.7506991222301309  0.6031951345456079   F   F   F
  0.0839060317856095  0.9981405974345776  0.6038303150855597   F   F   F