Au O  Sr Ti H 
 1.0000000000000000
    23.6707801818999997    0.0000000000000000    0.0000000000000000
     0.0000000000000000   22.3170261383000010    0.0000000000000000
     0.0000000000000000    0.0000000000000000   30.0000000000000000
 Au  O   Sr  Ti  H  
  50 264  72  72   1
Selective dynamics
Cartesian
 17.0129485314421700 11.7342795413717127 22.6161101731697833   F   F   F
 14.7902387720231552 12.6451118909045341 21.1189053735021908   F   F   F
 17.0171274428254797  5.7795635663484726 20.7538955081107659   F   F   F
  6.8800520422159446 16.6385256018720860 20.9638433064381076   F   F   F
 12.1604412847184769 13.4859574487510994 23.3007239680484588   F   F   F
 13.6629176449836400 16.1886053112734061 23.7770516304498827   F   F   F
 13.0236680868412993  8.5772598595860678 24.8880258986943268   F   F   F
  5.7208681230208356 10.4320789457496499 21.2819737331821912   F   F   F
  6.6859836700631510 14.7376486054983804 22.9845519457224938   F   F   F
 14.2609249052395874  6.4476669256547181 23.6344380713791899   F   F   F
 12.1798012851426183 10.7820538375195447 20.3390410124033814   F   F   F
 13.3091898777964559 10.8435736608590041 22.8812174067507073   F   F   F
 10.9709668006876377 15.5127927689516483 24.8972555557382442   F   F   F
 18.0994481799988058  9.6271373761213539 21.1635392162680276   F   F   F
 17.3638400922936214 13.7387474584172207 20.8174655813129554   F   F   F
 15.0569528502746657 13.0199527844187219 24.0010355261681632   F   F   F
 14.0772127270308403 17.5214508843539853 21.3759508160787099   F   F   F
 11.4526560180450332 17.3886450463876550 22.7161551973060121   F   F   F
  8.2730379623766481 11.1721215512879493 20.9225678919468905   F   F   F
 10.2008255646635639  8.3049283963778588 24.4717285122850150   F   F   F
  8.8244401795383212  6.6641651234709620 22.6715087298934677   F   F   F
 10.4387389586661143  5.0948319927326358 20.9123950428536425   F   F   F
  9.2181413122934490 18.2107435303782204 21.2008435560006347   F   F   F
  6.8641537566304143 11.9631583721513088 23.3312209846034300   F   F   F
 13.1480241122124344  4.6428584595844224 21.3505736227396845   F   F   F
 10.7462112534845335 12.9439241426973499 21.0812765776713888   F   F   F
 14.5244331475960298  7.1175173163369729 20.9288258564088210   F   F   F
 16.6971328187430252 16.9077144413183866 20.6497173733755197   F   F   F
 15.5335182508688305  9.8458789299302136 24.3678177992744551   F   F   F
  8.7205194741371397 13.7914011691123761 24.6021408088176941   F   F   F
 13.5246027198627665 11.3834568600169650 25.7109616724636645   F   F   F
 15.7293760133563438  4.3274770095561959 22.5661620839650077   F   F   F
 11.1857536129652750 10.0644221063173269 26.3845818559152896   F   F   F
 12.2190182002371763  8.4168347409953856 22.0247820375234653   F   F   F
  6.7146132993421075  7.5278277418350941 21.0799979318931889   F   F   F
 15.8447248959847080 15.2001136853426555 22.4629007984989286   F   F   F
  9.4120357939936348  8.5224333985842797 20.7032353027631935   F   F   F
  8.9035248695074998 10.9863086478988539 25.0058897938238189   F   F   F
 10.9707941152990802 12.7953760870203492 25.9014414752694684   F   F   F
  7.7354045243439122  9.2344887751779812 23.0854782791684698   F   F   F
 11.5368738856402508  5.9894448322416531 23.2570518996353961   F   F   F
 10.0851408376239071 15.5895521948209534 20.9660807482526330   F   F   F
 16.5730817443183405  7.7222219738427675 22.6967436922023502   F   F   F
 18.3273149850632215  9.5782676730787095 23.8786659020322460   F   F   F
  6.0684089709751836 13.2127238192746770 20.8487683856965553   F   F   F
 15.3271303392138378  9.8382841842255537 20.9096743609503548   F   F   F
 13.3812419272159584 14.2772371014517692 25.8205971153818155   F   F   F
 12.9217034213606894 14.8352453917735740 21.0410023799742589   F   F   F
 10.4838008638629958 10.5914238967846934 22.6795372662607910   F   F   F
  8.8276208675367247 16.4384398911871408 23.3278545893538194   F   F   F
  5.9210163256712409  4.2063013631775901 13.6227828105452726   F   F   F
 17.7416668449468879 20.9421724849121560 13.6595197162196342   F   F   F
 17.7306483636347174 15.3676142681159646 13.7186972966411602   F   F   F
 17.7446569410742185  9.7828846212159011 13.6740667446016921   F   F   F
 17.7570175356558266  4.2374493283557060 13.6722632334554124   F   F   F
  9.8827956605440637 20.8828648157873609 13.6189209605005459   F   F   F
  9.8680504850200066 15.2764190370925679 13.6433108922158457   F   F   F
  9.8605088424933633  9.7153891476821013 13.6132350288595614   F   F   F
  2.0019748504614761 15.3275717456620306 13.5918695742540869   F   F   F
  1.9865846935684952 20.9016213430128133 13.6049844485833802   F   F   F
  1.9576381343848266  9.7466953315984384 13.5867598621671029   F   F   F
  1.9835057157681075  4.1629399533207954 13.5880804333692016   F   F   F
 21.6982715650143518 18.1248199772783174 13.6253462137783625   F   F   F
 21.6915801126228089 12.5313124158893796 13.6303790180084423   F   F   F
  5.9467076715860454  9.8021032317703742 13.6479403315354748   F   F   F
 21.6860174255957432  1.3907229264475984 13.6286200072125929   F   F   F
 21.6855096542939059  6.9195180336271536 13.6586672370660978   F   F   F
  9.8730430824452160  4.1758074660538691 13.6077715522825624   F   F   F
  5.9752019660734126 15.3382447129832808 13.6826125552148703   F   F   F
 21.6923770051455023 20.9168129555294904 13.6104995400791022   F   F   F
 13.7904482923764515  4.2187271489810767 13.6521997768155749   F   F   F
 -0.0053311302320111  2.7941593508487004 14.9596232768240487   F   F   F
 13.8165050233909223 18.0754700022638097 13.6623355767689443   F   F   F
 -0.0014789915514900  8.3292366401171911 14.9574744086350329   F   F   F
 23.6672927916310556 13.9949174896375474 14.9318509367282068   F   F   F
  7.8954138499352533  2.7930289077746075 14.9513282765762501   F   F   F
  0.0023117456034080 19.5309937895192540 14.9859333420536558   F   F   F
  7.8945210661688501 19.5000351697082763 14.9652973316953961   F   F   F
 15.7633948063632712  2.8061277001277243 14.9748853272000346   F   F   F
  7.9444703383367896 13.9505436988701135 15.1326006999035378   F   F   F
  7.9146349275577590  8.4460100765843737 15.0898304600304769   F   F   F
 15.7553765556203729  8.4467664881308000 15.0971709418950315   F   F   F
 21.6659154751457663 15.3226984998452576 13.5873060541799777   F   F   F
 21.6800133990882138  9.7130364038593378 13.5706184287857052   F   F   F
 21.6798665851081402  4.1493809092960525 13.5744501322666338   F   F   F
 13.7920249047187351 20.8909897104566511 13.6128695722101511   F   F   F
 13.7947649775186694 15.3085242674731159 13.6374309664114381   F   F   F
 13.7959945825547567  9.7955976526404189 13.6799868024609363   F   F   F
  5.9173577651717117 20.8874642986135370 13.6224109938866267   F   F   F
 15.7514574070182505 13.9664683972607140 15.0885109882952602   F   F   F
 13.8381451205590196 12.5520905928868327 13.6516325716987215   F   F   F
 13.7978177139856442  1.3914773894301860 13.6430882438400296   F   F   F
 21.6982156369999721 15.3429554700000619 10.8156001569999933   F   F   F
 21.6982156369999721  9.7636982699999884 10.8156001569999933   F   F   F
 21.6982156369999721  4.1844424010000720 10.8156001569999933   F   F   F
 13.8079546360000549 20.9222120050000342 10.8156001569999933   F   F   F
 13.8079546360000549 15.3429554700000619 10.8156001569999933   F   F   F
 13.8079546360000549  9.7636982699999884 10.8156001569999933   F   F   F
 13.8079546360000549  4.1844424010000720 10.8156001569999933   F   F   F
  5.9176950450000287 20.9222120050000342 10.8156001569999933   F   F   F
 21.6982156369999721 20.9222120050000342 10.8156001569999933   F   F   F
  5.9176950450000287 15.3429554700000619 10.8156001569999933   F   F   F
  5.9176950450000287  4.1844424010000720 10.8156001569999933   F   F   F
 17.7530837259999217 20.9222120050000342 10.8156001569999933   F   F   F
 17.7530837259999217 15.3429554700000619 10.8156001569999933   F   F   F
 17.7530837259999217  9.7636982699999884 10.8156001569999933   F   F   F
 17.7530837259999217  4.1844424010000720 10.8156001569999933   F   F   F
  9.8628241350000643 20.9222120050000342 10.8156001569999933   F   F   F
  9.8628241350000643 15.3429554700000619 10.8156001569999933   F   F   F
  9.8628241350000643  9.7636982699999884 10.8156001569999933   F   F   F
  5.9176950450000287  9.7636982699999884 10.8156001569999933   F   F   F
  1.9725650740000149  1.3948141340000613 10.8156001569999933   F   F   F
  1.9725650740000149  6.9740706679999214 10.8156001569999933   F   F   F
  1.9725650740000149 12.5533272030000536 10.8156001569999933   F   F   F
 21.6982156369999721  6.9740706679999214 10.8156001569999933   F   F   F
 21.6982156369999721  1.3948141340000613 10.8156001569999933   F   F   F
 13.8079546360000549 18.1325837370000720 10.8156001569999933   F   F   F
 13.8079546360000549 12.5533272030000536 10.8156001569999933   F   F   F
 13.8079546360000549  6.9740706679999214 10.8156001569999933   F   F   F
 13.8079546360000549  1.3948141340000613 10.8156001569999933   F   F   F
  5.9176950450000287 18.1325837370000720 10.8156001569999933   F   F   F
  5.9176950450000287 12.5533272030000536 10.8156001569999933   F   F   F
  5.9176950450000287  6.9740706679999214 10.8156001569999933   F   F   F
  5.9176950450000287  1.3948141340000613 10.8156001569999933   F   F   F
 17.7530837259999217 18.1325837370000720 10.8156001569999933   F   F   F
 17.7530837259999217 12.5533272030000536 10.8156001569999933   F   F   F
 17.7530837259999217  6.9740706679999214 10.8156001569999933   F   F   F
 17.7530837259999217  1.3948141340000613 10.8156001569999933   F   F   F
  9.8628241350000643 18.1325837370000720 10.8156001569999933   F   F   F
  9.8628241350000643 12.5533272030000536 10.8156001569999933   F   F   F
  9.8628241350000643  6.9740706679999214 10.8156001569999933   F   F   F
  9.8628241350000643  1.3948141340000613 10.8156001569999933   F   F   F
  1.9725650740000149 18.1325837370000720 10.8156001569999933   F   F   F
  9.8628241350000643  4.1844424010000720 10.8156001569999933   F   F   F
  1.9725650740000149 20.9222120050000342 10.8156001569999933   F   F   F
  1.9725650740000149 15.3429554700000619 10.8156001569999933   F   F   F
  1.9725650740000149  9.7636982699999884 10.8156001569999933   F   F   F
 19.7256482699999580 11.1585130689999925 12.2103998060000407   F   F   F
 19.7256482699999580 16.7377696039999648 12.2103998060000407   F   F   F
  1.9718961234544119  1.3760013555063451 13.6295777779723988   F   F   F
  1.9771801192279046  6.9610447785616039 13.6203957900129247   F   F   F
  1.9868340591540250 12.5522985744710649 13.6183805127159658   F   F   F
  1.9771236062265725 18.1218039276850469 13.6262149795379521   F   F   F
  9.8701744131866693  1.3728898538094996 13.6601913204564269   F   F   F
  9.8349978355490464  6.9477527620430282 13.7206398894072024   F   F   F
  9.8463684064253751 12.4843872276616636 13.7366889985544720   F   F   F
  9.8631149292970921 18.0710319397725101 13.6540798856794385   F   F   F
 17.7401742763003192  1.4307251358701385 13.5987549225664530   F   F   F
 17.6957265100074039  7.0113089337566734 13.6365337798586967   F   F   F
 17.7087074587452236 12.5929859956965817 13.6105727155550404   F   F   F
 17.7352266441163025 18.1484523408135701 13.5913114700489199   F   F   F
  5.9283976368729006  1.3805379357899124 13.6239949714634285   F   F   F
 21.6727640950998364  7.0788078791684175 16.5129044247838550   F   F   F
  5.9718046899707318  7.0101620904317308 13.6258495959510881   F   F   F
  5.9634825810578658 12.5990136485929689 13.6159318188205294   F   F   F
  5.9233731063855366 18.0865317171976479 13.6669080323096708   F   F   F
 19.7256482699999580  5.5792565349999723 12.2103998060000407   F   F   F
 13.8304169089721203  7.0194682330794835 13.6247369116311603   F   F   F
 19.7256482699999580  0.0000000000000000 12.2103998060000407   F   F   F
 11.8353900909999528 11.1585130689999925 12.2103998060000407   F   F   F
  1.9725650740000149  4.1844424010000720 10.8156001569999933   F   F   F
  0.0000000000000000  0.0000000000000000 12.2103998060000407   F   F   F
  0.0000000000000000  5.5792565349999723 12.2103998060000407   F   F   F
  0.0000000000000000 11.1585130689999925 12.2103998060000407   F   F   F
  0.0000000000000000 16.7377696039999648 12.2103998060000407   F   F   F
  7.8902602960000570  0.0000000000000000 12.2103998060000407   F   F   F
  7.8902602960000570  5.5792565349999723 12.2103998060000407   F   F   F
  7.8902602960000570 11.1585130689999925 12.2103998060000407   F   F   F
  7.8902602960000570 16.7377696039999648 12.2103998060000407   F   F   F
 15.7805205919999434  0.0000000000000000 12.2103998060000407   F   F   F
 15.7805205919999434  5.5792565349999723 12.2103998060000407   F   F   F
 15.7805205919999434 11.1585130689999925 12.2103998060000407   F   F   F
 15.7805205919999434 16.7377696039999648 12.2103998060000407   F   F   F
  3.9451301480000271  0.0000000000000000 12.2103998060000407   F   F   F
  3.9451301480000271  5.5792565349999723 12.2103998060000407   F   F   F
  3.9451301480000271 11.1585130689999925 12.2103998060000407   F   F   F
  3.9451301480000271 16.7377696039999648 12.2103998060000407   F   F   F
 11.8353900909999528  0.0000000000000000 12.2103998060000407   F   F   F
 11.8353900909999528  5.5792565349999723 12.2103998060000407   F   F   F
 11.8353900909999528 16.7377696039999648 12.2103998060000407   F   F   F
  3.9554118925791593  2.7654383383991750 14.9684413871484665   F   F   F
 21.7177172321534435  1.4289483290832310 16.4316567540435834   F   F   F
  3.9716209386013239 19.4876706835878757 14.9979204200538465   F   F   F
  5.9615439246127861  4.1946614015782515 16.4149663665263752   F   F   F
 17.7374822007202155 20.8435355788608447 16.4290891043613030   F   F   F
 17.7952330704937864 15.1830026865004619 16.5928511703813797   F   F   F
 17.8247493973617779  9.6939505081854467 16.4841361000639779   F   F   F
 10.0161012411071777  9.9059929252299437 16.3663991394663135   F   F   F
 10.0170184262016004 15.3533084305565790 16.3976219395589240   F   F   F
 17.7171451101059780  4.0961946377211120 16.5215518910348109   F   F   F
  9.8449405333664348 20.9043354006278044 16.3827264862431505   F   F   F
  1.9830434092834128 20.9485153788934717 16.3763376549516515   F   F   F
  9.8375249867131487  4.2682624969490286 16.3939849834706983   F   F   F
  2.0497196632935304 15.3919489086411563 16.3546998360796785   F   F   F
  1.9481475380116959  9.7842818554738766 16.3498037245513110   F   F   F
  1.9832429335629345  4.2282107341678721 16.3479561022064992   F   F   F
 11.8206899802440368  2.8005992626709548 14.9903175300754938   F   F   F
 23.6612362972679904 11.1680642142690960 17.8191752973577806   F   F   F
 23.6592504847351925 16.8211243651744233 17.7651126905748953   F   F   F
  7.9209592552281736  5.6742546336380855 17.7806593521429512   F   F   F
  7.9061518933553900 22.3122797687316883 17.7609451258558764   F   F   F
 -0.0015977219950370 22.2993833013110070 17.7969472816631935   F   F   F
 -0.0120088645544655  5.5762053843193593 17.7280555724878504   F   F   F
  7.8910534662794509 11.0808366910454339 17.7331479345606766   F   F   F
  7.9455701701932639 16.5135909163297505 17.7325531880534371   F   F   F
 15.7081654752515600  5.5221665013426149 17.7254191125647438   F   F   F
 15.7594850185607385  0.0079749220233581 17.7564308880670971   F   F   F
 15.7638845390808466 16.5602801692834980 17.6992619877131219   F   F   F
 15.7923674877938662 11.0022876782790888 17.7298584032091462   F   F   F
  3.9651151717907207 22.2782245305704976 17.7684650340550832   F   F   F
  3.9829567649458215  5.5507283348668333 17.7990259973524765   F   F   F
  4.0417770183984905 16.7351495087087194 17.8527903055813368   F   F   F
  5.8799109856106977  9.7285055604363322 16.4735782082901387   F   F   F
  3.9132324967756085 11.2115489851322572 17.6438608714131391   F   F   F
  5.8969694669904644 15.2515636445833938 16.5584568810683272   F   F   F
 13.7503271867036556  4.1529921990713801 16.4748630615635392   F   F   F
 21.6670194257423141 18.1511905645576128 16.4151852368306237   F   F   F
 21.6972145558764602 12.6069898514317114 16.4143527039664825   F   F   F
 13.7645870742194223 12.5011946238267697 16.4834946141043908   F   F   F
 13.8774539164964086 18.1809832340276856 16.5110675066395700   F   F   F
 13.8041414855875058  6.9569575303642228 16.3691159468299752   F   F   F
 13.7914736314743696  1.4113923700349842 16.4082744012813002   F   F   F
  6.0022354223117471 18.1403686419165702 16.5432155473087015   F   F   F
  5.9615227816224987 12.4751211122066614 16.3256934388144295   F   F   F
  5.9033959987270235  7.0013331242005776 16.3804158842690839   F   F   F
  5.9431415940719772  1.3925145964676922 16.4173424303185520   F   F   F
 17.7173210317509167 18.0371954918076405 16.3707538288391099   F   F   F
 17.6703150024916873 12.4444279977221690 16.3344288609779689   F   F   F
  9.7989795087363714 18.1095050169547527 16.4391403492994037   F   F   F
 17.7148791869925546  1.3329234081650656 16.3384858476357593   F   F   F
 17.7086149209866619  6.9434825286762747 16.4366500676862870   F   F   F
  9.8467230446379030  7.1303603767125328 16.5749964042217428   F   F   F
  9.9483603045662790 12.6064558774681004 16.6651296656724028   F   F   F
  9.8591672418672065  1.4534974494674306 16.4193351932977372   F   F   F
  2.0091745855472096 18.1404551761021899 16.4199497358608184   F   F   F
  1.9636899078567700 12.5867680560086015 16.3947679988059356   F   F   F
  2.0296477076557724  6.9994264854230934 16.4132256107816836   F   F   F
  1.9475994787154327  1.4141270426185280 16.4290660479633566   F   F   F
 21.6772227554690318 20.9480061654296783 16.3858473274168546   F   F   F
 21.6167705743388936 15.3971837985623914 16.3505770639136934   F   F   F
 13.8128148706784106 20.9370674082517567 16.3694071294333483   F   F   F
 21.6814164888190568  4.2558454282091382 16.3317394138311975   F   F   F
 21.6918952089113652  9.8210932549568586 16.3198507725310833   F   F   F
 13.6462655971979121  9.7328387059161621 16.5485583619023160   F   F   F
 13.7179740611343455 15.3199387905619204 16.4128784009302109   F   F   F
  5.9568996823144227 20.9166415508159389 16.3559109063102319   F   F   F
 11.7823410803362041 11.2577139961732602 18.2725416986353046   F   F   F
 11.8018222129496237  5.6410189126824015 17.7090229705269202   F   F   F
 11.8258544996944011 -0.0004039658987745 17.7299724875069522   F   F   F
 17.8391087142287930 15.4762745293444386 19.7223276391449360   F   F   F
 17.7190876433912692 20.8995186009031642 19.1964793517453955   F   F   F
  5.9991353972227994  4.1561873645708340 19.2354883516129362   F   F   F
 17.6538520853172827  4.3322608548568189 19.4023846459740597   F   F   F
 17.9023495872677536  9.7309698776619147 19.1672780052890062   F   F   F
  9.8806522377339476 20.8642484849366419 19.1936932154003834   F   F   F
  9.9834786443402663 15.0780119832241954 19.0031988768852891   F   F   F
 13.9663084765462884 18.0886140784017826 19.3709431835636430   F   F   F
 21.6804185177492172  1.3471458991141012 19.2819703661070250   F   F   F
 21.6080583291655834 12.5311364696445686 19.2835351133179316   F   F   F
 21.6427083951047088  6.9129781580241314 19.3295272745347226   F   F   F
 21.6343346908210954 18.1351324670069936 19.2477943665662998   F   F   F
 13.7800611198756044  1.4611915424188531 19.1944732057388094   F   F   F
 13.8028072495187519  7.1292020655723274 19.0252266444853291   F   F   F
 14.0247531346209637 12.5930181305261790 19.1862343181684452   F   F   F
  5.8573631701377700 12.8004846894211148 18.8692095548348640   F   F   F
  6.1981984168794844 17.8155924685962823 19.4125880366103800   F   F   F
  5.8971519011146256  7.0495140748047831 19.2509032004704608   F   F   F
  5.9419918964253657  1.3211507143514274 19.2682944117550647   F   F   F
 21.6982156369999721 12.5533272030000536 10.8156001569999933   F   F   F
 11.8260719601783713  8.3484460169468218 14.9938826692545817   F   F   F
 11.8354703001145758 19.4739892298502184 15.0265164489126519   F   F   F
 11.8451278588640090 13.8577037317436798 15.0036782888510416   F   F   F
 19.7008079963362341 13.9059730319695785 14.9972352744524748   F   F   F
 19.7122538583326765 19.5120589126922965 14.9579107408955636   F   F   F
 19.7093775487275202  8.3239346525888873 14.9924428832752223   F   F   F
 19.7114599413154679  2.7749023784075773 14.9888643131311952   F   F   F
  3.9464077859739759  8.3953456138025526 14.9329021211857729   F   F   F
  3.9705650639484187 13.9327054549776346 15.0003837078188411   F   F   F
 13.7686638068641756  9.7789151504067338 19.3745680172992962   F   F   F
 13.7456908392937525 15.2889899486494212 19.1567708138664727   F   F   F
 21.7102026637557088  4.1332844899248267 19.1664968877937163   F   F   F
 13.7730604978041899 20.8748409713934642 19.1745961942011043   F   F   F
 19.6580713369272786 16.7516105652565166 17.7847687740772500   F   F   F
 19.6909831986995556  5.5358491087639425 17.7427475935154959   F   F   F
 19.7260850687658369 11.2438604501811188 17.6688581439306631   F   F   F
 19.6999966449502253  0.0461133711055830 17.7683681016546124   F   F   F
 11.8610665637738499 16.8794285677466931 17.7840505942166303   F   F   F
  9.8886865274958762  1.4543481683451289 19.2003027511258395   F   F   F
 10.1072860768908921  6.8051649933919167 19.6454554918019824   F   F   F
  9.7514847671506715 18.1310239104340418 19.1931024595435389   F   F   F
  9.4219736142477117 12.2944778035591007 19.5680967291830115   F   F   F
 17.8121198007553829 12.7344219458241508 19.0345824904791776   F   F   F
 17.5400114590086211 18.0762349677472400 19.1984619296194126   F   F   F
 17.6863669640990864  6.9769656059914649 19.2078459931782213   F   F   F
 17.6973111273952561  1.4867887651525065 19.1803648332570340   F   F   F
  1.9457859561917101  6.9515545598614281 19.1936994086167196   F   F   F
 15.7791979247042828 19.5177212491777183 14.9677343432264038   F   F   F
  2.0585051989281111 12.5204098886536865 19.2744345538735118   F   F   F
  2.0025428226398811  1.3344063790166552 19.2704407353262361   F   F   F
  2.0105168226593855  9.7094249584499721 19.1526817473826476   F   F   F
  1.9588102398988585  4.1303094608043986 19.2022116021987586   F   F   F
  9.9058929721262459  4.1930064611200910 19.1943783885841768   F   F   F
  9.8271832651009898  9.3498111637864429 18.8951695979779544   F   F   F
  1.9963804487687817 20.8626310906275521 19.2216533703495820   F   F   F
  1.9649521234064153 15.3327266645324638 19.1940220064106342   F   F   F
 21.6123860418818978  9.7023268241535874 19.1220084159123971   F   F   F
 21.6975172028892693 15.3434475296258324 19.1936058874871094   F   F   F
 21.6465527793329038 20.8826448331751777 19.2208977328595623   F   F   F
  5.6950625312536509  9.8577617719734825 19.2510147493432022   F   F   F
  6.0126590770206274 15.0983652488108344 19.9070551748181686   F   F   F
 13.7014551914443548  4.2507244588498478 19.3251776101044328   F   F   F
  5.9639199559974427 20.7532893087589692 19.1225183880765108   F   F   F
  1.9895507162340318 18.1176194191162985 19.2552343741177410   F   F   F
 21.6982156369999721 18.1325837370000720 10.8156001569999933   F   F   F
  0.0225116639777423  2.6737829438837193 18.5759722982373141   F   F   F
 19.7256482699999580 13.9481413360000008 12.2103998060000407   F   F   F
 23.6634318305338383 11.1874530113366344 15.2050487806426826   F   F   F
  7.8371128280815023 11.1413675647334838 15.0328230405766448   F   F   F
  7.8143784822646909  5.5331635519738906 15.0833737772604533   F   F   F
  7.8861377478047956  0.0197757844621768 15.1734055879161005   F   F   F
  7.9005800406430149 16.7567942771690284 15.0506200789771221   F   F   F
 15.7628103973536753  0.0029331715784457 15.1697925519720798   F   F   F
 15.8262718135410161 11.1494754701419456 15.0228421430440413   F   F   F
 15.7920846210811003  5.5283431941368208 15.0946454791289106   F   F   F
 15.7523137018962984 16.7800342860192515 15.0645439328486219   F   F   F
  3.9293956382589723  0.0246111581289132 15.1979929812497012   F   F   F
  3.9435731199438191  5.5379246808667517 15.1865166572322572   F   F   F
  3.8694196531674545 11.1537773874011741 15.0711845837530873   F   F   F
 11.8403854027790256 22.2999260170590290 15.1649299676149472   F   F   F
  3.8895368402586130 16.7665497111532531 15.1012810750786048   F   F   F
 11.8566347293266645 16.7963022593644702 15.1179723821508620   F   F   F
 19.7446244823937924  0.0057974897999983 15.1968358908127623   F   F   F
 11.8671861821395925 11.1520468878169368 15.0110569039606894   F   F   F
 11.8631890532582585  5.5324007280014769 15.0589780362764909   F   F   F
 19.7642230639137111  5.5509273943414961 15.0878342000310663   F   F   F
 23.6689820220616340 16.7535811022138077 15.1944706731097963   F   F   F
  0.0206024997132764  5.5671543622749260 15.1437419997604685   F   F   F
  0.0068785288156891  0.0003105385003549 15.2023812268104983   F   F   F
 19.7256482699999580 19.5273965409999306 12.2103998060000407   F   F   F
  0.0000000000000000 13.9481413360000008 12.2103998060000407   F   F   F
  0.0000000000000000 19.5273965409999306 12.2103998060000407   F   F   F
  7.8902602960000570  2.7896282670000101 12.2103998060000407   F   F   F
  7.8902602960000570  8.3688848019999824 12.2103998060000407   F   F   F
  7.8902602960000570 13.9481413360000008 12.2103998060000407   F   F   F
  7.8902602960000570 19.5273965409999306 12.2103998060000407   F   F   F
 15.7805205919999434  2.7896282670000101 12.2103998060000407   F   F   F
 15.7805205919999434  8.3688848019999824 12.2103998060000407   F   F   F
 15.7805205919999434 13.9481413360000008 12.2103998060000407   F   F   F
 19.7890216620520079 11.1603888305364194 15.0840757117880759   F   F   F
 15.7805205919999434 19.5273965409999306 12.2103998060000407   F   F   F
  3.9451301480000271  8.3688848019999824 12.2103998060000407   F   F   F
  3.9451301480000271 13.9481413360000008 12.2103998060000407   F   F   F
  3.9451301480000271 19.5273965409999306 12.2103998060000407   F   F   F
 11.8353900909999528  2.7896282670000101 12.2103998060000407   F   F   F
 11.8353900909999528  8.3688848019999824 12.2103998060000407   F   F   F
 11.8353900909999528 13.9481413360000008 12.2103998060000407   F   F   F
 11.8353900909999528 19.5273965409999306 12.2103998060000407   F   F   F
 19.7256482699999580  2.7896282670000101 12.2103998060000407   F   F   F
 19.7256482699999580  8.3688848019999824 12.2103998060000407   F   F   F
  3.9451301480000271  2.7896282670000101 12.2103998060000407   F   F   F
  0.0000000000000000  8.3688848019999824 12.2103998060000407   F   F   F
 19.7837951353644357 16.7772368230094422 15.0756520375186369   F   F   F
 19.8099868244938619  8.3060447622964055 18.0955893464712609   F   F   F
 19.6902721387563773 19.5399373628165556 18.5282041916709517   F   F   F
 19.8960197156994951 13.9842563780641207 18.0943615905534791   F   F   F
 23.6564564133010435 19.5152148367575542 18.6317843852027529   F   F   F
  7.8497184900020205  2.6729332948994071 18.3993265510086985   F   F   F
  7.9122706807226137 13.9241695981811429 17.8682304871503845   F   F   F
  7.7113819683774230  8.3354569781591170 17.7856553114111833   F   F   F
 15.8882087076900120  8.2958788668197005 17.8301843613344495   F   F   F
 15.7527489583231883  2.7737034112619625 18.3605433191767382   F   F   F
  7.9179200132937453 19.6071942399307808 18.0899183682731248   F   F   F
  3.7534980498091350 13.9855245793903116 18.0552292398035057   F   F   F
  3.9365433836331696 19.4747869983831130 18.5465228178518942   F   F   F
 11.8787175431591354  8.2817718357315968 17.8514484388533887   F   F   F
 11.8425907120657321  2.7202493119404072 18.1829814522545306   F   F   F
  3.9692032044384971  2.7330132815841885 18.6518139489256711   F   F   F
  3.8575195853018203  8.2759926285421965 18.2548227565379761   F   F   F
 15.7454718635389099 19.6564688858919006 18.2059675426682723   F   F   F
 15.7728036298424144 13.9844339271952443 17.8056820492124572   F   F   F
 -0.0217856574855578  8.3310254526843757 18.4664562755717299   F   F   F
 23.6673444886520556 13.8740914908216091 19.2697291681401524   F   F   F
 19.7330698903691975  2.7286342424886061 18.5490221335592231   F   F   F
 11.8443772552938089 19.5593868300961020 18.2921128018217267   F   F   F
  0.0000000000000000  2.7896282670000101 12.2103998060000407   F   F   F
 11.9325265007587262 13.9434479215091507 17.8152121377465598   F   F   F
 21.6917965074880641 -0.0134771318172827 18.1185069753683266   F   F   F
 13.8333799002782136 16.7395724478884205 17.9827351225639873   F   F   F
 13.9882146552164670 11.1753143036689568 17.8126076625564629   F   F   F
  5.7346717053021541 11.1060816912729301 17.8257232992299919   F   F   F
  5.9006502682928552 16.7922401327375148 17.7677595400478339   F   F   F
 13.8325651776142866  5.5155521785329622 17.9158080114964626   F   F   F
 13.7892079812996204  0.0202394932890507 18.1293055327741079   F   F   F
  5.9089660832093562 22.2598807895648640 18.1268775596885696   F   F   F
  5.8944049906051159  5.4807749923828499 18.1114308969937916   F   F   F
  9.8721892049668671  0.0005287761055114 18.1403003134125136   F   F   F
  9.8164848075592861  5.5491432755809935 17.7336767834067324   F   F   F
  9.8483793006795821 16.7363913717560600 17.8378177939815501   F   F   F
 17.9081249213259035 11.2168767293891420 17.8664808135386011   F   F   F
 17.7949378564269551 16.7937321100571602 17.7169782998534338   F   F   F
 17.8486996271746001  5.5266411334035386 17.8344878839894925   F   F   F
 17.7368957243622702  0.0327054136176615 18.1278248781522073   F   F   F
  1.9729986040647685  5.5296391450123883 18.0941320217550476   F   F   F
  1.9179124127829201 11.1603145850277787 18.1075936092334260   F   F   F
  1.9009629306811817 16.7533719328086406 18.0958540363683227   F   F   F
  1.9861212343326318 22.2755298026458171 18.1149094525667032   F   F   F