Au  C  O Sr Ti 
 1.0000000000000000
    23.6707801818999997    0.0000000000000000    0.0000000000000000
     0.0000000000000000   22.3170261383000010    0.0000000000000000
     0.0000000000000000    0.0000000000000000   30.0000000000000000
 Au  C   O   Sr  Ti 
  50   2 266  72  72
Selective dynamics
Cartesian
 16.8612025994081876 11.6938957659345082 22.5715755217735428   F   F   F
 12.9746291538928400  4.8270099896423053 21.2737564630637230   F   F   F
 14.6581105515121539 12.7510334757440607 21.1228026058009810   F   F   F
 18.5186312725198334  6.2395770271448967 20.9198633506642473   T   T   T
  6.9332454962355730 16.6666292108767315 20.9004738227403521   F   F   F
 12.0410977026863080 13.5512301491630343 23.3252830522572339   F   F   F
 13.6780317749633546 16.2146103460517779 23.8305038629872286   F   F   F
  5.6604251744187231 10.4864139809313865 21.2841818045138318   F   F   F
  6.7391522950282257 14.8034912621655153 22.9293779060159082   F   F   F
 14.1064441987001779  6.6587574060661572 23.5692688509492996   F   F   F
 12.1375830033288370 10.8101972952573142 20.3334841496474645   F   F   F
  6.8313476805107571 12.0403286185288145 23.3128535411822604   F   F   F
 13.2226662240540200 10.9273942637011761 22.8829736557671950   F   F   F
 18.0271334011294115  9.5715618042339550 21.1590947672290177   F   F   F
 10.9511255948778867 15.5907943278087640 24.9527949997707736   F   F   F
 10.2355218310077980  5.0832625218191110 20.9644534972101653   F   F   F
  8.6912450120553810  6.7069576438841656 22.6972117795858850   F   F   F
  8.2267501219167993 11.1533307018674730 20.9019164577607590   F   F   F
 10.0277632850547853  8.3375850650800167 24.5548309110444478   F   F   F
 14.1048104776349739 17.5084028665778817 21.3901369658142642   F   F   F
 14.9563841597042018 13.0534204819345518 23.9861424880568990   F   F   F
 17.2932445885350106 13.7229912101142677 20.8137149701887090   F   F   F
 11.4870337646532175 17.3123082996854833 22.6367997338782949   F   F   F
 12.8059934139696452  8.6711885190194895 24.9245829482614489   F   F   F
 11.4054922310523903  6.0979686798246293 23.2409313625433072   F   F   F
  9.2580670145932942 18.2376559298699377 21.1927272557047708   F   F   F
 10.9190871050059783 12.8684981423962004 25.9602107628546825   F   F   F
 10.6733618508544446 12.9291921957960323 21.1073369990497532   F   F   F
 16.7150060613674043 16.8910357983766879 20.6558537100053421   F   F   F
 15.3770978579859658  9.8226747167142250 24.3622800126293981   F   F   F
  8.7084676641717582 13.8519976102175217 24.6036918446389699   F   F   F
 13.4197247440296596 11.4131496855535577 25.7177836779257305   F   F   F
 11.0396522529015222 10.1470299139342988 26.4713320706651629   F   F   F
 12.2822843398364796  8.4594619548237588 21.9867277256223517   F   F   F
  6.6487473104581207  7.6163285137640191 21.0672150861224630   F   F   F
 15.8216475507881977 15.2134105333254208 22.4718187745411448   F   F   F
  9.3950962554664343  8.5207358154529160 20.7174663403107182   F   F   F
 14.6716874097206968  7.0623167760350052 20.8575222215190585   F   F   F
 15.8662138065048914  4.9283171435023805 22.1919445769198660   T   T   T
  7.6448721847174372  9.2963500374932497 23.1034218222767116   F   F   F
  8.8398266191588508 16.5379438549656612 23.3754046159956594   F   F   F
  8.8415634753530394 11.0580687706837288 24.9982158751233463   F   F   F
 10.4243152018191161 10.5304236271371909 22.6740410167213042   F   F   F
 12.7543783908819020 14.9110332806099564 21.0458095184781726   F   F   F
 15.2786638773623231  9.9127910210787977 20.8730677736010790   F   F   F
 13.3431763094075659 14.3133673806277848 25.8608685630505768   F   F   F
  6.0816749828225776 13.2544255226330101 20.8247448793331600   F   F   F
 18.2186891030662323  9.5760232609451919 23.8740697418819501   F   F   F
 16.5538130629517219  7.6784910443306176 22.7810835837208927   F   F   F
  9.8072058398123652 15.5144871280201713 20.9978077662502791   F   F   F
 16.5033274331127338  3.0472526636123449 22.2480799851102446   T   T   T
 19.4090868008241308  5.5459399569628438 22.4430332714198570   T   T   T
  1.9841132176322223 20.9036168055800644 13.6034127084185563   F   F   F
  1.9841530705635442  4.1631758019139058 13.5889048180417440   F   F   F
  1.9725650740000149  6.9740706679999214 10.8156001569999933   F   F   F
  1.9597229146373518  9.7477026100414559 13.5856323665811374   F   F   F
  1.9956529082898651 15.3308649800960666 13.5941464655088406   F   F   F
 17.7392664414962979  9.7920161213536669 13.6480839272291181   F   F   F
  9.8755723979642038 15.2795533742330143 13.6426938112522347   F   F   F
  9.8723000006006227 20.8868139727103603 13.6205218766510701   F   F   F
 17.7522071101277099  4.1909387796381106 13.6120781635020691   F   F   F
 21.6851179208012290 12.5464734799238133 13.6231102331020466   F   F   F
 17.7334406368769351 15.3730860000942791 13.7167601120289575   F   F   F
  9.8855335863761322  9.7148866950360375 13.6267319373070279   F   F   F
 21.6881969867636499  1.3895064645348316 13.6161308589515269   F   F   F
 15.7685727382463128  2.8001154994035331 14.9863604193549929   F   F   F
  9.8692373348566313  4.1790084888751009 13.6181425709676418   F   F   F
  5.9665723028958313 15.3446015393535493 13.6829927048085214   F   F   F
 21.6916277732255622 20.9128836497910555 13.6070205589437734   F   F   F
 13.8039860369965250  4.2462466878531195 13.6700373955638810   F   F   F
 23.6650824702853981  2.7889243816157370 14.9561443695084204   F   F   F
 13.8057000533229353 18.0875917900907801 13.6599560491725036   F   F   F
 23.6663861573637746  8.3397516540798033 14.9437756792309013   F   F   F
 23.6617833678932961 13.9947617682715926 14.9295304074212147   F   F   F
  7.9034075636604832  2.8030152400704749 14.9755298751010208   F   F   F
  0.0018229643350527 19.5198699246501199 14.9816239880191109   F   F   F
  7.8913483485583251 19.4962752068063843 14.9717071553681116   F   F   F
  5.9423646465428384  9.8000049751552378 13.6510339953611766   F   F   F
  1.9725650740000149 12.5533272030000536 10.8156001569999933   F   F   F
 17.7481624175036572 20.9186307750951030 13.6406471899446320   F   F   F
 21.6914942777178226  6.9684129163696076 13.6109424073359904   F   F   F
  5.9232411156398399  4.2053567683976416 13.6242527928869848   F   F   F
 13.8092215453702085  1.4190329227619338 13.6233395688453012   F   F   F
  7.9418869038919526 13.9615065259586313 15.1118909921137572   F   F   F
 13.7931411688045138 20.9149497110311700 13.6293233179566187   F   F   F
 13.7926596007882587 15.3121689740560534 13.6383589134430743   F   F   F
 13.7827949905470231  9.8096467640753282 13.6901405067177784   F   F   F
  5.9180376676438371 20.8897701596043248 13.6205264784895448   F   F   F
 15.7491421195988863 13.9828239405491246 15.0855217899870020   F   F   F
 13.8369678282873725 12.5618033766939217 13.6437113924485143   F   F   F
 16.8240281189417829  1.9527124013839463 22.3199711527479359   T   T   T
 21.6982156369999721 15.3429554700000619 10.8156001569999933   F   F   F
 21.6982156369999721  9.7636982699999884 10.8156001569999933   F   F   F
 21.6982156369999721  4.1844424010000720 10.8156001569999933   F   F   F
 13.8079546360000549 20.9222120050000342 10.8156001569999933   F   F   F
 13.8079546360000549 15.3429554700000619 10.8156001569999933   F   F   F
 13.8079546360000549  9.7636982699999884 10.8156001569999933   F   F   F
 13.8079546360000549  4.1844424010000720 10.8156001569999933   F   F   F
 21.6831769242897572  1.3897690238982008 16.4034819712554807   F   F   F
  5.9176950450000287 20.9222120050000342 10.8156001569999933   F   F   F
  5.9176950450000287 15.3429554700000619 10.8156001569999933   F   F   F
  5.9176950450000287  4.1844424010000720 10.8156001569999933   F   F   F
 17.7530837259999217 20.9222120050000342 10.8156001569999933   F   F   F
 17.7530837259999217 15.3429554700000619 10.8156001569999933   F   F   F
 17.7530837259999217  9.7636982699999884 10.8156001569999933   F   F   F
 17.7530837259999217  4.1844424010000720 10.8156001569999933   F   F   F
  9.8628241350000643 20.9222120050000342 10.8156001569999933   F   F   F
  9.8628241350000643 15.3429554700000619 10.8156001569999933   F   F   F
  9.8628241350000643  9.7636982699999884 10.8156001569999933   F   F   F
  5.9176950450000287  9.7636982699999884 10.8156001569999933   F   F   F
  1.9725650740000149  1.3948141340000613 10.8156001569999933   F   F   F
 21.6658823232081374 15.3288196227529170 13.5995290317628470   F   F   F
 15.7558493274959162  8.4698763421302257 15.0852657086032771   F   F   F
  7.9206945122338244  8.4421312264965138 15.0937601128384618   F   F   F
 21.6982156369999721 20.9222120050000342 10.8156001569999933   F   F   F
 21.6982156369999721  1.3948141340000613 10.8156001569999933   F   F   F
  3.9451301480000271 11.1585130689999925 12.2103998060000407   F   F   F
  5.9292821659609691  1.3858711864017872 13.6291346503359652   F   F   F
 13.8079546360000549 18.1325837370000720 10.8156001569999933   F   F   F
 13.8079546360000549  6.9740706679999214 10.8156001569999933   F   F   F
 13.8079546360000549  1.3948141340000613 10.8156001569999933   F   F   F
  5.9176950450000287 18.1325837370000720 10.8156001569999933   F   F   F
  5.9176950450000287 12.5533272030000536 10.8156001569999933   F   F   F
  5.9176950450000287  6.9740706679999214 10.8156001569999933   F   F   F
  5.9176950450000287  1.3948141340000613 10.8156001569999933   F   F   F
 17.7530837259999217 12.5533272030000536 10.8156001569999933   F   F   F
 17.7530837259999217  6.9740706679999214 10.8156001569999933   F   F   F
 17.7530837259999217  1.3948141340000613 10.8156001569999933   F   F   F
  9.8628241350000643 18.1325837370000720 10.8156001569999933   F   F   F
  9.8628241350000643 12.5533272030000536 10.8156001569999933   F   F   F
  9.8628241350000643  6.9740706679999214 10.8156001569999933   F   F   F
 17.7530837259999217 18.1325837370000720 10.8156001569999933   F   F   F
  1.9757358275471435  6.9626082312535811 13.6206970288326055   F   F   F
  9.8628241350000643  1.3948141340000613 10.8156001569999933   F   F   F
  9.8708987717486050  1.3766030750440026 13.6617855738271121   F   F   F
  1.9777802195793024 18.1223983922178817 13.6261187751443060   F   F   F
  1.9873225037221183 12.5530123821166271 13.6180113224560646   F   F   F
  9.8447698731274844 12.4842900185278900 13.7353071258496620   F   F   F
  1.9807025656947801  1.3812719386277439 13.6271909883520497   F   F   F
  9.8362928886272982  6.9478586690735318 13.7212705416042198   F   F   F
 19.7256482699999580 16.7377696039999648 12.2103998060000407   F   F   F
  1.9725650740000149  9.7636982699999884 10.8156001569999933   F   F   F
  1.9725650740000149 15.3429554700000619 10.8156001569999933   F   F   F
  1.9725650740000149 20.9222120050000342 10.8156001569999933   F   F   F
  9.8628241350000643  4.1844424010000720 10.8156001569999933   F   F   F
  1.9725650740000149 18.1325837370000720 10.8156001569999933   F   F   F
 19.7256482699999580 11.1585130689999925 12.2103998060000407   F   F   F
 17.7341764668452022  1.3962425366269029 13.6188799806049907   F   F   F
 13.8079546360000549 12.5533272030000536 10.8156001569999933   F   F   F
  9.8716356619185230 18.0761736657158885 13.6514840955178371   F   F   F
  0.0000000000000000 16.7377696039999648 12.2103998060000407   F   F   F
 21.6722433667612968  6.9783774293691359 16.4052419638745342   F   F   F
  5.9716646642112181  7.0098422507321425 13.6249468305751478   F   F   F
  5.9597437405787117 12.5986184943594512 13.6147091948965535   F   F   F
  5.9233406673270004 18.0919867808438077 13.6598419440241887   F   F   F
 19.7256482699999580  5.5792565349999723 12.2103998060000407   F   F   F
 13.8333816079165750  7.0408991715271965 13.6068926992882826   F   F   F
 19.7256482699999580  0.0000000000000000 12.2103998060000407   F   F   F
 11.8353900909999528 11.1585130689999925 12.2103998060000407   F   F   F
  1.9725650740000149  4.1844424010000720 10.8156001569999933   F   F   F
  0.0000000000000000  0.0000000000000000 12.2103998060000407   F   F   F
  0.0000000000000000  5.5792565349999723 12.2103998060000407   F   F   F
  0.0000000000000000 11.1585130689999925 12.2103998060000407   F   F   F
 17.7102509968161961 12.5991428593613524 13.6127505817017322   F   F   F
  7.8902602960000570  0.0000000000000000 12.2103998060000407   F   F   F
 17.7370901531022973 18.1449522172815882 13.5957813488142882   F   F   F
  7.8902602960000570 11.1585130689999925 12.2103998060000407   F   F   F
 15.7805205919999434  0.0000000000000000 12.2103998060000407   F   F   F
 15.7805205919999434  5.5792565349999723 12.2103998060000407   F   F   F
 15.7805205919999434 11.1585130689999925 12.2103998060000407   F   F   F
 15.7805205919999434 16.7377696039999648 12.2103998060000407   F   F   F
  3.9451301480000271  0.0000000000000000 12.2103998060000407   F   F   F
  3.9451301480000271  5.5792565349999723 12.2103998060000407   F   F   F
 21.6812501137471401  4.1704639260176384 13.5945418357722740   F   F   F
  3.9451301480000271 16.7377696039999648 12.2103998060000407   F   F   F
 11.8353900909999528  0.0000000000000000 12.2103998060000407   F   F   F
 11.8353900909999528  5.5792565349999723 12.2103998060000407   F   F   F
 11.8353900909999528 16.7377696039999648 12.2103998060000407   F   F   F
 21.6982156369999721  6.9740706679999214 10.8156001569999933   F   F   F
  7.8902602960000570  5.5792565349999723 12.2103998060000407   F   F   F
 17.6929260750294333  7.0008388351488673 13.6288127757546462   F   F   F
  7.8902602960000570 16.7377696039999648 12.2103998060000407   F   F   F
 21.6874383871229526  9.7539309603761630 13.6034706013174400   F   F   F
 21.6938000853393653 18.1235469196291312 13.6210404630264552   F   F   F
 17.7411828089761237  1.3781497913946643 16.3846559031633348   F   F   F
 17.7978902089437021 15.1926246227198636 16.5932066397665636   F   F   F
 17.8280607038138008  9.7432390734945447 16.4469809421167241   F   F   F
 10.0203315104696298  9.8926052084650866 16.3818310619240428   F   F   F
 10.0103211345593568 15.3440186396619271 16.4056229564112570   F   F   F
 17.7472005477130246  4.1716261118322020 16.3986658289580944   F   F   F
  9.8426729638262831 20.9068913884053771 16.3836526311973714   F   F   F
 11.8564236114744137  5.6636702008891175 17.7537153775576257   F   F   F
  9.8839888066343136  4.2573582737032476 16.4245584102110698   F   F   F
  2.0294599735475058 15.3789448778406985 16.3573911607814608   F   F   F
  1.9587271189603919  9.7854002496455141 16.3452627937911892   F   F   F
  1.9654174938854574  4.2168221740454008 16.3654940197296277   F   F   F
 11.8321053954257263  2.8043296992631168 14.9878912732634966   F   F   F
 23.6500392551756420 11.1063467657388415 17.8286773757661479   F   F   F
 13.7716192135582265  4.1329976013039369 16.5172614406249174   F   F   F
 17.7155621128470102 20.8635248011813275 16.4025462315063209   F   F   F
 -0.0000339188532988 16.8112334217412815 17.7706227478368923   F   F   F
 23.6630823212643868 22.2675755726283562 17.7717623772474234   F   F   F
 23.6466049538742737  5.5434808464032361 17.7831764473622975   F   F   F
  7.8847532149460520 11.0597850763737711 17.7345506420772736   F   F   F
  7.9366226558107060 16.5400816813823326 17.7102945463761259   F   F   F
 15.7684525427384958  5.5021308960451245 17.7395558535074116   F   F   F
 15.7599080499011421 22.3132332840503516 17.7543001857781313   F   F   F
 15.7537589135858465 16.5499057761411805 17.7174461078430951   F   F   F
 15.7841111597592541 11.0047951221575993 17.7322961460368305   F   F   F
  3.9604675547076349 22.2839197999984506 17.7696961139806611   F   F   F
  3.9744858640719607  5.5644947627477457 17.7947989337854899   F   F   F
  4.0358054720040135 16.7370563866501065 17.8422853433982631   F   F   F
  5.8771396945239349  9.7202846999635248 16.4750943557146599   F   F   F
  3.9128361527167801 11.2125276985397022 17.6114594825148316   F   F   F
  7.9342639033250650  5.6674320532656397 17.7844473399100806   F   F   F
  7.9054913856963136 22.3157376892729076 17.7576971146103055   F   F   F
 11.8270125040444096 -0.0017286848502229 17.7357049970008198   F   F   F
  5.8957664862500767 15.2448416778651534 16.5566544885325087   F   F   F
 21.6715482412198206 18.1310002780633326 16.4059620076086219   F   F   F
  3.9519096942096197  2.7837089727065671 14.9873186909750835   F   F   F
  9.8065659716634563 18.1113174420709555 16.4324163485999861   F   F   F
  5.9420315164126665  1.3969667227337894 16.4172122638792217   F   F   F
 17.6603584631996497 12.4676325034486393 16.3412757311625327   F   F   F
 17.7081708997858769 18.0396024016598986 16.3755403244000028   F   F   F
  5.9112833024912232  6.9955915906086581 16.3795190870229632   F   F   F
 13.8389286075426750  6.9241789618481295 16.3477658060249027   F   F   F
  5.9861170640547439 18.1319975351359695 16.5218551314935240   F   F   F
 13.7965791579554455  1.3868935779669309 16.3772028273830017   F   F   F
 13.8639425057871737 18.1717253421423592 16.5099467569300806   F   F   F
 17.7097819006887320  7.0028580383710501 16.4098513831909116   F   F   F
 13.7691313393065187 12.4918066756924055 16.4634879960682348   F   F   F
  5.9750633151308561 12.4741914551232647 16.3196163734733553   F   F   F
  9.8581798341648597  7.1158253716398177 16.5856181771916233   F   F   F
  1.9795250102160231 20.9547633213395486 16.3683202342701541   F   F   F
 13.6439073302596796  9.7188303410466492 16.5620631232964435   F   F   F
  2.0167555831021318 18.1412008328462555 16.4249354475762281   F   F   F
  1.9113560531503044 12.5925771536826030 16.3922792983483170   F   F   F
  2.0026286803192166  6.9895507650923294 16.4126723812448461   F   F   F
  1.9495814624056929  1.4109100740994067 16.4243245193799474   F   F   F
 21.6815852489536560 20.9358838312054409 16.3832792049237170   F   F   F
 21.6417146702178371 15.3697404927692158 16.3685287856313053   F   F   F
 13.8185467699457831 20.9265835058025012 16.3847631415583201   F   F   F
 21.6896426656431061  4.1916918150397873 16.3735154927560487   F   F   F
 21.6643937365724000  9.7626944692927200 16.3665897291493714   F   F   F
 13.7088841940716488 15.3075949462797123 16.4254419425020615   F   F   F
  5.9536331675633400 20.9171385469257594 16.3558766628834178   F   F   F
 11.7681115687077984 11.2603094802542536 18.2702681502864870   F   F   F
 21.7275902357956490 12.5820156990532528 16.4191125964091675   F   F   F
  9.9353390669503856 12.5993932663496544 16.6620333162599259   F   F   F
  9.8673672243774888  1.4485999878345950 16.4219835997858503   F   F   F
 19.7090953573106411 19.5104186230907786 14.9626943969705479   F   F   F
 19.9170719735599953  5.0835225968975308 23.3651976582124163   T   T   T
 19.6990464553478510 22.2700107059355474 17.7682752864450144   F   F   F
 17.8784677111285326  9.7366702239403420 19.1604695673617123   F   F   F
  9.8770308889055212 20.8662957275081311 19.1948907101908759   F   F   F
  9.9464833281241933 15.0843877878830277 19.0141643314959836   F   F   F
 13.9823511672797931 18.0702826913167378 19.3811259535100504   F   F   F
 21.6854399267386526  1.3620807961107930 19.2154832887810159   F   F   F
 21.6327566494787256 12.5342277916016371 19.2409302533107223   F   F   F
 21.6052751346637599  6.9404681354959159 19.2187930444494164   F   F   F
 21.6518830447917061 18.1250794362193410 19.2789481933484055   F   F   F
 13.7979076874287703  1.4612299441644834 19.1763111695643502   F   F   F
 13.9350939887574281  7.1734170743158217 18.9823223857455012   F   F   F
 13.9958631677672454 12.6130440500547785 19.1513596141255782   F   F   F
  5.8577787950792981 12.7991954920715756 18.8578413107585021   F   F   F
 17.8430926300101760 15.4467225986603278 19.7253613947047874   F   F   F
  6.1975983640497274 17.8511938675843993 19.3842775918582824   F   F   F
 17.7351149242329882  4.1501589009122402 19.2360891516833590   F   F   F
 21.6982156369999721 12.5533272030000536 10.8156001569999933   F   F   F
 11.8349193379413737 19.4927925462107190 15.0265924676560196   F   F   F
 11.8406891312218008 13.8553218417589434 15.0028747758666832   F   F   F
 19.7031388088128843 13.9048683158855653 15.0029124873643624   F   F   F
  5.9611397322930779  4.2050909499502156 16.4157669242381452   F   F   F
 19.7207621926331349  8.3335794347523215 14.9652264770999910   F   F   F
 19.7172002394825086  2.7722756109480184 14.9675322776954740   F   F   F
  3.9415790809125815  8.3806097881499078 14.9423356764796136   F   F   F
  3.9656714233755519 13.9285416042419499 15.0042272784660966   F   F   F
 13.7191233697332624  9.7783988143576170 19.3865989761767494   F   F   F
 13.6661256679744589 15.2989228972028446 19.1830865414259435   F   F   F
 21.6170495017089408  4.1284544489667310 19.2116721786415638   F   F   F
  5.9103028659289647  7.0701159614166569 19.2231738134900780   F   F   F
  3.9689868581637122 19.4903406560080761 14.9953974886144881   F   F   F
 17.6902958393686163 20.8353795276769773 19.1998776145224106   F   F   F
 11.8328083787487977  8.3148085500491895 15.0238513948338372   F   F   F
  5.9890623034150119  4.1622180896920344 19.2295473508323695   F   F   F
  5.9401232219223656  1.3281475463340537 19.2680219782122677   F   F   F
 19.6598537943763034 16.7633261213726819 17.7931368009278046   F   F   F
  9.8855911011267175  1.4546968101364139 19.2027853500477690   F   F   F
 13.7699680130147968 20.8648068404940545 19.1839246053314056   F   F   F
 11.8490471786251081 16.8775292331015692 17.7796447730655025   F   F   F
 10.0728765526688768  6.7888614320250111 19.6712915156764119   F   F   F
  9.7596283245490589 18.1382056324724878 19.1818230481149641   F   F   F
  9.4000646208411052 12.2821803959920643 19.5580887839957889   F   F   F
 17.7963207582341667 12.7230682732887548 19.0511299317246738   F   F   F
 17.5432984425349510 18.0648402669548283 19.2068831286539776   F   F   F
 17.7297723514665577  6.9737564894659361 19.2615685957121201   F   F   F
  1.9574196512101889  6.9463757047703645 19.2116996245149778   F   F   F
 15.7743466850985179 19.5117251613159830 14.9636619618597333   F   F   F
  2.0427404805432707 12.5355780296881836 19.1960523505876139   F   F   F
  1.9620203954854945  1.3520466573542782 19.2416724260918457   F   F   F
  2.0531672893077735  9.7207163058906865 19.1886332731594322   F   F   F
  1.9722709566937660  4.1368752208885375 19.2274105252799075   F   F   F
 17.7163401156069149  1.3912933220305832 19.2059844876956447   F   F   F
 13.7370057362654165  4.2781543542440632 19.3747728900222320   F   F   F
  9.8964007700192180  4.1813861990480374 19.2003387420431935   F   F   F
 21.6982156369999721 18.1325837370000720 10.8156001569999933   F   F   F
  2.0155956758417237 18.1176339917281055 19.2817067039232590   F   F   F
  5.9656383601025755 20.7617327012116242 19.1195919138302663   F   F   F
  6.0238004069838205 15.1324087915093646 19.8600585728073433   F   F   F
 19.7168949808815590 11.2470753481226886 17.6708420017992438   F   F   F
  5.6641974792758081  9.8697417088678367 19.2586218127295012   F   F   F
 19.6766723154443213  5.5631030892860238 17.7272827796592267   F   F   F
 21.6972596619676956 15.3313747067735822 19.1627097824507260   F   F   F
 21.5616634777176763  9.7038670855588567 19.1896036255935734   F   F   F
  1.9654295678080764 15.3197870712652957 19.1632991476704504   F   F   F
  2.0016479248744035 20.8792190902491370 19.2245487627262044   F   F   F
  9.8380453557658480  9.3327385256593747 18.9069926828588351   F   F   F
 21.6696091045264048 20.8846869561073269 19.2482932239132190   F   F   F
 23.6549720383399702  2.7527512148635820 18.5799295963046802   F   F   F
  3.9451301480000271  8.3688848019999824 12.2103998060000407   F   F   F
  3.9273443651336115  0.0260347598335345 15.1956004828099971   F   F   F
 19.7256482699999580 13.9481413360000008 12.2103998060000407   F   F   F
 11.8568258115182559 16.7995654981043501 15.1185299036487049   F   F   F
  3.8887752240361873 16.7671798150744031 15.0995418481326755   F   F   F
 23.6531080779692537 11.1532659801150924 15.2032589076329199   F   F   F
 15.8101054149622726  5.5235843965495768 15.1072859473991610   F   F   F
  7.8175267637570380  5.5328845983344026 15.0828686267874197   F   F   F
  7.8832875246009877  0.0232915151947790 15.1719202733113292   F   F   F
  7.9002757547303970 16.7613790814510928 15.0453500869707817   F   F   F
 15.8341107900410680 11.1462019982849974 15.0171685888721367   F   F   F
 15.7708322374453456  0.0073432217699560 15.1661501464403798   F   F   F
  7.8365066681156659 11.1361472173986797 15.0299283185886967   F   F   F
 11.8656129393727383 11.1485335734611493 15.0099109223392304   F   F   F
 19.7354985642793395  5.5402363370635195 15.1377804797169997   F   F   F
 15.7805205919999434 13.9481413360000008 12.2103998060000407   F   F   F
  3.9275483109212321  5.5393502737553222 15.1882341758249471   F   F   F
  0.0000000000000000 19.5273965409999306 12.2103998060000407   F   F   F
 11.8684637610330785  5.5309099336743239 15.0724395918501699   F   F   F
 -0.0014345035277527 16.7554561214103828 15.1981644100031534   F   F   F
 23.6648033493852772  5.5686624439040164 15.1877882567795552   F   F   F
 -0.0023518408384345 22.3130018839366819 15.1886194239099268   F   F   F
 19.7256482699999580 19.5273965409999306 12.2103998060000407   F   F   F
  0.0000000000000000 13.9481413360000008 12.2103998060000407   F   F   F
  7.8902602960000570 13.9481413360000008 12.2103998060000407   F   F   F
  7.8902602960000570  2.7896282670000101 12.2103998060000407   F   F   F
  7.8902602960000570  8.3688848019999824 12.2103998060000407   F   F   F
 19.7408123513760536 -0.0020827437377926 15.1865064774880185   F   F   F
  7.8902602960000570 19.5273965409999306 12.2103998060000407   F   F   F
 15.7805205919999434  2.7896282670000101 12.2103998060000407   F   F   F
 15.7805205919999434  8.3688848019999824 12.2103998060000407   F   F   F
 19.7780648479476326 11.1499599892327446 15.0836450598231746   F   F   F
  3.8682811217693631 11.1488378682434206 15.0580720883903769   F   F   F
 15.7496322308633943 16.7770696146282035 15.0656088774241930   F   F   F
 15.7805205919999434 19.5273965409999306 12.2103998060000407   F   F   F
  7.7255962762382042  8.3280883971127491 17.7758000683278645   F   F   F
  0.0000000000000000  8.3688848019999824 12.2103998060000407   F   F   F
  7.9053062743291784 13.9325975520414342 17.8465920596115204   F   F   F
 11.8353900909999528 19.5273965409999306 12.2103998060000407   F   F   F
 19.7256482699999580  2.7896282670000101 12.2103998060000407   F   F   F
 19.7256482699999580  8.3688848019999824 12.2103998060000407   F   F   F
  3.9451301480000271  2.7896282670000101 12.2103998060000407   F   F   F
 11.8353900909999528 13.9481413360000008 12.2103998060000407   F   F   F
 19.8721988309436490 13.9850730983461400 18.1295566436398197   F   F   F
  7.8439650567595702  2.6754475926537391 18.3855984007179245   F   F   F
 -0.0013874136468384 19.5038981738170385 18.7156107200931210   F   F   F
 11.8353900909999528  2.7896282670000101 12.2103998060000407   F   F   F
 19.7093199132529442 19.5272139154174091 18.5918726299779493   F   F   F
 19.7811840171975923  8.2997532898172572 18.0462107917372130   F   F   F
 11.8385064468788155 22.2974517979722826 15.1684413781738154   F   F   F
 11.8399347812696529 19.5597405466242336 18.2894513061231017   F   F   F
 15.7721713903565721  2.7077007062716278 18.2828121772185455   F   F   F
 19.7899208376127760 16.7681563707485104 15.0822627406332082   F   F   F
 11.9149672302756073 13.9376527805641128 17.8212998347803300   F   F   F
 11.8353900909999528  8.3688848019999824 12.2103998060000407   F   F   F
  3.9451301480000271 13.9481413360000008 12.2103998060000407   F   F   F
 15.9427603101206774  8.2993153970986651 17.8254789642502942   F   F   F
  7.9163787653598554 19.6103975899121430 18.0838296979224609   F   F   F
  3.7697384079057623 13.9831778244725324 18.0365613452278133   F   F   F
  3.9451301480000271 19.5273965409999306 12.2103998060000407   F   F   F
 11.8995394627883080  8.2744167060093066 17.8631618588519601   F   F   F
 11.8467159003476254  2.7176057226747616 18.2089251730827151   F   F   F
  3.9381683902456452 19.4941094105833521 18.5378795921208770   F   F   F
  3.8547385532191121  8.2712298768386390 18.2269359790259529   F   F   F
 15.7245518437606773 19.6268886578212260 18.2034903120317431   F   F   F
 15.7681555035798766 13.9778574879627708 17.7939031241897787   F   F   F
 23.6356550416872011  8.3466434508987657 18.7063700774768229   F   F   F
 23.6642907531417883 13.8893978749405260 18.7246641006695462   F   F   F
 19.7189703458078505  2.6922098565943613 18.3891342555289015   F   F   F
  0.0000000000000000  2.7896282670000101 12.2103998060000407   F   F   F
  3.9573246914976101  2.7312883662107015 18.6501243678488073   F   F   F
 17.7420574792604668 22.2763105014991041 18.1256533349100089   F   F   F
 13.7854446938571265  0.0010556255287494 18.1308873290693704   F   F   F
 21.7000387505209815 22.2657961747336017 18.1013989751626418   F   F   F
 13.8281754902459433 16.7253479118529640 17.9890195233128622   F   F   F
 13.9815077652264605 11.1799560228670032 17.8056707941936025   F   F   F
  5.7331253687077730 11.0993978435270204 17.8231046942760223   F   F   F
  9.8533181609933411 16.7429985059746471 17.8357293694158230   F   F   F
 13.8164600013586938  5.5040985415419259 17.9128257140221656   F   F   F
  5.9068066022940515 22.2680809264003123 18.1254703667844126   F   F   F
 17.7590542858145710  5.4086960172039626 17.9876628215172829   F   F   F
  5.8776570876722971  5.4861022800725010 18.1056467364767002   F   F   F
  9.8699999546441504  0.0019901023428822 18.1413513423035511   F   F   F
  9.8061000149892283  5.5479899203023235 17.7453266683121953   F   F   F
  5.9016898588770443 16.7951850978189476 17.7585121361596272   F   F   F
  1.9423409907624085  5.5290589945990218 18.1038922167216292   F   F   F
  9.8670688145106471 13.9722303687828528 15.0299915584317887   F   F   F