Au  C  H  O Sr Ti                       
   1.00000000000000     
    23.6707801818999997    0.0000000000000000    0.0000000000000000
     0.0000000000000000   22.3170261383000010    0.0000000000000000
     0.0000000000000000    0.0000000000000000   30.0000000000000000
   Au   C    O    Sr   Ti
    50     1   266    72    72
Selective dynamics
Direct
  0.7171885000460079  0.5259141543451822  0.7533519948877135   T   T   T
  0.6228094226819554  0.5701186515283670  0.7039816968840852   T   T   T
  0.7194184683617023  0.2597213615511113  0.6913594940816522   T   T   T
  0.2936682316345628  0.7461117458231714  0.6972406088387655   T   T   T
  0.5123092772513340  0.6033315223073558  0.7765347727196861   T   T   T
  0.5781909147246742  0.7253291892704330  0.7936708087594603   T   T   T
  0.2405695622556308  0.4689589689380452  0.7088785082766039   T   T   T
  0.2850914386542979  0.6619222368620179  0.7648494870952565   T   T   T
  0.6026939270565170  0.2881565040339172  0.7859790884551831   T   T   T
  0.5143278610588412  0.4841813988144700  0.6778231879813783   T   T   T
  0.5634082034409028  0.4857304186405248  0.7619292209653897   T   T   T
  0.5554964449625801  0.2104067533925344  0.7109024779256955   T   T   T
  0.5499075327822606  0.3833047217408714  0.8274514394052318   T   T   T
  0.3915739450411614  0.8171727638461812  0.7066156228005007   T   T   T
  0.4637100642566746  0.6949791612515270  0.8301121562101608   T   T   T
  0.4408730596568214  0.2281843135847824  0.6970717901076195   T   T   T
  0.3714844035676355  0.2982216779958605  0.7549268910199119   T   T   T
  0.3495335127158045  0.4995864017114640  0.6976731532161384   T   T   T
  0.4297634463947155  0.3710323709001297  0.8146455462404382   T   T   T
  0.5959473808283420  0.7846036367743620  0.7130446325927201   T   T   T
  0.6351542408518097  0.5839834795092590  0.7999733488272202   T   T   T
  0.7333997450184403  0.6155044503730491  0.6937331202114032   T   T   T
  0.4855312265263684  0.7773522789949490  0.7558226422056928   T   T   T
  0.7649650707939308  0.4320480920221184  0.7049547675922365   T   T   T
  0.4870149427752068  0.2691099978659879  0.7749974646177860   T   T   T
  0.2896097280935357  0.5373969478964947  0.7772442542469246   T   T   T
  0.6157184336678365  0.3213339980535188  0.6963882155262969   T   T   T
  0.3686083506969444  0.6182609412543599  0.8200538576747294   T   T   T
  0.5703921519214918  0.5094342403773973  0.8562392090516254   T   T   T
  0.6631352627007474  0.1931071413356053  0.7492390830990706   T   T   T
  0.4720426521912553  0.4491195505196278  0.8778010368749107   T   T   T
  0.5171022182628920  0.3770687537951467  0.7323883736671992   T   T   T
  0.2827524147949192  0.3380767105945053  0.7023893359113940   T   T   T
  0.6695083581390856  0.6811777511746460  0.7487489351510093   T   T   T
  0.3975756686872137  0.3818021591084735  0.6900368867598878   T   T   T
  0.4524782621158022  0.5798425033123769  0.7025327706625593   T   T   T
  0.3756634483955914  0.4922912600121862  0.8325724838142325   T   T   T
  0.3257988383061237  0.4140654169070598  0.7689562833825636   T   T   T
  0.4192555472115200  0.6967904264801588  0.6995264484788251   T   T   T
  0.7002299101283029  0.3470787636583017  0.7560395289229990   T   T   T
  0.7746543157609591  0.4298804662456128  0.7951560546931585   T   T   T
  0.2568816330175500  0.5928570864942143  0.6945630824652940   T   T   T
  0.6489240381352068  0.4446506296451867  0.6950261120483664   T   T   T
  0.5645841496769947  0.6392517695158311  0.8609601546459582   T   T   T
  0.5417418176648433  0.6666885033791238  0.7013170469343915   T   T   T
  0.4440450259228519  0.4741298738065254  0.7561356065692530   T   T   T
  0.3741526963213632  0.7392925289154381  0.7787236622567925   T   T   T
  0.4629336631816253  0.5724773629029540  0.8635424023692309   T   T   T
  0.6564804533128753  0.4413291059860708  0.8124937489874385   T   T   T
  0.7061468032369860  0.7572273137811604  0.6882941925812494   T   T   T
  0.6916119300849101  0.0729428331294137  0.8146752320372821   T   T   T
  0.7347035303898496  0.0990246361019311  0.8162006271548158   T   T   T
  0.6483128939701926  0.0473815341137866  0.8132006311155381   T   T   T
  0.2493251962590613  0.3137961031371056  0.5459859130255718   T   T   T
  0.7507140898013078  0.1898589588839799  0.4556518586568871   T   T   T
  0.4170794878493668  0.9358933985332001  0.4540223733758637   T   T   T
  0.4171002909729027  0.6847957931999069  0.4546845594782272   T   T   T
  0.4164301745324090  0.4354745614208436  0.4537965548414467   T   T   T
  0.0845904939456798  0.6868941771767644  0.4530202446410468   T   T   T
  0.0838816265866334  0.9366756303577215  0.4534686634431254   T   T   T
  0.0827854819345816  0.4367931835497601  0.4528451321659570   T   T   T
  0.0838515635030281  0.1865625553999143  0.4529716096436575   T   T   T
  0.9165826318598461  0.8121224376663277  0.4540322082134138   T   T   T
  0.7465501101469179  0.5580390597173996  0.5444626554546935   T   T   T
  0.9161883115723937  0.5623173211756598  0.4539229678881015   T   T   T
  0.9161175061195566  0.0622079446815220  0.4540699711036648   T   T   T
  0.9162160668512956  0.3121732835584163  0.4538764590207787   T   T   T
  0.4171061517567775  0.1871366538253005  0.4535274856429473   T   T   T
  0.2521022528324872  0.6876409568089678  0.4561241120759612   T   T   T
  0.9164507660974172  0.9371320323211565  0.4536559936983441   T   T   T
  0.5825472875861235  0.1901484778677255  0.4553902430500578   T   T   T
  0.0000697471906534  0.1250358248552652  0.4983454818385213   T   T   T
  0.5832877386317947  0.8105007990954284  0.4553698453374135   T   T   T
 -0.0000147206484131  0.3734137668001161  0.4984237114886804   T   T   T
  0.9999078430819751  0.6271148816806290  0.4976873645564365   T   T   T
  0.3335349958228173  0.1255874434308314  0.4984796283563226   T   T   T
  0.0000227029955892  0.8751313910175772  0.4995214922007308   T   T   T
  0.3334394865432981  0.8738349839103423  0.4994166950190825   T   T   T
  0.6661061563418901  0.1264042935631537  0.4989372441242103   T   T   T
  0.2511642832491272  0.4392895353214705  0.4548694036308598   T   T   T
  0.0833333358191695  0.5625000000092442  0.3605200052333331   F   F   F
  0.9166666865332829  0.0625000000159659  0.3605200052333331   F   F   F
  0.7491081319994510  0.8132959185871730  0.4530600205543625   T   T   T
  0.7494930369330398  0.4383330527630959  0.4556612733909166   T   T   T
  0.2503569524623562  0.0619431946904335  0.4542173885618300   T   T   T
  0.7490784685892635  0.6887144949401273  0.4572834488043333   T   T   T
  0.2498714736323285  0.1884870436871817  0.4540959415799191   T   T   T
  0.2500818538701554  0.9360320177291597  0.4541073704335367   T   T   T
  0.6654413799643203  0.6260913930812297  0.5029700960284452   T   T   T
  0.5845484454828825  0.5628360073611204  0.4548316406537590   T   T   T
  0.5832247749769089  0.0635952386643281  0.4538742488181097   T   T   T
  0.9166666865332829  0.6874999999963620  0.3605200052333331   F   F   F
  0.9166666865332829  0.4374999701794380  0.3605200052333331   F   F   F
  0.9166666865332829  0.1875000000030838  0.3605200052333331   F   F   F
  0.5833333134730552  0.9375000000154046  0.3605200052333331   F   F   F
  0.5833333134730552  0.6874999999963620  0.3605200052333331   F   F   F
  0.5833333134730552  0.4374999701794380  0.3605200052333331   F   F   F
  0.5833333134730552  0.1875000000030838  0.3605200052333331   F   F   F
  0.2499999999799343  0.9375000000154046  0.3605200052333331   F   F   F
  0.9166666865332829  0.9375000000154046  0.3605200052333331   F   F   F
  0.2499999999799343  0.6874999999963620  0.3605200052333331   F   F   F
  0.2499999999799343  0.1875000000030838  0.3605200052333331   F   F   F
  0.7499999404149307  0.9375000000154046  0.3605200052333331   F   F   F
  0.7499999404149307  0.6874999999963620  0.3605200052333331   F   F   F
  0.7499999404149307  0.4374999701794380  0.3605200052333331   F   F   F
  0.7499999404149307  0.1875000000030838  0.3605200052333331   F   F   F
  0.4166666269218169  0.9375000000154046  0.3605200052333331   F   F   F
  0.4166666269218169  0.6874999999963620  0.3605200052333331   F   F   F
  0.4166666269218169  0.4374999701794380  0.3605200052333331   F   F   F
  0.2499999999799343  0.4374999701794380  0.3605200052333331   F   F   F
  0.0833333358191695  0.0625000000159659  0.3605200052333331   F   F   F
  0.9154139548424680  0.6867642098891660  0.4531111691834449   T   T   T
  0.6653970028875341  0.3785496978189006  0.5031019836348397   T   T   T
  0.3343560254475024  0.3784659422511530  0.5029514478828949   T   T   T
  0.3356553549234053  0.6258098497739611  0.5037763563012577   T   T   T
  0.9176831335614698  0.0633304825611526  0.5474647728463925   T   T   T
  0.7495074132971637  0.9384100999142664  0.4553306600401337   T   T   T
  0.5827399475746742  0.4396151566573643  0.4561621945138901   T   T   T
  0.9153902863766296  0.3127717161003150  0.5467551502907159   T   T   T
  0.2518985226401347  0.5646355941843089  0.4537703711978194   T   T   T
  0.5833333134730552  0.0625000000159659  0.3605200052333331   F   F   F
  0.2499999999799343  0.8124999999834799  0.3605200052333331   F   F   F
  0.2499999999799343  0.5625000000092442  0.3605200052333331   F   F   F
  0.2499999999799343  0.3124999999901945  0.3605200052333331   F   F   F
  0.2499999999799343  0.0625000000159659  0.3605200052333331   F   F   F
  0.7499999404149307  0.5625000000092442  0.3605200052333331   F   F   F
  0.7499999404149307  0.3124999999901945  0.3605200052333331   F   F   F
  0.7499999404149307  0.0625000000159659  0.3605200052333331   F   F   F
  0.4166666269218169  0.8124999999834799  0.3605200052333331   F   F   F
  0.4166666269218169  0.5625000000092442  0.3605200052333331   F   F   F
  0.4166666269218169  0.3124999999901945  0.3605200052333331   F   F   F
  0.7499999404149307  0.8124999999834799  0.3605200052333331   F   F   F
  0.0835327122648941  0.3120532202576441  0.4539862788511459   T   T   T
  0.4166666269218169  0.0625000000159659  0.3605200052333331   F   F   F
  0.4168843879356823  0.0615747517949680  0.4553427048027665   T   T   T
  0.0834988793617533  0.8120847935148212  0.4541872762662661   T   T   T
  0.0839533609975357  0.5624839414546952  0.4538765922932256   T   T   T
  0.4160597565797017  0.5595221637301466  0.4578645379281209   T   T   T
  0.0837599959808319  0.0618680510794508  0.4541737521830962   T   T   T
  0.4154914777417517  0.3113244039193233  0.4573589771980153   T   T   T
  0.8333332538436267  0.7500000000123208  0.4070133268666680   F   F   F
  0.0833333358191695  0.4374999701794380  0.3605200052333331   F   F   F
  0.0833333358191695  0.6874999999963620  0.3605200052333331   F   F   F
  0.0833333358191695  0.9375000000154046  0.3605200052333331   F   F   F
  0.4166666269218169  0.1875000000030838  0.3605200052333331   F   F   F
  0.0833333358191695  0.8124999999834799  0.3605200052333331   F   F   F
  0.8333332538436267  0.4999999999932783  0.4070133268666680   F   F   F
  0.2510669801940617  0.0625278419419600  0.5472699633740553   T   T   T
  0.4146957475787468  0.8119007067451848  0.5479739096795611   T   T   T
  0.5833333134730552  0.3124999999901945  0.3605200052333331   F   F   F
  0.2522662353691418  0.3141232627976976  0.4541733754077118   T   T   T
  0.5833333134730552  0.8124999999834799  0.3605200052333331   F   F   F
  0.5833333134730552  0.5625000000092442  0.3605200052333331   F   F   F
  0.2505246174384153  0.8107897789537561  0.4553747535618374   T   T   T
  0.8333332538436267  0.2500000000190425  0.4070133268666680   F   F   F
  0.5843382617348011  0.3154210268782917  0.4535590079456084   T   T   T
  0.7483013863599498  0.8081944510993745  0.5456524107393977   T   T   T
  0.5000000000021103  0.4999999999932783  0.4070133268666680   F   F   F
  0.0833333358191695  0.1875000000030838  0.3605200052333331   F   F   F
  0.0000000000000000  0.0000000000000000  0.4070133268666680   F   F   F
  0.0000000000000000  0.2500000000190425  0.4070133268666680   F   F   F
  0.0000000000000000  0.4999999999932783  0.4070133268666680   F   F   F
  0.7481441651743246  0.5642699492911410  0.4536959161215824   T   T   T
  0.3333333432766779  0.0000000000000000  0.4070133268666680   F   F   F
  0.3333333432766779  0.4999999999932783  0.4070133268666680   F   F   F
  0.3333333432766779  0.7500000000123208  0.4070133268666680   F   F   F
  0.6666666865533486  0.0000000000000000  0.4070133268666680   F   F   F
  0.6666666865533486  0.2500000000190425  0.4070133268666680   F   F   F
  0.6666666865533486  0.4999999999932783  0.4070133268666680   F   F   F
  0.6666666865533486  0.7500000000123208  0.4070133268666680   F   F   F
  0.1666666716383389  0.0000000000000000  0.4070133268666680   F   F   F
  0.1666666716383389  0.2500000000190425  0.4070133268666680   F   F   F
  0.1666666716383389  0.4999999999932783  0.4070133268666680   F   F   F
  0.1666666716383389  0.7500000000123208  0.4070133268666680   F   F   F
  0.5000000000021103  0.0000000000000000  0.4070133268666680   F   F   F
  0.5000000000021103  0.2500000000190425  0.4070133268666680   F   F   F
  0.5000000000021103  0.7500000000123208  0.4070133268666680   F   F   F
  0.9166666865332829  0.3124999999901945  0.3605200052333331   F   F   F
  0.3333333432766779  0.2500000000190425  0.4070133268666680   F   F   F
  0.7473410250983541  0.3141281593493701  0.4545980452733516   T   T   T
  0.0000000000000000  0.7500000000123208  0.4070133268666680   F   F   F
  0.4166763517763105  0.8100357339188430  0.4551252744816686   T   T   T
  0.7495922500556379  0.0640838681506792  0.4533248596104528   T   T   T
  0.5827910402004129  0.6861416635497820  0.4545425544549039   T   T   T
  0.8333332538436267  0.0000000000000000  0.4070133268666680   F   F   F
  0.9158322428987259  0.1868551862419979  0.4531539974074874   T   T   T
  0.4159521065720275  0.9371208619436341  0.5460962076137135   T   T   T
  0.4985062336775605  0.2530313997433848  0.5902201918522683   T   T   T
  0.4156348237372845  0.1914240077685786  0.5464713018785272   T   T   T
  0.0863169869722161  0.6895720789868443  0.5451800351601253   T   T   T
  0.0825003653164936  0.4388817268473106  0.5448729474206416   T   T   T
  0.0835578892812857  0.1889461539551660  0.5454606555184804   T   T   T
  0.4994517658072299  0.1256151534965817  0.4995924539958584   T   T   T
  0.9996461325035915  0.5005101945980341  0.5942888551450303   T   T   T
  0.5808166958766293  0.1856610954381801  0.5494203014447342   T   T   T
  0.9996818493007075  0.7532502880326916  0.5923090758468099   T   T   T
  0.3340077062355219  0.9998122205888238  0.5920296569954827   T   T   T
  0.9997419536596975  0.9993431998419418  0.5931734567969021   T   T   T
  0.0007730997260216  0.2500292676125828  0.5917262815844799   T   T   T
  0.3332748100842786  0.4964667457336261  0.5908205837470331   T   T   T
  0.3358455785168727  0.7412005781259281  0.5904292748774023   T   T   T
  0.6633805305742465  0.2479354996168070  0.5903788165244854   T   T   T
  0.6658466007681081  0.0004315870713029  0.5917656916430878   T   T   T
  0.6658592101687946  0.7417137634865810  0.5901376543056354   T   T   T
  0.6668142583838467  0.4944289369260027  0.5910617404182251   T   T   T
  0.1674227943618614  0.9984195170048886  0.5923034326120837   T   T   T
  0.1684026176314179  0.2483930664820818  0.5931247649777205   T   T   T
  0.1707218263423356  0.7500957428131456  0.5950307469883764   T   T   T
  0.2485320722874431  0.4360011834420559  0.5489316003859094   T   T   T
  0.1655307544894561  0.5026473025795278  0.5873432842181032   T   T   T
  0.3346406224690222  0.2543781335173461  0.5926435483435188   T   T   T
  0.4996381130348957  0.0000407385368577  0.5910062923972914   T   T   T
  0.8326962093759180  0.8742457789750506  0.4985856937293774   T   T   T
  0.7483329110663072  0.9368132916433891  0.6399630438202683   T   T   T
  0.8321685777965543  0.0021036918692301  0.5922707762446121   T   T   T
  0.7484471434963190  0.1836111042522230  0.5507314319006452   T   T   T
  0.4232026683499516  0.6880992343402408  0.5466077468552654   T   T   T
  0.4231252340524768  0.4439383785070931  0.5455173439912354   T   T   T
  0.7520219642712012  0.4351664371254471  0.5489196171891145   T   T   T
  0.5825114994328151  0.3114070240597201  0.5449352931988267   T   T   T
  0.2531005897968984  0.8126719804494519  0.5510557467450264   T   T   T
  0.5827514252649333  0.9370887790602882  0.4542666597355215   T   T   T
  0.5829022422328789  0.0623303218491908  0.5456427793937521   T   T   T
  0.5860301299399262  0.8146217267793567  0.5504353520813434   T   T   T
  0.7480333699330487  0.3114175002750735  0.5477419853833656   T   T   T
  0.5811728737222781  0.5602771202009404  0.5489958309526531   T   T   T
  0.2523933570519810  0.5591029243179908  0.5438588187808731   T   T   T
  0.4159611726624683  0.3197403363466435  0.5525587678071245   T   T   T
  0.5766498167011047  0.4361529461594136  0.5516888302940753   T   T   T
  0.4164446760879666  0.0653091280905382  0.5472636497582112   T   T   T
  0.0848854942209294  0.8129328486193714  0.5473290334383555   T   T   T
  0.0822113518099413  0.5644308904547310  0.5463003431321642   T   T   T
  0.0865667145364865  0.3135170638271425  0.5469955090371482   T   T   T
  0.5012110750547382  0.7563050705909863  0.5930544895910357   T   T   T
  0.0822840335367067  0.0632631955490564  0.5475661511134856   T   T   T
  0.9139021829611125  0.6891664915710516  0.5452269537809782   T   T   T
  0.5835585647325250  0.9379064845921831  0.5461366627095924   T   T   T
  0.9170273756755737  0.1890748840708356  0.5452503152598255   T   T   T
  0.9159645968640653  0.4376397206568153  0.5457632298905148   T   T   T
  0.5795376157000351  0.6864159217111968  0.5471787169074928   T   T   T
  0.2515155532147846  0.9373213409025426  0.5452710600490011   T   T   T
  0.4975766098021944  0.5044834321077759  0.6088428969739753   T   T   T
  0.9173444657443253  0.5637667536409351  0.5468747204590926   T   T   T
  0.4201349713317951  0.5651028710898524  0.5552968819536142   T   T   T
  0.9155630006780470  0.8128992819014181  0.5468236781048593   T   T   T
  0.0836002823738405  0.9389612463698973  0.5457312601306343   T   T   T
  0.2492910465268647  0.6832492050037051  0.5520744184656321   T   T   T
  0.7494946688114650  0.9341503563946498  0.5476301016532867   T   T   T
  0.7519133775254737  0.6804704326117288  0.5531045730135712   T   T   T
  0.9156357621810221  0.9385194671564849  0.5464286223140008   T   T   T
  0.4177754650431786  0.0651777643659615  0.6399868198380926   T   T   T
  0.0833333358191695  0.3124999999901945  0.3605200052333331   F   F   F
  0.4127022178722866  0.8128509088322542  0.6396041255500674   T   T   T
  0.9157172341474191  0.0626089900536145  0.6417483091852679   T   T   T
  0.9127106455921724  0.5617552868605215  0.6417696263309810   T   T   T
  0.9150405484426012  0.3117730953611140  0.6395595581186959   T   T   T
  0.9141347091900245  0.8132621854649417  0.6415388227139024   T   T   T
  0.5824739479260160  0.0662375704681571  0.6390182559653553   T   T   T
  0.5829432671871174  0.3203764142639112  0.6337252732907790   T   T   T
  0.5913722470797858  0.5653063999354963  0.6391002942591951   T   T   T
  0.2474789574561063  0.5736759436458013  0.6287504481427153   T   T   T
  0.7540645650833493  0.6931131416777732  0.6568681675902347   T   T   T
  0.2621137914004332  0.7989295151581219  0.6466276967180072   T   T   T
  0.2510031377860888  0.0594388883709208  0.6423135286092845   T   T   T
  0.9166666865332829  0.5625000000092442  0.3605200052333331   F   F   F
  0.4994842678093746  0.3743046826679520  0.4996359919440818   T   T   T
  0.5003617159249243  0.6211781222916066  0.4999533920595802   T   T   T
  0.8323956261723335  0.6230548335236492  0.5000001375685335   T   T   T
  0.2517859891972830  0.1882905580602666  0.5470801602430676   T   T   T
  0.8324973522930312  0.3732393354654318  0.4996474189929488   T   T   T
  0.8329240477787778  0.1245133295500871  0.4997693461596959   T   T   T
  0.1667122691894906  0.3762747443951023  0.4977972430521217   T   T   T
  0.1677711686397003  0.6243464934812413  0.5000006540802571   T   T   T
  0.5815128353262317  0.4391075606805798  0.6459299027524452   T   T   T
  0.5797781244814871  0.6854858085397876  0.6392321774786880   T   T   T
  0.9168039365795025  0.1864314572957296  0.6401602096239837   T   T   T
  0.2490470861411308  0.3162223772164332  0.6412165976869756   T   T   T
  0.1677485900331132  0.8732794518090414  0.4998819018236810   T   T   T
  0.9159367915453193  0.4369751981910994  0.4536385981010904   T   T   T
  0.1670449868397237  0.1243060036381772  0.4993211600821846   T   T   T
  0.7481964597562361  0.0598100599701579  0.5445008208246553   T   T   T
  0.4269567691903854  0.3049991851119305  0.6548734731193311   T   T   T
  0.5910903859097475  0.8101037830014624  0.6461155905251531   T   T   T
  0.4208684343774359  0.6759435185641881  0.6335876257158091   T   T   T
  0.5000035825208023  0.8734153482213336  0.5008103442018432   T   T   T
  0.7554166742192601  0.4356892146798348  0.6383365963866653   T   T   T
  0.7528725896539401  0.5701273661754723  0.6346072707176136   T   T   T
  0.3972432633759259  0.5506035662857227  0.6519026495367425   T   T   T
  0.4174676026246725  0.9349026739950234  0.6397905182294106   T   T   T
  0.7410617230782778  0.8100180529817161  0.6399078696092125   T   T   T
  0.7472725661179039  0.3129655913689378  0.6397791203981357   T   T   T
  0.7473585669291989  0.0669846347000277  0.6391939232305264   T   T   T
  0.0839477372933267  0.3115275569483749  0.6403550624093393   T   T   T
  0.6665317887276044  0.8748581223927999  0.4992124082804933   T   T   T
  0.0872754127567206  0.5622296758731791  0.6409259969627770   T   T   T
  0.0867468112746251  0.4364102134108344  0.6393976010737933   T   T   T
  0.0834501257846816  0.1856625842993685  0.6410066483288640   T   T   T
  0.4184576653318243  0.1879467949129235  0.6397563572866196   T   T   T
  0.4149727110846117  0.4191207629955534  0.6298355550410069   T   T   T
  0.0842535853191391  0.9356529103687543  0.6406448088156409   T   T   T
  0.0830820105716542  0.6870223611472374  0.6391574365722748   T   T   T
  0.0842581128944637  0.0606439200693306  0.6421256145175106   T   T   T
  0.8332798539975492  0.5030959010591944  0.5887437215806738   T   T   T
  0.9125678768521629  0.4359299889175001  0.6396487639679814   T   T   T
  0.8305629444620558  0.7509507508764059  0.5927826556013969   T   T   T
  0.8315662297572588  0.2480693650336446  0.5911832724982633   T   T   T
  0.7457015383164227  0.1947082096581560  0.6465815488986177   T   T   T
  0.9166666865332829  0.8124999999834799  0.3605200052333331   F   F   F
  0.5820538907705008  0.9357780830583767  0.6393069773257082   T   T   T
  0.0842646048963831  0.8123508674830219  0.6421120311701324   T   T   T
  0.5783473778935995  0.1911816713611510  0.6438502099372798   T   T   T
  0.2549812029714103  0.6773658748889859  0.6628903277750640   T   T   T
  0.2405135323133293  0.4418935048573178  0.6413605378543643   T   T   T
  0.9143833266895484  0.9372046192266572  0.6410108414040070   T   T   T
  0.9163283854340797  0.6874733013660755  0.6392192764822824   T   T   T
  0.2519295089593986  0.9301697180220950  0.6373472298954513   T   T   T
  0.2535673313758982  0.1865016059667614  0.6412047090835478   T   T   T
  0.0005470308171531  0.1225638853416049  0.6198060338753089   T   T   T
  0.1666666716383389  0.3750000000061604  0.4070133268666680   F   F   F
  0.6654556071682445  0.7519334506684449  0.5021973890725370   T   T   T
  0.5011223616730575  0.7528790298277227  0.5039403789237140   T   T   T
  0.6658986304932559  0.0001998752705554  0.5054723964822582   T   T   T
  0.1643846486798312  0.7515608960107401  0.5033332157406994   T   T   T
  0.8333332538436267  0.6249999999803961  0.4070133268666680   F   F   F
  0.6685784480192030  0.4997815795594535  0.5006905927541889   T   T   T
  0.3311758937710761  0.4992516742172384  0.5009154542653305   T   T   T
  0.3300219374709274  0.2480526656613680  0.5027606540075651   T   T   T
  0.3330913402162214  0.0010591158247441  0.5057994068831426   T   T   T
  0.6669966838652266  0.2479532291692354  0.5028608792676055   T   T   T
  0.5012339837185654  0.4999599234793528  0.5002720550637306   T   T   T
  0.9996642243246043  0.5005134076488787  0.5069215638385582   T   T   T
  0.8360753873688139  0.4999524002092425  0.5027898018564968   T   T   T
  0.8354353757822524  0.2484941274527682  0.5031487868876823   T   T   T
  0.6666666865533486  0.3750000000061604  0.4070133268666680   F   F   F
  0.1659750571243159  0.0011267804819495  0.5065280922106009   T   T   T
  0.0000000000000000  0.8749999404036828  0.4070133268666680   F   F   F
  0.5009733365380548  0.2479929604319946  0.5019319359373620   T   T   T
  0.9998555109114907  0.7509196596584696  0.5065768509295786   T   T   T
  0.0007783066351738  0.2498561480759444  0.5058090148016382   T   T   T
  0.9999859248141368  0.0000008162590177  0.5066562438347021   T   T   T
  0.6666666865533486  0.6249999999803961  0.4070133268666680   F   F   F
  0.8333332538436267  0.8749999404036828  0.4070133268666680   F   F   F
  0.3333333432766779  0.6249999999803961  0.4070133268666680   F   F   F
  0.3333333432766779  0.1249999999871179  0.4070133268666680   F   F   F
  0.3333333432766779  0.3750000000061604  0.4070133268666680   F   F   F
  0.8342044478259917  0.0004701449099989  0.5065225893256895   T   T   T
  0.3333333432766779  0.8749999404036828  0.4070133268666680   F   F   F
  0.6666666865533486  0.1249999999871179  0.4070133268666680   F   F   F
  0.0000000000000000  0.6249999999803961  0.4070133268666680   F   F   F
  0.1663031875393818  0.2482154898028874  0.5061674818714360   T   T   T
  0.3338879755772370  0.7511401757225710  0.5015731115695088   T   T   T
  0.5001693064908354  0.9994242113888205  0.5054718995954013   T   T   T
  0.5007196698647209  0.8767715024057881  0.6096180174911607   T   T   T
  0.3258283434752662  0.3736305040874109  0.5927710296009890   T   T   T
  0.0000000000000000  0.3750000000061604  0.4070133268666680   F   F   F
  0.3341458119044630  0.6244426765527944  0.5952241071597270   T   T   T
  0.5000000000021103  0.8749999404036828  0.4070133268666680   F   F   F
  0.8333332538436267  0.1249999999871179  0.4070133268666680   F   F   F
  0.1666666716383389  0.1249999999871179  0.4070133268666680   F   F   F
  0.6653738831777603  0.1250164468562345  0.6112542602132215   T   T   T
  0.5000000000021103  0.6249999999803961  0.4070133268666680   F   F   F
  0.8398688376499460  0.6269945939053893  0.6033835415066048   T   T   T
  0.3316460061629071  0.1198484224916287  0.6134111870005331   T   T   T
  0.9990964503641249  0.8750809397140202  0.6222865837599805   T   T   T
  0.5000000000021103  0.1249999999871179  0.4070133268666680   F   F   F
  0.1635462406579282  0.4998643068895430  0.5020120767398092   T   T   T
  0.8320684492523843  0.8761739737065833  0.6182103274601708   T   T   T
  0.8370226104689582  0.3724164642385207  0.6041335182632757   T   T   T
  0.8359722546890623  0.7516851883476797  0.5026067735250894   T   T   T
  0.1666666716383389  0.8749999404036828  0.4070133268666680   F   F   F
  0.8333332538436267  0.3750000000061604  0.4070133268666680   F   F   F
  0.0000000000000000  0.1249999999871179  0.4070133268666680   F   F   F
  0.5038952595588599  0.6251369022313888  0.5939555423050153   T   T   T
  0.1666666716383389  0.6249999999803961  0.4070133268666680   F   F   F
  0.5000000000021103  0.3750000000061604  0.4070133268666680   F   F   F
  0.6666666865533486  0.8749999404036828  0.4070133268666680   F   F   F
  0.6710845085085428  0.3722891883915183  0.5936852608432852   T   T   T
  0.3344625329018248  0.8786107032617420  0.6029843423468698   T   T   T
  0.1661232617155730  0.8734720949545449  0.6178793488408144   T   T   T
  0.5015820641352827  0.3716257422878404  0.5948129792566186   T   T   T
  0.1593503253213625  0.6272525751238315  0.6014577276870611   T   T   T
  0.1677235216988096  0.1229261517224187  0.6220278667086565   T   T   T
  0.1632373622136412  0.3712880305674634  0.6075701663466841   T   T   T
  0.6652236348460727  0.8810231635031512  0.6070641795832064   T   T   T
  0.6664394972143688  0.6263865205695537  0.5934633763526586   T   T   T
  0.0000055882953979  0.3746377200120184  0.6233266092283849   T   T   T
  0.9996172231889665  0.6221483956184412  0.6305086622067602   T   T   T
  0.8332621515124745  0.1249272155368322  0.6194780399837873   T   T   T
  0.5002218185031898  0.1221864864545816  0.6060047442470775   T   T   T
  0.5847100111803187  0.7499846752439613  0.5997492838186267   T   T   T
  0.0833587154939489  0.2479322343192796  0.6034863329615378   T   T   T
  0.7494723243490915  0.0017431956485213  0.6041879470711055   T   T   T
  0.5825525628332373  0.0009889593084269  0.6041869436090208   T   T   T
  0.9162199045062727  0.0003425151640896  0.6038337432816929   T   T   T
  0.5905173043799407  0.5013073702754718  0.5935988260232082   T   T   T
  0.4146475392392598  0.2487994896127759  0.5911032092714016   T   T   T
  0.2493101841119887  0.7526348096871788  0.5921055762399431   T   T   T
  0.5840522479334466  0.2478335061628239  0.5967652077416271   T   T   T
  0.2495853982434651  0.9977305779992528  0.6042165320370403   T   T   T
  0.7538233473288819  0.2482076102591124  0.5940934098541063   T   T   T
  0.2490264836147948  0.2457143296711563  0.6035798754893809   T   T   T
  0.4170641983217783  0.0000233368136447  0.6046741549309511   T   T   T
  0.2424372591944756  0.4978752185228529  0.5939450771389737   T   T   T
  0.0815476960239085  0.5000338160047801  0.6032023165497552   T   T   T
  0.0812537690234312  0.6259459452542341  0.5055367532801261   T   T   T
  0.2465675630534448  0.3729392368052665  0.5027474528437754   T   T   T