Au  C  H  O Sr Ti                       
   1.00000000000000     
    23.6707801818999997    0.0000000000000000    0.0000000000000000
     0.0000000000000000   22.3170261383000010    0.0000000000000000
     0.0000000000000000    0.0000000000000000   30.0000000000000000
   Au   C    O    Sr   Ti
    50     1   266    72    72
Selective dynamics
Direct
  0.7174828299480619  0.5259951022258764  0.7531699575750209   T   T   T
  0.6229763906940852  0.5699694363302502  0.7040039722161627   T   T   T
  0.7190012352269872  0.2590818148817394  0.6915517097643302   T   T   T
  0.2936439394009463  0.7462448094364544  0.6975020968033993   T   T   T
  0.5124300225576170  0.6035440748825994  0.7763398209428053   T   T   T
  0.5782051873146973  0.7253145878913847  0.7936855510109324   T   T   T
  0.2405777965946210  0.4689018452222962  0.7088877601958421   T   T   T
  0.2844208874972233  0.6617434385989152  0.7650838097938920   T   T   T
  0.6032669404157268  0.2863086947903281  0.7857196534531293   T   T   T
  0.5143447345912848  0.4841296024527266  0.6778211916744012   T   T   T
  0.5633810571706352  0.4857190725937485  0.7619376794546833   T   T   T
  0.5557490958100790  0.2103798953493619  0.7110320961745182   T   T   T
  0.5507579125335149  0.3828056688553855  0.8271729083568340   T   T   T
  0.3915846216735019  0.8171340633262972  0.7066631503661928   T   T   T
  0.4635600117977241  0.6949092080516102  0.8301336272660370   T   T   T
  0.4412354135377516  0.2281524087679497  0.6969549374670219   T   T   T
  0.3715261681209743  0.2980234155449787  0.7548402732723654   T   T   T
  0.3495669242416463  0.4995393515822684  0.6977043553511264   T   T   T
  0.4298852052657629  0.3711497502154015  0.8145080696221028   T   T   T
  0.5958983232078960  0.7846010123326104  0.7130720756042954   T   T   T
  0.6353321482970343  0.5838788551397178  0.7999562259665891   T   T   T
  0.7334805116262804  0.6156418134519482  0.6936636834124852   T   T   T
  0.4854757703707940  0.7774699968530625  0.7561185188228838   T   T   T
  0.7648808057682696  0.4319063978608188  0.7049376370142323   T   T   T
  0.4871215491049944  0.2691998143442453  0.7749964761217568   T   T   T
  0.2894208297470114  0.5372234210278861  0.7773480328996840   T   T   T
  0.6157840369092290  0.3214843910848217  0.6965085306049656   T   T   T
  0.3685259291528747  0.6182205390639798  0.8199514445261112   T   T   T
  0.5703990939581641  0.5094098697467979  0.8562150711471599   T   T   T
  0.6634221633024197  0.1903844913445467  0.7485651657151170   T   T   T
  0.4723152625020111  0.4489574580755944  0.8776352385668557   T   T   T
  0.5171093663959665  0.3770904452268747  0.7324239093880633   T   T   T
  0.2827755261897240  0.3380604701318877  0.7023819115121620   T   T   T
  0.6695267294120526  0.6811580801116258  0.7487246291760025   T   T   T
  0.3975840922298513  0.3817091879065775  0.6900516408636371   T   T   T
  0.4525762232536847  0.5798137862095751  0.7024665516919697   T   T   T
  0.3756546810517540  0.4922240358217975  0.8325821932922544   T   T   T
  0.3258747592763567  0.4139877521457825  0.7689346295226509   T   T   T
  0.4203831980417670  0.6970700107596672  0.6993242440040293   T   T   T
  0.7003810519667256  0.3467364279899636  0.7563139220938598   T   T   T
  0.7747843614620292  0.4297215539593367  0.7950654433788501   T   T   T
  0.2568505074847761  0.5927792772287873  0.6945657324846957   T   T   T
  0.6488944674666167  0.4445706969519639  0.6950976256932507   T   T   T
  0.5644990646571589  0.6392015981644045  0.8608502511708069   T   T   T
  0.5424230759715429  0.6663675332868841  0.7011722567147783   T   T   T
  0.4440911397707409  0.4742280583707139  0.7561842503431895   T   T   T
  0.3740514375907344  0.7386815969875048  0.7784415136679248   T   T   T
  0.4629054083916764  0.5722709708305799  0.8632369017459937   T   T   T
  0.6568296437031931  0.4424846813166463  0.8124237242135239   T   T   T
  0.7061320351609678  0.7572549100468134  0.6882995260594826   T   T   T
  0.6898384324998704  0.0834690107831336  0.8099364700347023   T   T   T
  0.7296137691501493  0.1147970113022477  0.8095485029891895   T   T   T
  0.6495554614066092  0.0526454506598650  0.8104557115491655   T   T   T
  0.2494330328976895  0.3137624290694244  0.5459473445188444   T   T   T
  0.7507417829620732  0.1898154742715275  0.4556278067057357   T   T   T
  0.4171754885313830  0.9358374543062901  0.4540078933347220   T   T   T
  0.4169607570019438  0.6846941316591544  0.4546969527434339   T   T   T
  0.4164372379031272  0.4354500727954449  0.4537868621247147   T   T   T
  0.0845901853855526  0.6868893772832374  0.4530093847710928   T   T   T
  0.0838826800376199  0.9366739915923378  0.4534694135489987   T   T   T
  0.0827781808950377  0.4367729015651621  0.4528441045652689   T   T   T
  0.0838704925698590  0.1865663898997446  0.4529822528550602   T   T   T
  0.9165643500358829  0.8120592504745121  0.4540851687405784   T   T   T
  0.7465528058581058  0.5580667534464600  0.5444681910404310   T   T   T
  0.9161869339127475  0.5623216479969921  0.4539017787579519   T   T   T
  0.9160989166405045  0.0622230073409836  0.4540705410331929   T   T   T
  0.9161474878231327  0.3121911336275409  0.4538477461024389   T   T   T
  0.4171012840705167  0.1871308435667039  0.4535297906471594   T   T   T
  0.2521865793508497  0.6876129211403695  0.4561751470317810   T   T   T
  0.9164733803447870  0.9371469421145606  0.4536394280471926   T   T   T
  0.5826527736277289  0.1899651545354165  0.4553285221521517   T   T   T
  0.0001141201229726  0.1250601765074806  0.4983206884089333   T   T   T
  0.5834214370072309  0.8104040199456825  0.4554065938155928   T   T   T
 -0.0000814470414678  0.3733749244398612  0.4983403357349209   T   T   T
  0.9999262695118006  0.6271394087367960  0.4976748234834760   T   T   T
  0.3335345071738134  0.1255797789381168  0.4984753237293686   T   T   T
  0.0000256858634005  0.8751252599125856  0.4995250329555452   T   T   T
  0.3334381444437267  0.8738443431507636  0.4994146696465204   T   T   T
  0.6661668570335022  0.1263784200436845  0.4989586398625116   T   T   T
  0.2511687496953476  0.4392859810951934  0.4548713296351404   T   T   T
  0.0833333358191695  0.5625000000092442  0.3605200052333331   F   F   F
  0.9166666865332829  0.0625000000159659  0.3605200052333331   F   F   F
  0.7491757209394382  0.8132780755014805  0.4530554002065247   T   T   T
  0.7494740991060682  0.4383432395796676  0.4556613623836757   T   T   T
  0.2503414671451837  0.0619291138944313  0.4542165839532636   T   T   T
  0.7490756943396322  0.6887224921121580  0.4572717814980261   T   T   T
  0.2498752745264695  0.1884859972763272  0.4540910602512811   T   T   T
  0.2500807861125460  0.9360252063480344  0.4541112334883319   T   T   T
  0.6654417818223044  0.6260871492525391  0.5029537250964489   T   T   T
  0.5845685518279350  0.5628444507700950  0.4547801462832868   T   T   T
  0.5832427066682454  0.0635434150280161  0.4538547906662425   T   T   T
  0.9166666865332829  0.6874999999963620  0.3605200052333331   F   F   F
  0.9166666865332829  0.4374999701794380  0.3605200052333331   F   F   F
  0.9166666865332829  0.1875000000030838  0.3605200052333331   F   F   F
  0.5833333134730552  0.9375000000154046  0.3605200052333331   F   F   F
  0.5833333134730552  0.6874999999963620  0.3605200052333331   F   F   F
  0.5833333134730552  0.4374999701794380  0.3605200052333331   F   F   F
  0.5833333134730552  0.1875000000030838  0.3605200052333331   F   F   F
  0.2499999999799343  0.9375000000154046  0.3605200052333331   F   F   F
  0.9166666865332829  0.9375000000154046  0.3605200052333331   F   F   F
  0.2499999999799343  0.6874999999963620  0.3605200052333331   F   F   F
  0.2499999999799343  0.1875000000030838  0.3605200052333331   F   F   F
  0.7499999404149307  0.9375000000154046  0.3605200052333331   F   F   F
  0.7499999404149307  0.6874999999963620  0.3605200052333331   F   F   F
  0.7499999404149307  0.4374999701794380  0.3605200052333331   F   F   F
  0.7499999404149307  0.1875000000030838  0.3605200052333331   F   F   F
  0.4166666269218169  0.9375000000154046  0.3605200052333331   F   F   F
  0.4166666269218169  0.6874999999963620  0.3605200052333331   F   F   F
  0.4166666269218169  0.4374999701794380  0.3605200052333331   F   F   F
  0.2499999999799343  0.4374999701794380  0.3605200052333331   F   F   F
  0.0833333358191695  0.0625000000159659  0.3605200052333331   F   F   F
  0.9153534960935418  0.6866940324928416  0.4530310330727741   T   T   T
  0.6653709699615831  0.3785249421158471  0.5031219336855018   T   T   T
  0.3343508519019489  0.3784643913798640  0.5029469468676074   T   T   T
  0.3356871551020444  0.6255188504570847  0.5041000070991958   T   T   T
  0.9176554855363491  0.0633328808637261  0.5474459190144805   T   T   T
  0.7494915086769551  0.9384246627932056  0.4553136265774968   T   T   T
  0.5827387208866721  0.4396037522947172  0.4561839524533811   T   T   T
  0.9154281630250275  0.3127871678076131  0.5467624575053367   T   T   T
  0.2519374876920452  0.5646427578717986  0.4538274094324854   T   T   T
  0.5833333134730552  0.0625000000159659  0.3605200052333331   F   F   F
  0.2499999999799343  0.8124999999834799  0.3605200052333331   F   F   F
  0.2499999999799343  0.5625000000092442  0.3605200052333331   F   F   F
  0.2499999999799343  0.3124999999901945  0.3605200052333331   F   F   F
  0.2499999999799343  0.0625000000159659  0.3605200052333331   F   F   F
  0.7499999404149307  0.5625000000092442  0.3605200052333331   F   F   F
  0.7499999404149307  0.3124999999901945  0.3605200052333331   F   F   F
  0.7499999404149307  0.0625000000159659  0.3605200052333331   F   F   F
  0.4166666269218169  0.8124999999834799  0.3605200052333331   F   F   F
  0.4166666269218169  0.5625000000092442  0.3605200052333331   F   F   F
  0.4166666269218169  0.3124999999901945  0.3605200052333331   F   F   F
  0.7499999404149307  0.8124999999834799  0.3605200052333331   F   F   F
  0.0835490166571050  0.3120498674213871  0.4539747783817097   T   T   T
  0.4166666269218169  0.0625000000159659  0.3605200052333331   F   F   F
  0.4168755629186772  0.0615423386497666  0.4553372482961304   T   T   T
  0.0835128647372952  0.8121125582964291  0.4541672608980852   T   T   T
  0.0839481954601392  0.5624760864759962  0.4538697221232101   T   T   T
  0.4160528873063132  0.5595051656226595  0.4578790946875819   T   T   T
  0.0837668381896572  0.0618638625992430  0.4541857603074250   T   T   T
  0.4154861269098046  0.3113222442051007  0.4573612024261458   T   T   T
  0.8333332538436267  0.7500000000123208  0.4070133268666680   F   F   F
  0.0833333358191695  0.4374999701794380  0.3605200052333331   F   F   F
  0.0833333358191695  0.6874999999963620  0.3605200052333331   F   F   F
  0.0833333358191695  0.9375000000154046  0.3605200052333331   F   F   F
  0.4166666269218169  0.1875000000030838  0.3605200052333331   F   F   F
  0.0833333358191695  0.8124999999834799  0.3605200052333331   F   F   F
  0.8333332538436267  0.4999999999932783  0.4070133268666680   F   F   F
  0.2510676615530207  0.0625330447726210  0.5472614655588397   T   T   T
  0.4148071765450159  0.8118834564452637  0.5479235297210497   T   T   T
  0.5833333134730552  0.3124999999901945  0.3605200052333331   F   F   F
  0.2522562412659294  0.3141317179745181  0.4541544766171763   T   T   T
  0.5833333134730552  0.8124999999834799  0.3605200052333331   F   F   F
  0.5833333134730552  0.5625000000092442  0.3605200052333331   F   F   F
  0.2505859894536668  0.8107623908013928  0.4553713042062509   T   T   T
  0.8333332538436267  0.2500000000190425  0.4070133268666680   F   F   F
  0.5843102146855981  0.3153430032224604  0.4535436632703645   T   T   T
  0.7485150798147933  0.8083029870337666  0.5456304844241482   T   T   T
  0.5000000000021103  0.4999999999932783  0.4070133268666680   F   F   F
  0.0833333358191695  0.1875000000030838  0.3605200052333331   F   F   F
  0.0000000000000000  0.0000000000000000  0.4070133268666680   F   F   F
  0.0000000000000000  0.2500000000190425  0.4070133268666680   F   F   F
  0.0000000000000000  0.4999999999932783  0.4070133268666680   F   F   F
  0.7481342295338794  0.5642672201203613  0.4536942975988102   T   T   T
  0.3333333432766779  0.0000000000000000  0.4070133268666680   F   F   F
  0.3333333432766779  0.4999999999932783  0.4070133268666680   F   F   F
  0.3333333432766779  0.7500000000123208  0.4070133268666680   F   F   F
  0.6666666865533486  0.0000000000000000  0.4070133268666680   F   F   F
  0.6666666865533486  0.2500000000190425  0.4070133268666680   F   F   F
  0.6666666865533486  0.4999999999932783  0.4070133268666680   F   F   F
  0.6666666865533486  0.7500000000123208  0.4070133268666680   F   F   F
  0.1666666716383389  0.0000000000000000  0.4070133268666680   F   F   F
  0.1666666716383389  0.2500000000190425  0.4070133268666680   F   F   F
  0.1666666716383389  0.4999999999932783  0.4070133268666680   F   F   F
  0.1666666716383389  0.7500000000123208  0.4070133268666680   F   F   F
  0.5000000000021103  0.0000000000000000  0.4070133268666680   F   F   F
  0.5000000000021103  0.2500000000190425  0.4070133268666680   F   F   F
  0.5000000000021103  0.7500000000123208  0.4070133268666680   F   F   F
  0.9166666865332829  0.3124999999901945  0.3605200052333331   F   F   F
  0.3333333432766779  0.2500000000190425  0.4070133268666680   F   F   F
  0.7473632089123881  0.3141220292559596  0.4545882762260700   T   T   T
  0.0000000000000000  0.7500000000123208  0.4070133268666680   F   F   F
  0.4166328084724008  0.8099841493736409  0.4551342563555991   T   T   T
  0.7496867856035045  0.0640777571917194  0.4533469901025221   T   T   T
  0.5827964472312616  0.6861188482096697  0.4545357268587902   T   T   T
  0.8333332538436267  0.0000000000000000  0.4070133268666680   F   F   F
  0.9158285869511419  0.1868404720778219  0.4531453482382650   T   T   T
  0.4159315967095932  0.9371061090708813  0.5460855384430392   T   T   T
  0.4985055368572901  0.2530151366442671  0.5902187463367219   T   T   T
  0.4156213389731176  0.1913788748536400  0.5464768762983595   T   T   T
  0.0865501355350487  0.6896997006343041  0.5451345036599515   T   T   T
  0.0823466458798529  0.4388321314721431  0.5449011108455926   T   T   T
  0.0835847033097602  0.1889457505964461  0.5455351802127125   T   T   T
  0.4994538741401356  0.1256130286043405  0.4995813663521262   T   T   T
  0.9996304352821345  0.5006463629765332  0.5943940478462306   T   T   T
  0.5808324064866582  0.1855632202407680  0.5494095545394140   T   T   T
  0.9995989646272417  0.7533113536064016  0.5923081637964110   T   T   T
  0.3340096344105449 -0.0001734063992173  0.5920210990238020   T   T   T
 -0.0002259632374178  0.9993043020947669  0.5931775692689287   T   T   T
  0.0007194665232076  0.2499921483327797  0.5918513626213485   T   T   T
  0.3332568143638645  0.4964590580488772  0.5908148185349497   T   T   T
  0.3359667180655841  0.7412031605514656  0.5904599561701758   T   T   T
  0.6633933460634746  0.2479153390243332  0.5903548240811101   T   T   T
  0.6658329144880812  0.0003982453475770  0.5918050690008214   T   T   T
  0.6660370663638635  0.7419308112722158  0.5899267691264819   T   T   T
  0.6668782961263743  0.4943822873714201  0.5911393779626101   T   T   T
  0.1674356577742069  0.9983736693951528  0.5923078722419227   T   T   T
  0.1683735912790794  0.2488463071127278  0.5930228323620584   T   T   T
  0.1707535081102621  0.7501108731242662  0.5950814905082750   T   T   T
  0.2485038800031709  0.4360338196508260  0.5489396693531160   T   T   T
  0.1655122774011255  0.5026695708999086  0.5874137000232782   T   T   T
  0.3346404975913436  0.2544263549716896  0.5926931882561057   T   T   T
  0.4996132569348602  0.0000171934429012  0.5909888069379786   T   T   T
  0.8328081320089329  0.8745095376080234  0.4985174079393021   T   T   T
  0.7483794575358105  0.9367953291129293  0.6399591468361671   T   T   T
  0.8321850819825508  0.0020973785475937  0.5922632502972446   T   T   T
  0.7485449741412168  0.1836785627459924  0.5507566629424892   T   T   T
  0.4232719772455419  0.6880646259714304  0.5466040247757944   T   T   T
  0.4231391738415474  0.4439002679560394  0.5455193191626355   T   T   T
  0.7520006009075707  0.4352559653954590  0.5488545734991525   T   T   T
  0.5824678019966276  0.3112249444907367  0.5449062220362640   T   T   T
  0.2531166467168280  0.8126864299116211  0.5511059319751707   T   T   T
  0.5827614997995474  0.9370794091815009  0.4542583482263921   T   T   T
  0.5829280341621411  0.0622397040695082  0.5455674009033166   T   T   T
  0.5861734916703183  0.8147325918772558  0.5504379287360283   T   T   T
  0.7479880822661494  0.3115561254865487  0.5478534051684336   T   T   T
  0.5812176595904142  0.5601980784523646  0.5489799542662070   T   T   T
  0.2522352301861375  0.5590855415773479  0.5439459161189271   T   T   T
  0.4159667120075451  0.3197375190757966  0.5525435212390154   T   T   T
  0.5766441825815910  0.4359824374567685  0.5517586082177798   T   T   T
  0.4164550495676710  0.0652919428562733  0.5472634730763636   T   T   T
  0.0848764405972733  0.8129250661133317  0.5473408702293561   T   T   T
  0.0823517734118267  0.5643632267837562  0.5462963631916554   T   T   T
  0.0863689243643339  0.3134709272192747  0.5468795630554896   T   T   T
  0.5014344864572343  0.7564341859627935  0.5930327683296879   T   T   T
  0.0823134104135023  0.0632572370031242  0.5475773754097222   T   T   T
  0.9137254280775013  0.6892997595833306  0.5451435501538288   T   T   T
  0.5836149481377618  0.9378916805734635  0.5461713645758614   T   T   T
  0.9169898661724686  0.1890723024503096  0.5452461972609683   T   T   T
  0.9159996803417091  0.4376317211425466  0.5457474975245151   T   T   T
  0.5795605978041412  0.6863917653351643  0.5471627629093840   T   T   T
  0.2515282624822302  0.9373500017548343  0.5452773134340396   T   T   T
  0.4975698803984029  0.5043983640895885  0.6088321243833947   T   T   T
  0.9172043201851169  0.5637519710875254  0.5467459189510900   T   T   T
  0.4201985682033868  0.5650662408393367  0.5554078256011268   T   T   T
  0.9154465649859728  0.8129605192751612  0.5468808252478975   T   T   T
  0.0835920738375268  0.9389655137045182  0.5457361960966944   T   T   T
  0.2492582572726974  0.6832934388718276  0.5521252690515664   T   T   T
  0.7495006376537058  0.9341584229610339  0.5476175741566760   T   T   T
  0.7519397588552753  0.6804602547033159  0.5530773056763826   T   T   T
  0.9157261785337609  0.9386368318193234  0.5464003338491353   T   T   T
  0.4177456328782204  0.0651735480237045  0.6399830489217211   T   T   T
  0.0833333358191695  0.3124999999901945  0.3605200052333331   F   F   F
  0.4127749098423359  0.8128166901745033  0.6395949760060627   T   T   T
  0.9157426724545373  0.0627730887817919  0.6415340692685043   T   T   T
  0.9125518695492839  0.5616441318547756  0.6419067545783700   T   T   T
  0.9150354087896309  0.3117859620909655  0.6396435683828652   T   T   T
  0.9141900991142712  0.8132537812466378  0.6415514560940672   T   T   T
  0.5823348559521254  0.0664134438465881  0.6388193822837809   T   T   T
  0.5829841278907743  0.3203018927081724  0.6337815672532529   T   T   T
  0.5913623443327003  0.5649803617885364  0.6391848947634398   T   T   T
  0.2475151382921914  0.5738218444866348  0.6287417582556681   T   T   T
  0.7540831908409558  0.6932605594768132  0.6568183488279846   T   T   T
  0.2621668847498639  0.7988788642546830  0.6467061601358381   T   T   T
  0.2510011587108250  0.0594366173373127  0.6423133610732080   T   T   T
  0.9166666865332829  0.5625000000092442  0.3605200052333331   F   F   F
  0.4994875931703939  0.3743028666381582  0.4996012499757374   T   T   T
  0.5003586467089646  0.6211055103487063  0.4999983712923318   T   T   T
  0.8323718088882088  0.6230363348154445  0.4999968501846553   T   T   T
  0.2519420688364108  0.1882875076993812  0.5471248404546801   T   T   T
  0.8324627305451339  0.3732138100986561  0.4996631014611606   T   T   T
  0.8329774721791826  0.1245563950612247  0.4999423177022047   T   T   T
  0.1667062244824027  0.3762720538291358  0.4978208322626563   T   T   T
  0.1677951902836571  0.6243235494546807  0.4999965291582447   T   T   T
  0.5815328960408482  0.4390010337763516  0.6459516177431055   T   T   T
  0.5804856223139636  0.6853444411242154  0.6390529615049627   T   T   T
  0.9164563369290931  0.1863297529368791  0.6399427349661436   T   T   T
  0.2490606935487459  0.3162485339137215  0.6412289171842257   T   T   T
  0.1677536766640419  0.8732662229138767  0.4999121567157871   T   T   T
  0.9158120967258671  0.4370124667347559  0.4536558214920213   T   T   T
  0.1670501996154307  0.1243476505033630  0.4993778182797566   T   T   T
  0.7481953580750195  0.0598208684468676  0.5444998608562862   T   T   T
  0.4269145626742217  0.3049051074521771  0.6547698973771441   T   T   T
  0.5910968322845161  0.8101062435456871  0.6461215732962883   T   T   T
  0.4211523325871648  0.6759556225920580  0.6334286466669699   T   T   T
  0.5000449567849106  0.8733814821680642  0.5008311655220469   T   T   T
  0.7553850306509754  0.4356033476927798  0.6383134609251023   T   T   T
  0.7529669842239706  0.5702415113796034  0.6345579405189803   T   T   T
  0.3972008401872759  0.5506150112063415  0.6519279092662269   T   T   T
  0.4174321440717826  0.9349239149675987  0.6398082830920034   T   T   T
  0.7410761289733512  0.8100317801907722  0.6399200218222665   T   T   T
  0.7470736377578062  0.3128019895454380  0.6401284263678817   T   T   T
  0.7475897056651586  0.0670929973225687  0.6390042566675168   T   T   T
  0.0837827742166712  0.3117494584431633  0.6404038443489062   T   T   T
  0.6665898902438885  0.8748434515116984  0.4991374038571085   T   T   T
  0.0873825711446348  0.5619345398065687  0.6412523004033114   T   T   T
  0.0867006052998414  0.4364214372989558  0.6393709499839553   T   T   T
  0.0834970009522130  0.1857906382201354  0.6409844552828610   T   T   T
  0.4184683298791782  0.1879274962269749  0.6397458466076741   T   T   T
  0.4149197847485563  0.4190855606948403  0.6298807159017438   T   T   T
  0.0842323268647432  0.9356250929331045  0.6406378479713087   T   T   T
  0.0830823890091149  0.6870178942182950  0.6392351122489838   T   T   T
  0.0842500415477133  0.0606333866759126  0.6421117339933723   T   T   T
  0.8332987934587240  0.5030763119285810  0.5887273570718331   T   T   T
  0.9125505274997231  0.4359723059244997  0.6396097796493064   T   T   T
  0.8305823086780615  0.7508773292006131  0.5928570464169214   T   T   T
  0.8315223309853028  0.2483278548386069  0.5910983842179136   T   T   T
  0.7457140280544129  0.1945497998794806  0.6465519676702998   T   T   T
  0.9166666865332829  0.8124999999834799  0.3605200052333331   F   F   F
  0.5819957103741802  0.9359198376761230  0.6394095264582722   T   T   T
  0.0841814077693126  0.8122356938387404  0.6420574340911622   T   T   T
  0.5782903459102190  0.1912723239902546  0.6438729769659650   T   T   T
  0.2549925940998630  0.6773939161326047  0.6631056346997857   T   T   T
  0.2405201968745718  0.4419047751582881  0.6413960366248861   T   T   T
  0.9143868166262705  0.9372049167299422  0.6410159360537599   T   T   T
  0.9163023623759459  0.6874982773618628  0.6393581827960131   T   T   T
  0.2519381603419406  0.9301599517263759  0.6373703779119998   T   T   T
  0.2533945239370659  0.1864376785453636  0.6411201728828588   T   T   T
  0.0005822660330028  0.1227369093771938  0.6199299645170727   T   T   T
  0.1666666716383389  0.3750000000061604  0.4070133268666680   F   F   F
  0.6655078506741615  0.7519535127461250  0.5021557949106780   T   T   T
  0.5011200373974004  0.7528398758246236  0.5039586627645044   T   T   T
  0.6659287330878897  0.0001843311464719  0.5054662957881737   T   T   T
  0.1643981696985155  0.7515579805175675  0.5033386630437723   T   T   T
  0.8333332538436267  0.6249999999803961  0.4070133268666680   F   F   F
  0.6686258880282614  0.4997357357206156  0.5007024752970716   T   T   T
  0.3311425233515173  0.4992764336037196  0.5009449435309591   T   T   T
  0.3300289659868387  0.2480690224045881  0.5027515097194478   T   T   T
  0.3330898605558683  0.0010635082805582  0.5057912152818869   T   T   T
  0.6670089725808981  0.2479253521278621  0.5028860132504854   T   T   T
  0.5012505522706544  0.4998951082469118  0.5003006769454187   T   T   T
  0.9996144139021383  0.5006624140968632  0.5069723589250295   T   T   T
  0.8360460876084613  0.4999312467335975  0.5027748362579563   T   T   T
  0.8353712209941841  0.2485429436583175  0.5031542077356711   T   T   T
  0.6666666865533486  0.3750000000061604  0.4070133268666680   F   F   F
  0.1659769639490341  0.0011320566381827  0.5065342601405702   T   T   T
  0.0000000000000000  0.8749999404036828  0.4070133268666680   F   F   F
  0.5009465867538462  0.2479409354257965  0.5019106359797514   T   T   T
  0.9998000592501972  0.7508409412102151  0.5066128764991483   T   T   T
  0.0007461410848011  0.2498425260227847  0.5058516229378696   T   T   T
  0.0000082931522735  0.0000321001168536  0.5066222260109332   T   T   T
  0.6666666865533486  0.6249999999803961  0.4070133268666680   F   F   F
  0.8333332538436267  0.8749999404036828  0.4070133268666680   F   F   F
  0.3333333432766779  0.6249999999803961  0.4070133268666680   F   F   F
  0.3333333432766779  0.1249999999871179  0.4070133268666680   F   F   F
  0.3333333432766779  0.3750000000061604  0.4070133268666680   F   F   F
  0.8342166601386148  0.0004177765414537  0.5064193895201248   T   T   T
  0.3333333432766779  0.8749999404036828  0.4070133268666680   F   F   F
  0.6666666865533486  0.1249999999871179  0.4070133268666680   F   F   F
  0.0000000000000000  0.6249999999803961  0.4070133268666680   F   F   F
  0.1662792406589002  0.2482558859714895  0.5061556360235751   T   T   T
  0.3338428795470598  0.7510837522757251  0.5015927720637966   T   T   T
  0.5001569366057094  0.9994137268443987  0.5054550396295915   T   T   T
  0.5007097930929881  0.8767691657548915  0.6096681887741410   T   T   T
  0.3257985683504331  0.3736958442993409  0.5927831179735517   T   T   T
  0.0000000000000000  0.3750000000061604  0.4070133268666680   F   F   F
  0.3342224066297245  0.6244020916317855  0.5952876819897930   T   T   T
  0.5000000000021103  0.8749999404036828  0.4070133268666680   F   F   F
  0.8333332538436267  0.1249999999871179  0.4070133268666680   F   F   F
  0.1666666716383389  0.1249999999871179  0.4070133268666680   F   F   F
  0.6654068436601582  0.1250103282020116  0.6111342690111646   T   T   T
  0.5000000000021103  0.6249999999803961  0.4070133268666680   F   F   F
  0.8400656356687363  0.6269633883936548  0.6031660298179083   T   T   T
  0.3315920823856425  0.1199064348075399  0.6133824157056964   T   T   T
  0.9990879886880872  0.8750833886611572  0.6221590425390287   T   T   T
  0.5000000000021103  0.1249999999871179  0.4070133268666680   F   F   F
  0.1634818787553866  0.4998207088257440  0.5020381360117303   T   T   T
  0.8321198593062709  0.8761410275741510  0.6182275514080727   T   T   T
  0.8369900449519241  0.3723514639331122  0.6042609816086494   T   T   T
  0.8359463368534814  0.7517030906513564  0.5025836866351852   T   T   T
  0.1666666716383389  0.8749999404036828  0.4070133268666680   F   F   F
  0.8333332538436267  0.3750000000061604  0.4070133268666680   F   F   F
  0.0000000000000000  0.1249999999871179  0.4070133268666680   F   F   F
  0.5040059412518412  0.6250553888263956  0.5939076174089770   T   T   T
  0.1666666716383389  0.6249999999803961  0.4070133268666680   F   F   F
  0.5000000000021103  0.3750000000061604  0.4070133268666680   F   F   F
  0.6666666865533486  0.8749999404036828  0.4070133268666680   F   F   F
  0.6711567997590726  0.3723062192375887  0.5938203607025200   T   T   T
  0.3344642844519654  0.8785346157879244  0.6030578216875638   T   T   T
  0.1660575448311681  0.8734254724877922  0.6178667771158759   T   T   T
  0.5015589824986497  0.3715721783028867  0.5949004626525919   T   T   T
  0.1591512095562937  0.6271811165589911  0.6014540362314216   T   T   T
  0.1676615039930591  0.1228511704404710  0.6218500935288908   T   T   T
  0.1632158842519845  0.3713428348315068  0.6076112942967711   T   T   T
  0.6652068536952428  0.8810687257816742  0.6072531118204358   T   T   T
  0.6664564481724545  0.6264816362909329  0.5934667122125613   T   T   T
  0.9999130316505866  0.3746749324602079  0.6233131897538424   T   T   T
  0.9996075994308830  0.6218751791185239  0.6340065637676385   T   T   T
  0.8333712521614915  0.1247311120601159  0.6178776147903396   T   T   T
  0.5001476607015370  0.1222355110400411  0.6058740609355976   T   T   T
  0.5847116472734954  0.7500688179859811  0.5997194792560248   T   T   T
  0.0833314566961058  0.2480981739949344  0.6035126101200664   T   T   T
  0.7494891710121233  0.0017213014736793  0.6041887064577622   T   T   T
  0.5825409991178213  0.0009917460492269  0.6041546409416845   T   T   T
  0.9162674819463368  0.0002773393260541  0.6037838282273552   T   T   T
  0.5905948140755882  0.5012558161371602  0.5936112425571917   T   T   T
  0.4146175686514707  0.2488019582862032  0.5911038366342904   T   T   T
  0.2492413115036212  0.7526278930344197  0.5921561276145404   T   T   T
  0.5840318132040694  0.2478411329441123  0.5968175863365508   T   T   T
  0.2496574211008751  0.9976961371747844  0.6042350219481549   T   T   T
  0.7537802942337428  0.2483376834872372  0.5942142951890133   T   T   T
  0.2490233971230082  0.2458105376597648  0.6035570980236487   T   T   T
  0.4170555838859185  0.0000112243454645  0.6046798823028819   T   T   T
  0.2423796399724912  0.4979380824931094  0.5939545656576426   T   T   T
  0.0814491205516023  0.5001096490759972  0.6031960864657767   T   T   T
  0.0812197965893027  0.6259852143767392  0.5056155901538607   T   T   T
  0.2465601159438742  0.3729436681397352  0.5027457042840980   T   T   T