C  H                                    
   1.00000000000000     
    23.6707801818999997    0.0000000000000000    0.0000000000000000
     0.0000000000000000   27.8962826732999716    0.0000000000000000
     0.0000000000000000    0.0000000000000000   30.0000000000000000
   C    H 
     5    12
Direct
  0.4999807094649594  0.4812457268736825  0.4574331671378974
  0.5000366351661600  0.4818033096426259  0.5427569046261772
  0.5000306579148288  0.5123284677159278  0.5851171769211255
  0.5000002682730911  0.5116113538530553  0.4999291538233142
  0.4999596705444853  0.5113001790758879  0.4147694903667201
  0.4999500159613844  0.4886246565524481  0.3850282318312640
  0.4999471013040434  0.4899321453112728  0.6149738545380807
  0.4627132738672742  0.5354435451187936  0.5864523405679787
  0.5374122813906478  0.5353599920606339  0.5865355873192900
  0.5370935708292081  0.4581910528839388  0.5427625228992590
  0.4630128576980138  0.4581588880661073  0.5427770164052849
  0.4629096857177207  0.4576322904461613  0.4577056542963778
  0.5372352127693616  0.5343770661895476  0.4132171974202338
  0.4626696840813018  0.5343743136443699  0.4132329139670497
  0.4629013262388650  0.5352885324729052  0.4998340052739295
  0.5370731751781896  0.5353162567017462  0.4997984991072485
  0.5370460261477870  0.4576293859566423  0.4576814902065949
 
  0.00000000E+00  0.00000000E+00  0.00000000E+00
  0.00000000E+00  0.00000000E+00  0.00000000E+00
  0.00000000E+00  0.00000000E+00  0.00000000E+00
  0.00000000E+00  0.00000000E+00  0.00000000E+00
  0.00000000E+00  0.00000000E+00  0.00000000E+00
  0.00000000E+00  0.00000000E+00  0.00000000E+00
  0.00000000E+00  0.00000000E+00  0.00000000E+00
  0.00000000E+00  0.00000000E+00  0.00000000E+00
  0.00000000E+00  0.00000000E+00  0.00000000E+00
  0.00000000E+00  0.00000000E+00  0.00000000E+00
  0.00000000E+00  0.00000000E+00  0.00000000E+00
  0.00000000E+00  0.00000000E+00  0.00000000E+00
  0.00000000E+00  0.00000000E+00  0.00000000E+00
  0.00000000E+00  0.00000000E+00  0.00000000E+00
  0.00000000E+00  0.00000000E+00  0.00000000E+00
  0.00000000E+00  0.00000000E+00  0.00000000E+00
  0.00000000E+00  0.00000000E+00  0.00000000E+00
