C  H 
 1.0000000000000000
    23.6707801818999997    0.0000000000000000    0.0000000000000000
     0.0000000000000000   27.8962826732999716    0.0000000000000000
     0.0000000000000000    0.0000000000000000   30.0000000000000000
 C   H  
   5  12
Cartesian
 11.8349296090374168 13.4246520475148490 13.7231613673726329
 11.8363392958050913 13.4407432083813347 16.2826099782369269
 11.8360743489744902 14.2928694921688066 17.5532081892985161
 11.8353794016799441 14.2727598048760527 14.9983682216862668
 11.8342881868108627 14.2621037947145055 12.4426379335951971
 11.8342302338089063 13.6308388068726281 11.5510515319377500
 11.8341514447998808 13.6671148828309548 18.4487650900513565
 10.9525011523680842 14.9366128202223010 17.5934432229963313
 12.7213251448489792 14.9343138568204239 17.5960010406282628
 12.7132682334414078 12.7818268070757881 16.2826356554919052
 10.9600053324764755 12.7808956255078989 16.2830671096085631
 10.9573113276606833 12.7662830315439191 13.7313950864379990
 12.7168877963835349 14.9072685527062472 12.3967929435446731
 10.9517091621278126 14.9071798174015058 12.3972550277807354
 10.9572479693622729 14.9326339118019611 14.9950779138253232
 12.7129545319578661 14.9334260190053136 14.9940039034650212
 12.7123692036752107 12.7662298731142787 13.7306819852769415
