C  H 
 1.0000000000000000
    23.6707801818999997    0.0000000000000000    0.0000000000000000
     0.0000000000000000   27.8962826732999716    0.0000000000000000
     0.0000000000000000    0.0000000000000000   30.0000000000000000
 C   H  
   4  10
Cartesian
 11.8352260426801106 13.5163817650263116 14.3623318808518352
 11.8359879210148122 13.5495349373358245 16.9226198070332003
 11.8354772076534580 14.3725241567149951 15.6323434829862951
 11.8348656548999216 14.3521789137467959 13.0818252052872435
 11.8347928146670220 13.7240196134913859 12.1880108075040159
 11.8345220221118748 14.1927581714548765 17.8062146147962395
 12.7211034569220711 12.9083722233543945 16.9782915964140031
 10.9526193834832153 12.9058303912778367 16.9768561679338319
 10.9583912378143964 12.8582480588921406 14.3736872184931599
 12.7166124029408394 14.9968225854609933 13.0378396061902357
 10.9530675375762172 14.9967784468269389 13.0382371799368286
 10.9583206734934198 15.0315522746629249 15.6192331277490641
 12.7123498972633495 15.0319220664446362 15.6188667517819333
 12.7121636355427121 12.8582923586655031 14.3732442406683578
