Au  C  H  O Sr Ti                       
   1.00000000000000     
    23.6707801818999997    0.0000000000000000    0.0000000000000000
     0.0000000000000000   22.3170261383000010    0.0000000000000000
     0.0000000000000000    0.0000000000000000   30.0000000000000000
   Au   C    H    O    Sr   Ti
    50     2     2   265    72    72
Selective dynamics
Direct
  0.7109254247004333  0.5264447667959643  0.7542515525646667   T   T   T
  0.2916689135122976  0.7475402321416347  0.6971851522789105   T   T   T
  0.5073368651740729  0.6084196057638306  0.7783389818578560   T   T   T
  0.5773442677052012  0.7267315383167235  0.7941430574275974   T   T   T
  0.2390588966704154  0.4704413280453861  0.7089933166893561   T   T   T
  0.2819696414173615  0.6644865971833503  0.7646430842806177   T   T   T
  0.5906953626397706  0.2957029490642614  0.7889159398977983   T   T   T
  0.5120128719060592  0.4845301792078583  0.6787014244075101   T   T   T
  0.5587950782340642  0.4909397211374136  0.7645351055490918   T   T   T
  0.4786718002531317  0.2695394497677834  0.7752331369302443   T   T   T
  0.5449646589328635  0.3937900488823695  0.8335916824046437   T   T   T
  0.5491366096942687  0.2124413083234141  0.7115167208079093   T   T   T
  0.3900904001303633  0.8181275875803895  0.7062902219155502   T   T   T
  0.4327582627758103  0.2278001961093485  0.6979517057918270   T   T   T
  0.3667922191237826  0.3014994542550201  0.7567808718129249   T   T   T
  0.4270778184127810  0.3749991100646744  0.8173692693685294   T   T   T
  0.5958663122804150  0.7849008013925098  0.7129724471637273   T   T   T
  0.6302133515594589  0.5876616956042097  0.8015379958637485   T   T   T
  0.7302828861301001  0.6148329611911326  0.6939872859909253   T   T   T
  0.4846006310973964  0.7767664991604617  0.7548423828725618   T   T   T
  0.7574165498015177  0.4309920883081078  0.7051180529021907   T   T   T
  0.7706269000832981  0.2377854288823973  0.6927193943880868   T   T   T
  0.6190986696246065  0.5708229571677037  0.7044029907497029   T   T   T
  0.4603970211992148  0.7002074253144820  0.8320778537560930   T   T   T
  0.6126659871748824  0.3177264818782862  0.6985340262990393   T   T   T
  0.3474582049333071  0.5009522249769244  0.6969296802325359   T   T   T
  0.6872437888105082  0.3556365777585602  0.7635476274242263   T   T   T
  0.2880780038529116  0.5400649535089563  0.7769052504121201   T   T   T
  0.5642013360756970  0.5168987042693722  0.8605550487447079   T   T   T
  0.6666880272736834  0.2185214489658399  0.7473330890809069   T   T   T
  0.4646558778301570  0.4567127887184071  0.8830492324972106   T   T   T
  0.2807479753882149  0.3413344242856945  0.7021417831416473   T   T   T
  0.6678423418908941  0.6815738515108209  0.7488614373788141   T   T   T
  0.3968424491123734  0.3825937297656864  0.6911192205286468   T   T   T
  0.4508608698075334  0.5808084334227300  0.7033711109460972   T   T   T
  0.3728079714530907  0.4966284156714892  0.8333648620469458   T   T   T
  0.3231184117539209  0.4171837397650795  0.7698600282908180   T   T   T
  0.3661158648872479  0.6222307481930212  0.8199379763056469   T   T   T
  0.5166614462200226  0.3797717153731245  0.7372299818890449   T   T   T
  0.7695616719210985  0.4324008391574571  0.7955219943354324   T   T   T
  0.2557525204522887  0.5948974853502099  0.6942691094673077   T   T   T
  0.6416298777370150  0.4428244025400628  0.6973906897465947   T   T   T
  0.5612874288482372  0.6450580359183744  0.8634407602671866   T   T   T
  0.5395382810661900  0.6682178892501416  0.7021430898814800   T   T   T
  0.4401540694527665  0.4750541804380953  0.7564820138081534   T   T   T
  0.7060258379240356  0.7565801786849180  0.6883396734595680   T   T   T
  0.3717972289226014  0.7417273714165042  0.7783078805473694   T   T   T
  0.4587052874826417  0.5790572477660852  0.8667409583240200   T   T   T
  0.6515120662463307  0.4522574071925317  0.8194235362467149   T   T   T
  0.4158996441552658  0.6971524423279538  0.6994446757081388   T   T   T
  0.8121114297632386  0.2750901169509485  0.7405542737121938   T   T   T
  0.7409355031329519  0.1707712604589109  0.7369533251817391   T   T   T
  0.7361248272934610  0.1298529660370755  0.7174693509063456   T   T   T
  0.7662460560361524  0.1648881012332852  0.7669003609335977   T   T   T
  0.0843119771044113  0.6869586385388707  0.4531420193163801   T   T   T
  0.2520169065178851  0.6874462105910327  0.4560174053608752   T   T   T
  0.0840194738776235  0.9369123339230346  0.4536758498826960   T   T   T
  0.0827587026827724  0.4368069444190786  0.4528250343623015   T   T   T
  0.0838089613757827  0.1865434948247681  0.4529629802954875   T   T   T
  0.9164881607556333  0.8120910967202517  0.4540422086472121   T   T   T
  0.7463345245729881  0.5577130054349396  0.5449264675499625   T   T   T
  0.9160873509948594  0.5621916958886669  0.4540911747972226   T   T   T
  0.9160826091626332  0.0622938212768236  0.4538108218931836   T   T   T
  0.9162470532864460  0.3122128937573027  0.4537916368880673   T   T   T
  0.4165983372104509  0.4353824744002557  0.4541008643060166   T   T   T
  0.5828360429676301  0.4397976487259433  0.4562843291808569   T   T   T
  0.5829780715758798  0.1904035689406479  0.4557090672955141   T   T   T
  0.9163906625424729  0.9370576831618013  0.4535548892261426   T   T   T
  0.5828276726023529  0.8106700809292516  0.4552471008112064   T   T   T
  0.9998255579649772  0.3738216661920701  0.4981099882370962   T   T   T
  0.9995841723172594  0.6270277107292465  0.4976840349608745   T   T   T
  0.3338605244187207  0.1257742762908374  0.4987553393368652   T   T   T
  0.0001561785241271  0.8746290069354140  0.4993158492229965   T   T   T
  0.3333309327401839  0.8736156545940873  0.4992409941467106   T   T   T
  0.6663242793714477  0.1256794324609174  0.4991224215995509   T   T   T
  0.2512341511158419  0.4391508478896337  0.4550193375032170   T   T   T
  0.0833333358191695  0.5625000000092442  0.3605200052333331   F   F   F
  0.9166666865332829  0.0625000000159659  0.3605200052333331   F   F   F
  0.7494372348361427  0.8130855191818619  0.4530344443672450   T   T   T
  0.7496760657264514  0.4383432989101378  0.4555195130050448   T   T   T
  0.9158354897499653  0.3122580298810603  0.5466041573001612   T   T   T
  0.4170505450224577  0.6850024372075402  0.4549190937201483   T   T   T
  0.9999884636634643  0.1239558558296472  0.4985021904910372   T   T   T
  0.4158104515237562  0.9370845132209666  0.5460067625052482   T   T   T
  0.5833333134730552  0.6874999999963620  0.3605200052333331   F   F   F
  0.2505194232111973  0.0620402854220937  0.4542732906493064   T   T   T
  0.5829972942888484  0.0640174583952261  0.4540142966677069   T   T   T
  0.9166666865332829  0.6874999999963620  0.3605200052333331   F   F   F
  0.9166666865332829  0.4374999701794380  0.3605200052333331   F   F   F
  0.9166666865332829  0.1875000000030838  0.3605200052333331   F   F   F
  0.5833333134730552  0.9375000000154046  0.3605200052333331   F   F   F
  0.0807358281784013  0.5643039019598683  0.5463838537437478   T   T   T
  0.5833333134730552  0.4374999701794380  0.3605200052333331   F   F   F
  0.5833333134730552  0.1875000000030838  0.3605200052333331   F   F   F
  0.2499999999799343  0.9375000000154046  0.3605200052333331   F   F   F
  0.9166666865332829  0.9375000000154046  0.3605200052333331   F   F   F
  0.2499999999799343  0.6874999999963620  0.3605200052333331   F   F   F
  0.2499999999799343  0.1875000000030838  0.3605200052333331   F   F   F
  0.7499999404149307  0.9375000000154046  0.3605200052333331   F   F   F
  0.7499999404149307  0.6874999999963620  0.3605200052333331   F   F   F
  0.4169014320539920  0.9361404281870008  0.4539980009182494   T   T   T
  0.7499999404149307  0.4374999701794380  0.3605200052333331   F   F   F
  0.4166666269218169  0.9375000000154046  0.3605200052333331   F   F   F
  0.4166666269218169  0.6874999999963620  0.3605200052333331   F   F   F
  0.4166666269218169  0.4374999701794380  0.3605200052333331   F   F   F
  0.2499999999799343  0.4374999701794380  0.3605200052333331   F   F   F
  0.0833333358191695  0.0625000000159659  0.3605200052333331   F   F   F
  0.9152918713171067  0.6868550404102670  0.4533567848068584   T   T   T
  0.6657046329712837  0.3787575699186842  0.5030197310096099   T   T   T
  0.3345534743020196  0.3779675092180138  0.5035213717400622   T   T   T
  0.3354819821599139  0.6256280563303346  0.5037392495612878   T   T   T
  0.9156505529523719  0.0618452317047892  0.5465676709849453   T   T   T
  0.7496317480689633  0.9378483785000892  0.4551948701851494   T   T   T
  0.2500065210309452  0.9360343632963557  0.4540248240132618   T   T   T
  0.2500258681576028  0.1884264318920386  0.4541702972818221   T   T   T
  0.7490760944031399  0.6886440952720028  0.4575500868767779   T   T   T
  0.7499999404149307  0.1875000000030838  0.3605200052333331   F   F   F
  0.5833333134730552  0.0625000000159659  0.3605200052333331   F   F   F
  0.4168842660327916  0.8104217092264090  0.4548846158193512   T   T   T
  0.7477577731185241  0.8070476113015379  0.5452948250956863   T   T   T
  0.2499999999799343  0.8124999999834799  0.3605200052333331   F   F   F
  0.2499999999799343  0.3124999999901945  0.3605200052333331   F   F   F
  0.2499999999799343  0.0625000000159659  0.3605200052333331   F   F   F
  0.7499999404149307  0.5625000000092442  0.3605200052333331   F   F   F
  0.7499999404149307  0.3124999999901945  0.3605200052333331   F   F   F
  0.7499999404149307  0.0625000000159659  0.3605200052333331   F   F   F
  0.4166666269218169  0.8124999999834799  0.3605200052333331   F   F   F
  0.4166666269218169  0.3124999999901945  0.3605200052333331   F   F   F
  0.7499999404149307  0.8124999999834799  0.3605200052333331   F   F   F
  0.0834710396942799  0.3119756591262006  0.4540312103842896   T   T   T
  0.4166666269218169  0.0625000000159659  0.3605200052333331   F   F   F
  0.4175183166407666  0.0618546165930861  0.4554425445606824   T   T   T
  0.0835622475552562  0.8120492913768190  0.4541635833505283   T   T   T
  0.4166666269218169  0.5625000000092442  0.3605200052333331   F   F   F
  0.4143881026047677  0.8116783557435397  0.5476232892876811   T   T   T
  0.5833333134730552  0.3124999999901945  0.3605200052333331   F   F   F
  0.0839611750840375  0.5625076754451623  0.4539690573633960   T   T   T
  0.2510876714989806  0.0626064914959420  0.5472573525983054   T   T   T
  0.8333332538436267  0.4999999999932783  0.4070133268666680   F   F   F
  0.4166666269218169  0.1875000000030838  0.3605200052333331   F   F   F
  0.0833333358191695  0.9375000000154046  0.3605200052333331   F   F   F
  0.0833333358191695  0.8124999999834799  0.3605200052333331   F   F   F
  0.0833333358191695  0.4374999701794380  0.3605200052333331   F   F   F
  0.8333332538436267  0.7500000000123208  0.4070133268666680   F   F   F
  0.4155105898841904  0.3112246952176632  0.4575588374502505   T   T   T
  0.0839046786585393  0.0621054580664287  0.4540404688998115   T   T   T
  0.4159113575710530  0.5595146804477030  0.4577726579586366   T   T   T
  0.0833333358191695  0.6874999999963620  0.3605200052333331   F   F   F
  0.2522901445822807  0.3141120285511679  0.4541533327123586   T   T   T
  0.5833333134730552  0.5625000000092442  0.3605200052333331   F   F   F
  0.2499999999799343  0.5625000000092442  0.3605200052333331   F   F   F
  0.5833333134730552  0.8124999999834799  0.3605200052333331   F   F   F
  0.6666666865533486  0.7500000000123208  0.4070133268666680   F   F   F
  0.5000000000021103  0.4999999999932783  0.4070133268666680   F   F   F
  0.0833333358191695  0.1875000000030838  0.3605200052333331   F   F   F
  0.0000000000000000  0.0000000000000000  0.4070133268666680   F   F   F
  0.0000000000000000  0.2500000000190425  0.4070133268666680   F   F   F
  0.0000000000000000  0.4999999999932783  0.4070133268666680   F   F   F
  0.7482518409001505  0.5642065375959399  0.4539075766598134   T   T   T
  0.3333333432766779  0.0000000000000000  0.4070133268666680   F   F   F
  0.3333333432766779  0.4999999999932783  0.4070133268666680   F   F   F
  0.3333333432766779  0.7500000000123208  0.4070133268666680   F   F   F
  0.6666666865533486  0.0000000000000000  0.4070133268666680   F   F   F
  0.6666666865533486  0.2500000000190425  0.4070133268666680   F   F   F
  0.6666666865533486  0.4999999999932783  0.4070133268666680   F   F   F
  0.8333332538436267  0.2500000000190425  0.4070133268666680   F   F   F
  0.1666666716383389  0.0000000000000000  0.4070133268666680   F   F   F
  0.5843696323400346  0.3154475453918331  0.4535694113991694   T   T   T
  0.1666666716383389  0.4999999999932783  0.4070133268666680   F   F   F
  0.5000000000021103  0.0000000000000000  0.4070133268666680   F   F   F
  0.5000000000021103  0.2500000000190425  0.4070133268666680   F   F   F
  0.5000000000021103  0.7500000000123208  0.4070133268666680   F   F   F
  0.9166666865332829  0.3124999999901945  0.3605200052333331   F   F   F
  0.3333333432766779  0.2500000000190425  0.4070133268666680   F   F   F
  0.7474159389198609  0.3137985066956181  0.4547483381361133   T   T   T
  0.0000000000000000  0.7500000000123208  0.4070133268666680   F   F   F
  0.5845661233906717  0.5629476416287396  0.4547882298729336   T   T   T
  0.7498214059160018  0.0631550201023356  0.4535120286998365   T   T   T
  0.8333332538436267  0.0000000000000000  0.4070133268666680   F   F   F
  0.5827558653906649  0.6861562318613112  0.4546573964904246   T   T   T
  0.2517694641243226  0.5645330281330954  0.4538215126481253   T   T   T
  0.1666666716383389  0.2500000000190425  0.4070133268666680   F   F   F
  0.2502510151098233  0.8106585602276346  0.4553451803791258   T   T   T
  0.1666666716383389  0.7500000000123208  0.4070133268666680   F   F   F
  0.6653115895478202  0.6260163625685404  0.5030081860209374   T   T   T
  0.4174824926079685  0.1870413816064714  0.4536044550171312   T   T   T
  0.5887301947844371  0.3207766022331408  0.6333117970612498   T   T   T
  0.0854242119993186  0.6891060269683977  0.5453790937668785   T   T   T
  0.0828653139015144  0.4386450547289576  0.5448442370920041   T   T   T
  0.0828948845012350  0.1887520666244250  0.5454047702690100   T   T   T
  0.4999478056980612  0.1266858817059960  0.5008036384914272   T   T   T
  0.9992795728367047  0.4981201441882799  0.5940344727646617   T   T   T
  0.5834075163995264  0.1853616177255494  0.5508828005029045   T   T   T
  0.9998042612760560  0.7536895977936772  0.5928244894278657   T   T   T
  0.3339819230796915  0.9999542024574033  0.5919123836374784   T   T   T
  0.9996361040069119  0.9981764237849614  0.5925583343980616   T   T   T
  0.9992238100486206  0.2466399960730344  0.5926022869741503   T   T   T
  0.3330851162941714  0.4957795083739868  0.5910787871259264   T   T   T
  0.3353019779309934  0.7412129457218711  0.5903058180229952   T   T   T
  0.6672460429476503  0.2495098498040918  0.5913328894803938   T   T   T
  0.6658852814878313  0.9999906343142606  0.5918767883039356   T   T   T
  0.6653993102736581  0.7412172028686290  0.5904409106771928   T   T   T
  0.6661730110114409  0.4934781697984033  0.5913110695498593   T   T   T
  0.1673558993644854  0.9985204250370117  0.5923762485308642   T   T   T
  0.1676090417912910  0.2482950290368331  0.5929082169388586   T   T   T
  0.1704978163576301  0.7500013588561665  0.5947555274919921   T   T   T
  0.2481069530475774  0.4358325284594455  0.5490128048075827   T   T   T
  0.1653103168334310  0.5031432366847763  0.5873588617755621   T   T   T
  0.3350469517898987  0.2547958912304011  0.5925381262121683   T   T   T
  0.4995959984031342  0.9999982428484870  0.5909832414125302   T   T   T
  0.8326017131174250  0.8740495831702618  0.4987854024100006   T   T   T
  0.7472935499362297  0.9341283026045816  0.6404681532795417   T   T   T
  0.8320530914167932  0.9968303312442840  0.5918852968801490   T   T   T
  0.7489634756438027  0.1853560365514856  0.5477253975248226   T   T   T
  0.4228797980066522  0.6877667488082707  0.5467336990896670   T   T   T
  0.4232368193172367  0.4434290607963730  0.5460292649711782   T   T   T
  0.7521269363732698  0.4354948967648954  0.5489657566433048   T   T   T
  0.5839491864804902  0.3107603974830642  0.5449295475666612   T   T   T
  0.2528654079795787  0.8124882700024099  0.5507483696226414   T   T   T
  0.5826701744098242  0.9373029660973830  0.4543402457224687   T   T   T
  0.9161467946473676  0.1866636685833466  0.4529835893971125   T   T   T
  0.7502581756161448  0.1884440440819108  0.4541216965999111   T   T   T
  0.5829724325818837  0.0618554548163701  0.5455213084366844   T   T   T
  0.5857116479220322  0.8142682363396838  0.5503125863576888   T   T   T
  0.7485865936807798  0.3127599632368677  0.5479697643479315   T   T   T
  0.5809282489467067  0.5597415613025264  0.5488438682191927   T   T   T
  0.2525375796759151  0.5590565070088940  0.5439644928310901   T   T   T
  0.4176956921032244  0.3193445807729824  0.5529794070327737   T   T   T
  0.5764216441674717  0.4354511842837264  0.5521520289203985   T   T   T
  0.4165423730819552  0.0654554516541980  0.5474031746432673   T   T   T
  0.0852748572918045  0.8125249110484588  0.5473752609286833   T   T   T
  0.0845946743144106  0.3132250775374363  0.5470763855287192   T   T   T
  0.5006001023201777  0.7564840522799043  0.5925906886991519   T   T   T
  0.0828502232777298  0.0628155504210648  0.5472955377539193   T   T   T
  0.0833333358191695  0.3124999999901945  0.3605200052333331   F   F   F
  0.9145414597812492  0.6884587264424177  0.5458915600668126   T   T   T
  0.9173438623001886  0.1870889257373899  0.5453907132921273   T   T   T
  0.9154074230022362  0.4373407958768083  0.5457873972275206   T   T   T
  0.5790989228505977  0.6858888317165703  0.5475364406625509   T   T   T
  0.2514422045276094  0.9372444982639297  0.5451990000435910   T   T   T
  0.4968988253567094  0.5046636249255786  0.6093396204582480   T   T   T
  0.9175983381696345  0.5635712694111898  0.5471528514517170   T   T   T
  0.4197683147011975  0.5647291262600874  0.5553918467421721   T   T   T
  0.9154976917052058  0.8122166262481697  0.5467610765656081   T   T   T
  0.0840354508113116  0.9382080208719443  0.5460512738380747   T   T   T
  0.2489709124103736  0.6833017143815635  0.5517970989549421   T   T   T
  0.7482907340025957  0.9333951914366754  0.5473783110343429   T   T   T
  0.7516757936042906  0.6794763426868321  0.5537868359847142   T   T   T
  0.9160649183091462  0.9379373470288090  0.5460499193196348   T   T   T
  0.4176121156676557  0.0651588148539543  0.6400847904581197   T   T   T
  0.5838791652339255  0.9376258301424053  0.5461633059272863   T   T   T
  0.4123834604753895  0.8128807840800902  0.6393290654825924   T   T   T
  0.8401484868147021  0.2898278836060887  0.7697943188278155   T   T   T
  0.9138959233288434  0.5622531807116580  0.6407708094132309   T   T   T
  0.9138336441719134  0.8123007195050539  0.6426045141691811   T   T   T
  0.5824991415576066  0.0659151363112401  0.6386647042320416   T   T   T
  0.2492251558687491  0.3134923581497780  0.5458777276765694   T   T   T
  0.5910251584543705  0.5652627787921598  0.6386068643468938   T   T   T
  0.2475769327163311  0.5739464037794242  0.6287315091903171   T   T   T
  0.7535840182891401  0.6916959992130965  0.6572585984249364   T   T   T
  0.2620964857607825  0.8003884950710581  0.6460434723154407   T   T   T
  0.2509691594650449  0.0594922605307306  0.6423461498073988   T   T   T
  0.9166666865332829  0.5625000000092442  0.3605200052333331   F   F   F
  0.4998645523346749  0.3741264573199345  0.4996717062070022   T   T   T
  0.5001544868233030  0.6209544989113513  0.4999530229202012   T   T   T
  0.8323379135862315  0.6230886370606641  0.5001930642468201   T   T   T
  0.2520382522862267  0.1884083202922264  0.5471382024295767   T   T   T
  0.8326639313959713  0.3733104652376458  0.4994904058209451   T   T   T
  0.9125752329044017  0.3093675560463346  0.6396587320306946   T   T   T
  0.1664696554577818  0.3757414993975984  0.4978347754274332   T   T   T
  0.5778296203079467  0.4382345203780729  0.6459465569056017   T   T   T
  0.5771782670588255  0.6857989471281287  0.6396575125694203   T   T   T
  0.9128913679591709  0.1837148059588581  0.6402428128911593   T   T   T
  0.2489174284756669  0.3166472309620887  0.6407158634989302   T   T   T
  0.1677058883093752  0.8732801369585164  0.4998344391997986   T   T   T
  0.9158201184681758  0.4370606991911844  0.4535474692757278   T   T   T
  0.1670687272720346  0.1247093181417510  0.4995467675626709   T   T   T
  0.7495742067246753  0.0604361061266074  0.5449965493564544   T   T   T
  0.4252018229307565  0.3044619990420431  0.6560084019344069   T   T   T
  0.5909177307243099  0.8099092143913748  0.6459714780101068   T   T   T
  0.4203566054805056  0.6762183309504405  0.6335826375109894   T   T   T
  0.7528286722355870  0.4326920677068083  0.6383491137974707   T   T   T
  0.5012674199088942  0.2533800445921645  0.5917668550184549   T   T   T
  0.9144052620439230  0.0615130447071204  0.6397389427805100   T   T   T
  0.1674770807233914  0.6242747993507387  0.5003214411072368   T   T   T
  0.4999270656899518  0.8735536779607200  0.5008392341148334   T   T   T
  0.8330938262449257  0.1247806622940308  0.4995502918350896   T   T   T
  0.4163081409855812  0.1919392359145589  0.5468431707772969   T   T   T
  0.7411036227438279  0.8092520944911142  0.6399739162831887   T   T   T
  0.7520239544908153  0.5677910267279545  0.6363108129670747   T   T   T
  0.4172507380151933  0.9349991795668386  0.6397640704539104   T   T   T
  0.7620868856742813  0.3054418855759480  0.6417157095225932   T   T   T
  0.7494416990051826  0.0634466928349927  0.6391595032015993   T   T   T
  0.0824638339512060  0.3110772360336904  0.6401301641349145   T   T   T
  0.6663646443824045  0.8739932549992289  0.4986342952177653   T   T   T
  0.0859285035912277  0.5622808541689291  0.6398828112677785   T   T   T
  0.0865376644533905  0.4358050431767068  0.6395993756782842   T   T   T
  0.4182408704042855  0.1872560178427263  0.6393062230875265   T   T   T
  0.4153511434668307  0.4187144087041125  0.6306300207803475   T   T   T
  0.0845725470288795  0.9356457222951502  0.6409018444545871   T   T   T
  0.0830552928136042  0.6866996279050239  0.6387957828920439   T   T   T
  0.0830358550569232  0.0603828240261332  0.6417474902480187   T   T   T
  0.8326370235896056  0.5024949105308627  0.5898973811881760   T   T   T
  0.0835465908445688  0.1850814421867496  0.6412597622181310   T   T   T
  0.2398854168021146  0.4421392335950912  0.6415575632187592   T   T   T
  0.9121881562759443  0.4352307380130928  0.6400898485341887   T   T   T
  0.2520544637085104  0.9303361009341633  0.6373091151766219   T   T   T
  0.9165226200432539  0.6870203064586581  0.6387832893345178   T   T   T
  0.9152946273712288  0.9363441671620136  0.6417099132235017   T   T   T
  0.3970505636710179  0.5509704728798289  0.6518992985501599   T   T   T
  0.2538576567870728  0.6788590793522028  0.6618594611064735   T   T   T
  0.2531504243447850  0.1866644153367050  0.6408426156040171   T   T   T
  0.5801587283856762  0.1922264692094979  0.6460792756956075   T   T   T
  0.5816541590087729  0.9352049090737004  0.6393948031877870   T   T   T
  0.9166666865332829  0.8124999999834799  0.3605200052333331   F   F   F
  0.7457771694446949  0.1875713300785804  0.6420819763266903   T   T   T
  0.8323769060149475  0.2431858412057586  0.5879858276072942   T   T   T
  0.8304205175862420  0.7506598694620841  0.5928059611565946   T   T   T
  0.0851355383512976  0.8121265948603302  0.6427937340385620   T   T   T
  0.1666666716383389  0.3750000000061604  0.4070133268666680   F   F   F
  0.3259140567305193  0.3736534013674584  0.5928938356193691   T   T   T
  0.6668725764385247  0.2479688083189440  0.5029842211139622   T   T   T
  0.8348521224244170  0.2483296486525968  0.5026460019996888   T   T   T
  0.6666666865533486  0.3750000000061604  0.4070133268666680   F   F   F
  0.9994163136162340  0.1228368667754839  0.6202802454418636   T   T   T
  0.6650887741804220  0.7515374587891063  0.5021895943175474   T   T   T
  0.3298895946786608  0.2480994042807430  0.5025825617351050   T   T   T
  0.6662581826537439  0.0001434976973344  0.5055729762172113   T   T   T
  0.1643082513213489  0.7512070031940877  0.5033547648171834   T   T   T
  0.8333332538436267  0.6249999999803961  0.4070133268666680   F   F   F
  0.6683991215856329  0.4997045604531702  0.5008076120999868   T   T   T
  0.3310811425191514  0.4991004338432087  0.5010193932314906   T   T   T
  0.5008002561541833  0.7528074695033065  0.5039171846483081   T   T   T
  0.0000000000000000  0.8749999404036828  0.4070133268666680   F   F   F
  0.9999814786603644  0.7507978229579850  0.5067585124459318   T   T   T
  0.3337905121368266  0.7511080558538686  0.5015275193679744   T   T   T
  0.5010959785329744  0.4995841514645882  0.5003025273384164   T   T   T
  0.3333333432766779  0.1249999999871179  0.4070133268666680   F   F   F
  0.5011124625676376  0.2482014660413154  0.5024562775894698   T   T   T
  0.0001259114751714  0.2494883217092920  0.5060775414775659   T   T   T
  0.0001629856572009  0.9993899761688434  0.5064103803626199   T   T   T
  0.6666666865533486  0.6249999999803961  0.4070133268666680   F   F   F
  0.8333332538436267  0.8749999404036828  0.4070133268666680   F   F   F
  0.3333333432766779  0.6249999999803961  0.4070133268666680   F   F   F
  0.3333333432766779  0.8749999404036828  0.4070133268666680   F   F   F
  0.3333333432766779  0.3750000000061604  0.4070133268666680   F   F   F
  0.8337454098924129  0.9991621852095659  0.5058592680638593   T   T   T
  0.6666666865533486  0.1249999999871179  0.4070133268666680   F   F   F
  0.0000000000000000  0.6249999999803961  0.4070133268666680   F   F   F
  0.1657816940003465  0.2481952480574165  0.5061735409767631   T   T   T
  0.5001566316858314  0.9993118100062244  0.5054953396604811   T   T   T
  0.1660140686732219  0.0010045814908426  0.5065120450452330   T   T   T
  0.9993110217099536  0.4997571610895221  0.5067228058299552   T   T   T
  0.3330696546775058  0.0011067630027994  0.5057134940241477   T   T   T
  0.5002735095258082  0.8764680876257417  0.6096215156872934   T   T   T
  0.0000000000000000  0.1249999999871179  0.4070133268666680   F   F   F
  0.9996157628070894  0.8739762747591691  0.6247555625470587   T   T   T
  0.8333332538436267  0.3750000000061604  0.4070133268666680   F   F   F
  0.8333332538436267  0.1249999999871179  0.4070133268666680   F   F   F
  0.6658289115279986  0.1223966845160220  0.6108223147221854   T   T   T
  0.5000000000021103  0.6249999999803961  0.4070133268666680   F   F   F
  0.8390596796855140  0.6265172181339117  0.6046464345701301   T   T   T
  0.5000000000021103  0.8749999404036828  0.4070133268666680   F   F   F
  0.1633693873102240  0.4996666517465465  0.5020148893701244   T   T   T
  0.8321999787463465  0.8754375571153704  0.6197746198396575   T   T   T
  0.8367944968665424  0.3725410994737032  0.6030539702652450   T   T   T
  0.8360565847844774  0.7511972404039080  0.5027409300667449   T   T   T
  0.5000000000021103  0.1249999999871179  0.4070133268666680   F   F   F
  0.1666666716383389  0.8749999404036828  0.4070133268666680   F   F   F
  0.8357392489784039  0.4998589965097276  0.5032205606854766   T   T   T
  0.9996382520269552  0.6229036125690917  0.6233303380283103   T   T   T
  0.1666666716383389  0.6249999999803961  0.4070133268666680   F   F   F
  0.3313340106026562  0.1198153922078086  0.6129023258171550   T   T   T
  0.5001963196821979  0.1217023085723561  0.6065799724471105   T   T   T
  0.1666666716383389  0.1249999999871179  0.4070133268666680   F   F   F
  0.0000000000000000  0.3750000000061604  0.4070133268666680   F   F   F
  0.5032489371082646  0.6247130916902514  0.5941654807249482   T   T   T
  0.5000000000021103  0.3750000000061604  0.4070133268666680   F   F   F
  0.6666666865533486  0.8749999404036828  0.4070133268666680   F   F   F
  0.3340556672469503  0.6244768845902752  0.5950337935501360   T   T   T
  0.3344203710207639  0.8787454942765583  0.6025474372390298   T   T   T
  0.1663284175292756  0.8737001318309626  0.6174650637483889   T   T   T
  0.6716028581411283  0.3729810815658950  0.5941848130064741   T   T   T
  0.1592196595694461  0.6268616512098185  0.6012439412613931   T   T   T
  0.1673449481963877  0.1223583020484152  0.6219800520821369   T   T   T
  0.1625337820489606  0.3708070957695305  0.6075948924213722   T   T   T
  0.6644523368656926  0.8796785734516835  0.6070282218464860   T   T   T
  0.6659986475011191  0.6259309134195365  0.5933029453543951   T   T   T
  0.9985568129404406  0.3736979165232589  0.6230633824906987   T   T   T
  0.8324685072533933  0.1216973419112183  0.6092782221730926   T   T   T
  0.5025300144629326  0.3711110236138788  0.5961732990324260   T   T   T
  0.0829041119320925  0.1244933815177846  0.5066333287193717   T   T   T
  0.0808328488000257  0.6256496027859922  0.5053971629876742   T   T   T
  0.5841969025844195  0.7493933097925044  0.5996982301594141   T   T   T
  0.0822185485036077  0.2471106363694896  0.6035878797746412   T   T   T
  0.7494366194302595  0.9982772409392625  0.6042486700461621   T   T   T
  0.5823334049018265  0.0001919493632718  0.6041519881587876   T   T   T
  0.2477076875308449  0.2459452832986330  0.6033289304391819   T   T   T
  0.5898673243165657  0.5012706502279382  0.5938616460747141   T   T   T
  0.4134828454998742  0.2489614632129066  0.5912958172290049   T   T   T
  0.2493209683292835  0.7526136799242799  0.5919938763924513   T   T   T
  0.5822615135954120  0.2469632747241069  0.5981165561972910   T   T   T
  0.2495877679709215  0.9978489086142817  0.6042046815694133   T   T   T
  0.7502491994722168  0.2497258978625389  0.5943668742690609   T   T   T
  0.9163864892191433  0.9976945455396143  0.6030004371064033   T   T   T