Au  C  H  O Sr Ti 
 1.0000000000000000
    23.6707801818999997    0.0000000000000000    0.0000000000000000
     0.0000000000000000   22.3170261383000010    0.0000000000000000
     0.0000000000000000    0.0000000000000000   30.0000000000000000
 Au  C   H   O   Sr  Ti 
  50   3   5 265  72  72
Selective dynamics
Cartesian
 16.9490167843030228 11.6934461497416891 22.5817241676848326   F   F   F
 13.1221653243262431  4.7462881392652374 21.2956799111832886   F   F   F
 17.0007691447269558  5.6923314990513987 20.7444168558832693   F   F   F
  6.9575944834453392 16.6588546897961471 20.9063928222187094   F   F   F
 12.1166361958052402 13.4688580750097024 23.3037555159428145   F   F   F
 13.6906195365978185 16.1939924403547266 23.8182171958619122   F   F   F
  5.6938304288713590 10.4779002451531866 21.2735096567236894   F   F   F
  6.7611183932732173 14.7823673647086675 22.9387982899826994   F   F   F
 14.2672185432380125  6.3189277033234719 23.5066680971463917   F   F   F
 12.1768617475413663 10.8133561262755737 20.3415443716858739   F   F   F
 13.3304521215392686 10.8368402706443128 22.8714270140145857   F   F   F
  6.8533016291308551 12.0101595552264335 23.3243071507413013   F   F   F
 12.9977152227117791  8.5013438333736637 24.7915172666724324   F   F   F
  9.2719930265069994 18.2338111272208678 21.2006858683373949   F   F   F
 10.9816409052463566 15.5115216074713498 24.9269541637519332   F   F   F
 10.3751184426953618  5.0946380552269339 20.9270784841491775   F   F   F
  8.7560213540937077  6.6651569955461154 22.6611706302339826   F   F   F
  8.2757175370518539 11.1478271311107520 20.9337447862329462   F   F   F
 10.1334379656858058  8.2807597253617935 24.4632939951362474   F   F   F
 14.1171060480561401 17.5095261644594622 21.3925266924697404   F   F   F
 15.0385854837468056 13.0279484498291911 23.9923571240662419   F   F   F
 17.3429603398816852 13.7139366226911843 20.8223497374001631   F   F   F
 11.4966921650774658 17.3271215169805402 22.6632002094247724   F   F   F
 18.0666077506745211  9.5835855849769498 21.1150260024996506   F   F   F
 11.5028038189518131  6.0376937415802914 23.2488605495537151   F   F   F
 14.7017489014492462 12.7412938057843466 21.1263558457766578   F   F   F
 10.9655751213082144 12.7751255818219160 25.9295917077043505   F   F   F
 16.7215603493890015 16.8915752663844927 20.6507774500069736   F   F   F
 15.5273361989210983  9.8267032426476764 24.3761217778058601   F   F   F
  8.7289763522941755 13.8108332664566813 24.6161846510794078   F   F   F
 13.5087750291403133 11.3578760747557386 25.6858957959156946   F   F   F
 15.7113892362395564  4.0213190748009735 22.3900520242184058   T   T   T
 11.1810771036740615 10.0232228233829002 26.3239315848061040   F   F   F
 12.2428983683511721  8.4200234566231771 21.9535243757759950   F   F   F
  6.6731484357543529  7.5877205358395541 21.0695366738239294   F   F   F
 10.7058560620676353 12.9373030091664756 21.0829858744182737   F   F   F
  9.4112056763767598  8.5186969945839834 20.7112059143163343   F   F   F
 14.5838332292889632  7.1643651894129325 20.8789656187009598   F   F   F
 15.8449151468145306 15.2026116323265743 22.4633757263678611   F   F   F
  7.7005542864145990  9.2573632804301589 23.0786217928372110   F   F   F
  8.8656815235217667 16.5022654725052433 23.3735756143247038   F   F   F
  8.8920108286084272 11.0032296491307857 24.9849499674094346   F   F   F
 12.7933114571532780 14.9034194673376703 21.0456496724024120   F   F   F
 13.3697197528645333 14.2598282687309421 25.8243584931033681   F   F   F
 10.5116921638512739 10.5742979959068215 22.6961088356120939   F   F   F
  6.0811047212492371 13.2337688003083986 20.8385010572018139   F   F   F
 18.3208436741484491  9.5455326888896384 23.8167989715871578   F   F   F
 16.5617271532846395  7.6720537944003624 22.7086137396398442   F   F   F
  9.8778679891386290 15.5347025536328527 20.9894167061870327   F   F   F
 15.3485569243269442  9.9427471162133187 20.8359588996125531   F   F   F
 15.2675039150687972  0.8593223278206609 22.8716918970311696   T   T   T
 17.2344907047088007  2.5498045900710968 22.5492158343975575   T   T   T
 16.7474377852943590  1.1038998080849389 22.5896161710446499   T   T   T
 14.6325346164511974  1.1887224688023172 22.0458738320438670   T   T   T
 14.9454773679178814  1.3441895065562066 23.7989574813827183   T   T   T
 15.1082773452181005 22.1022745171245063 22.9918501461640119   T   T   T
 17.3914347740843489  0.6343701171906558 23.3424840120186055   T   T   T
 17.0413429056641910  0.7008326082334539 21.6097636078072703   T   T   T
 13.8113532947097717  1.3988054138314210 16.3847819004755451   F   F   F
  9.8569767964618595  9.7177575407023653 13.6150016493552091   F   F   F
  2.0016746750441694 15.3297109233572559 13.5918533683888949   F   F   F
  1.9857510983748141 20.9037466713856119 13.6045415103125098   F   F   F
  1.9583790187877792  9.7467195710871941 13.5844534713814529   F   F   F
  1.9851978174364433  4.1639879454635071 13.5893391973360025   F   F   F
 21.6961232707548390 18.1243246406086342 13.6219354852717736   F   F   F
  1.9725650740000149  6.9740706679999214 10.8156001569999933   F   F   F
 21.6872239071535660 12.5491805037909074 13.6185721478650787   F   F   F
 13.7871494644125310  6.9441666796565320 16.3469723961717612   F   F   F
 21.6850249134431756  6.9664449639268478 13.6172041431359343   F   F   F
  9.8751248840732533  4.1757328185548275 13.6066551394450066   F   F   F
  5.9667517378826602 15.3462613627151825 13.6825250683483830   F   F   F
 21.6929380066038249 20.9134041975580089 13.6092978833466542   F   F   F
 13.7922786103558650  4.2454331763410398 13.6653761536090261   F   F   F
  0.0007667770704408  2.7908579852274480 14.9519475577847487   F   F   F
 13.8067259382505654 18.0872843009519926 13.6601310897809700   F   F   F
 -0.0000516843334002  8.3331250624677793 14.9530944829603971   F   F   F
 23.6670760070204942 13.9944980223573463 14.9304686441031187   F   F   F
  7.8960446160196280  2.8027780519306775 14.9562744968532915   F   F   F
  0.0004283578780822 19.5303988648452922 14.9852734780702601   F   F   F
  7.8933678339192008 19.5051016416976211 14.9806250867059809   F   F   F
 15.7694355380009057  2.8289599951366355 14.9733000342020652   F   F   F
  5.9457032608575924  9.8035139086083802 13.6473258310768593   F   F   F
  1.9725650740000149 12.5533272030000536 10.8156001569999933   F   F   F
 18.3651366436848065  2.9210119292795587 22.6232776012453662   T   T   T
 21.6982156369999721  1.3948141340000613 10.8156001569999933   F   F   F
 17.7360520227642020 18.1482436911672949 13.5908369259288779   F   F   F
  5.9287829029934720  1.3833755114337301 13.6281330879032581   F   F   F
 21.6686349049215146  6.9796296793472656 16.4029395928641364   F   F   F
  9.8738557170260481 15.2829029998141870 13.6418509954411711   F   F   F
  5.9714492389438023  7.0102602926623483 13.6242053703518060   F   F   F
  9.8750904810238698 20.8867397928578669 13.6214694702832517   F   F   F
 17.7417018081148825  9.7808730515024980 13.6720976183399170   F   F   F
 13.8072996976327378  1.4175508601579463 13.6238306192352550   F   F   F
 21.6982156369999721 15.3429554700000619 10.8156001569999933   F   F   F
 21.6982156369999721  9.7636982699999884 10.8156001569999933   F   F   F
 21.6982156369999721  4.1844424010000720 10.8156001569999933   F   F   F
 13.8079546360000549 20.9222120050000342 10.8156001569999933   F   F   F
 13.8079546360000549 15.3429554700000619 10.8156001569999933   F   F   F
 13.8079546360000549  9.7636982699999884 10.8156001569999933   F   F   F
 13.8079546360000549  4.1844424010000720 10.8156001569999933   F   F   F
  5.9176950450000287 20.9222120050000342 10.8156001569999933   F   F   F
 21.6982156369999721 20.9222120050000342 10.8156001569999933   F   F   F
  5.9176950450000287 15.3429554700000619 10.8156001569999933   F   F   F
  5.9176950450000287  4.1844424010000720 10.8156001569999933   F   F   F
 17.7530837259999217 20.9222120050000342 10.8156001569999933   F   F   F
 17.7530837259999217 15.3429554700000619 10.8156001569999933   F   F   F
 17.7530837259999217  9.7636982699999884 10.8156001569999933   F   F   F
 17.7530837259999217  4.1844424010000720 10.8156001569999933   F   F   F
  9.8628241350000643 20.9222120050000342 10.8156001569999933   F   F   F
  9.8628241350000643 15.3429554700000619 10.8156001569999933   F   F   F
  9.8628241350000643  9.7636982699999884 10.8156001569999933   F   F   F
  5.9176950450000287  9.7636982699999884 10.8156001569999933   F   F   F
  1.9725650740000149  1.3948141340000613 10.8156001569999933   F   F   F
 21.6662310542544034 15.3260016334342808 13.5947730061273599   F   F   F
 15.7510995257174713  8.4480592289454162 15.0981214653805687   F   F   F
  7.9133871237858440  8.4457900908023777 15.0907298317669554   F   F   F
  7.9434379672256012 13.9652246457133522 15.1138514730899196   F   F   F
 21.7235168584237996  1.4143412234770933 16.4267054480089030   F   F   F
  5.9144214207179591  4.2068585712290529 13.6233160856871880   F   F   F
 17.7411966984255187 20.9430928179065035 13.6601856791794116   F   F   F
 17.7314992519960306 15.3686743857227874 13.7215702576488869   F   F   F
 17.7714410094512480  4.2339694914998249 13.6670259275027490   F   F   F
  5.9625151160572170 12.6001768918335308 13.6127790117327301   F   F   F
  5.9298956020769280 18.0947877101463135 13.6610107253987287   F   F   F
 19.7256482699999580  5.5792565349999723 12.2103998060000407   F   F   F
  5.9176950450000287  6.9740706679999214 10.8156001569999933   F   F   F
  5.9176950450000287  1.3948141340000613 10.8156001569999933   F   F   F
 17.7530837259999217 12.5533272030000536 10.8156001569999933   F   F   F
 17.7530837259999217  6.9740706679999214 10.8156001569999933   F   F   F
 17.7530837259999217  1.3948141340000613 10.8156001569999933   F   F   F
  9.8628241350000643 18.1325837370000720 10.8156001569999933   F   F   F
  9.8628241350000643 12.5533272030000536 10.8156001569999933   F   F   F
  9.8628241350000643  6.9740706679999214 10.8156001569999933   F   F   F
 17.7530837259999217 18.1325837370000720 10.8156001569999933   F   F   F
  1.9765079827407037  6.9616425440311387 13.6208800595589512   F   F   F
  9.8628241350000643  1.3948141340000613 10.8156001569999933   F   F   F
  9.8686637019349277  1.3740721730565746 13.6604852273577073   F   F   F
  1.9760656093737357 18.1236643781681721 13.6262095798401361   F   F   F
  1.9871386079868891 12.5524292607715431 13.6165050155048455   F   F   F
  9.8490732264529033 12.4871404991877810 13.7360259696548184   F   F   F
  1.9817792530184297  1.3804847467101633 13.6259104179801067   F   F   F
  9.8354623202015397  6.9473411061049504 13.7202741696606498   F   F   F
 19.7256482699999580 16.7377696039999648 12.2103998060000407   F   F   F
  1.9725650740000149  9.7636982699999884 10.8156001569999933   F   F   F
  1.9725650740000149 15.3429554700000619 10.8156001569999933   F   F   F
  1.9725650740000149 20.9222120050000342 10.8156001569999933   F   F   F
  9.8628241350000643  4.1844424010000720 10.8156001569999933   F   F   F
  1.9725650740000149 18.1325837370000720 10.8156001569999933   F   F   F
 19.7256482699999580 11.1585130689999925 12.2103998060000407   F   F   F
  5.9004611740683126  7.0016687719879602 16.3775153521389498   F   F   F
 17.7124345149199840 18.0353283143327268 16.3715463240618924   F   F   F
 17.6713228093216230 12.4555040801126733 16.3414468866179412   F   F   F
  5.9431962916301568  1.3956720557565148 16.4179263281225900   F   F   F
  9.8133048590651182 18.1176540851497165 16.4386156158524912   F   F   F
  5.9176950450000287 12.5533272030000536 10.8156001569999933   F   F   F
  5.9176950450000287 18.1325837370000720 10.8156001569999933   F   F   F
 13.8079546360000549  1.3948141340000613 10.8156001569999933   F   F   F
 13.8079546360000549  6.9740706679999214 10.8156001569999933   F   F   F
 13.8320442459367801  7.0395061583376997 13.6070390421986787   F   F   F
 19.7256482699999580  0.0000000000000000 12.2103998060000407   F   F   F
 11.8353900909999528 11.1585130689999925 12.2103998060000407   F   F   F
  1.9725650740000149  4.1844424010000720 10.8156001569999933   F   F   F
  5.9915686062104703 18.1339838679339564 16.5230100600226137   F   F   F
  0.0000000000000000  5.5792565349999723 12.2103998060000407   F   F   F
  0.0000000000000000 11.1585130689999925 12.2103998060000407   F   F   F
 17.7105401798062339 12.5924593254245583 13.6137960085724359   F   F   F
  7.8902602960000570  0.0000000000000000 12.2103998060000407   F   F   F
  7.8902602960000570 11.1585130689999925 12.2103998060000407   F   F   F
  7.8902602960000570 16.7377696039999648 12.2103998060000407   F   F   F
 15.7805205919999434  0.0000000000000000 12.2103998060000407   F   F   F
 15.7805205919999434  5.5792565349999723 12.2103998060000407   F   F   F
 15.7805205919999434 11.1585130689999925 12.2103998060000407   F   F   F
 13.8350930863251786 12.5605137162490870 13.6455125309416356   F   F   F
 15.7805205919999434 16.7377696039999648 12.2103998060000407   F   F   F
  3.9451301480000271  5.5792565349999723 12.2103998060000407   F   F   F
  3.9451301480000271 11.1585130689999925 12.2103998060000407   F   F   F
  3.9451301480000271 16.7377696039999648 12.2103998060000407   F   F   F
 11.8353900909999528  0.0000000000000000 12.2103998060000407   F   F   F
 11.8353900909999528  5.5792565349999723 12.2103998060000407   F   F   F
 11.8353900909999528 16.7377696039999648 12.2103998060000407   F   F   F
 21.6982156369999721  6.9740706679999214 10.8156001569999933   F   F   F
  7.8902602960000570  5.5792565349999723 12.2103998060000407   F   F   F
 17.6895889322509348  7.0073598875747356 13.6541858286914195   F   F   F
  0.0000000000000000 16.7377696039999648 12.2103998060000407   F   F   F
  9.8643889010877945 18.0800142104150190 13.6526171091287729   F   F   F
 13.8079546360000549 12.5533272030000536 10.8156001569999933   F   F   F
 17.7432965548538597  1.4256346153332879 13.6094726131522989   F   F   F
 13.8079546360000549 18.1325837370000720 10.8156001569999933   F   F   F
  3.9451301480000271  0.0000000000000000 12.2103998060000407   F   F   F
 15.7503078934133640 13.9677760119054621 15.0891466009413904   F   F   F
  0.0000000000000000  0.0000000000000000 12.2103998060000407   F   F   F
 13.7945499461503509  9.8114832893041619 13.6904236527123366   F   F   F
  2.0363746403129062 15.3857335109593549 16.3603211215579591   F   F   F
  1.9575149448595996  9.7952988769426028 16.3448630676898361   F   F   F
  1.9787838164000411  4.2168608916710593 16.3640366450166042   F   F   F
 11.8255767243724410  2.8013635791291631 14.9886037881534726   F   F   F
 23.6657148243934259 11.1594030843840031 17.8206195734610731   F   F   F
 13.7476640870851394  4.1407350901209528 16.4906570815378402   F   F   F
 23.6599867153074683 16.8101729600921992 17.7746871035639167   F   F   F
  7.9066241435502054 22.3131593871203648 17.7606494231389718   F   F   F
 23.6655332144554684 22.3012517131749455 17.7965488623133972   F   F   F
  0.0254915875270102  5.5768885758781765 17.7593064325805443   F   F   F
  7.8880365896270472 11.0762314235490589 17.7281932632634422   F   F   F
  7.9466662642781758 16.5406528675902464 17.7097705697741468   F   F   F
 15.7031995873439776  5.5348237215923612 17.7087562855214529   F   F   F
 15.7653714526083721  0.0081750731001920 17.7655408478852941   F   F   F
 15.7606744290460661 16.5500798743763617 17.7075340704565996   F   F   F
 15.7826915509798464 11.0331025649877184 17.7381050999096459   F   F   F
  3.9636687093212397 22.2803962619592966 17.7694119036504787   F   F   F
  3.9884101921497606  5.5356920655554012 17.7935448459306791   F   F   F
  4.0421680284419006 16.7407191232161559 17.8494305972025309   F   F   F
  5.8793881567949571  9.7270810343353702 16.4727580888292167   F   F   F
  3.9194373054936555 11.2197225130279605 17.6222131529528809   F   F   F
  7.9213743413594191  5.6801852286616663 17.7816817903071325   F   F   F
 11.8315238794343731  0.0036649975138194 17.7339218378223364   F   F   F
 19.7101707859149222 19.5095898920188091 14.9577199593400110   F   F   F
 17.7189679626933341 20.9222816486942129 19.2270553188768538   F   F   F
 19.6948787849309923  0.0688529216907586 17.7756359394006651   F   F   F
 11.8616522874962786 16.8797859746677297 17.7936234129726998   F   F   F
  9.8907607962895021  1.4544852286092178 19.2027120375157061   F   F   F
 10.1153773011012404  6.8024462201934552 19.6566259356119275   F   F   F
  9.8395684241933825  4.2700019223017787 16.3940115060140705   F   F   F
 11.7990488392667334  5.6439031931526245 17.7168129225280175   F   F   F
  9.8470557842506210 20.9144998302700031 16.3834889222258049   F   F   F
 17.7195458843853011  4.1172729751725470 16.5163460499721211   F   F   F
 13.8714075381503754 18.1769703577132269 16.5123284740742591   F   F   F
 17.7021872896826551  6.9741220425469335 16.4749710070242088   F   F   F
 13.7567346554282501 12.4982662468368915 16.4679471337363488   F   F   F
  5.9754461413122497 12.4755428273057003 16.3171087603175948   F   F   F
  9.8464636471523246  7.1295585833042772 16.5728319318410193   F   F   F
  5.9181393803814188 20.8892986602647923 13.6215607081684027   F   F   F
 13.6479884391390858  9.7247599153244924 16.5632292034886461   F   F   F
  9.8595532272152724  1.4576669982315325 16.4198740232299869   F   F   F
  2.0094061529628529 18.1411862424957668 16.4201911006568757   F   F   F
  1.9433368653975944 12.5965178180726234 16.3886101964932820   F   F   F
  2.0522974822052600  6.9969328600263365 16.4137506142335639   F   F   F
  1.9487653916075081  1.4119401729625205 16.4276723717598578   F   F   F
 21.6711518628937192 20.9454800407078423 16.3905739327133197   F   F   F
 21.6360047429872075 15.3786337951853511 16.3610150883438656   F   F   F
  9.7661413585415300 18.1400126677278486 19.1883464969276041   F   F   F
 13.8209770424651577 20.9300979175681832 16.3843287836299361   F   F   F
 21.6769237971608426  9.7657493216030140 16.3711187232473101   F   F   F
 13.7181688287549832 15.3118940773241388 16.4216620533565987   F   F   F
  5.9534589368205175 20.9172321885895620 16.3578530108879292   F   F   F
 11.7742795049278062 11.2562461762913397 18.2690290866460998   F   F   F
 21.7159852255313766 12.5809800691397271 16.4071694972338413   F   F   F
  9.9405295300117125 12.6088377979472508 16.6605293999119155   F   F   F
 21.6698790720278573 18.1414222402959560 16.4063529817992517   F   F   F
  1.9794316570311608 20.9529533045894745 16.3750938388855332   F   F   F
  5.9003884368458976 15.2466772823925076 16.5615829703364206   F   F   F
 17.7397366706402657 20.8456976253142763 16.4307951974183055   F   F   F
 17.7961965426890316 15.1838378922190333 16.5942851078842715   F   F   F
 17.8019252260673682  9.7234490397401299 16.4616653654685443   F   F   F
 10.0166760141760971  9.9025930806614824 16.3711951075349340   F   F   F
 10.0173257961361681 15.3536656885832983 16.4020641607999664   F   F   F
 21.7053510059833812  4.2200411705170611 16.3592187559619902   F   F   F
  9.4023353955115851 12.2871658371811492 19.5593010397154359   F   F   F
 21.6854709976567577  1.3878672366819684 13.6225187313661458   F   F   F
 17.5425347171811659 18.0741408776468759 19.1987881656492512   F   F   F
 21.6305516506178499 18.1496529729597142 19.2481094761438278   F   F   F
 13.7974300423971314  1.4738318714906529 19.1953490856139020   F   F   F
 13.8057185049605238  7.1596547814331037 19.0008600985767124   F   F   F
 13.9886822743904631 12.6170128295747546 19.1690906365843468   F   F   F
  5.8590481630990716 12.8038063058073561 18.8648660982023557   F   F   F
 17.8401710109299003 15.4422913341966339 19.7126614630583390   F   F   F
  6.2071527295640863 17.8397930792165980 19.3918169616093898   F   F   F
  5.9428679856924242  1.3243144783675966 19.2698371984117216   F   F   F
 21.6982156369999721 12.5533272030000536 10.8156001569999933   F   F   F
 11.8241534880471253  8.3531164760414782 14.9893684320867191   F   F   F
 11.8364189571173046 19.4922031439840318 15.0284821559076338   F   F   F
 11.8422226142327496 13.8616230286308131 15.0009226973812897   F   F   F
 19.7029028021536696 13.9059343980924357 15.0003384617639952   F   F   F
 19.7034060835685700  8.3274429531610377 14.9949200476600506   F   F   F
 19.7160752862952648  2.7779492104455557 14.9957787754002538   F   F   F
  3.9465950409136643  8.3956138116292607 14.9308151443206896   F   F   F
  3.9715556986053322 13.9331441134268914 15.0012721744487685   F   F   F
 13.7579212425165416  9.7908021570059542 19.3865010460087674   F   F   F
 13.7082932561862965 15.3012970806836108 19.1851924178304607   F   F   F
 21.7039548940656779  4.1522923917658003 19.2023031241499886   F   F   F
  5.8948820037160417  7.0572249426006106 19.2363759744293503   F   F   F
  3.9708021889921166 19.4886326286370668 14.9966607003840640   F   F   F
 13.7957796353847737 15.3118683202833239 13.6379646282045535   F   F   F
 13.7937864110189992 20.9125343934159709 13.6286357602969321   F   F   F
 21.6781117489882611  4.1704320065650808 13.5944417534964668   F   F   F
 21.6771031674396575  9.7513163663759066 13.6093141642423650   F   F   F
  3.9550518669443844  2.7744652343549379 14.9796383755191531   F   F   F
 17.6995660908676946  1.3513042136170030 16.3517090139030579   F   F   F
 17.8323565795719077 12.6775024398446892 19.0746227619538331   F   F   F
 21.6644929029849678  6.9566925538878941 19.1901933259696769   F   F   F
 21.6103684305814561 12.5397234634590564 19.2425256488234275   F   F   F
  5.9646363059694822  4.1994155064802747 16.4172749976433536   F   F   F
 13.9940480666950702 18.0803283479968648 19.3831856786493120   F   F   F
 17.6825875721233636  1.4952263211812218 19.2167389163906499   F   F   F
 17.6526911241321223  6.9291374181396330 19.2848122821886037   F   F   F
 21.6844139515661318  1.3867516471500096 19.2663727106493141   F   F   F
  1.9960673723538045  6.9424985710624094 19.2190428729402569   F   F   F
 15.7784977608030488 19.5134145041388294 14.9677060073233861   F   F   F
  2.0583969462281977 12.5573191724295743 19.2139539643104449   F   F   F
  1.9941650877984061  1.3469044566806245 19.2692641503836271   F   F   F
  2.0548837226568080  9.7395497507499798 19.1835594466357406   F   F   F
  1.9790149905143379  4.1359156896310454 19.2356216415661194   F   F   F
  9.8957539904651153  4.1832778451029942 19.1922862136272947   F   F   F
  1.9942880861728636 20.8792777386417185 19.2208857981072150   F   F   F
  1.9690999808106491 15.3342827595745987 19.1741768210123560   F   F   F
 21.6044064614215259  9.7269532049679768 19.1864576215906979   F   F   F
 21.6861221969419660 15.3423150699108231 19.1795273205877663   F   F   F
 21.6331543619119309 20.9089830442843727 19.2242386114530639   F   F   F
  9.8247710964300747  9.3449475846668300 18.9012994824833989   F   F   F
 17.8752103983045636  9.6565050116380000 19.1161742037610161   F   F   F
  9.8837905542951034 20.8657291485431351 19.1928495867047388   F   F   F
  5.6926181968064267  9.8636876874733481 19.2478814523346600   F   F   F
 17.6451875555663307  4.3124649970583713 19.3780608170779374   F   F   F
  6.0028627708687523  4.1600090310263118 19.2413417146316625   F   F   F
 19.6569321219118720 16.7536546911039217 17.7839235381700611   F   F   F
 19.6821481696652185  5.5560644057666932 17.7461031857807257   F   F   F
 13.7808805567923542 20.8840447603874502 19.1891734029646557   F   F   F
 21.6982156369999721 18.1325837370000720 10.8156001569999933   F   F   F
  1.9934266347011182 18.1332386795236964 19.2653607993874090   F   F   F
  5.9644831721942300 20.7589989506241253 19.1217972591388872   F   F   F
 13.7150337858701672  4.2729725642585432 19.3300761900423694   F   F   F
  6.0356949931967154 15.1179671873823320 19.8908183503493454   F   F   F
 19.7243226489667833 11.2250785428383075 17.6633754964826402   F   F   F
  9.9550153533839225 15.0845979502086323 19.0115039222103235   F   F   F
 15.7655064438548944 22.3158648706545399 15.1704845942379087   F   F   F
 19.7256482699999580 13.9481413360000008 12.2103998060000407   F   F   F
 11.8625928173103450 16.8016459456135081 15.1202934424812110   F   F   F
  3.8899280807524304 16.7717181511677182 15.1010545912508185   F   F   F
  3.9451301480000271  8.3688848019999824 12.2103998060000407   F   F   F
  0.0154399435473000  2.7290384734345614 18.5993757127282819   F   F   F
 15.7881407295448728  5.5380233073125700 15.0780896788513434   F   F   F
  7.8127301265270575  5.5359470728534097 15.0845705734131172   F   F   F
  7.8854501766077645  0.0233269526787813 15.1740241435275340   F   F   F
  7.9032245113280828 16.7635860049996914 15.0464658900811550   F   F   F
 15.8272911380370100 11.1566147713005392 15.0211361107315859   F   F   F
 11.8639428909896747 11.1551517467759922 15.0072948367218295   F   F   F
 23.6638419615936115 11.1667163029401664 15.2056955903772213   F   F   F
 19.7924891720747063 11.1594880938681627 15.0830780619973908   F   F   F
 11.8579931025296705  5.5335185404321949 15.0593912446190217   F   F   F
 15.7805205919999434  8.3688848019999824 12.2103998060000407   F   F   F
 15.7506688787407860 16.7805820923351448 15.0668798526332033   F   F   F
  0.0000000000000000 19.5273965409999306 12.2103998060000407   F   F   F
 19.7816111614198107  5.5430248141632639 15.0904615499670918   F   F   F
 23.6668823922412770 16.7589814363909113 15.1998862418840677   F   F   F
  0.0202570782084123  5.5741393436680990 15.1779000484745676   F   F   F
 23.6701271737799352 22.3163687247857254 15.2011974785801094   F   F   F
 15.7805205919999434 13.9481413360000008 12.2103998060000407   F   F   F
 19.7256482699999580 19.5273965409999306 12.2103998060000407   F   F   F
  7.8902602960000570 13.9481413360000008 12.2103998060000407   F   F   F
  7.8902602960000570  2.7896282670000101 12.2103998060000407   F   F   F
  7.8902602960000570  8.3688848019999824 12.2103998060000407   F   F   F
 19.7413782449177191  0.0099834801048814 15.2025160924388825   F   F   F
  7.8902602960000570 19.5273965409999306 12.2103998060000407   F   F   F
 15.7805205919999434  2.7896282670000101 12.2103998060000407   F   F   F
  0.0000000000000000 13.9481413360000008 12.2103998060000407   F   F   F
  3.9287954686977877  0.0254402002916739 15.1965971449336053   F   F   F
  7.8387621949794308 11.1413826171313737 15.0283330620625790   F   F   F
  3.8710444778060054 11.1543240700080393 15.0612332072150892   F   F   F
 11.8559492684671017 19.5677174212883678 18.2876958777403757   F   F   F
  7.7143797071344382  8.3344493506828723 17.7824626314224972   F   F   F
  0.0000000000000000  8.3688848019999824 12.2103998060000407   F   F   F
 11.8353900909999528 19.5273965409999306 12.2103998060000407   F   F   F
 19.7256482699999580  2.7896282670000101 12.2103998060000407   F   F   F
 19.7256482699999580  8.3688848019999824 12.2103998060000407   F   F   F
  3.9451301480000271  2.7896282670000101 12.2103998060000407   F   F   F
 15.7496348318579109  2.7698844372008020 18.2562283778261971   F   F   F
 11.8353900909999528 13.9481413360000008 12.2103998060000407   F   F   F
 19.8727741547307382 13.9887735997369518 18.1163856259953739   F   F   F
  3.9377936182386848  5.5385357612494177 15.1854996524893320   F   F   F
  7.8505817981191113  2.6717524451553145 18.3977758610204489   F   F   F
 23.6452668547233742 19.5297306021300336 18.6695218861322836   F   F   F
 11.8353900909999528  2.7896282670000101 12.2103998060000407   F   F   F
 19.6877822576648427 19.5534102388881372 18.5284167527571917   F   F   F
 19.8354458890621075  8.3074593487935751 18.0975062564388018   F   F   F
 19.7889727413516106 16.7750044535379494 15.0786475833462159   F   F   F
  3.9451301480000271 19.5273965409999306 12.2103998060000407   F   F   F
  7.9081856426150514 13.9347944571769879 17.8543851575016532   F   F   F
  0.0000000000000000  2.7896282670000101 12.2103998060000407   F   F   F
  7.9190497859864477 19.6088222002914065 18.0897416574711229   F   F   F
 11.9258201596451148 13.9494827805621302 17.8225147832543414   F   F   F
  3.9451301480000271 13.9481413360000008 12.2103998060000407   F   F   F
 11.8353900909999528  8.3688848019999824 12.2103998060000407   F   F   F
 15.7805205919999434 19.5273965409999306 12.2103998060000407   F   F   F
 11.8440092698086232 22.3024607622321938 15.1697913604488850   F   F   F
  3.7739406746717452 14.0007610511107536 18.0446605526431405   F   F   F
  3.9329975396429551 19.4943439058852590 18.5355184216951692   F   F   F
 15.8815995364888245  8.3111313220458314 17.8077699033022832   F   F   F
 11.8462210286170926  2.7257870178130785 18.1921671838647043   F   F   F
  3.9727644019043331  2.7381501354281426 18.6612108080749408   F   F   F
  3.8641626226309795  8.2852478002115095 18.2266489684019284   F   F   F
 15.7526376215699120 19.6660723095951120 18.2120986804821001   F   F   F
 15.7769465517021263 13.9745602853746185 17.8063663630379985   F   F   F
  0.0076746330962667  8.3559960612854951 18.7113823667122219   F   F   F
 19.7319129608201749  2.7714773827024239 18.5933555263489261   F   F   F
 23.6611540656253041 13.8945661653012671 18.8664912578501536   F   F   F
 11.8711776159044273  8.2885845545204528 17.8442011031891639   F   F   F
  1.9826107868518477  5.5260055008046409 18.1103509015208139   F   F   F
 17.7430815599813769  0.0455773815571953 18.1478331653965661   F   F   F
 13.7920265409904150  0.0246028948934532 18.1390674695562240   F   F   F
 21.6888550285708455  0.0082413498851837 18.1171818612538864   F   F   F
 13.8407381314051694 16.7367406825634752 17.9951469781005855   F   F   F
 13.8318715323714905  5.5290363206037858 17.8921657685014353   F   F   F
  5.7390387743438458 11.1102721757108363 17.8201210519643212   F   F   F
  5.9028596118537644 16.7987871782203833 17.7600630582343406   F   F   F
  5.9106843389408601 22.2648963881579434 18.1268795498852029   F   F   F
 17.8455734876754093  5.5392445506520085 17.7998452616318872   F   F   F
  5.8980826772759913  5.4809535011759793 18.1116398416153004   F   F   F