Cu  C  O                                
   1.00000000000000     
    12.5054068306472956    0.0000000000000000    0.0000000000000000
     0.0000000000000000   15.3159328805006201    0.0000000000000000
     0.0000000000000000    0.0000000000000000   28.1057698071600015
   Cu   C    O 
   144     1     1
Selective dynamics
Direct
  0.3380553032282283  0.0826447499486593  0.6446784894596115   T   T   T
  0.3385560446822590  0.2484121521201422  0.6450133057965444   T   T   T
  0.3383397099327097  0.4166666666666643  0.6499311991968783   T   T   T
  0.3385560446822590  0.5849211812131938  0.6450133057965444   T   T   T
  0.3380553032282283  0.7506885833846767  0.6446784894596115   T   T   T
  0.3377877099776699  0.9166666666666643  0.6445897988022053   T   T   T
  0.8379271847690845  0.0834321344541593  0.6446217918285847   T   T   T
  0.8379093436548345  0.2499872808042213  0.6445422420271204   T   T   T
  0.8377203215906256  0.4166666666666643  0.6445610640975278   T   T   T
  0.8379093436548345  0.5833460525291144  0.6445422420271204   T   T   T
  0.8379271847690845  0.7499011988791764  0.6446217918285847   T   T   T
  0.8380154148287842  0.9166666666666643  0.6447090034841583   T   T   T
  0.1709264847136918 -0.0000468716015053  0.6213455548106991   T   T   T
  0.1713692371502507  0.1666524304883943  0.6212861500043204   T   T   T
  0.1706772637408945  0.3330889445392257  0.6210247501861552   T   T   T
  0.1706772637408945  0.5002443887941099  0.6210247501861552   T   T   T
  0.1713692371502507  0.6666809028449341  0.6212861500043204   T   T   T
  0.1709264847136918  0.8333802049348409  0.6213455548106991   T   T   T
  0.6709325593422247  0.0000239410300037  0.6212862811481780   T   T   T
  0.6710942215065282  0.1666698820649653  0.6211308344536564   T   T   T
  0.6710395006225278  0.3332944760374730  0.6212853260228581   T   T   T
  0.6710395006225278  0.5000388572958628  0.6212853260228581   T   T   T
  0.6710942215065282  0.6666634512683636  0.6211308344536564   T   T   T
  0.6709325593422247  0.8333093923033322  0.6212862811481780   T   T   T
  0.0059456612475907  0.0835413940098115  0.5960931161261205   T   T   T
  0.0055545585793754  0.2498514944216921  0.5959510487791511   T   T   T
  0.0054384767134319  0.4166666666666643  0.5959723389723256   T   T   T
  0.0055545585793754  0.5834818389116436  0.5959510487791511   T   T   T
  0.0059456612475907  0.7497919393235244  0.5960931161261206   T   T   T
  0.0058980013779187  0.9166666666666643  0.5959428249351666   T   T   T
  0.5057746034115504  0.0833134309179100  0.5960269049909475   T   T   T
  0.5057517041878853  0.2503479937079870  0.5962104195040203   T   T   T
  0.5049792294808970  0.4166666666666643  0.5973543579493725   T   T   T
  0.5057517041878853  0.5829853396253484  0.5962104195040203   T   T   T
  0.5057746034115504  0.7500199024154254  0.5960269049909475   T   T   T
  0.5056402128602004  0.9166666666666643  0.5965337017045632   T   T   T
  0.3388434036188105  0.0000610219732506  0.5670812814326756   T   T   T
  0.3389981454114815  0.1671322153480507  0.5671685099353337   T   T   T
  0.3388790045167576  0.3348187217276623  0.5688625672013189   T   T   T
  0.3388790045167576  0.4985146116056734  0.5688625672013189   T   T   T
  0.3389981454114815  0.6662011179852779  0.5671685099353337   T   T   T
  0.3388434036188105  0.8332723113600852  0.5670812814326756   T   T   T
  0.8388174753780847  0.0000326669794135  0.5671873779701619   T   T   T
  0.8388403108373841  0.1666694635641718  0.5671082811738690   T   T   T
  0.8384912389162146  0.3333879397623662  0.5669817751026873   T   T   T
  0.8384912389162146  0.4999453935709698  0.5669817751026873   T   T   T
  0.8388403108373841  0.6666638697691573  0.5671082811738690   T   T   T
  0.8388174753780847  0.8333006663539222  0.5671873779701619   T   T   T
  0.1692482897033537  0.0834407628380773  0.5409409894598023   T   T   T
  0.1694240831137089  0.2501052307653241  0.5407697147940038   T   T   T
  0.1697676930318322  0.4166666666666643  0.5413430969770278   T   T   T
  0.1694240831137089  0.5832281025680118  0.5407697147940038   T   T   T
  0.1692482897033537  0.7498925704952584  0.5409409894598023   T   T   T
  0.1692641909349134  0.9166666666666643  0.5409916799121361   T   T   T
  0.6692500350428566  0.0833488898363912  0.5409599602832341   T   T   T
  0.6689417299518715  0.2500730393546083  0.5409198290963914   T   T   T
  0.6680839208014808  0.4166666666666643  0.5409067842809089   T   T   T
  0.6689417299518715  0.5832602939787273  0.5409198290963914   T   T   T
  0.6692500350428566  0.7499844434969445  0.5409599602832341   T   T   T
  0.6690426213208910  0.9166666666666643  0.5409114750644880   T   T   T
  0.0019003277120026 -0.0000020288588869  0.5141663018452771   T   T   T
  0.0018476213426677  0.1667425248159631  0.5141669918192969   T   T   T
  0.0019910662861717  0.3335582250578797  0.5142013057138595   T   T   T
  0.0019910662861717  0.4997751082754561  0.5142013057138595   T   T   T
  0.0018476213426677  0.6665908085173652  0.5141669918192969   T   T   T
  0.0019003277120026  0.8333353621922225  0.5141663018452771   T   T   T
  0.5019863702020138 -0.0000185493225124  0.5141717196416393   T   T   T
  0.5016970529383280  0.1668067040723419  0.5141426518465433   T   T   T
  0.5010958724359323  0.3333564988711235  0.5143499242376910   T   T   T
  0.5010958724359323  0.4999768344622120  0.5143499242376910   T   T   T
  0.5016970529383280  0.6665266292609866  0.5141426518465433   T   T   T
  0.5019863702020138  0.8333518826558484  0.5141717196416393   T   T   T
  0.3333333333333357  0.0833333333333357  0.4868908026831633   F   F   F
  0.3333333333333357  0.2500000000000000  0.4868908026831633   F   F   F
  0.3333333333333357  0.4166666666666643  0.4868908026831633   F   F   F
  0.3333333333333357  0.5833333333333357  0.4868908026831633   F   F   F
  0.3333333333333357  0.7500000000000000  0.4868908026831633   F   F   F
  0.3333333333333357  0.9166666666666643  0.4868908026831633   F   F   F
  0.8333333333333357  0.0833333333333357  0.4868908026831633   F   F   F
  0.8333333333333357  0.2500000000000000  0.4868908026831633   F   F   F
  0.8333333333333357  0.4166666666666643  0.4868908026831633   F   F   F
  0.8333333333333357  0.5833333333333357  0.4868908026831633   F   F   F
  0.8333333333333357  0.7500000000000000  0.4868908026831633   F   F   F
  0.8333333333333357  0.9166666666666643  0.4868908026831633   F   F   F
  0.1666666666666643  0.0000000000000000  0.4606724080494899   F   F   F
  0.1666666666666643  0.1666666666666643  0.4606724080494899   F   F   F
  0.1666666666666643  0.3333333333333357  0.4606724080494899   F   F   F
  0.1666666666666643  0.5000000000000000  0.4606724080494899   F   F   F
  0.1666666666666643  0.6666666666666643  0.4606724080494899   F   F   F
  0.1666666666666643  0.8333333333333357  0.4606724080494899   F   F   F
  0.6666666666666643  0.0000000000000000  0.4606724080494899   F   F   F
  0.6666666666666643  0.1666666666666643  0.4606724080494899   F   F   F
  0.6666666666666643  0.3333333333333357  0.4606724080494899   F   F   F
  0.6666666666666643  0.5000000000000000  0.4606724080494899   F   F   F
  0.6666666666666643  0.6666666666666643  0.4606724080494899   F   F   F
  0.6666666666666643  0.8333333333333357  0.4606724080494899   F   F   F
  0.0000000000000000  0.0833333333333357  0.4344540134158166   F   F   F
  0.0000000000000000  0.2500000000000000  0.4344540134158166   F   F   F
  0.0000000000000000  0.4166666666666643  0.4344540134158166   F   F   F
  0.0000000000000000  0.5833333333333357  0.4344540134158166   F   F   F
  0.0000000000000000  0.7500000000000000  0.4344540134158166   F   F   F
  0.0000000000000000  0.9166666666666643  0.4344540134158166   F   F   F
  0.5000000000000000  0.0833333333333357  0.4344540134158166   F   F   F
  0.5000000000000000  0.2500000000000000  0.4344540134158166   F   F   F
  0.5000000000000000  0.4166666666666643  0.4344540134158166   F   F   F
  0.5000000000000000  0.5833333333333357  0.4344540134158166   F   F   F
  0.5000000000000000  0.7500000000000000  0.4344540134158166   F   F   F
  0.5000000000000000  0.9166666666666643  0.4344540134158166   F   F   F
  0.3333333333333357  0.0000000000000000  0.4082356187821503   F   F   F
  0.3333333333333357  0.1666666666666643  0.4082356187821503   F   F   F
  0.3333333333333357  0.3333333333333357  0.4082356187821503   F   F   F
  0.3333333333333357  0.5000000000000000  0.4082356187821503   F   F   F
  0.3333333333333357  0.6666666666666643  0.4082356187821503   F   F   F
  0.3333333333333357  0.8333333333333357  0.4082356187821503   F   F   F
  0.8333333333333357  0.0000000000000000  0.4082356187821503   F   F   F
  0.8333333333333357  0.1666666666666643  0.4082356187821503   F   F   F
  0.8333333333333357  0.3333333333333357  0.4082356187821503   F   F   F
  0.8333333333333357  0.5000000000000000  0.4082356187821503   F   F   F
  0.8333333333333357  0.6666666666666643  0.4082356187821503   F   F   F
  0.8333333333333357  0.8333333333333357  0.4082356187821503   F   F   F
  0.1666666666666643  0.0833333333333357  0.3820172241484769   F   F   F
  0.1666666666666643  0.2500000000000000  0.3820172241484769   F   F   F
  0.1666666666666643  0.4166666666666643  0.3820172241484769   F   F   F
  0.1666666666666643  0.5833333333333357  0.3820172241484769   F   F   F
  0.1666666666666643  0.7500000000000000  0.3820172241484769   F   F   F
  0.1666666666666643  0.9166666666666643  0.3820172241484769   F   F   F
  0.6666666666666643  0.0833333333333357  0.3820172241484769   F   F   F
  0.6666666666666643  0.2500000000000000  0.3820172241484769   F   F   F
  0.6666666666666643  0.4166666666666643  0.3820172241484769   F   F   F
  0.6666666666666643  0.5833333333333357  0.3820172241484769   F   F   F
  0.6666666666666643  0.7500000000000000  0.3820172241484769   F   F   F
  0.6666666666666643  0.9166666666666643  0.3820172241484769   F   F   F
  0.0000000000000000  0.0000000000000000  0.3557988295148036   F   F   F
  0.0000000000000000  0.1666666666666643  0.3557988295148036   F   F   F
  0.0000000000000000  0.3333333333333357  0.3557988295148036   F   F   F
  0.0000000000000000  0.5000000000000000  0.3557988295148036   F   F   F
  0.0000000000000000  0.6666666666666643  0.3557988295148036   F   F   F
  0.0000000000000000  0.8333333333333357  0.3557988295148036   F   F   F
  0.5000000000000000  0.0000000000000000  0.3557988295148036   F   F   F
  0.5000000000000000  0.1666666666666643  0.3557988295148036   F   F   F
  0.5000000000000000  0.3333333333333357  0.3557988295148036   F   F   F
  0.5000000000000000  0.5000000000000000  0.3557988295148036   F   F   F
  0.5000000000000000  0.6666666666666643  0.3557988295148036   F   F   F
  0.5000000000000000  0.8333333333333357  0.3557988295148036   F   F   F
  0.3395299265559440  0.4166666666666643  0.7168611601590776   T   T   T
  0.3354917202805289  0.4166666666666643  0.7578578395757734   T   T   T
 
  0.00000000E+00  0.00000000E+00  0.00000000E+00
  0.00000000E+00  0.00000000E+00  0.00000000E+00
  0.00000000E+00  0.00000000E+00  0.00000000E+00
  0.00000000E+00  0.00000000E+00  0.00000000E+00
  0.00000000E+00  0.00000000E+00  0.00000000E+00
  0.00000000E+00  0.00000000E+00  0.00000000E+00
  0.00000000E+00  0.00000000E+00  0.00000000E+00
  0.00000000E+00  0.00000000E+00  0.00000000E+00
  0.00000000E+00  0.00000000E+00  0.00000000E+00
  0.00000000E+00  0.00000000E+00  0.00000000E+00
  0.00000000E+00  0.00000000E+00  0.00000000E+00
  0.00000000E+00  0.00000000E+00  0.00000000E+00
  0.00000000E+00  0.00000000E+00  0.00000000E+00
  0.00000000E+00  0.00000000E+00  0.00000000E+00
  0.00000000E+00  0.00000000E+00  0.00000000E+00
  0.00000000E+00  0.00000000E+00  0.00000000E+00
  0.00000000E+00  0.00000000E+00  0.00000000E+00
  0.00000000E+00  0.00000000E+00  0.00000000E+00
  0.00000000E+00  0.00000000E+00  0.00000000E+00
  0.00000000E+00  0.00000000E+00  0.00000000E+00
  0.00000000E+00  0.00000000E+00  0.00000000E+00
  0.00000000E+00  0.00000000E+00  0.00000000E+00
  0.00000000E+00  0.00000000E+00  0.00000000E+00
  0.00000000E+00  0.00000000E+00  0.00000000E+00
  0.00000000E+00  0.00000000E+00  0.00000000E+00
  0.00000000E+00  0.00000000E+00  0.00000000E+00
  0.00000000E+00  0.00000000E+00  0.00000000E+00
  0.00000000E+00  0.00000000E+00  0.00000000E+00
  0.00000000E+00  0.00000000E+00  0.00000000E+00
  0.00000000E+00  0.00000000E+00  0.00000000E+00
  0.00000000E+00  0.00000000E+00  0.00000000E+00
  0.00000000E+00  0.00000000E+00  0.00000000E+00
  0.00000000E+00  0.00000000E+00  0.00000000E+00
  0.00000000E+00  0.00000000E+00  0.00000000E+00
  0.00000000E+00  0.00000000E+00  0.00000000E+00
  0.00000000E+00  0.00000000E+00  0.00000000E+00
  0.00000000E+00  0.00000000E+00  0.00000000E+00
  0.00000000E+00  0.00000000E+00  0.00000000E+00
  0.00000000E+00  0.00000000E+00  0.00000000E+00
  0.00000000E+00  0.00000000E+00  0.00000000E+00
  0.00000000E+00  0.00000000E+00  0.00000000E+00
  0.00000000E+00  0.00000000E+00  0.00000000E+00
  0.00000000E+00  0.00000000E+00  0.00000000E+00
  0.00000000E+00  0.00000000E+00  0.00000000E+00
  0.00000000E+00  0.00000000E+00  0.00000000E+00
  0.00000000E+00  0.00000000E+00  0.00000000E+00
  0.00000000E+00  0.00000000E+00  0.00000000E+00
  0.00000000E+00  0.00000000E+00  0.00000000E+00
  0.00000000E+00  0.00000000E+00  0.00000000E+00
  0.00000000E+00  0.00000000E+00  0.00000000E+00
  0.00000000E+00  0.00000000E+00  0.00000000E+00
  0.00000000E+00  0.00000000E+00  0.00000000E+00
  0.00000000E+00  0.00000000E+00  0.00000000E+00
  0.00000000E+00  0.00000000E+00  0.00000000E+00
  0.00000000E+00  0.00000000E+00  0.00000000E+00
  0.00000000E+00  0.00000000E+00  0.00000000E+00
  0.00000000E+00  0.00000000E+00  0.00000000E+00
  0.00000000E+00  0.00000000E+00  0.00000000E+00
  0.00000000E+00  0.00000000E+00  0.00000000E+00
  0.00000000E+00  0.00000000E+00  0.00000000E+00
  0.00000000E+00  0.00000000E+00  0.00000000E+00
  0.00000000E+00  0.00000000E+00  0.00000000E+00
  0.00000000E+00  0.00000000E+00  0.00000000E+00
  0.00000000E+00  0.00000000E+00  0.00000000E+00
  0.00000000E+00  0.00000000E+00  0.00000000E+00
  0.00000000E+00  0.00000000E+00  0.00000000E+00
  0.00000000E+00  0.00000000E+00  0.00000000E+00
  0.00000000E+00  0.00000000E+00  0.00000000E+00
  0.00000000E+00  0.00000000E+00  0.00000000E+00
  0.00000000E+00  0.00000000E+00  0.00000000E+00
  0.00000000E+00  0.00000000E+00  0.00000000E+00
  0.00000000E+00  0.00000000E+00  0.00000000E+00
  0.00000000E+00  0.00000000E+00  0.00000000E+00
  0.00000000E+00  0.00000000E+00  0.00000000E+00
  0.00000000E+00  0.00000000E+00  0.00000000E+00
  0.00000000E+00  0.00000000E+00  0.00000000E+00
  0.00000000E+00  0.00000000E+00  0.00000000E+00
  0.00000000E+00  0.00000000E+00  0.00000000E+00
  0.00000000E+00  0.00000000E+00  0.00000000E+00
  0.00000000E+00  0.00000000E+00  0.00000000E+00
  0.00000000E+00  0.00000000E+00  0.00000000E+00
  0.00000000E+00  0.00000000E+00  0.00000000E+00
  0.00000000E+00  0.00000000E+00  0.00000000E+00
  0.00000000E+00  0.00000000E+00  0.00000000E+00
  0.00000000E+00  0.00000000E+00  0.00000000E+00
  0.00000000E+00  0.00000000E+00  0.00000000E+00
  0.00000000E+00  0.00000000E+00  0.00000000E+00
  0.00000000E+00  0.00000000E+00  0.00000000E+00
  0.00000000E+00  0.00000000E+00  0.00000000E+00
  0.00000000E+00  0.00000000E+00  0.00000000E+00
  0.00000000E+00  0.00000000E+00  0.00000000E+00
  0.00000000E+00  0.00000000E+00  0.00000000E+00
  0.00000000E+00  0.00000000E+00  0.00000000E+00
  0.00000000E+00  0.00000000E+00  0.00000000E+00
  0.00000000E+00  0.00000000E+00  0.00000000E+00
  0.00000000E+00  0.00000000E+00  0.00000000E+00
  0.00000000E+00  0.00000000E+00  0.00000000E+00
  0.00000000E+00  0.00000000E+00  0.00000000E+00
  0.00000000E+00  0.00000000E+00  0.00000000E+00
  0.00000000E+00  0.00000000E+00  0.00000000E+00
  0.00000000E+00  0.00000000E+00  0.00000000E+00
  0.00000000E+00  0.00000000E+00  0.00000000E+00
  0.00000000E+00  0.00000000E+00  0.00000000E+00
  0.00000000E+00  0.00000000E+00  0.00000000E+00
  0.00000000E+00  0.00000000E+00  0.00000000E+00
  0.00000000E+00  0.00000000E+00  0.00000000E+00
  0.00000000E+00  0.00000000E+00  0.00000000E+00
  0.00000000E+00  0.00000000E+00  0.00000000E+00
  0.00000000E+00  0.00000000E+00  0.00000000E+00
  0.00000000E+00  0.00000000E+00  0.00000000E+00
  0.00000000E+00  0.00000000E+00  0.00000000E+00
  0.00000000E+00  0.00000000E+00  0.00000000E+00
  0.00000000E+00  0.00000000E+00  0.00000000E+00
  0.00000000E+00  0.00000000E+00  0.00000000E+00
  0.00000000E+00  0.00000000E+00  0.00000000E+00
  0.00000000E+00  0.00000000E+00  0.00000000E+00
  0.00000000E+00  0.00000000E+00  0.00000000E+00
  0.00000000E+00  0.00000000E+00  0.00000000E+00
  0.00000000E+00  0.00000000E+00  0.00000000E+00
  0.00000000E+00  0.00000000E+00  0.00000000E+00
  0.00000000E+00  0.00000000E+00  0.00000000E+00
  0.00000000E+00  0.00000000E+00  0.00000000E+00
  0.00000000E+00  0.00000000E+00  0.00000000E+00
  0.00000000E+00  0.00000000E+00  0.00000000E+00
  0.00000000E+00  0.00000000E+00  0.00000000E+00
  0.00000000E+00  0.00000000E+00  0.00000000E+00
  0.00000000E+00  0.00000000E+00  0.00000000E+00
  0.00000000E+00  0.00000000E+00  0.00000000E+00
  0.00000000E+00  0.00000000E+00  0.00000000E+00
  0.00000000E+00  0.00000000E+00  0.00000000E+00
  0.00000000E+00  0.00000000E+00  0.00000000E+00
  0.00000000E+00  0.00000000E+00  0.00000000E+00
  0.00000000E+00  0.00000000E+00  0.00000000E+00
  0.00000000E+00  0.00000000E+00  0.00000000E+00
  0.00000000E+00  0.00000000E+00  0.00000000E+00
  0.00000000E+00  0.00000000E+00  0.00000000E+00
  0.00000000E+00  0.00000000E+00  0.00000000E+00
  0.00000000E+00  0.00000000E+00  0.00000000E+00
  0.00000000E+00  0.00000000E+00  0.00000000E+00
  0.00000000E+00  0.00000000E+00  0.00000000E+00
  0.00000000E+00  0.00000000E+00  0.00000000E+00
  0.00000000E+00  0.00000000E+00  0.00000000E+00
  0.00000000E+00  0.00000000E+00  0.00000000E+00
  0.00000000E+00  0.00000000E+00  0.00000000E+00
  0.00000000E+00  0.00000000E+00  0.00000000E+00
  0.00000000E+00  0.00000000E+00  0.00000000E+00
