Cu  C  O 
 1.0000000000000000
    12.5054068306472956    0.0000000000000000    0.0000000000000000
     0.0000000000000000   15.3159328805006201    0.0000000000000000
     0.0000000000000000    0.0000000000000000   28.1057698071600015
 Cu  C   O  
 144   1   1
Selective dynamics
Cartesian
  4.2212098350416580  1.2763277400417545 18.1198344085931033   T   T   T
  4.2212098350416580  3.8289832201251550 18.1198344085931033   T   T   T
  4.2212098350416580  6.3816387002085557 18.1198344085931033   T   T   T
  4.2212098350416580  8.9342941802920652 18.1198344085931033   T   T   T
  4.2212098350416580 11.4869496603754655 18.1198344085931033   T   T   T
  4.2212098350416580 14.0396051404588658 18.1198344085931033   T   T   T
 10.4739132503653067  1.2763277400417545 18.1198344085931033   T   T   T
 10.4739132503653067  3.8289832201251550 18.1198344085931033   T   T   T
 10.4739132503653067  6.3816387002085557 18.1198344085931033   T   T   T
 10.4739132503653067  8.9342941802920652 18.1198344085931033   T   T   T
 10.4739132503653067 11.4869496603754655 18.1198344085931033   T   T   T
 10.4739132503653067 14.0396051404588658 18.1198344085931033   T   T   T
  2.1320363311597688  0.0000000000000000 17.4604314181732398   T   T   T
  2.1320363311597688  2.5526554800834003 17.4604314181732398   T   T   T
  2.1320363311597688  5.1053109601669098 17.4604314181732398   T   T   T
  2.1320363311597688  7.6579664402503100 17.4604314181732398   T   T   T
  2.1320363311597688 10.2106219203337112 17.4604314181732398   T   T   T
  2.1320363311597688 12.7632774004172198 17.4604314181732398   T   T   T
  8.3847397464834170  0.0000000000000000 17.4604314181732398   T   T   T
  8.3847397464834170  2.5526554800834003 17.4604314181732398   T   T   T
  8.3847397464834170  5.1053109601669098 17.4604314181732398   T   T   T
  8.3847397464834170  7.6579664402503100 17.4604314181732398   T   T   T
  8.3847397464834170 10.2106219203337112 17.4604314181732398   T   T   T
  8.3847397464834170 12.7632774004172198 17.4604314181732398   T   T   T
  0.0644354552265871  1.2763277400417545 16.7559076815131966   T   T   T
  0.0644354552265871  3.8289832201251550 16.7559076815131966   T   T   T
  0.0644354552265871  6.3816387002085557 16.7559076815131966   T   T   T
  0.0644354552265871  8.9342941802920652 16.7559076815131966   T   T   T
  0.0644354552265871 11.4869496603754655 16.7559076815131966   T   T   T
  0.0644354552265871 14.0396051404588658 16.7559076815131966   T   T   T
  6.3171388705502372  1.2763277400417545 16.7559076815131966   T   T   T
  6.3171388705502372  3.8289832201251550 16.7559076815131966   T   T   T
  6.3171388705502372  6.3816387002085557 16.7559076815131966   T   T   T
  6.3171388705502372  8.9342941802920652 16.7559076815131966   T   T   T
  6.3171388705502372 11.4869496603754655 16.7559076815131966   T   T   T
  6.3171388705502372 14.0396051404588658 16.7559076815131966   T   T   T
  4.2273498692952121  0.0000000000000000 15.9394050537251442   T   T   T
  4.2273498692952121  2.5526554800834003 15.9394050537251442   T   T   T
  4.2273498692952121  5.1053109601669098 15.9394050537251442   T   T   T
  4.2273498692952121  7.6579664402503100 15.9394050537251442   T   T   T
  4.2273498692952121 10.2106219203337112 15.9394050537251442   T   T   T
  4.2273498692952121 12.7632774004172198 15.9394050537251442   T   T   T
 10.4800532846188617  0.0000000000000000 15.9394050537251442   T   T   T
 10.4800532846188617  2.5526554800834003 15.9394050537251442   T   T   T
 10.4800532846188617  5.1053109601669098 15.9394050537251442   T   T   T
 10.4800532846188617  7.6579664402503100 15.9394050537251442   T   T   T
 10.4800532846188617 10.2106219203337112 15.9394050537251442   T   T   T
 10.4800532846188617 12.7632774004172198 15.9394050537251442   T   T   T
  2.1049771421633152  1.2763277400417545 15.1984708651725171   T   T   T
  2.1049771421633152  3.8289832201251550 15.1984708651725171   T   T   T
  2.1049771421633152  6.3816387002085557 15.1984708651725171   T   T   T
  2.1049771421633152  8.9342941802920652 15.1984708651725171   T   T   T
  2.1049771421633152 11.4869496603754655 15.1984708651725171   T   T   T
  2.1049771421633152 14.0396051404588658 15.1984708651725171   T   T   T
  8.3576805574869635  1.2763277400417545 15.1984708651725171   T   T   T
  8.3576805574869635  3.8289832201251550 15.1984708651725171   T   T   T
  8.3576805574869635  6.3816387002085557 15.1984708651725171   T   T   T
  8.3576805574869635  8.9342941802920652 15.1984708651725171   T   T   T
  8.3576805574869635 11.4869496603754655 15.1984708651725171   T   T   T
  8.3576805574869635 14.0396051404588658 15.1984708651725171   T   T   T
  0.0147007569491556  0.0000000000000000 14.4493558369284099   T   T   T
  0.0147007569491556  2.5526554800834003 14.4493558369284099   T   T   T
  0.0147007569491556  5.1053109601669098 14.4493558369284099   T   T   T
  0.0147007569491556  7.6579664402503100 14.4493558369284099   T   T   T
  0.0147007569491556 10.2106219203337112 14.4493558369284099   T   T   T
  0.0147007569491556 12.7632774004172198 14.4493558369284099   T   T   T
  6.2674041722728058  0.0000000000000000 14.4493558369284099   T   T   T
  6.2674041722728058  2.5526554800834003 14.4493558369284099   T   T   T
  6.2674041722728058  5.1053109601669098 14.4493558369284099   T   T   T
  6.2674041722728058  7.6579664402503100 14.4493558369284099   T   T   T
  6.2674041722728058 10.2106219203337112 14.4493558369284099   T   T   T
  6.2674041722728058 12.7632774004172198 14.4493558369284099   T   T   T
  4.1684689435491284  1.2763277400417545 13.6844408214363487   F   F   F
  4.1684689435491284  3.8289832201251550 13.6844408214363487   F   F   F
  4.1684689435491284  6.3816387002085557 13.6844408214363487   F   F   F
  4.1684689435491284  8.9342941802920652 13.6844408214363487   F   F   F
  4.1684689435491284 11.4869496603754655 13.6844408214363487   F   F   F
  4.1684689435491284 14.0396051404588658 13.6844408214363487   F   F   F
 10.4211723588727754  1.2763277400417545 13.6844408214363487   F   F   F
 10.4211723588727754  3.8289832201251550 13.6844408214363487   F   F   F
 10.4211723588727754  6.3816387002085557 13.6844408214363487   F   F   F
 10.4211723588727754  8.9342941802920652 13.6844408214363487   F   F   F
 10.4211723588727754 11.4869496603754655 13.6844408214363487   F   F   F
 10.4211723588727754 14.0396051404588658 13.6844408214363487   F   F   F
  2.0842344717745198  0.0000000000000000 12.9475526571490445   F   F   F
  2.0842344717745198  2.5526554800834003 12.9475526571490445   F   F   F
  2.0842344717745198  5.1053109601669098 12.9475526571490445   F   F   F
  2.0842344717745198  7.6579664402503100 12.9475526571490445   F   F   F
  2.0842344717745198 10.2106219203337112 12.9475526571490445   F   F   F
  2.0842344717745198 12.7632774004172198 12.9475526571490445   F   F   F
  8.3369378870981681  0.0000000000000000 12.9475526571490445   F   F   F
  8.3369378870981681  2.5526554800834003 12.9475526571490445   F   F   F
  8.3369378870981681  5.1053109601669098 12.9475526571490445   F   F   F
  8.3369378870981681  7.6579664402503100 12.9475526571490445   F   F   F
  8.3369378870981681 10.2106219203337112 12.9475526571490445   F   F   F
  8.3369378870981681 12.7632774004172198 12.9475526571490445   F   F   F
  0.0000000000000000  1.2763277400417545 12.2106644928617438   F   F   F
  0.0000000000000000  3.8289832201251550 12.2106644928617438   F   F   F
  0.0000000000000000  6.3816387002085557 12.2106644928617438   F   F   F
  0.0000000000000000  8.9342941802920652 12.2106644928617438   F   F   F
  0.0000000000000000 11.4869496603754655 12.2106644928617438   F   F   F
  0.0000000000000000 14.0396051404588658 12.2106644928617438   F   F   F
  6.2527034153236478  1.2763277400417545 12.2106644928617438   F   F   F
  6.2527034153236478  3.8289832201251550 12.2106644928617438   F   F   F
  6.2527034153236478  6.3816387002085557 12.2106644928617438   F   F   F
  6.2527034153236478  8.9342941802920652 12.2106644928617438   F   F   F
  6.2527034153236478 11.4869496603754655 12.2106644928617438   F   F   F
  6.2527034153236478 14.0396051404588658 12.2106644928617438   F   F   F
  4.1684689435491284  0.0000000000000000 11.4737763285746404   F   F   F
  4.1684689435491284  2.5526554800834003 11.4737763285746404   F   F   F
  4.1684689435491284  5.1053109601669098 11.4737763285746404   F   F   F
  4.1684689435491284  7.6579664402503100 11.4737763285746404   F   F   F
  4.1684689435491284 10.2106219203337112 11.4737763285746404   F   F   F
  4.1684689435491284 12.7632774004172198 11.4737763285746404   F   F   F
 10.4211723588727754  0.0000000000000000 11.4737763285746404   F   F   F
 10.4211723588727754  2.5526554800834003 11.4737763285746404   F   F   F
 10.4211723588727754  5.1053109601669098 11.4737763285746404   F   F   F
 10.4211723588727754  7.6579664402503100 11.4737763285746404   F   F   F
 10.4211723588727754 10.2106219203337112 11.4737763285746404   F   F   F
 10.4211723588727754 12.7632774004172198 11.4737763285746404   F   F   F
  2.0842344717745198  1.2763277400417545 10.7368881642873362   F   F   F
  2.0842344717745198  3.8289832201251550 10.7368881642873362   F   F   F
  2.0842344717745198  6.3816387002085557 10.7368881642873362   F   F   F
  2.0842344717745198  8.9342941802920652 10.7368881642873362   F   F   F
  2.0842344717745198 11.4869496603754655 10.7368881642873362   F   F   F
  2.0842344717745198 14.0396051404588658 10.7368881642873362   F   F   F
  8.3369378870981681  1.2763277400417545 10.7368881642873362   F   F   F
  8.3369378870981681  3.8289832201251550 10.7368881642873362   F   F   F
  8.3369378870981681  6.3816387002085557 10.7368881642873362   F   F   F
  8.3369378870981681  8.9342941802920652 10.7368881642873362   F   F   F
  8.3369378870981681 11.4869496603754655 10.7368881642873362   F   F   F
  8.3369378870981681 14.0396051404588658 10.7368881642873362   F   F   F
  0.0000000000000000  0.0000000000000000 10.0000000000000373   F   F   F
  0.0000000000000000  2.5526554800834003 10.0000000000000373   F   F   F
  0.0000000000000000  5.1053109601669098 10.0000000000000373   F   F   F
  0.0000000000000000  7.6579664402503100 10.0000000000000373   F   F   F
  0.0000000000000000 10.2106219203337112 10.0000000000000373   F   F   F
  0.0000000000000000 12.7632774004172198 10.0000000000000373   F   F   F
  6.2527034153236478  0.0000000000000000 10.0000000000000373   F   F   F
  6.2527034153236478  2.5526554800834003 10.0000000000000373   F   F   F
  6.2527034153236478  5.1053109601669098 10.0000000000000373   F   F   F
  6.2527034153236478  7.6579664402503100 10.0000000000000373   F   F   F
  6.2527034153236478 10.2106219203337112 10.0000000000000373   F   F   F
  6.2527034153236478 12.7632774004172198 10.0000000000000373   F   F   F
  4.1684689435490982  6.3816387002085921 20.5057698071600001   T   T   T
  4.1684689435490982  6.3816387002085921 21.6457698071600007   T   T   T
