Au  C  H  O Sr Ti                       
   1.00000000000000     
    23.6707801818999997    0.0000000000000000    0.0000000000000000
     0.0000000000000000   22.3170261383000010    0.0000000000000000
     0.0000000000000000    0.0000000000000000   30.0000000000000000
   Au   C    H    O    Sr   Ti
    50     3     5   265    72    72
Selective dynamics
Direct
  0.7124039753907851  0.5248322085006336  0.7525421939111823   F   F   F
  0.4507954043884297  0.5795660540638536  0.7036160518596546   F   F   F
  0.6495892613292824  0.4411416965916573  0.8123299453528290   F   F   F
  0.3680368140898764  0.6210606749714174  0.8202355330343778   F   F   F
  0.5678803187448267  0.5115572008093849  0.8576290636513164   F   F   F
  0.4671203353927353  0.4542108906133535  0.8806009759970266   F   F   F
  0.5202054144414561  0.3792416780831402  0.7335642818400032   F   F   F
  0.2812262238703198  0.3411278583170443  0.7021912438058777   F   F   F
  0.6678319877833303  0.6815013091720630  0.7487820129148872   F   F   F
  0.3971626898364562  0.3820629012350665  0.6908100079733472   F   F   F
  0.6181073388684766  0.3178258267844569  0.6966674645221289   F   F   F
  0.4613861278665610  0.5764118908715048  0.8657390286113653   F   F   F
  0.6760349682902600  0.2205758379198386  0.7439053056153995   T   T   T
  0.3736562297187049  0.7415127754677115  0.7794654833860193   F   F   F
  0.3734472705873060  0.4959049956181616  0.8333369073367010   F   F   F
  0.4403831221302852  0.4715946212703699  0.7557725440960397   F   F   F
  0.5389732281509581  0.6678700883073887  0.7018054546795369   F   F   F
  0.6441779275881601  0.4427506732978088  0.6979222136611511   F   F   F
  0.5634097019367985  0.6416976954024491  0.8620623199746120   F   F   F
  0.2569697581541632  0.5942834851676508  0.6940513336234986   F   F   F
  0.7705138248745200  0.4316204995190915  0.7963520401263722   F   F   F
  0.6975789033996733  0.3475572184544262  0.7602064862517608   F   F   F
  0.4141976390819906  0.6953225671257215  0.7000833593567393   F   F   F
  0.3232050381328690  0.4164449619858601  0.7699912049575417   F   F   F
  0.3907616248944947  0.8169711935477508  0.7064276150578763   F   F   F
  0.7059124053338621  0.7570444474565647  0.6885569627390709   F   F   F
  0.5424204474758199  0.3873822011073855  0.8303121397075302   F   F   F
  0.5535547040874036  0.2137601814750738  0.7119835425646883   F   F   F
  0.6191872123016964  0.5702558747614361  0.7035960389573077   F   F   F
  0.7884736106776415  0.2891397917052814  0.6965490931726848   T   T   T
  0.2926627445454741  0.7467760779555164  0.6965609473592167   F   F   F
  0.5077682302790265  0.6082358740783320  0.7778415461732351   F   F   F
  0.5773706368588094  0.7263798892893405  0.7943368907116835   F   F   F
  0.2392096757738642  0.4701729647198576  0.7095510187804877   F   F   F
  0.2852238541547933  0.6634899190137631  0.7641553070633123   F   F   F
  0.4822533369388253  0.2729224981369995  0.7751281191827104   F   F   F
  0.5122794792047642  0.4842185657611182  0.6777301730213310   F   F   F
  0.2886581220033761  0.5396139926677250  0.7770772408738864   F   F   F
  0.5966341412087885  0.2946729287671772  0.7867593526639780   F   F   F
  0.7616986822434413  0.4295520064270022  0.7058430635833162   F   F   F
  0.4849754091357923  0.7765885299819288  0.7549294689117119   F   F   F
  0.5578912413206396  0.4906471922819335  0.7632872945343721   F   F   F
  0.6313253753716239  0.5853317919204670  0.7993871111467286   F   F   F
  0.5953360774339842  0.7845178691455317  0.7129940438137083   F   F   F
  0.7300218540430095  0.6150635649019165  0.6934977934485715   F   F   F
  0.3475126669833770  0.5003129831632620  0.6967400087822639   F   F   F
  0.3680157705957399  0.3002065781515881  0.7560116509815487   F   F   F
  0.4378435728526426  0.2287062307707401  0.6977982148286657   F   F   F
  0.4619042703790086  0.6991432692866155  0.8329493962746923   F   F   F
  0.4239158374623884  0.3732049892146208  0.8181940211582912   F   F   F
  0.7031237875404344  0.0954285548613854  0.7821551759329850   T   T   T
  0.8342525933698184  0.2674239843584587  0.7457624526870106   T   T   T
  0.7283285994701814  0.1447230396777428  0.7538819365542224   T   T   T
  0.7351793417866190  0.0600997842809434  0.7860562351595277   T   T   T
  0.6918957606191469  0.1109011874432113  0.8155701635325201   T   T   T
  0.6661252106672748  0.0748896068091582  0.7667211160781875   T   T   T
  0.7655229779747899  0.1648116589752959  0.7693927122415829   T   T   T
  0.7378222234558365  0.1310938445892020  0.7197088009834616   T   T   T
  0.4169641734910527  0.9360495873603085  0.4540092395520503   F   F   F
  0.5824093442488518  0.0618481758251193  0.5456676212349336   F   F   F
  0.5856491648900430  0.8142227387972483  0.5503346552286814   F   F   F
  0.7474532836669638  0.3138463256502604  0.5463973692987949   F   F   F
  0.5817502032367941  0.5598415069544060  0.5486497298463604   F   F   F
  0.2524311205762402  0.5589478880096195  0.5438776076251770   F   F   F
  0.4164757921757527  0.3189037561069625  0.5528695422312992   F   F   F
  0.0837914935809820  0.9389902252804845  0.5454698353861289   F   F   F
  0.5759518086935103  0.4357377345843645  0.5517413688678516   F   F   F
  0.7494696039857232  0.4389442406804349  0.4548357757163046   F   F   F
  0.0807289511318956  0.5642634215611579  0.5463827478462733   F   F   F
  0.0845690701442550  0.3130927190987833  0.5470777134468747   F   F   F
  0.0822914299586230  0.0632341150953835  0.5474861657526660   F   F   F
  0.9159576665966611  0.9380916150396175  0.5460689871437268   F   F   F
  0.9142822676406936  0.6887236964417127  0.5456303936662152   F   F   F
  0.5838153887891977  0.9375917820466668  0.5462053912372440   F   F   F
  0.9164134508261412  0.1878688407565079  0.5457075185073350   F   F   F
  0.9152534476384062  0.4375551509386142  0.5455632641876775   F   F   F
  0.5790665885181312  0.6859336438881201  0.5475776800887431   F   F   F
  0.2515352931874446  0.9372742333911361  0.5451942444853941   F   F   F
  0.4972284855531086  0.5047349176684719  0.6086999791387129   F   F   F
  0.9179288123789888  0.5638237937216672  0.5472873201926802   F   F   F
  0.4196714653584905  0.5645194815506329  0.5552061473327896   F   F   F
  0.4168739476250423  0.0649524568607802  0.5473834522421015   F   F   F
  0.8326427963113332  0.8741467604739270  0.4988583825139585   F   F   F
  0.8626872231629505  0.2536070073701566  0.7745682877982980   T   T   T
  0.8321791782597856  0.9978439154155367  0.5922720476752801   F   F   F
  0.7556085342015493  0.4371235711220294  0.6389149080301451   F   F   F
  0.4172534506344832  0.9349811719319234  0.6397630126616960   F   F   F
  0.4202150547369783  0.6761122936749331  0.6338635426281627   F   F   F
  0.2528532572658193  0.8124996287845931  0.5506074750612271   F   F   F
  0.5905299377422963  0.8097806066569007  0.6460160194229445   F   F   F
  0.5855404700582909  0.3107602870638075  0.5451834401464453   F   F   F
  0.7481268855258207  0.8084181961474783  0.5458895620435555   F   F   F
  0.0827922989749581  0.4384332517071456  0.5448303450121870   F   F   F
  0.0829957683599432  0.1889309780152004  0.5455309745143921   F   F   F
  0.4998157980002205  0.1257931501458245  0.4994390687476624   F   F   F
  0.9991877792213586  0.4976438173439490  0.5942545392180705   F   F   F
  0.5816912138104371  0.1853024758332538  0.5503659895744448   F   F   F
  0.7483857743118634  0.9349609355158961  0.5467845281645651   F   F   F
  0.0000265274691529  0.7532971759717313  0.5923616814223038   F   F   F
  0.9996801398584338  0.9974944702214472  0.5923329142067146   F   F   F
  0.9990027572001381  0.2484709220907675  0.5927671297231925   F   F   F
  0.3331381892670180  0.4955962729228176  0.5910358767895403   F   F   F
  0.3349616495305980  0.7410345320417306  0.5902325758122160   F   F   F
  0.6663010495531267  0.2456553793625602  0.5918966842309317   F   F   F
  0.6657782516762438  0.0001472680383046  0.5920858602842003   F   F   F
  0.6653979443985421  0.7415464485539260  0.5906643875733621   F   F   F
  0.6668234093076677  0.4930270723169912  0.5908961828562127   F   F   F
  0.1672658518116563  0.9985539394060368  0.5923729051148712   F   F   F
  0.1679131582848967  0.2493375362013666  0.5931626092236257   F   F   F
  0.1704964858107587  0.7499753602636972  0.5947311016779437   F   F   F
  0.2482972413494977  0.4355406899843288  0.5491492882507671   F   F   F
  0.1653211998497284  0.5024627109522655  0.5869507421555724   F   F   F
  0.3353142880190489  0.2537844810866901  0.5927655942954573   F   F   F
  0.3339792191793194  0.9999920440740624  0.5919420748743249   F   F   F
  0.4995438254266205  0.9998005716349567  0.5910968066391575   F   F   F
  0.2488918207164801  0.6832480151722109  0.5517327199405884   F   F   F
  0.9155454149268678  0.8124330785959515  0.5468663668949247   F   F   F
  0.1669483826514480  0.1247460126308795  0.4995688218034573   F   F   F
  0.4142250530137233  0.8114324989501753  0.5475639787240354   F   F   F
  0.2509375102548859  0.0625517648630307  0.5472383984285969   F   F   F
  0.7461728234913707  0.5587976149871281  0.5445588341642775   F   F   F
  0.2498011979731487  0.3134738974351308  0.5459904572807659   F   F   F
  0.9164773918214379  0.0607174432099171  0.6405209509833796   F   F   F
  0.9139094113258253  0.5616734527018821  0.6413685045760502   F   F   F
  0.9127361826390228  0.3110556278896084  0.6406497109688658   F   F   F
  0.7411124863191105  0.8095521793198017  0.6401896740559252   F   F   F
  0.7487493330830972  0.3127308194286300  0.6412100707101658   F   F   F
  0.0826988616034399  0.3112536305641598  0.6403825406051666   F   F   F
  0.6664185640165314  0.8743051845557090  0.4988000047516081   F   F   F
  0.0862966066748996  0.5616483611487482  0.6398368811511119   F   F   F
  0.0826305910501617  0.0604252882219853  0.6415100229374247   F   F   F
  0.0867533282544670  0.4355787135080149  0.6396004688170152   F   F   F
  0.0833223314786622  0.1853398137533020  0.6409126742912221   F   F   F
  0.7489653063759292  0.0613082412094528  0.6415100165191987   F   F   F
  0.5801051688030725  0.1913433965325311  0.6459201417013816   F   F   F
  0.4186754145215446  0.1875794657346361  0.6400539588612730   F   F   F
  0.9166666865332829  0.8124999999834799  0.3605200052333331   F   F   F
  0.0852422521874132  0.8117780389946390  0.6427713759047933   F   F   F
  0.2520653239171722  0.9303473013006922  0.6373068289989803   F   F   F
  0.2539411269967786  0.6782837058440521  0.6618670797370712   F   F   F
  0.8330599111663375  0.5039907060067677  0.5890080283676866   F   F   F
  0.2392965828518712  0.4423101383651016  0.6419970729972135   F   F   F
  0.8317162611682747  0.2497353841456089  0.5904636959397536   F   F   F
  0.9166358728625568  0.6869796097342871  0.6387459513426847   F   F   F
  0.9109661241402947  0.4348679787852561  0.6396411227978831   F   F   F
  0.0830484647983312  0.6864682166293790  0.6387704929022391   F   F   F
  0.0845897226659957  0.9355222792190716  0.6407889399285338   F   F   F
  0.4158430972867535  0.4185476016540548  0.6303656467882846   F   F   F
  0.9154031386406132  0.9357440230464888  0.6416078347846579   F   F   F
  0.0843074713563894  0.6869587012159144  0.4531334587096723   F   F   F
  0.0827868142441446  0.4367704253273956  0.4528447521645802   F   F   F
  0.0833333358191695  0.3124999999901945  0.3605200052333331   F   F   F
  0.0838284254876669  0.1865382499354027  0.4529603340511485   F   F   F
  0.0837953615829861  0.9366389068269498  0.4534229061945396   F   F   F
  0.7515596959004611  0.5708770681170989  0.6344574845464948   F   F   F
  0.3971734413442789  0.5505689856820482  0.6517866608909344   F   F   F
  0.4118588033689861  0.8128832299780555  0.6392075429813815   F   F   F
  0.4260989914702904  0.3043009976174389  0.6553986380818131   F   F   F
  0.9146668804739591  0.8121610617305706  0.6425897318828646   F   F   F
  0.5820001139662594  0.0650887181634232  0.6396093756806280   F   F   F
  0.5884239737364112  0.3207022218542477  0.6329826961920588   F   F   F
  0.5912962803186375  0.5658881082597631  0.6378135146752726   F   F   F
  0.4171716440710043  0.6851607991771118  0.4550647732498376   F   F   F
  0.7535685459685340  0.6923635658682272  0.6575304250316378   F   F   F
  0.2615538929777443  0.8000413909642532  0.6460698578671327   F   F   F
  0.7513190320663838  0.1850509375084783  0.6400820538633738   F   F   F
  0.9166666865332829  0.5625000000092442  0.3605200052333331   F   F   F
  0.4999659535127776  0.8734870973984812  0.5008168335998491   F   F   F
  0.5002078565202908  0.6208822147070734  0.5000982658819453   F   F   F
  0.8324395620496716  0.6230866098130932  0.5001304265708555   F   F   F
  0.2518203898339308  0.1884439907567739  0.5471193268386045   F   F   F
  0.8331561533020135  0.3733950196653026  0.4988447273457766   F   F   F
  0.0857361543627277  0.6891120902848087  0.5452548691041983   F   F   F
  0.8329608673346272  0.1240550347729794  0.4988943092262588   F   F   F
  0.1675283917965658  0.6240634081516205  0.5001190549210648   F   F   F
  0.5799981590118861  0.4389555043567697  0.6460194621767030   F   F   F
  0.5767252193602417  0.6859248489678649  0.6395961463740960   F   F   F
  0.9132481422699144  0.1850054646814243  0.6402292264874490   F   F   F
  0.2498197889599183  0.3166581209238117  0.6407534525854359   F   F   F
  0.1676647753687632  0.8733473873883284  0.4998181437839833   F   F   F
  0.7473182183567673  0.9334888532906547  0.6399533618258957   F   F   F
  0.4999187041686923  0.3722686947246459  0.5007009154530806   F   F   F
  0.2529782140517298  0.1864181249635308  0.6409175190421763   F   F   F
  0.2509584432399592  0.0595004014492062  0.6423188214240696   F   F   F
  0.8305644322643531  0.7511477180283208  0.5931105518976025   F   F   F
  0.4176806024353183  0.0651914048834570  0.6400497283870550   F   F   F
  0.5815378577849657  0.9349005691756034  0.6393316690347177   F   F   F
  0.5002208814642941  0.7565162712711171  0.5926006499573475   F   F   F
  0.1665297350846870  0.3755408055439204  0.4980788735436832   F   F   F
  0.4176416455636698  0.1907414465366202  0.5474641543151577   F   F   F
  0.2474903486421738  0.5734046533318988  0.6285347538105768   F   F   F
  0.4157971171987782  0.9368388568381221  0.5461020188538939   F   F   F
  0.5833333134730552  0.9375000000154046  0.3605200052333331   F   F   F
  0.5833333134730552  0.6874999999963620  0.3605200052333331   F   F   F
  0.5833333134730552  0.4374999701794380  0.3605200052333331   F   F   F
  0.5833333134730552  0.1875000000030838  0.3605200052333331   F   F   F
  0.9160668689515887  0.0622784064456994  0.5468103191121472   F   F   F
  0.2499999999799343  0.9375000000154046  0.3605200052333331   F   F   F
  0.2499999999799343  0.6874999999963620  0.3605200052333331   F   F   F
  0.2499999999799343  0.1875000000030838  0.3605200052333331   F   F   F
  0.7499999404149307  0.9375000000154046  0.3605200052333331   F   F   F
  0.7499999404149307  0.6874999999963620  0.3605200052333331   F   F   F
  0.7499999404149307  0.4374999701794380  0.3605200052333331   F   F   F
  0.7499999404149307  0.1875000000030838  0.3605200052333331   F   F   F
  0.4166666269218169  0.9375000000154046  0.3605200052333331   F   F   F
  0.4166666269218169  0.6874999999963620  0.3605200052333331   F   F   F
  0.4166666269218169  0.4374999701794380  0.3605200052333331   F   F   F
  0.2499999999799343  0.4374999701794380  0.3605200052333331   F   F   F
  0.0833333358191695  0.0625000000159659  0.3605200052333331   F   F   F
  0.9153022395790131  0.6868779454195959  0.4533129238557123   F   F   F
  0.6656122960013633  0.3801963738830310  0.5025418001411879   F   F   F
  0.3346338991367546  0.3782852405506887  0.5031131058150251   F   F   F
  0.9166666865332829  0.9375000000154046  0.3605200052333331   F   F   F
  0.9166666865332829  0.0625000000159659  0.3605200052333331   F   F   F
  0.1666666716383389  0.4999999999932783  0.4070133268666680   F   F   F
  0.2505070016264881  0.0620985063952517  0.4542633947988293   F   F   F
  0.5833333134730552  0.8124999999834799  0.3605200052333331   F   F   F
  0.5833333134730552  0.3124999999901945  0.3605200052333331   F   F   F
  0.5833333134730552  0.0625000000159659  0.3605200052333331   F   F   F
  0.2499999999799343  0.8124999999834799  0.3605200052333331   F   F   F
  0.2499999999799343  0.5625000000092442  0.3605200052333331   F   F   F
  0.9166666865332829  0.1875000000030838  0.3605200052333331   F   F   F
  0.9166666865332829  0.4374999701794380  0.3605200052333331   F   F   F
  0.9166666865332829  0.6874999999963620  0.3605200052333331   F   F   F
  0.5846029708353697  0.5629199698629890  0.4547789962834941   F   F   F
  0.7498083026901909  0.1876781266250092  0.4535509032922533   F   F   F
  0.9161155289564960  0.5622014673404152  0.4541007531788210   F   F   F
  0.7492560554608048  0.6889906866981832  0.4571479352774759   F   F   F
  0.4176262386754033  0.4353524790966574  0.4541774313364684   F   F   F
  0.9162478060207633  0.0622604257189536  0.4538719464651138   F   F   F
  0.5009913968945838  0.2537008038860833  0.5915866413486270   F   F   F
  0.6661716607477288  0.1254420870719102  0.4994623188979688   F   F   F
  0.4168858684130115  0.1872751203526448  0.4538771121615639   F   F   F
  0.2520057243274820  0.6874898814415999  0.4559885494987483   F   F   F
  0.9163944388106700  0.9371495297964643  0.4536186962049484   F   F   F
  0.5832438347772495  0.1902394055087271  0.4556053368532247   F   F   F
  0.9997686926382769  0.1249850180315732  0.4984860948434218   F   F   F
  0.5832697700238896  0.8104901691760702  0.4553146673492847   F   F   F
  0.9998794312336443  0.3737520397457033  0.4981091124811527   F   F   F
  0.2499999999799343  0.3124999999901945  0.3605200052333331   F   F   F
  0.9996421326904823  0.6271070543067623  0.4976411583026419   F   F   F
  0.0000902567685088  0.8746393070101561  0.4993601329169053   F   F   F
  0.3333493141500625  0.8736048739730649  0.4990691823557896   F   F   F
  0.2510750906998993  0.4391549708991107  0.4550354540828039   F   F   F
  0.0833333358191695  0.5625000000092442  0.3605200052333331   F   F   F
  0.7498884307739360  0.9372323821787774  0.4546514326401123   F   F   F
  0.9164263227198362  0.3123033751383701  0.4536847878517278   F   F   F
  0.2502580167661819  0.1884278139593576  0.4541136269163175   F   F   F
  0.5832592287309240  0.0636275268460764  0.4539033324251420   F   F   F
  0.3354553866942922  0.6256510692251496  0.5036766751071013   F   F   F
  0.5827550451438626  0.9371112758816977  0.4542901658242826   F   F   F
  0.5826470105863208  0.6861061969205835  0.4546060993443319   F   F   F
  0.5821393551851557  0.4395878699622386  0.4561405109173293   F   F   F
  0.2500201752707341  0.9360649199209874  0.4540029204589686   F   F   F
  0.6653942748645747  0.6267505414539940  0.5027953232103073   F   F   F
  0.3338966539194246  0.1255947828164636  0.4991614868670027   F   F   F
  0.2499999999799343  0.0625000000159659  0.3605200052333331   F   F   F
  0.0852178018236529  0.8129178298943600  0.5474937621327953   F   F   F
  0.7499999404149307  0.3124999999901945  0.3605200052333331   F   F   F
  0.0000000000000000  0.2500000000190425  0.4070133268666680   F   F   F
  0.0000000000000000  0.4999999999932783  0.4070133268666680   F   F   F
  0.7481821709949870  0.5646919262202985  0.4536249111317403   F   F   F
  0.3333333432766779  0.0000000000000000  0.4070133268666680   F   F   F
  0.7493121210307976  0.8130728608193323  0.4531728543752820   F   F   F
  0.3333333432766779  0.4999999999932783  0.4070133268666680   F   F   F
  0.6666666865533486  0.0000000000000000  0.4070133268666680   F   F   F
  0.6666666865533486  0.2500000000190425  0.4070133268666680   F   F   F
  0.6666666865533486  0.4999999999932783  0.4070133268666680   F   F   F
  0.6666666865533486  0.7500000000123208  0.4070133268666680   F   F   F
  0.1666666716383389  0.0000000000000000  0.4070133268666680   F   F   F
  0.1666666716383389  0.2500000000190425  0.4070133268666680   F   F   F
  0.9159143739284801  0.1868750555848777  0.4531610396582906   F   F   F
  0.5000000000021103  0.0000000000000000  0.4070133268666680   F   F   F
  0.5000000000021103  0.2500000000190425  0.4070133268666680   F   F   F
  0.5000000000021103  0.7500000000123208  0.4070133268666680   F   F   F
  0.9166666865332829  0.3124999999901945  0.3605200052333331   F   F   F
  0.3333333432766779  0.2500000000190425  0.4070133268666680   F   F   F
  0.7475144735634132  0.3138821071819748  0.4540487668523667   F   F   F
  0.3333333432766779  0.7500000000123208  0.4070133268666680   F   F   F
  0.9162794779404777  0.4371867463272636  0.4535044051682320   F   F   F
  0.9164887969795643  0.8121024830006789  0.4540476297736120   F   F   F
  0.7502837858003844  0.1878570050549442  0.5458670458464496   F   F   F
  0.4228268493428473  0.6874690060801925  0.5469120256762636   F   F   F
  0.4232803348596690  0.4432659465154458  0.5458933363337479   F   F   F
  0.7533128638115372  0.4365800936962216  0.5481534422506158   F   F   F
  0.7519273674459299  0.6809675572560607  0.5530633531760927   F   F   F
  0.7494828974669971  0.0621487620104588  0.5466001300487306   F   F   F
  0.7499999404149307  0.5625000000092442  0.3605200052333331   F   F   F
  0.0000000000000000  0.0000000000000000  0.4070133268666680   F   F   F
  0.0833333358191695  0.1875000000030838  0.3605200052333331   F   F   F
  0.1666666716383389  0.7500000000123208  0.4070133268666680   F   F   F
  0.8333332538436267  0.0000000000000000  0.4070133268666680   F   F   F
  0.4166666269218169  0.8124999999834799  0.3605200052333331   F   F   F
  0.7499999404149307  0.0625000000159659  0.3605200052333331   F   F   F
  0.5000000000021103  0.4999999999932783  0.4070133268666680   F   F   F
  0.4166666269218169  0.5625000000092442  0.3605200052333331   F   F   F
  0.4166666269218169  0.3124999999901945  0.3605200052333331   F   F   F
  0.7499999404149307  0.8124999999834799  0.3605200052333331   F   F   F
  0.0835019682976537  0.3119323095806124  0.4540386432760428   F   F   F
  0.4166666269218169  0.0625000000159659  0.3605200052333331   F   F   F
  0.4170396331611457  0.0616891166588260  0.4553660182241472   F   F   F
  0.0835520739088125  0.8120383576529306  0.4541924779628133   F   F   F
  0.4158999116252389  0.5595429370522922  0.4577342544470042   F   F   F
  0.0836904758901085  0.0618853539241186  0.4542282577755188   F   F   F
  0.4155085016631546  0.3113367464318131  0.4573574796911117   F   F   F
  0.8333332538436267  0.7500000000123208  0.4070133268666680   F   F   F
  0.0833333358191695  0.4374999701794380  0.3605200052333331   F   F   F
  0.0839582950716746  0.5624894933298634  0.4539044897543718   F   F   F
  0.2502372870146985  0.8106862584432548  0.4552884781487947   F   F   F
  0.8333332538436267  0.2500000000190425  0.4070133268666680   F   F   F
  0.0833333358191695  0.6874999999963620  0.3605200052333331   F   F   F
  0.2518072150742299  0.5645998748214751  0.4536685428829088   F   F   F
  0.2522890971674343  0.3141084899198674  0.4541440776645587   F   F   F
  0.0000000000000000  0.7500000000123208  0.4070133268666680   F   F   F
  0.4168973837417767  0.8104301850392091  0.4548418943637529   F   F   F
  0.9157997380429919  0.3129588027617771  0.5468559590608635   F   F   F
  0.7491694580427009  0.0625188535023184  0.4539885939322374   F   F   F
  0.8333332538436267  0.4999999999932783  0.4070133268666680   F   F   F
  0.0833333358191695  0.8124999999834799  0.3605200052333331   F   F   F
  0.4166666269218169  0.1875000000030838  0.3605200052333331   F   F   F
  0.0833333358191695  0.9375000000154046  0.3605200052333331   F   F   F
  0.5833333134730552  0.5625000000092442  0.3605200052333331   F   F   F
  0.5843831139084799  0.3154980943081611  0.4535868156025558   F   F   F
  0.8360330387246364  0.7513190486601644  0.5027233490545129   F   F   F
  0.8326128318859887  0.8749337572330802  0.6194666394925150   F   F   F
  0.6664802798985860  0.1218650827034224  0.6141226435869811   F   F   F
  0.5000381065133794  0.8764931537200766  0.6095678279493342   F   F   F
  0.5002130679754515  0.9991930343534108  0.5054910323066721   F   F   F
  0.8357716365656529  0.3725028922542037  0.6009181915845758   F   F   F
  0.8333332538436267  0.3750000000061604  0.4070133268666680   F   F   F
  0.3315313771548674  0.1200208384989949  0.6132973908788202   F   F   F
  0.8395796714439925  0.6266529801291512  0.6041975111030808   F   F   F
  0.5000000000021103  0.6249999999803961  0.4070133268666680   F   F   F
  0.1666666716383389  0.1249999999871179  0.4070133268666680   F   F   F
  0.5032869657562387  0.6243645902362616  0.5941612264499767   F   F   F
  0.5000000000021103  0.1249999999871179  0.4070133268666680   F   F   F
  0.5000000000021103  0.3750000000061604  0.4070133268666680   F   F   F
  0.0000000000000000  0.1249999999871179  0.4070133268666680   F   F   F
  0.6735042431451390  0.3718220962491827  0.5948047153595013   F   F   F
  0.8333332538436267  0.1249999999871179  0.4070133268666680   F   F   F
  0.1671424181848593  0.1222427065367953  0.6217853589132432   F   F   F
  0.8333758012103516  0.1201808773290907  0.6130375936143224   F   F   F
  0.9997638208299975  0.6223695092508947  0.6242724638177322   F   F   F
  0.9985660886547691  0.3739930290518529  0.6234143950601592   F   F   F
  0.6662798714670828  0.6263447402856812  0.5929167863324381   F   F   F
  0.1666666716383389  0.6249999999803961  0.4070133268666680   F   F   F
  0.6642589873404816  0.8794094537475203  0.6066897810117240   F   F   F
  0.1665030655872712  0.8734366116136769  0.6180863886226717   F   F   F
  0.5004113633546510  0.1217722885511847  0.6068115594254664   F   F   F
  0.5028035967890787  0.3707066098683214  0.5957182095453462   F   F   F
  0.1666666716383389  0.8749999404036828  0.4070133268666680   F   F   F
  0.1593196126487584  0.6265793311200269  0.6012208603423943   F   F   F
  0.3343536924516641  0.8787596913460760  0.6027212326480793   F   F   F
  0.1629674265788736  0.3705809366268227  0.6076720680811718   F   F   F
  0.5000000000021103  0.8749999404036828  0.4070133268666680   F   F   F
  0.9999974832804241  0.8738711496044544  0.6239873930236612   F   F   F
  0.0000000000000000  0.3750000000061604  0.4070133268666680   F   F   F
  0.8337444340899935  0.2484233482972797  0.5044199678668235   F   F   F
  0.5012102656705082  0.4995927132230307  0.5003852026086406   F   F   F
  0.3311658526646397  0.4990270516593398  0.5010037833118659   F   F   F
  0.6689319575983177  0.4995519055101596  0.5005959213055462   F   F   F
  0.3337805431848011  0.7510836153339682  0.5015427413612059   F   F   F
  0.3331527462665491  0.0011322094118285  0.5057161118039701   F   F   F
  0.3303503618724122  0.2478891978371252  0.5027699177149501   F   F   F
  0.6666666865533486  0.6249999999803961  0.4070133268666680   F   F   F
  0.6679854428268541  0.2474638323244918  0.5039407103769236   F   F   F
  0.1643813948313948  0.7513417309164439  0.5033353856907397   F   F   F
  0.3340376191510188  0.6242977769209830  0.5949110751207130   F   F   F
  0.5008110591393731  0.7527558527473133  0.5039476804937664   F   F   F
  0.8333332538436267  0.6249999999803961  0.4070133268666680   F   F   F
  0.1659423039775376  0.0011866298265417  0.5065032952097823   F   F   F
  0.1666666716383389  0.3750000000061604  0.4070133268666680   F   F   F
  0.9993192802856399  0.1234327101407047  0.6192905313210844   F   F   F
  0.9992939392090960  0.4997381143514303  0.5067345800229361   F   F   F
  0.1660004474252474  0.2481181010703040  0.5062670336217536   F   F   F
  0.6663157195124896  0.0007340265997371  0.5058461112050381   F   F   F
  0.5015743026159143  0.2479297943656320  0.5025454170797374   F   F   F
  0.6666666865533486  0.3750000000061604  0.4070133268666680   F   F   F
  0.0000000000000000  0.8749999404036828  0.4070133268666680   F   F   F
  0.1635064805371584  0.4995372419736839  0.5019152602840293   F   F   F
  0.6654725690931258  0.7517392940432188  0.5021769210941969   F   F   F
  0.6666666865533486  0.8749999404036828  0.4070133268666680   F   F   F
  0.3265037128986137  0.3732105420869800  0.5926017525709426   F   F   F
  0.6666666865533486  0.1249999999871179  0.4070133268666680   F   F   F
  0.3333333432766779  0.8749999404036828  0.4070133268666680   F   F   F
  0.8355196752401639  0.4996745550573891  0.5027936255147054   F   F   F
  0.3333333432766779  0.3750000000061604  0.4070133268666680   F   F   F
  0.3333333432766779  0.1249999999871179  0.4070133268666680   F   F   F
  0.3333333432766779  0.6249999999803961  0.4070133268666680   F   F   F
  0.0000000000000000  0.6249999999803961  0.4070133268666680   F   F   F
  0.8333332538436267  0.8749999404036828  0.4070133268666680   F   F   F
  0.9999228274893994  0.9998169471299718  0.5062194999022580   F   F   F
  0.0000017323577879  0.7507999385128272  0.5066029987066685   F   F   F
  0.9997447182720407  0.2495028184248866  0.5062428940455703   F   F   F
  0.8339059730620448  0.9999968417365181  0.5062241659875184   F   F   F
  0.4166666269218169  0.4999999999932783  0.4070133268666680   F   F   F
  0.2499999999799343  0.2500000000190425  0.4070133268666680   F   F   F
  0.5836050382966889  0.1233752136985089  0.5049514188640742   F   F   F
  0.0833333358191695  0.7500000000123208  0.4070133268666680   F   F   F
  0.0833333358191695  0.4999999999932783  0.4070133268666680   F   F   F
  0.9166666865332829  0.7500000000123208  0.4070133268666680   F   F   F
  0.0833333358191695  0.0000000000000000  0.4070133268666680   F   F   F
  0.9166666865332829  0.4999999999932783  0.4070133268666680   F   F   F
  0.7523422765627217  0.6244305379506727  0.5027776969738937   F   F   F
  0.4166666269218169  0.0000000000000000  0.4070133268666680   F   F   F