Au  O Sr Ti  H                          
   1.00000000000000     
    23.6707801818999997    0.0000000000000000    0.0000000000000000
     0.0000000000000000   22.3170261383000010    0.0000000000000000
     0.0000000000000000    0.0000000000000000   30.0000000000000000
   Au   O    Sr   Ti   H 
    50   264    72    72     1
Selective dynamics
Direct
  0.7183932617275817  0.5262435525373886  0.7538539991548256   T   T   T
  0.6244965862842412  0.5676565396635984  0.7039046857430045   T   T   T
  0.7182476427992097  0.2590853511392165  0.6915534208316522   T   T   T
  0.2939120050933566  0.7457421372338262  0.6976888773539174   T   T   T
  0.5154040624688913  0.6032075870044986  0.7765047322613652   T   T   T
  0.5772792413491104  0.7266468114665752  0.7926628110639093   T   T   T
  0.5506496519495468  0.3830592571046108  0.8285466059373318   T   T   T
  0.2419861398879805  0.4653219647864211  0.7093401950064349   T   T   T
  0.2841361583596079  0.6593831477749535  0.7652365629544324   T   T   T
  0.6028008109819338  0.2863849560447826  0.7865042661998179   T   T   T
  0.5143330220370637  0.4835374890256630  0.6778977407807462   T   T   T
  0.5622443950552498  0.4845296291392095  0.7621297244631311   T   T   T
  0.4642022365554748  0.6988275354693192  0.8279859987501019   T   T   T
  0.7645715947640807  0.4319420637290442  0.7058455151418814   T   T   T
  0.7335772273899163  0.6159450816586414  0.6938624450184727   T   T   T
  0.6358721483290742  0.5830921236847467  0.8002434475133111   T   T   T
  0.5948744537095654  0.7853371199838984  0.7125054801561042   T   T   T
  0.4833609341734898  0.7798411424890358  0.7573522332657481   T   T   T
  0.3493124274842040  0.5006307708423293  0.6976435969951446   T   T   T
  0.4305095148826944  0.3712946879347214  0.8147398189643154   T   T   T
  0.3722573350699219  0.2980868418752051  0.7550320763481163   T   T   T
  0.4418156055238973  0.2282284050598019  0.6968436879270543   T   T   T
  0.3912886579743346  0.8178381662173073  0.7061009238184235   T   T   T
  0.2893729921367159  0.5357371008814217  0.7785183271249764   T   T   T
  0.5569026335920646  0.2090432143254490  0.7115162857040391   T   T   T
  0.4535061640838536  0.5801706479946388  0.7032752299693804   T   T   T
  0.6136476383947882  0.3200696795410953  0.6972893860955310   T   T   T
  0.7054106466067036  0.7577641412227256  0.6885395019070596   T   T   T
  0.6560234769424490  0.4437026178428009  0.8127414277985175   T   T   T
  0.3638027821831514  0.6183899524672636  0.8240736510386326   T   T   T
  0.5694001529217718  0.5098106362543453  0.8565492468781302   T   T   T
  0.6660509666892600  0.1914518091585708  0.7513487670238636   T   T   T
  0.4720369604915686  0.4486168713894094  0.8788808271813495   T   T   T
  0.5153509939274210  0.3766063560910858  0.7335511215585356   T   T   T
  0.2833728093159500  0.3381094833662734  0.7026683927724127   T   T   T
  0.6689229480880239  0.6812532851334792  0.7489381951038109   T   T   T
  0.3980154378428699  0.3821377325285847  0.6901357868203393   T   T   T
  0.3756363069607517  0.4916376553708330  0.8343166794333735   T   T   T
  0.4635703163319188  0.5714440042244799  0.8670366140451413   T   T   T
  0.3266003765602687  0.4138906521126348  0.7698605278382756   T   T   T
  0.4872329830274953  0.2682999515255323  0.7753478027096811   T   T   T
  0.4221264465733111  0.6978661085026256  0.6999447080250348   T   T   T
  0.6990110626444632  0.3471073218135740  0.7567283626009694   T   T   T
  0.7738500523968420  0.4294578646556513  0.7962847874233946   T   T   T
  0.2558852954250752  0.5897007416089105  0.6952796583339873   T   T   T
  0.6478505702672126  0.4417548976653345  0.6965182636922799   T   T   T
  0.5650358941465577  0.6399973847835290  0.8604400563354644   T   T   T
  0.5437907501037618  0.6659063024846040  0.7009994097310912   T   T   T
  0.4426111699623180  0.4748398868947444  0.7564120345925192   T   T   T
  0.3705894097035589  0.7401005482325954  0.7779504246268244   T   T   T
  0.2499623736543109  0.1886686422337947  0.4542836484354429   T   T   T
  0.7494901198315587  0.9384227485743167  0.4553323735406333   T   T   T
  0.7490133499347466  0.6886310071436529  0.4573022917100013   T   T   T
  0.7494459772189240  0.4383740164312178  0.4558459021332388   T   T   T
  0.7501934604916072  0.1896785374138831  0.4556434500144312   T   T   T
  0.4174780699117649  0.9357155566905614  0.4539753557585862   T   T   T
  0.4168965977872929  0.6845975245617205  0.4548193412669759   T   T   T
  0.4166968583047904  0.4353905275194817  0.4538301940109347   T   T   T
  0.0843793445079172  0.6869475348196544  0.4530824392900377   T   T   T
  0.0838795077482183  0.9367029584195039  0.4534704825506423   T   T   T
  0.0828476980222919  0.4368607253471316  0.4529463790885234   T   T   T
  0.0839021951951969  0.1866709560937986  0.4530027889027383   T   T   T
  0.9165799888016265  0.8120161356628907  0.4540934752585956   T   T   T
  0.9161190304340164  0.5624107915228491  0.4538322971916444   T   T   T
  0.2511456953274323  0.4392409870511320  0.4549062706454465   T   T   T
  0.9161386607163893  0.0621180639343953  0.4541064307191205   T   T   T
  0.9162785715092228  0.3122097147015847  0.4538426752711510   T   T   T
  0.4171806333583674  0.1870785833154492  0.4535884610372722   T   T   T
  0.2524227227407285  0.6873238825170397  0.4560941892921664   T   T   T
  0.9167011296888833  0.9367613336186913  0.4532998969029317   T   T   T
  0.5825335041845042  0.1890121321225911  0.4550595264690127   T   T   T
  0.0000603175758306  0.1251261305248073  0.4984041106655681   T   T   T
  0.5835922512792624  0.8099517053741074  0.4554458764054951   T   T   T
 -0.0000425938731199  0.3733976242192918  0.4984487718199869   T   T   T
  0.9997212868084444  0.6270865854579477  0.4976731538095667   T   T   T
  0.3335305433012452  0.1253450120945454  0.4984142422153514   T   T   T
  0.0000356683885316  0.8751027189736272  0.4995519521759729   T   T   T
  0.3334745380727936  0.8738417382948600  0.4988299260395091   T   T   T
  0.6659301999359752  0.1259191056924777  0.4991505841145452   T   T   T
  0.3358011293947230  0.6252023029254961  0.5043729169227267   T   T   T
  0.3343541545122802  0.3784588365903616  0.5029937041957981   T   T   T
  0.6655201045586655  0.3785885081645267  0.5033206026661639   T   T   T
  0.9153223154237601  0.6866875252183402  0.4529943713506093   T   T   T
  0.9160808746286729  0.4370737140556750  0.4537012054644841   T   T   T
  0.9158484570808904  0.1868927100954104  0.4531850075529052   T   T   T
  0.5826078814068009  0.9361148611469551  0.4538228701839288   T   T   T
  0.5827739324729783  0.6859743833705622  0.4545942345124525   T   T   T
  0.5826672314735182  0.4386546589625414  0.4559431274208372   T   T   T
  0.2499897231088566  0.9360300419530393  0.4540196849562670   T   T   T
  0.6654040819302555  0.6258255327149879  0.5029402370157707   T   T   T
  0.5846355901060749  0.5623788561267266  0.4550902524537195   T   T   T
  0.5828765905113109  0.0623807136600884  0.4547642081475330   T   T   T
  0.9166666865332829  0.6874999999963620  0.3605200052333331   F   F   F
  0.9166666865332829  0.4374999701794380  0.3605200052333331   F   F   F
  0.9166666865332829  0.1875000000030838  0.3605200052333331   F   F   F
  0.5833333134730552  0.9375000000154046  0.3605200052333331   F   F   F
  0.5833333134730552  0.6874999999963620  0.3605200052333331   F   F   F
  0.5833333134730552  0.4374999701794380  0.3605200052333331   F   F   F
  0.5833333134730552  0.1875000000030838  0.3605200052333331   F   F   F
  0.2499999999799343  0.9375000000154046  0.3605200052333331   F   F   F
  0.9166666865332829  0.9375000000154046  0.3605200052333331   F   F   F
  0.2499999999799343  0.6874999999963620  0.3605200052333331   F   F   F
  0.2499999999799343  0.1875000000030838  0.3605200052333331   F   F   F
  0.7499999404149307  0.9375000000154046  0.3605200052333331   F   F   F
  0.7499999404149307  0.6874999999963620  0.3605200052333331   F   F   F
  0.7499999404149307  0.4374999701794380  0.3605200052333331   F   F   F
  0.7499999404149307  0.1875000000030838  0.3605200052333331   F   F   F
  0.4166666269218169  0.9375000000154046  0.3605200052333331   F   F   F
  0.4166666269218169  0.6874999999963620  0.3605200052333331   F   F   F
  0.4166666269218169  0.4374999701794380  0.3605200052333331   F   F   F
  0.2499999999799343  0.4374999701794380  0.3605200052333331   F   F   F
  0.0833333358191695  0.0625000000159659  0.3605200052333331   F   F   F
  0.0833333358191695  0.3124999999901945  0.3605200052333331   F   F   F
  0.0833333358191695  0.5625000000092442  0.3605200052333331   F   F   F
  0.9166666865332829  0.3124999999901945  0.3605200052333331   F   F   F
  0.9166666865332829  0.0625000000159659  0.3605200052333331   F   F   F
  0.5833333134730552  0.8124999999834799  0.3605200052333331   F   F   F
  0.5833333134730552  0.5625000000092442  0.3605200052333331   F   F   F
  0.5833333134730552  0.3124999999901945  0.3605200052333331   F   F   F
  0.5833333134730552  0.0625000000159659  0.3605200052333331   F   F   F
  0.2499999999799343  0.8124999999834799  0.3605200052333331   F   F   F
  0.2499999999799343  0.5625000000092442  0.3605200052333331   F   F   F
  0.2499999999799343  0.3124999999901945  0.3605200052333331   F   F   F
  0.2499999999799343  0.0625000000159659  0.3605200052333331   F   F   F
  0.7499999404149307  0.8124999999834799  0.3605200052333331   F   F   F
  0.7499999404149307  0.5625000000092442  0.3605200052333331   F   F   F
  0.7499999404149307  0.3124999999901945  0.3605200052333331   F   F   F
  0.7499999404149307  0.0625000000159659  0.3605200052333331   F   F   F
  0.4166666269218169  0.8124999999834799  0.3605200052333331   F   F   F
  0.4166666269218169  0.5625000000092442  0.3605200052333331   F   F   F
  0.4166666269218169  0.3124999999901945  0.3605200052333331   F   F   F
  0.4166666269218169  0.0625000000159659  0.3605200052333331   F   F   F
  0.0833333358191695  0.8124999999834799  0.3605200052333331   F   F   F
  0.4166666269218169  0.1875000000030838  0.3605200052333331   F   F   F
  0.0833333358191695  0.9375000000154046  0.3605200052333331   F   F   F
  0.0833333358191695  0.6874999999963620  0.3605200052333331   F   F   F
  0.0833333358191695  0.4374999701794380  0.3605200052333331   F   F   F
  0.8333332538436267  0.4999999999932783  0.4070133268666680   F   F   F
  0.8333332538436267  0.7500000000123208  0.4070133268666680   F   F   F
  0.0837307615594082  0.0618599222954329  0.4542121322024834   T   T   T
  0.0835543386135579  0.3121560156257757  0.4538447621388214   T   T   T
  0.0839271501584101  0.5624999887932390  0.4538633949661087   T   T   T
  0.0834308611046127  0.8121456412547192  0.4541830809759682   T   T   T
  0.4168465342711256  0.0615241423220170  0.4553148763491640   T   T   T
  0.4154528336805140  0.3112816567709621  0.4573971654207291   T   T   T
  0.4160476546873276  0.5594612397517928  0.4578909015788363   T   T   T
  0.4166244473906552  0.8097398157840630  0.4551843443342532   T   T   T
  0.7496034463291571  0.0640591674969355  0.4533676997160110   T   T   T
  0.7473550915349138  0.3141065979088706  0.4546515848558167   T   T   T
  0.7481323938555900  0.5642455372420350  0.4537337391658247   T   T   T
  0.7494369162638840  0.8131591468305391  0.4530889689972364   T   T   T
  0.2502585783097523  0.0619760052638166  0.4541877644329228   T   T   T
  0.9153474028975375  0.3125336733726530  0.5467358699659095   T   T   T
  0.2522431595529419  0.3141716443515921  0.4541784267892264   T   T   T
  0.2519613704909573  0.5645429717489185  0.4537748327056775   T   T   T
  0.2502501952100530  0.8106676157530460  0.4553598085848272   T   T   T
  0.8333332538436267  0.2500000000190425  0.4070133268666680   F   F   F
  0.5844702708911076  0.3143651404363590  0.4542652589483779   T   T   T
  0.8333332538436267  0.0000000000000000  0.4070133268666680   F   F   F
  0.5000000000021103  0.4999999999932783  0.4070133268666680   F   F   F
  0.0833333358191695  0.1875000000030838  0.3605200052333331   F   F   F
  0.0000000000000000  0.0000000000000000  0.4070133268666680   F   F   F
  0.0000000000000000  0.2500000000190425  0.4070133268666680   F   F   F
  0.0000000000000000  0.4999999999932783  0.4070133268666680   F   F   F
  0.0000000000000000  0.7500000000123208  0.4070133268666680   F   F   F
  0.3333333432766779  0.0000000000000000  0.4070133268666680   F   F   F
  0.3333333432766779  0.2500000000190425  0.4070133268666680   F   F   F
  0.3333333432766779  0.4999999999932783  0.4070133268666680   F   F   F
  0.3333333432766779  0.7500000000123208  0.4070133268666680   F   F   F
  0.6666666865533486  0.0000000000000000  0.4070133268666680   F   F   F
  0.6666666865533486  0.2500000000190425  0.4070133268666680   F   F   F
  0.6666666865533486  0.4999999999932783  0.4070133268666680   F   F   F
  0.6666666865533486  0.7500000000123208  0.4070133268666680   F   F   F
  0.1666666716383389  0.0000000000000000  0.4070133268666680   F   F   F
  0.1666666716383389  0.2500000000190425  0.4070133268666680   F   F   F
  0.1666666716383389  0.4999999999932783  0.4070133268666680   F   F   F
  0.1666666716383389  0.7500000000123208  0.4070133268666680   F   F   F
  0.5000000000021103  0.0000000000000000  0.4070133268666680   F   F   F
  0.5000000000021103  0.2500000000190425  0.4070133268666680   F   F   F
  0.5000000000021103  0.7500000000123208  0.4070133268666680   F   F   F
  0.1670451328257960  0.1243506792656848  0.4993725527837462   T   T   T
  0.9177063226554797  0.0632889299818699  0.5474606809712211   T   T   T
  0.1677721202611205  0.8732688860513421  0.4998966591732801   T   T   T
  0.2519495126003064  0.1881365241544939  0.5473229037549696   T   T   T
  0.7492906012988413  0.9340156974828927  0.5476166572671083   T   T   T
  0.7517186938573556  0.6803652830790364  0.5530776723266124   T   T   T
  0.7528539150469984  0.4345500182306455  0.5496397088070875   T   T   T
  0.4231459790169103  0.4439987629466781  0.5455567900352372   T   T   T
  0.4231462370887225  0.6879231827145361  0.5467972846768183   T   T   T
  0.7484467563194896  0.1836143051697789  0.5508278896726906   T   T   T
  0.4159090644947562  0.9368159833859170  0.5460296238490105   T   T   T
  0.0836230077960399  0.9389670329486366  0.5457219731255971   T   T   T
  0.4156023667175508  0.1912994512771458  0.5464567760716558   T   T   T
  0.0866063683753711  0.6897193436646695  0.5451069149813210   T   T   T
  0.0825518666763833  0.4384985305904689  0.5451837111695730   T   T   T
  0.0837431049249433  0.1888296884301445  0.5456820229785950   T   T   T
  0.4993481983030510  0.1253830796752786  0.4997130522602207   T   T   T
  0.9996343393926340  0.4991921863474852  0.5944826992385783   T   T   T
  0.9994703681291773  0.7537632735682739  0.5921778305072306   T   T   T
  0.3347097303854589  0.2543452195657291  0.5926569656232770   T   T   T
  0.3339978316750724  0.9998218195427497  0.5920381498665583   T   T   T
  0.9996375535737820  0.9984648536046892  0.5928241520633593   T   T   T
  0.0009090382161237  0.2499000102849623  0.5917485718712805   T   T   T
  0.3333932537791244  0.4966852970159089  0.5910299783526667   T   T   T
  0.3353370347871628  0.7397186151450975  0.5910719522613885   T   T   T
  0.6634511123344016  0.2471692585852237  0.5907409860023989   T   T   T
  0.6658251226497477  0.0004326712716295  0.5918807992077975   T   T   T
  0.6657788150209266  0.7419758145899881  0.5901570202261632   T   T   T
  0.6669329814987479  0.4935637818137100  0.5914020805482749   T   T   T
  0.1673500544693962  0.9983300147030990  0.5923089080618423   T   T   T
  0.1685116645638470  0.2493365714252871  0.5932454260694698   T   T   T
  0.1706098447848705  0.7498414265563412  0.5949150133091585   T   T   T
  0.2484022531364968  0.4360234418340669  0.5490299981020296   T   T   T
  0.1653953622192051  0.5031838032570127  0.5875796795895915   T   T   T
  0.2490383269907046  0.6830942752013107  0.5520356701263716   T   T   T
  0.5806991009379856  0.1859806427038303  0.5491692227450805   T   T   T
  0.9153799567988687  0.8130918001689493  0.5469508328671275   T   T   T
  0.9168079836859870  0.5634862120095004  0.5465767895290610   T   T   T
  0.5813694147016640  0.5602175009884979  0.5495029788553302   T   T   T
  0.5862096578161674  0.8146562935663112  0.5504148530851425   T   T   T
  0.5831106025300327  0.3117013987368263  0.5456712266400371   T   T   T
  0.5826585237995709  0.0632426604174582  0.5468973538458136   T   T   T
  0.2535571154689029  0.8125507998969894  0.5508740083925813   T   T   T
  0.2523143354168405  0.5589361393672225  0.5438660145503578   T   T   T
  0.2494287883908759  0.3137713229734739  0.5460391236875396   T   T   T
  0.2510716052739966  0.0624659115459179  0.5472459164024297   T   T   T
  0.7483750913529211  0.8082608660523515  0.5457678384487065   T   T   T
  0.7464512224403393  0.5576316910211443  0.5445962277031944   T   T   T
  0.4134884709845950  0.8115111320558450  0.5482034073328536   T   T   T
  0.7482859099112374  0.0596349958221876  0.5445311438489943   T   T   T
  0.7479790165501100  0.3112324847117555  0.5479625048589378   T   T   T
  0.4159157657825857  0.3197029100200213  0.5525873371587893   T   T   T
  0.4204484077503921  0.5650569427530295  0.5555807142434851   T   T   T
  0.4165038513913440  0.0652094263392981  0.5473101225163630   T   T   T
  0.0848362623755075  0.8129646935886777  0.5473173471452035   T   T   T
  0.0824598815141016  0.5641155567738356  0.5463018598061637   T   T   T
  0.0863737983494304  0.3134152089742861  0.5468681564585758   T   T   T
  0.0823030266595693  0.0632435199648940  0.5475120432954886   T   T   T
  0.9156554794165787  0.9387345552655902  0.5460755034564555   T   T   T
  0.9132245125793733  0.6894935000231787  0.5449796614432670   T   T   T
  0.5835416802268752  0.9381307213550846  0.5456383949060274   T   T   T
  0.9169379516259225  0.1888832480742830  0.5454705184667029   T   T   T
  0.9156339680606476  0.4374307691512287  0.5458659497143563   T   T   T
  0.5764820825179283  0.4361974153761666  0.5516297010414959   T   T   T
  0.5795546370527059  0.6864595281283590  0.5471268412737693   T   T   T
  0.2515557746916068  0.9372750063519335  0.5452027797412166   T   T   T
  0.4976367849741171  0.5045016375493204  0.6090943030903518   T   T   T
  0.4985112821887545  0.2528818654468409  0.5902791313886667   T   T   T
  0.4995704276664691 -0.0000096892259612  0.5910227320517133   T   T   T
  0.7537694520866430  0.6935843774349256  0.6575452864876341   T   T   T
  0.7485536052511349  0.9366301299575343  0.6398218679370642   T   T   T
  0.2532952655219884  0.1864020211304583  0.6411630443476100   T   T   T
  0.7454988850500051  0.1946765320866091  0.6469384617470336   T   T   T
  0.7560373485644509  0.4363122069479515  0.6393879033932115   T   T   T
  0.4173434375210791  0.9349989577101407  0.6398083997847915   T   T   T
  0.4215193168338376  0.6761025920333954  0.6340575030614697   T   T   T
  0.5898494821558223  0.8107510643692081  0.6456864682081250   T   T   T
  0.9161973820420007  0.0624231478119596  0.6414676236331476   T   T   T
  0.9131248747217856  0.5615613748210312  0.6426959939526509   T   T   T
  0.9152401181684139  0.3120231128342610  0.6395382101738387   T   T   T
  0.9139279884468808  0.8126829107605157  0.6415610062224412   T   T   T
  0.5821487370142832  0.0654993284987982  0.6398164236524601   T   T   T
  0.5831648480469033  0.3195874998176318  0.6340020663109857   T   T   T
  0.5915281074980725  0.5643613479980748  0.6398304884007245   T   T   T
  0.2473562522094173  0.5736578183367589  0.6288826245557678   T   T   T
  0.2614433362480940  0.7980786485672912  0.6467073526673449   T   T   T
  0.2498814750538542  0.3162810163757246  0.6415336916349598   T   T   T
  0.2508224895587549  0.0594398644272426  0.6421042262530674   T   T   T
  0.9166666865332829  0.5625000000092442  0.3605200052333331   F   F   F
  0.4995167519540064  0.3738670043732309  0.4998474384605710   T   T   T
  0.4999119099227610  0.8725630924166174  0.5009656783881389   T   T   T
  0.5004271864681844  0.6209838474162033  0.5001085566548277   T   T   T
  0.8322569166477836  0.6230878710507627  0.4999790782618277   T   T   T
  0.8327687284782043  0.8744980811500048  0.4985470581606670   T   T   T
  0.8326106363179120  0.3731636015290564  0.4994690306835153   T   T   T
  0.8328822329606173  0.1245095464279270  0.4997702805037177   T   T   T
  0.1667299774583762  0.3762416249245716  0.4978498881714590   T   T   T
  0.1677533108029845  0.6243027879645047  0.4999519098722198   T   T   T
  0.5811938874259068  0.4382303005983549  0.6458228150715182   T   T   T
  0.5801500414086562  0.6852751435942211  0.6387796889569420   T   T   T
  0.9171235628694773  0.1867407719664490  0.6406104526123556   T   T   T
  0.5819061314870293  0.9354106512005889  0.6391549358763937   T   T   T
  0.8304529918310374  0.7506084551541511  0.5927962964440310   T   T   T
  0.8316051330088483  0.2479661081987348  0.5915548811480607   T   T   T
  0.8333506826672225  0.5038303930022157  0.5893967409647914   T   T   T
  0.8321890380628538  0.0020100107435062  0.5922715579082555   T   T   T
  0.5009353020278211  0.7562932191634332  0.5927447258635747   T   T   T
  0.4176641002187547  0.0651736431746744  0.6400688345596381   T   T   T
  0.4274341122215908  0.3052919468871945  0.6548911948475544   T   T   T
  0.4121887307454719  0.8128206619865371  0.6394393132536814   T   T   T
  0.3978313357476372  0.5509848227587256  0.6525559394050542   T   T   T
  0.7520434249880843  0.5711565485467923  0.6342835154997868   T   T   T
  0.7410463598922130  0.8099256546921599  0.6400060288332717   T   T   T
  0.7464701667294722  0.3126861938080050  0.6402643571615650   T   T   T
  0.7476164127455642  0.0669691885376407  0.6391543043513478   T   T   T
  0.0836090155411005  0.3120211142861481  0.6404426293934713   T   T   T
  0.6666008428512822  0.8744749270657528  0.4988955536168546   T   T   T
  0.0870309245095297  0.5618390104646550  0.6419090836770850   T   T   T
  0.0835219011738534  0.0605279070681426  0.6414714553520310   T   T   T
  0.0870259860518660  0.4366822048663022  0.6394734326926785   T   T   T
  0.0835038366889710  0.1857569743644000  0.6409722363168308   T   T   T
  0.4184487017264186  0.1878084412997142  0.6398059402485279   T   T   T
  0.4150622811726882  0.4192046141087538  0.6297949415093609   T   T   T
  0.0841228099431172  0.9353023873430347  0.6408085154327416   T   T   T
  0.0829092876550633  0.6872017305358018  0.6398627253633706   T   T   T
  0.9125388958874913  0.4361793597516407  0.6397416690430098   T   T   T
  0.9165805619010690  0.6875029822669275  0.6397534288626049   T   T   T
  0.9141703801478390  0.9366945491403156  0.6408911012224965   T   T   T
  0.2406808833056114  0.4419774134311888  0.6412786498363701   T   T   T
  0.2544322523420492  0.6753876197824127  0.6657270432743893   T   T   T
  0.5785139875547015  0.1906104304044589  0.6441442063556243   T   T   T
  0.2519047538403313  0.9300908569930377  0.6374097471521440   T   T   T
  0.0839863981584399  0.8118584910418422  0.6418585734277162   T   T   T
  0.9166666865332829  0.8124999999834799  0.3605200052333331   F   F   F
  0.0005637505579840  0.1228449777609457  0.6189640674638670   T   T   T
  0.8333332538436267  0.6249999999803961  0.4070133268666680   F   F   F
  0.9994738076510576  0.5005994712655684  0.5072038284485482   T   T   T
  0.3311263315323970  0.4992491806196446  0.5009489339859011   T   T   T
  0.3300585087276849  0.2480662651261512  0.5027924842481514   T   T   T
  0.3330916680602027  0.0010027490248373  0.5057634802158434   T   T   T
  0.3337410118170608  0.7508713778968974  0.5015889116705780   T   T   T
  0.6658984037708821  0.0001010952907277  0.5055776366920390   T   T   T
  0.6686214461017586  0.4996811190884610  0.5007174809235252   T   T   T
  0.6670827832204874  0.2477312584040942  0.5029102008259680   T   T   T
  0.6655333317814446  0.7518576626846981  0.5021893747278492   T   T   T
  0.1659702965442356  0.0011178904565757  0.5065075084749836   T   T   T
  0.1663384931150783  0.2482241568237316  0.5062522873793199   T   T   T
  0.1633096493671979  0.4999124193206472  0.5020549132529906   T   T   T
  0.5001385269866447  0.9992794462573400  0.5054783491213988   T   T   T
  0.1642677358222715  0.7514677347616050  0.5033354350168054   T   T   T
  0.5009954075859413  0.7526329060529907  0.5038926316342581   T   T   T
  0.8341680659552629  0.0003984918931223  0.5064774217293977   T   T   T
  0.5014093630235892  0.4997776684125178  0.5002553905164742   T   T   T
  0.5010606588976148  0.2478101658349007  0.5019067082744834   T   T   T
  0.8354284714557147  0.2483956857280864  0.5032395670507934   T   T   T
  0.9997152366707343  0.7507375194721658  0.5065662040138357   T   T   T
  0.0008027958682477  0.2497837824646012  0.5058696606169221   T   T   T
 -0.0000265233371945  0.9999944666255687  0.5064586035012453   T   T   T
  0.8333332538436267  0.8749999404036828  0.4070133268666680   F   F   F
  0.0000000000000000  0.6249999999803961  0.4070133268666680   F   F   F
  0.0000000000000000  0.8749999404036828  0.4070133268666680   F   F   F
  0.3333333432766779  0.1249999999871179  0.4070133268666680   F   F   F
  0.3333333432766779  0.3750000000061604  0.4070133268666680   F   F   F
  0.3333333432766779  0.6249999999803961  0.4070133268666680   F   F   F
  0.3333333432766779  0.8749999404036828  0.4070133268666680   F   F   F
  0.6666666865533486  0.1249999999871179  0.4070133268666680   F   F   F
  0.6666666865533486  0.3750000000061604  0.4070133268666680   F   F   F
  0.6666666865533486  0.6249999999803961  0.4070133268666680   F   F   F
  0.8360894025003500  0.4999263187658584  0.5030778198578476   T   T   T
  0.6666666865533486  0.8749999404036828  0.4070133268666680   F   F   F
  0.1666666716383389  0.3750000000061604  0.4070133268666680   F   F   F
  0.1666666716383389  0.6249999999803961  0.4070133268666680   F   F   F
  0.1666666716383389  0.8749999404036828  0.4070133268666680   F   F   F
  0.5000000000021103  0.1249999999871179  0.4070133268666680   F   F   F
  0.5000000000021103  0.3750000000061604  0.4070133268666680   F   F   F
  0.5000000000021103  0.6249999999803961  0.4070133268666680   F   F   F
  0.5000000000021103  0.8749999404036828  0.4070133268666680   F   F   F
  0.8333332538436267  0.1249999999871179  0.4070133268666680   F   F   F
  0.8333332538436267  0.3750000000061604  0.4070133268666680   F   F   F
  0.1666666716383389  0.1249999999871179  0.4070133268666680   F   F   F
  0.0000000000000000  0.3750000000061604  0.4070133268666680   F   F   F
  0.8358183886717432  0.7517026930655996  0.5025389276065755   T   T   T
  0.8369435888494513  0.3726742289851038  0.6044845141232856   T   T   T
  0.8320118871660446  0.8757110398180117  0.6179514798310705   T   T   T
  0.8405424874288308  0.6266977651057550  0.6031173311652229   T   T   T
  0.9988756146498905  0.8747364758278789  0.6216702261567894   T   T   T
  0.3315063519906365  0.1197467059769627  0.6133568254698504   T   T   T
  0.3342080019794179  0.6239623774396408  0.5957562334718938   T   T   T
  0.3259327227502327  0.3737870808592760  0.5927514591482604   T   T   T
  0.6709968052689893  0.3719864217350235  0.5939690695486757   T   T   T
  0.6653299472097274  0.1243838124572938  0.6117066185902401   T   T   T
  0.3343465867189977  0.8787397271465767  0.6027728710645531   T   T   T
  0.1587086152179518  0.6271227484906099  0.6017516251146210   T   T   T
  0.1660606211046327  0.8728947437566840  0.6183703113910199   T   T   T
  0.5016965544621064  0.3710974457509014  0.5949315538279377   T   T   T
  0.5001857228089598  0.1218641002785744  0.6060409668823219   T   T   T
  0.1673576074637686  0.1225987637643747  0.6215224821779043   T   T   T
  0.1632579655201956  0.3714695771923950  0.6075608729191699   T   T   T
  0.6652684475397033  0.8809163458027859  0.6069196809278654   T   T   T
  0.6661182734326035  0.6265090614573101  0.5934425732298936   T   T   T
  0.0000171076454112  0.3751686537563208  0.6224661615709616   T   T   T
  0.9997544224881256  0.6221794659701901  0.6430870600593068   T   T   T
  0.8336906295374303  0.1248458727200369  0.6196591490435263   T   T   T
  0.5004352056258159  0.8766237168029511  0.6092485869070295   T   T   T
  0.0000000000000000  0.1249999999871179  0.4070133268666680   F   F   F
  0.5039581228430927  0.6250147561001135  0.5939055357839987   T   T   T
  0.9162338512243845  0.9998583442652362  0.6037855467311881   T   T   T
  0.5844339510789545  0.7502757371937518  0.5994232598116118   T   T   T
  0.5906469196332712  0.5006687801130673  0.5936477640645662   T   T   T
  0.2422427113377856  0.4984275412275289  0.5937520674838269   T   T   T
  0.2493168711184200  0.7526848612254944  0.5920004379483204   T   T   T
  0.5842984799769982  0.2471625825782241  0.5966779805866165   T   T   T
  0.5825294905314483  0.0009732476231021  0.6043003744243538   T   T   T
  0.2493865286673768  0.9975470972306480  0.6041784387495026   T   T   T
  0.2491297478929662  0.2456746495856212  0.6035966290331012   T   T   T
  0.4170122933020829  0.0001029540457072  0.6046779843128730   T   T   T
  0.4146851561462204  0.2487018805761963  0.5910856156728618   T   T   T
  0.4161048351707620  0.7497680527742715  0.5943095517125588   T   T   T
  0.7565630165571152  0.5026336882403583  0.5955467673078033   T   T   T
  0.7518074652463017  0.7525256958448168  0.5905871030647781   T   T   T
  0.7538655197785362  0.2482363497739542  0.5941253532977616   T   T   T
  0.7496084712742972  0.0016970851137940  0.6041877082544047   T   T   T
  0.0834758279714571  0.2482807977452132  0.6037166784211824   T   T   T
  0.0812787908072930  0.5004632527969832  0.6033786979298510   T   T   T
  0.0802334447865737  0.7508025820182970  0.6031620501200704   T   T   T
  0.0832204317443148  0.9982038369403410  0.6035069418157533   T   T   T