Au  O Sr Ti                             
   1.00000000000000     
    23.6707801818999997    0.0000000000000000    0.0000000000000000
     0.0000000000000000   27.8962826732999716    0.0000000000000000
     0.0000000000000000    0.0000000000000000   30.0000000000000000
   Au   O    Sr   Ti
    50   330    90    90
Selective dynamics
Direct
  0.7188553471270204  0.6200945650142208  0.7537040163767820   T   T   T
  0.7052827102411420  0.8057010217527699  0.6886818934710320   T   T   T
  0.6567863028132618  0.5533796065974550  0.8125040720757628   T   T   T
  0.3683043381138769  0.6941808378737705  0.8202316797138693   T   T   T
  0.5712792108240974  0.6080906817316662  0.8571137496455862   T   T   T
  0.6642043215386465  0.3544525795909821  0.7518627409615055   T   T   T
  0.4724604332505669  0.5608703749219816  0.8794601333904613   T   T   T
  0.5164010551210556  0.5015544326373145  0.7341717794300491   T   T   T
  0.2836273794865706  0.4698625013692017  0.7028464181753353   T   T   T
  0.6692198510198872  0.7447073930062621  0.7494360225978387   T   T   T
  0.3977220106569831  0.5062366679670716  0.6904617797758735   T   T   T
  0.6132214712021112  0.4545876264265114  0.6979974032724208   T   T   T
  0.3761104695770300  0.5938087611658849  0.8338409320521165   T   T   T
  0.3269617836910896  0.5311290751679283  0.7696727974687549   T   T   T
  0.4876487225289407  0.4143280391308413  0.7753428033719848   T   T   T
  0.4277173154275409  0.7590426417097108  0.6991374212242908   T   T   T
  0.7000643125963495  0.4766333167422295  0.7565339679047332   T   T   T
  0.7746076808506785  0.5427157276972334  0.7959019603719175   T   T   T
  0.6473352699067932  0.5519831691906077  0.6974490109315254   T   T   T
  0.5659027764408645  0.7122108451976890  0.8611170073109380   T   T   T
  0.5468712041827729  0.7313867702738310  0.7015982489686859   T   T   T
  0.4429110002222114  0.5797310882169134  0.7560821852785470   T   T   T
  0.3728375659759557  0.7891016873030949  0.7776742109908689   T   T   T
  0.4636403748700427  0.6590829478392205  0.8639444168330290   T   T   T
  0.4546800593333101  0.6640735048473945  0.7031843395346233   T   T   T
  0.2557016394096726  0.6738194288329408  0.6952037566007045   T   T   T
  0.2900848393181669  0.6288762604525241  0.7779723206845276   T   T   T
  0.5557691372892016  0.3658798169453511  0.7114256101693678   T   T   T
  0.6250719769350456  0.6529338629405627  0.7039242176331855   T   T   T
  0.7186115955178903  0.4068484184922969  0.6917098111988057   T   T   T
  0.2884763699377603  0.7966432700357313  0.6989221605540313   T   T   T
  0.5767134299043398  0.7807270882708505  0.7928855649781315   T   T   T
  0.5506287180283926  0.5077906052889598  0.8291861710559983   T   T   T
  0.2425335152442486  0.5739887789516857  0.7093007478767673   T   T   T
  0.2822528042866899  0.7284888543426644  0.7663142598408842   T   T   T
  0.6027031591504010  0.4307313712168300  0.7880317695048611   T   T   T
  0.5148830878566003  0.5863238193139162  0.6782188625804829   T   T   T
  0.5623698582316764  0.5887216096586357  0.7627979191356030   T   T   T
  0.5143008026621477  0.6836005819473723  0.7772467446558334   T   T   T
  0.7646835085971437  0.5443978667303885  0.7055422771072531   T   T   T
  0.4631669219566717  0.7560849839733829  0.8298887036223370   T   T   T
  0.4411594993047706  0.3826780406238340  0.6974215671760928   T   T   T
  0.4313179582556939  0.4976985857866961  0.8155208020705312   T   T   T
  0.3497330669549718  0.6018610236038011  0.6973378029973107   T   T   T
  0.3729445224226827  0.4389775115074807  0.7556621887817153   T   T   T
  0.4833738215248524  0.8242331098848893  0.7574945922901215   T   T   T
  0.5941647728397276  0.8279579602530827  0.7125831120243319   T   T   T
  0.6364192650582257  0.6661911163517927  0.8003054375038795   T   T   T
  0.7333365514291099  0.6924313397410047  0.6942799587792835   T   T   T
  0.3881288703256613  0.8515369012981662  0.7061345983639270   T   T   T
  0.8323059348667839  0.6986619124466701  0.5000177583984464   T   T   T
  0.2491014271569356  0.4528421909905241  0.6417627963537293   T   T   T
  0.5003374660973606  0.6963925021648240  0.5001611465806920   T   T   T
  0.4999873105593127  0.8980714529593359  0.5008884014507295   T   T   T
  0.4995426261624391  0.4981880900529606  0.5001104776257563   T   T   T
  0.9166666865332829  0.6500000000127244  0.3605200052333331   F   F   F
  0.2509186876321407  0.2489182749127461  0.6412727082590334   T   T   T
  0.8325851194269016  0.8998450259937099  0.4985774380894571   T   T   T
  0.5833883495794416  0.4550947671734880  0.6344734548198931   T   T   T
  0.2477064663245114  0.6590663970199833  0.6291602377720558   T   T   T
  0.5918047148190496  0.6511483801481981  0.6398390206126832   T   T   T
  0.5824909545684890  0.2521393661409819  0.6386200212896701   T   T   T
  0.9143452589907892  0.8500698244938913  0.6415776318920268   T   T   T
  0.9148776779975596  0.4496328065755509  0.6391058085687984   T   T   T
  0.8328902376604392  0.4983810009094368  0.4992968126499890   T   T   T
  0.9136108923501985  0.6491174051462484  0.6425375093814000   T   T   T
  0.2613425244046241  0.8399450406398394  0.6471463982616601   T   T   T
  0.8326503879953483  0.3001757807980983  0.5000247888142239   T   T   T
  0.4178692833813854  0.2522859475570140  0.6388782591031580   T   T   T
  0.1678294829256498  0.6997383118152526  0.5001243135388178   T   T   T
  0.9162572583931965  0.2503277101358234  0.6413302615054931   T   T   T
  0.7474337603338946  0.2532395996313794  0.6390712153935308   T   T   T
  0.7470816942096800  0.4497260332905227  0.6403184405884070   T   T   T
  0.7405577761230731  0.8477362922347832  0.6403789569512607   T   T   T
  0.7522546384976886  0.6567111760244265  0.6346003284877146   T   T   T
  0.3989941340362758  0.6412911390058331  0.6521250362313612   T   T   T
  0.4125663542314942  0.8501807437149179  0.6397865511562618   T   T   T
  0.4268420150490048  0.4444872848569014  0.6560231572846531   T   T   T
  0.5010182785664981  0.8048360880738774  0.5927597199933462   T   T   T
  0.8326862861702898  0.2021652063506365  0.5922242352615839   T   T   T
  0.8333605246032670  0.6028145789626251  0.5896466159765216   T   T   T
  0.8315281204245121  0.3969182073135992  0.5914263706988105   T   T   T
  0.8301808788877998  0.8002552913042404  0.5931216233403875   T   T   T
  0.5819721919360585  0.9480332774482235  0.6376315120735873   T   T   T
  0.9170677000127854  0.3491940871564761  0.6405474230441712   T   T   T
  0.5834106651478406  0.0504999554659247  0.6412808407955718   T   T   T
  0.5816474676641425  0.5502393948556843  0.6457267023439115   T   T   T
  0.1665623696214148  0.5008502940937457  0.4976714725946316   T   T   T
  0.5893808730822705  0.8479024775143313  0.6458913824678814   T   T   T
  0.4155932412397232  0.4553284953646648  0.5524513986506443   T   T   T
  0.4169487022703923  0.9476459088661799  0.6387830514457254   T   T   T
  0.4201225409336357  0.6519203632470905  0.5555853051938174   T   T   T
  0.0842514585852018  0.4498058608499025  0.6402474837696132   T   T   T
  0.7485035187472222  0.4487853684870536  0.5482442791408370   T   T   T
  0.7485645318328643  0.2483252643078079  0.5450103476084152   T   T   T
  0.4137317721901901  0.8489358439296781  0.5484951092674919   T   T   T
  0.7469522112723087  0.6462895116254225  0.5446862019515207   T   T   T
  0.7479591372469752  0.8470103993748695  0.5462984995424235   T   T   T
  0.2511737128978296  0.2505564850297147  0.5472954401328288   T   T   T
  0.2492003615297366  0.4512685207253513  0.5461244414157378   T   T   T
  0.2523105060900630  0.6473312492623071  0.5443804731189983   T   T   T
  0.2533220118832659  0.8499656647998245  0.5513580572046750   T   T   T
  0.5831871550047075  0.2500715577354566  0.5461494466107623   T   T   T
  0.5837565477387565  0.4491686295657297  0.5457607144841219   T   T   T
  0.5861224117296586  0.8518183817978114  0.5507617583138478   T   T   T
  0.5813517854372088  0.6481165849308271  0.5496453346370880   T   T   T
  0.9166628187805720  0.6503268535913472  0.5462806697647994   T   T   T
  0.9147500218818559  0.8500614856325279  0.5467914865609635   T   T   T
  0.4164361769627246  0.2522481514982016  0.5471693793244928   T   T   T
  0.4219259704792237  0.7410633454406360  0.6337639072641732   T   T   T
  0.0853224007437232  0.8499871258199521  0.5474730386361422   T   T   T
  0.0860722058960934  0.4503988097322663  0.5466808235311075   T   T   T
  0.7557783499167319  0.5486284363258412  0.6390554525788660   T   T   T
  0.7452835528851857  0.3550146874452821  0.6467264588566461   T   T   T
  0.2535931268272378  0.3492525526572114  0.6409443372782244   T   T   T
  0.7481059331687550  0.9478498381626745  0.6392112272829057   T   T   T
  0.7535428199099821  0.7542966082247814  0.6577534823642484   T   T   T
  0.4998479099197593  0.1996995836525525  0.5913176966405986   T   T   T
  0.4984663007602393  0.4028731151390795  0.5902207118309120   T   T   T
  0.4976882435215240  0.6032247726655922  0.6091466473497603   T   T   T
  0.2517023396402738  0.9499824643148487  0.5448397586511438   T   T   T
  0.5792090255490830  0.7491520274029916  0.5468227155582246   T   T   T
  0.5762381516259385  0.5486414007106748  0.5517523116496305   T   T   T
  0.9155447898022149  0.5495169212717986  0.5463061264905611   T   T   T
  0.9172908502267679  0.3511003670688426  0.5456329494121601   T   T   T
  0.5838172870273849  0.9506158610088736  0.5454780723280084   T   T   T
  0.9133672532024346  0.7509807517715161  0.5456315471793995   T   T   T
  0.9160540128502058  0.9504967948387036  0.5459847703249643   T   T   T
  0.0825790528618079  0.2502407873831572  0.5474175102786620   T   T   T
  0.0826384851756576  0.6511050409591318  0.5461924079434385   T   T   T
  0.6663529353170584  0.8989313467503735  0.4988575134304208   T   T   T
  0.4166666269218169  0.0500000000120124  0.3605200052333331   F   F   F
  0.0840470802454128  0.2486927230531642  0.6418388894748707   T   T   T
  0.0837980005884717  0.0498391316251202  0.5466042752272595   T   T   T
  0.9160865070504641  0.1507677448188459  0.5462079065847163   T   T   T
  0.5833018414143489  0.1502657547416711  0.5467005901798554   T   T   T
  0.2499909648347301  0.1502417264227986  0.5465811728330920   T   T   T
  0.7500902701970051  0.1492454538187450  0.5474494133239751   T   T   T
  0.4163562744041979  0.1508004511145871  0.5463711887214983   T   T   T
  0.0837519184830476  0.1506163504315586  0.5461245001217769   T   T   T
  0.4166125196436164  0.0499233851752926  0.5466934151830101   T   T   T
  0.4999034055896452  0.0999965549735532  0.4987673274950204   T   T   T
  0.1667393531143073  0.0998408788028659  0.4985703557177963   T   T   T
  0.6665781592407202  0.1001254209919778  0.4987200292287364   T   T   T
  0.3332997939684929  0.0999270545852319  0.4988529251482131   T   T   T
  0.0000450417060077  0.0999794669698890  0.4991060506880334   T   T   T
  0.9167439653015700  0.1498748778998216  0.4536460603220089   T   T   T
  0.5833490465454793  0.1504772457796432  0.4540182422744073   T   T   T
  0.2500386086115908  0.1499480118533355  0.4537001372263066   T   T   T
  0.8333229491656581  0.1000748960435476  0.4987266519169457   T   T   T
  0.7500490250264119  0.0490463357352785  0.5459882508552941   T   T   T
  0.2498899454325997  0.0500364796221070  0.5468408767932535   T   T   T
  0.5832122108940160  0.0501262511649439  0.5466416512894982   T   T   T
  0.9159173268121658  0.0500010325032170  0.6403051447483493   T   T   T
  0.7502197873319653  0.1509445156551469  0.6411308377350646   T   T   T
  0.2502798994514803  0.1486737059500225  0.6412714804099908   T   T   T
  0.9158927493331203  0.1499299807385766  0.6402517087925959   T   T   T
  0.5832493790924463  0.1501825942913139  0.6416444664990546   T   T   T
  0.4165266541400373  0.1499020663553317  0.6414159136864148   T   T   T
  0.0832107431156825  0.1486117587207322  0.6403685970127667   T   T   T
  0.0830388666959434  0.0492616000739153  0.6405914246050202   T   T   T
  0.7497974060779621  0.0501869507145696  0.6406991548720116   T   T   T
  0.4167620884280764  0.0496122285042903  0.6416919064351159   T   T   T
  0.8326252023340647 -0.0010635767143526  0.5919242989698487   T   T   T
  0.4997369226324003  0.0003079584006353  0.5911494336407423   T   T   T
  0.1672711731177794 -0.0011698464844682  0.5919445475182110   T   T   T
  0.6662320299200435  0.0001744938576276  0.5916861147954932   T   T   T
 -0.0001317897575787 -0.0007680076170512  0.5918465949309064   T   T   T
  0.3337831347614942 -0.0000086198363224  0.5913398919238655   T   T   T
  0.9162953261869065  0.0498520373937420  0.5464714373441710   T   T   T
  0.7500037234118563  0.1506821480840891  0.4542915910718599   T   T   T
  0.4165884373752805  0.1501626519969996  0.4538287612495934   T   T   T
  0.0832750087800074  0.1497065156221801  0.4534911055405115   T   T   T
  0.9166498426186231  0.0496682730966027  0.4538690718446906   T   T   T
  0.4166666269218169  0.1500000000001833  0.3605200052333331   F   F   F
  0.0833333358191695  0.1500000000001833  0.3605200052333331   F   F   F
  0.9166666865332829  0.8499999999890662  0.3605200052333331   F   F   F
  0.0842647488638115  0.8495320692980921  0.6421082057720507   T   T   T
  0.2521050245942660  0.9454541832931643  0.6371631000379322   T   T   T
  0.5784696070497128  0.3518929228629277  0.6438103642625110   T   T   T
  0.2498116688607130  0.7416197861680774  0.6649322609796106   T   T   T
  0.2405759747270301  0.5535914009545977  0.6416607991146326   T   T   T
  0.9156523086865196  0.9496684795984198  0.6404914324527933   T   T   T
  0.9158087691296527  0.7499293707848471  0.6402970193143875   T   T   T
  0.9123635693850992  0.5487196840979776  0.6394915043667182   T   T   T
  0.0828992873979526  0.7496336815985271  0.6402294650734837   T   T   T
  0.0844721697384983  0.9488587519935023  0.6403876288269101   T   T   T
  0.4153375839578863  0.5351017778174114  0.6299878841768271   T   T   T
  0.4188471525770273  0.3507298312820050  0.6401637350124041   T   T   T
  0.0839670657289670  0.3488780799409420  0.6414945239832156   T   T   T
  0.0870626996260050  0.5495753739465074  0.6396802635079607   T   T   T
  0.7499999404149307  0.1500000000001833  0.3605200052333331   F   F   F
  0.0861572016700004  0.6497193622812517  0.6420382280868085   T   T   T
  0.2499999999799343  0.1500000000001833  0.3605200052333331   F   F   F
  0.9166666865332829  0.1500000000001833  0.3605200052333331   F   F   F
  0.5834766345988724  0.0495101523313131  0.4540899774524517   T   T   T
  0.2500630551153927  0.0490714166558446  0.4542612813059605   T   T   T
  0.7500026491210735  0.0499939153988114  0.4535894788469917   T   T   T
  0.4163554156851224  0.0491117773598896  0.4542539134678223   T   T   T
  0.0833418427481560  0.0495239967121483  0.4539037430857020   T   T   T
  0.8333332538436267  0.0000000000000000  0.4070133268666680   F   F   F
  0.5000000000021103  0.0000000000000000  0.4070133268666680   F   F   F
  0.1666666716383389  0.0000000000000000  0.4070133268666680   F   F   F
  0.6666666865533486  0.0000000000000000  0.4070133268666680   F   F   F
  0.3333333432766779  0.0000000000000000  0.4070133268666680   F   F   F
  0.0000000000000000  0.0000000000000000  0.4070133268666680   F   F   F
  0.9166666865332829  0.0500000000120124  0.3605200052333331   F   F   F
  0.5833333134730552  0.0500000000120124  0.3605200052333331   F   F   F
  0.2499999999799343  0.0500000000120124  0.3605200052333331   F   F   F
  0.7499999404149307  0.0500000000120124  0.3605200052333331   F   F   F
  0.5802714196953191  0.3483729170149426  0.5496175413012488   T   T   T
  0.0833333358191695  0.0500000000120124  0.3605200052333331   F   F   F
  0.5833333134730552  0.1500000000001833  0.3605200052333331   F   F   F
  0.2490469365021706  0.7465918350565729  0.5524788487920600   T   T   T
  0.5803743311630818  0.7474871602232359  0.6383664497643501   T   T   T
  0.2480874875153715  0.5488720993811541  0.5492117502289978   T   T   T
  0.4166666269218169  0.9500000000130839  0.3605200052333331   F   F   F
  0.7499999404149307  0.3500000000123720  0.3605200052333331   F   F   F
  0.7499999404149307  0.5499999761504029  0.3605200052333331   F   F   F
  0.7499999404149307  0.7500000000008953  0.3605200052333331   F   F   F
  0.7499999404149307  0.9500000000130839  0.3605200052333331   F   F   F
  0.2499999999799343  0.3500000000123720  0.3605200052333331   F   F   F
  0.2499999999799343  0.7500000000008953  0.3605200052333331   F   F   F
  0.4166666269218169  0.7500000000008953  0.3605200052333331   F   F   F
  0.9166666865332829  0.9500000000130839  0.3605200052333331   F   F   F
  0.5833333134730552  0.3500000000123720  0.3605200052333331   F   F   F
  0.5833333134730552  0.5499999761504029  0.3605200052333331   F   F   F
  0.5833333134730552  0.7500000000008953  0.3605200052333331   F   F   F
  0.5833333134730552  0.9500000000130839  0.3605200052333331   F   F   F
  0.9166666865332829  0.3500000000123720  0.3605200052333331   F   F   F
  0.9166666865332829  0.5499999761504029  0.3605200052333331   F   F   F
  0.9166666865332829  0.7500000000008953  0.3605200052333331   F   F   F
  0.2499999999799343  0.9500000000130839  0.3605200052333331   F   F   F
  0.4166666269218169  0.5499999761504029  0.3605200052333331   F   F   F
  0.2499999999799343  0.5499999761504029  0.3605200052333331   F   F   F
  0.0833333358191695  0.2500000000242011  0.3605200052333331   F   F   F
  0.7499999404149307  0.2500000000242011  0.3605200052333331   F   F   F
  0.7499999404149307  0.4500000000005357  0.3605200052333331   F   F   F
  0.7499999404149307  0.6500000000127244  0.3605200052333331   F   F   F
  0.7499999404149307  0.8499999999890662  0.3605200052333331   F   F   F
  0.2499999999799343  0.2500000000242011  0.3605200052333331   F   F   F
  0.2499999999799343  0.4500000000005357  0.3605200052333331   F   F   F
  0.2499999999799343  0.6500000000127244  0.3605200052333331   F   F   F
  0.2499999999799343  0.8499999999890662  0.3605200052333331   F   F   F
  0.5833333134730552  0.2500000000242011  0.3605200052333331   F   F   F
  0.5833333134730552  0.4500000000005357  0.3605200052333331   F   F   F
  0.5833333134730552  0.6500000000127244  0.3605200052333331   F   F   F
  0.5833333134730552  0.8499999999890662  0.3605200052333331   F   F   F
  0.9166666865332829  0.2500000000242011  0.3605200052333331   F   F   F
  0.9166666865332829  0.4500000000005357  0.3605200052333331   F   F   F
  0.1654406729357935  0.6026462549335142  0.5881850065464244   T   T   T
  0.0833333358191695  0.6500000000127244  0.3605200052333331   F   F   F
  0.0833333358191695  0.4500000000005357  0.3605200052333331   F   F   F
  0.5829115581724897  0.2512589445296321  0.4541828757608977   T   T   T
  0.5844387395090137  0.6496160627841814  0.4551668448599632   T   T   T
  0.6654337951624936  0.7001952834819866  0.5030498702553649   T   T   T
  0.2505581669724794  0.9481597858350227  0.4535897871187713   T   T   T
  0.9162728971424040  0.4496444548015477  0.4540109236789800   T   T   T
  0.9160905950844433  0.2498424839471884  0.4542535931647101   T   T   T
  0.2510536975830115  0.5519059670623544  0.4552310535307185   T   T   T
  0.9162100706086189  0.6497524149704177  0.4539351506274711   T   T   T
  0.9162460843398051  0.8495105879832116  0.4541726829410636   T   T   T
  0.0836134925412407  0.3498492538348033  0.4537091065111268   T   T   T
  0.0832246031123083  0.5501491535383602  0.4536200012120535   T   T   T
  0.0838371732858008  0.9492996139292191  0.4536031979714958   T   T   T
  0.0847993156395529  0.7497909393715495  0.4534653042744716   T   T   T
  0.4171946712642169  0.5481272033898951  0.4540653476853661   T   T   T
  0.4171260524544816  0.7470282791826360  0.4544878602208492   T   T   T
  0.4173579679057134  0.9479944429203717  0.4541693184832724   T   T   T
  0.7504220558443320  0.3518722471166355  0.4555751379486487   T   T   T
  0.7497456399569767  0.5507974192455658  0.4561865348037710   T   T   T
  0.7489528025549707  0.7506726320773854  0.4570165119119931   T   T   T
  0.7489868108063866  0.9498994222689014  0.4548215023056053   T   T   T
  0.2499903989713659  0.3511275427489448  0.4544172793416112   T   T   T
  0.4166880581915707  0.3504268951992259  0.4541397582629053   T   T   T
  0.4166666269218169  0.8499999999890662  0.3605200052333331   F   F   F
  0.2516443832190703  0.7501353414401379  0.4562461901697690   T   T   T
  0.5826696775216167  0.3522578508011899  0.4554803026872284   T   T   T
  0.5825901377857744  0.5511005192685757  0.4561597836851031   T   T   T
  0.5829380850379291  0.7480851492465541  0.4543521837121962   T   T   T
  0.5826537490738223  0.9483778313500368  0.4538036041289804   T   T   T
  0.9159244493507370  0.3498146816088960  0.4536254087042789   T   T   T
  0.9160922137445150  0.5497814889566037  0.4540099506854978   T   T   T
  0.9151188097962121  0.7496465604634253  0.4534723490630391   T   T   T
  0.6658769001144528  0.5028579595218339  0.5034328955161018   T   T   T
  0.3340485469299379  0.5027560130191007  0.5029697972406769   T   T   T
  0.3355482007027963  0.7004104582720894  0.5042335722679353   T   T   T
  0.6659587922524314  0.3014577011723024  0.4992847158822611   T   T   T
  0.3335698687189439  0.8983086327289396  0.4992521427148549   T   T   T
  0.0001257108873858  0.8994119531116146  0.4992341124451613   T   T   T
  0.3335288565713595  0.3008465694659364  0.4987827738210576   T   T   T
  0.9998532849530433  0.7018639264584335  0.4973752283810902   T   T   T
 -0.0000278804689133  0.4990746302038295  0.4986055216366247   T   T   T
  0.5829801907058808  0.8471058300931569  0.4559877310156722   T   T   T
  0.0000766758824210  0.2999570420017759  0.4987098718041922   T   T   T
  0.9166062350960118  0.9496675260537575  0.4537030220440004   T   T   T
  0.4166666269218169  0.6500000000127244  0.3605200052333331   F   F   F
  0.2503337637301234  0.0486419587093947  0.6413348630183658   T   T   T
  0.4166666269218169  0.2500000000242011  0.3605200052333331   F   F   F
  0.9174082344697818  0.2505118539002985  0.5472402561281072   T   T   T
  0.1677640367046240  0.8986645891834490  0.4994712495598380   T   T   T
  0.2524827651638932  0.3509697783412166  0.5473427522297620   T   T   T
  0.7484642935179183  0.9478339135879561  0.5468971613178831   T   T   T
  0.7515077115182132  0.7447569489435217  0.5527582079739041   T   T   T
  0.7532813280131235  0.5474293211665892  0.5497432344194580   T   T   T
  0.4234198515985670  0.5547512678897856  0.5458846392526878   T   T   T
  0.4226986666601032  0.7504644581340074  0.5465256201296654   T   T   T
  0.7474116175765753  0.3470846489773350  0.5507173408569552   T   T   T
  0.4160308953928082  0.9484337259787358  0.5465883595970923   T   T   T
  0.0838794657107790  0.9505167902720814  0.5457700223278646   T   T   T
  0.4155172658079886  0.3526838189736532  0.5473759704831301   T   T   T
  0.0867412202280219  0.7515548450555106  0.5456631315208156   T   T   T
  0.0831156678810718  0.5503068837673438  0.5458580122654649   T   T   T
  0.0836326092716605  0.3507455785538262  0.5463217951385714   T   T   T
  0.4993168049734085  0.3009584083170395  0.4995869189128410   T   T   T
  0.9996591435097110  0.5988144228289098  0.5943981943644039   T   T   T
  0.9995456710907515  0.8027124931077437  0.5925588369396407   T   T   T
  0.3346931917447996  0.4038641261612909  0.5931259721553078   T   T   T
  0.3337574980161611  0.1999628909412240  0.5921356126517854   T   T   T
  0.9999558065741452  0.2000489681867513  0.5923440443316693   T   T   T
  0.0010335508990874  0.3999855912309429  0.5920514811831342   T   T   T
  0.3334271574519437  0.5969825438523065  0.5912750395453157   T   T   T
  0.3352132020800839  0.7919284685997906  0.5919445667772349   T   T   T
  0.6634175840977410  0.3977498765429786  0.5908356600349760   T   T   T
  0.6662271795474128  0.1999973394405820  0.5920110904643648   T   T   T
  0.6656894552289484  0.7934129944601218  0.5905221718841585   T   T   T
  0.6670377510343016  0.5948687247921700  0.5910106791612907   T   T   T
  0.1684959285901601  0.3986713759628969  0.5929870046010034   T   T   T
  0.1671085021943441  0.3001250240869909  0.4999264704160630   T   T   T
  0.5000000000021103  0.8000000000129006  0.4070133268666680   F   F   F
  0.5000000000021103  0.4000000000243773  0.4070133268666680   F   F   F
  0.5000000000021103  0.2000000000121887  0.4070133268666680   F   F   F
  0.7476546592607406  0.4512635056159867  0.4548470624151854   T   T   T
  0.7483179634152110  0.6512893827153675  0.4537111035618533   T   T   T
  0.7498719620510874  0.8499633558408539  0.4537369045021215   T   T   T
  0.2500286183721352  0.2503713084484127  0.4542813477501700   T   T   T
  0.9149037796781474  0.4496977197984934  0.5466376392909678   T   T   T
  0.2520008434484745  0.4517935933191458  0.4538738050320046   T   T   T
  0.2520962027791379  0.6519059217007036  0.4539772857672322   T   T   T
  0.2505149660293370  0.8482118351628003  0.4555919195067529   T   T   T
  0.8333332538436267  0.4000000000243773  0.4070133268666680   F   F   F
  0.5844571454458496  0.4519976542349810  0.4540441423344803   T   T   T
  0.8333332538436267  0.2000000000121887  0.4070133268666680   F   F   F
  0.5000000000021103  0.6000000000007191  0.4070133268666680   F   F   F
  0.0833333358191695  0.3500000000123720  0.3605200052333331   F   F   F
  0.0000000000000000  0.2000000000121887  0.4070133268666680   F   F   F
  0.7493008651490591  0.2513357486879967  0.4536115903022671   T   T   T
  0.0000000000000000  0.4000000000243773  0.4070133268666680   F   F   F
  0.0000000000000000  0.8000000000129006  0.4070133268666680   F   F   F
  0.3333333432766779  0.2000000000121887  0.4070133268666680   F   F   F
  0.3333333432766779  0.4000000000243773  0.4070133268666680   F   F   F
  0.3333333432766779  0.6000000000007191  0.4070133268666680   F   F   F
  0.3333333432766779  0.8000000000129006  0.4070133268666680   F   F   F
  0.6666666865533486  0.2000000000121887  0.4070133268666680   F   F   F
  0.6666666865533486  0.4000000000243773  0.4070133268666680   F   F   F
  0.4166666269218169  0.4500000000005357  0.3605200052333331   F   F   F
  0.6666666865533486  0.6000000000007191  0.4070133268666680   F   F   F
  0.6666666865533486  0.8000000000129006  0.4070133268666680   F   F   F
  0.1666666716383389  0.2000000000121887  0.4070133268666680   F   F   F
  0.1666666716383389  0.4000000000243773  0.4070133268666680   F   F   F
  0.1666666716383389  0.6000000000007191  0.4070133268666680   F   F   F
  0.1666666716383389  0.8000000000129006  0.4070133268666680   F   F   F
  0.0000000000000000  0.6000000000007191  0.4070133268666680   F   F   F
  0.1706928634762988  0.7996875933239058  0.5957491773607717   T   T   T
  0.1669946362081126  0.1996792384313882  0.5921871068498211   T   T   T
  0.0839384659771568  0.2496900019760346  0.4542872455654973   T   T   T
  0.0838299560272429  0.8493972749956493  0.4543450160531120   T   T   T
  0.0840195267000449  0.6501862604335421  0.4539242410156507   T   T   T
  0.0833589617073902  0.4497862944008288  0.4538415707314098   T   T   T
  0.4158781008757629  0.6471553971972800  0.4580760337255179   T   T   T
  0.8333332538436267  0.8000000000129006  0.4070133268666680   F   F   F
  0.8333332538436267  0.6000000000007191  0.4070133268666680   F   F   F
  0.0833333358191695  0.5499999761504029  0.3605200052333331   F   F   F
  0.0833333358191695  0.7500000000008953  0.3605200052333331   F   F   F
  0.0833333358191695  0.9500000000130839  0.3605200052333331   F   F   F
  0.4166666269218169  0.3500000000123720  0.3605200052333331   F   F   F
  0.0833333358191695  0.8499999999890662  0.3605200052333331   F   F   F
  0.4170864925707739  0.8470484135704622  0.4555908859673719   T   T   T
  0.4162565388225277  0.2501630494234223  0.4550233808740323   T   T   T
  0.4151311230152985  0.4491654988869159  0.4571852567085379   T   T   T
  0.3303539521974456  0.3987119614553240  0.5028361187321986   T   T   T
  0.5009908011744580  0.8021547343930656  0.5038302596951098   T   T   T
  0.1645318932421637  0.8010523929299633  0.5035735551405298   T   T   T
  0.5000262950192336  0.1990565467924170  0.5054086440988543   T   T   T
  0.8406356866868313  0.7011775214164188  0.6032111782116123   T   T   T
  0.1663265201426032  0.3987205326422578  0.5061731651285906   T   T   T
  0.1667098451345564  0.2001046910040193  0.5060444946258991   T   T   T
  0.3312057236543976  0.5993157385259520  0.5011941250280509   T   T   T
  0.6655651709675969  0.8014160606997092  0.5022762721758810   T   T   T
  0.6687629453090622  0.5996986226771085  0.5008749795214171   T   T   T
  0.6665882079909855  0.1988072013627640  0.5056416244144726   T   T   T
  0.3337422548410217  0.8006625183696020  0.5018541867352565   T   T   T
  0.3327292969559849  0.1993070658904482  0.5058501245838880   T   T   T
  0.0009259042089397  0.2985965637570922  0.6195204288136029   T   T   T
  0.8333332538436267  0.6999999999888900  0.4070133268666680   F   F   F
  0.6673127312437458  0.3982581231940347  0.5030791869914396   T   T   T
  0.9997442361808986  0.6004732752498364  0.5070696919860540   T   T   T
  0.9995411750631991  0.8997174021122167  0.6221057033284690   T   T   T
  0.0000000000000000  0.0999999999881709  0.4070133268666680   F   F   F
  0.8327304382603795  0.1002498538880268  0.6186014987195143   T   T   T
  0.3335844688543998  0.0990270588490219  0.6190710419737867   T   T   T
  0.6668649089894320  0.1006291523427283  0.6189761591584121   T   T   T
  0.4998621269109306  0.1002488484042542  0.6196077470538490   T   T   T
  0.1668028843779885  0.0985925774564650  0.6193016070786499   T   T   T
 -0.0004837238792444  0.0995934749602658  0.6192668095865519   T   T   T
  0.8339312389410373  0.0006714012756989  0.5058839551983656   T   T   T