Au  O Sr Ti 
 1.0000000000000000
    23.6707801818999997    0.0000000000000000    0.0000000000000000
     0.0000000000000000   27.8962826732999716    0.0000000000000000
     0.0000000000000000    0.0000000000000000   30.0000000000000000
 Au  O   Sr  Ti 
  50 330  90  90
Selective dynamics
Cartesian
 17.0252909102829051 17.3009763023814749 22.6182532253620039   T   T   T
 16.6935378729171795 22.4869993887197026 20.6538892361145834   T   T   T
 15.5406200166785329 15.4264960527295631 24.3746454211485748   T   T   T
  8.7266822766936993 19.3637341233557265 24.6045891221616699   T   T   T
 13.5256567206335081 16.9650166512238414 25.7119005505630618   T   T   T
 15.7271964377914610  9.9065496554223120 22.5627986268722722   T   T   T
 11.1883094793635074 15.6454289889554037 26.3844126062786408   T   T   T
 12.2175110193874321 13.9931290998635287 22.0268035997329008   T   T   T
  6.7214822160751915 13.1048413548454032 21.0807192760253201   T   T   T
 15.8492252631992496 20.7748360577281801 22.4725939238079917   T   T   T
  9.4233963093284476 14.1173260325291690 20.7181709171399895   T   T   T
 14.5128987406961532 12.6787037516815957 20.9380716822349981   T   T   T
  8.9071113063177840 16.5624936948891985 25.0085701270515166   T   T   T
  7.7405574429527881 14.8109559344105861 23.0890040284959888   T   T   T
 11.5373213698120658 11.5618283804853785 23.2573581856457139   T   T   T
 10.1691911776531150 21.1810390378293576 20.9639143614454930   T   T   T
 16.5683422639127400 13.2903156507796361 22.7046559994649897   T   T   T
 18.3324760788302257 15.1329396154525604 23.8802036146366952   T   T   T
 15.3252122984508308 15.3879367134810376 20.9273505942882743   T   T   T
 13.4057798966625956 19.8756885935404242 25.8261297610087190   T   T   T
 12.9689196250224708 20.3969493061899314 21.0497595966700857   T   T   T
 10.4894929478760890 16.1727612223444339 22.6850645355568723   T   T   T
  8.8219900079981688 21.9917538870070217 23.3242874696877180   T   T   T
 10.9857455464542273 18.3790548944126471 25.8999200569739365   T   T   T
 10.7727453392468853 18.5229840087764401 21.0952682122123889   T   T   T
  6.0459694974893576 18.7877719300400656 20.8612429261656587   T   T   T
  6.8678119052640909 17.5352516913828893 23.3348421033275137   T   T   T
 13.1393746797536402 10.2012578014749877 21.3523878851998212   T   T   T
 14.8138167547627724 18.2005441238568793 21.1154954283449996   T   T   T
 17.0147426779853603 11.3579635797939673 20.7505885277173014   T   T   T
  6.8207039054539500 22.2028682387859178 20.9804974921450231   T   T   T
 13.6586646532691525 21.7783697361607622 23.7674009224977993   T   T   T
 13.0295489733923073 14.1578591094083137 24.8897232692281847   T   T   T
  5.7511007291705347 16.0018798157261166 21.2734536370612020   T   T   T
  6.6764094167707366 20.3096806848185452 22.9977406183941397   T   T   T
 14.2587227877812079 12.0208109299152603 23.6422249747584985   T   T   T
 12.1891746356629884 16.3544796075788845 20.3418724283634234   T   T   T
 13.3165808281193367 16.4177946810362911 22.8836891283882906   T   T   T
 12.1945143181213211 19.0606550578298055 23.3121631556601727   T   T   T
 18.0958936647233131 15.1795543235178947 21.1662017920189243   T   T   T
 10.9776320840792643 21.0882425071497295 24.8924387824599513   T   T   T
 10.4310230860418081 10.6793136410355451 20.9126926447778914   T   T   T
 10.2097200349453345 13.8789899344122336 24.4749418842547506   T   T   T
  8.2864152968732494 16.7878547835876795 20.9194262789633783   T   T   T
  8.8279069044195708 12.2450192576512009 22.6762895355885625   T   T   T
 11.4336562178342085 22.9885386319072680 22.7264166883027663   T   T   T
 14.0714246937159064 23.1057948037303476 21.3732339819575365   T   T   T
 15.0707052671546631 18.5889330507532904 24.0058334356716507   T   T   T
 17.3711886556511637 19.3182068766882118 20.8222270854653750   T   T   T
  9.1560177899531343 23.7385336715108579 21.1816221682278254   T   T   T
 19.6998860376680653 19.4838257287441188 14.9979185450282522   T   T   T
  5.9092704606311912 12.6409028999373874 19.2429915959655098   T   T   T
 11.8450922803103040 19.4386920200164965 14.9999673380294709   T   T   T
 11.8341973960244911 25.0545256773996954 15.0296083806214966   T   T   T
 11.8244437749078308 13.9154008211267115 15.0119406779642457   T   T   T
 21.6982156369999721 18.1325837380000259 10.8156001569999933   F   F   F
  5.9371605890387880  6.9059807125000745 19.2598876130084591   T   T   T
 19.7099578858206144 25.1104614289028021 14.9485076893039253   T   T   T
 13.8031474901092484 12.7047129412021498 19.0286452182878776   T   T   T
  5.8669799900060884 18.3876875251268146 18.8733557398017631   T   T   T
 14.0312625974646163 18.1707946590838176 19.1919181894602922   T   T   T
 13.7806748214087289  7.0413618322591027 19.1953106241000917   T   T   T
 21.6410508957517465 23.7111717442668848 19.2570080117871427   T   T   T
 21.6676184113221701 12.5421146795818466 19.1845169262640063   T   T   T
 19.7105027939340651 13.9019099393241170 14.9801575101775768   T   T   T
 21.6301426331218707 18.1097456192098640 19.2784949268425194   T   T   T
  6.1797381166341667 23.3904328690964576 19.4209014970860423   T   T   T
 19.7153225321210179  8.3574077078101450 14.9919529771329572   T   T   T
  9.8884094218962844  7.0362390027440762 19.1965858578419208   T   T   T
  3.9701927373753660 19.5107274297309488 15.0007758026501943   T   T   T
 21.6873921542040371  6.9700136883810124 19.2404825635345169   T   T   T
 17.6977750612402431  7.0730512107797470 19.1722603012449859   T   T   T
 17.6761933318637752 12.5564674470362405 19.2022806390891887   T   T   T
 17.5388415335199319 23.6556445090882193 19.2021351075587425   T   T   T
 17.8026793971803841 18.3242622201527681 19.0285411601826198   T   T   T
  9.4621928769356156 17.8813033766333547 19.5617073006722180   T   T   T
  9.7493815054597910 23.7104857864958092 19.1927854005496030   T   T   T
 10.0962537277932221 12.3850722267135183 19.6561201291008310   T   T   T
 11.8560407426193439 22.4590262750740237 17.7823820924606473   T   T   T
 19.6989427496313034  5.6240484192947973 17.7664293066963310   T   T   T
 19.7251803059549857 16.8215716340313470 17.6854089662455074   T   T   T
 19.6878300856826485 11.1103294521345948 17.7445082876855160   T   T   T
 19.6551929951715536 22.3245923069974452 17.8021033211369648   T   T   T
 13.7767234411933863 26.4569253855109991 19.1777110234528045   T   T   T
 21.7100824887732387  9.7424424376427154 19.2174521352088803   T   T   T
 13.8079546360000549  1.3911429482368400 19.1908049430373673   T   T   T
 13.7759854507376556 15.3563177987021682 19.3743974735061215   T   T   T
  3.9471649527491035 13.9703064346858188 14.9321027736684702   T   T   T
 13.9645687173273920 23.6686212113728800 19.3690270664397950   T   T   T
  9.8447880700875263 12.6982964265162686 16.5677969889039396   T   T   T
  9.8776941156468467 26.4468215153702531 19.1925770159870730   T   T   T
  9.9630186293716978 18.1819706948624926 16.6626685710249731   T   T   T
  1.9896797746177119 12.5397542162431925 19.2121458917492269   T   T   T
 17.7079848222363445 12.5240269720306721 16.4370917930697154   T   T   T
 17.7124656626838437  6.9099534649959633 16.3344857087518704   T   T   T
  9.7859887262121745 23.6863897472072011 16.4443419532557904   T   T   T
 17.6696036660179594 18.0259242414930760 16.3372192406945409   T   T   T
 17.7215193543437373 23.6186723684754014 16.3701624190593122   T   T   T
  5.9419167778972684  6.9724149878046191 16.4159895883261981   T   T   T
  5.9076031207781057 12.5811811769001807 16.3789364643440507   T   T   T
  5.9738308258721826 18.0541630145489940 16.3216669225508895   T   T   T
  6.0097721380587306 23.7150999107479876 16.5414187226120930   T   T   T
 13.7922554282850900  6.9897891480514769 16.4072660551789475   T   T   T
 13.8061104295663206 12.5351439027560758 16.3733314370010667   T   T   T
 13.8748120547567577 23.7592612752323618 16.5106792907295912   T   T   T
 13.7646366985395279 18.0830608342154591 16.4862605221313459   T   T   T
 21.6976235318733899 18.1434548204735187 16.3882683019368720   T   T   T
 21.6445543450560152 23.7253507009881588 16.4080936955227834   T   T   T
  9.8616632853005886  7.0238724915708159 16.4106027031828710   T   T   T
  9.9862902035637227 20.6599951779318260 19.0087963909058359   T   T   T
  2.0130281887946948 23.7185527817323347 16.4214028971016432   T   T   T
  2.0427605259833181 12.5704802026588318 16.4058978620060500   T   T   T
 17.8926590197475939 15.3105329428149908 19.1721077340383204   T   T   T
 17.6513612217552343  9.9130078544257039 19.4020197914770911   T   T   T
  5.9978214017310956  9.7405786146082711 19.2343868861668206   T   T   T
 17.7204484494618697 26.4837913422856133 19.1943692415546181   T   T   T
 17.8343111708249324 21.0550274177661336 19.7253420971635975   T   T   T
 11.8270787252659595  5.5782764317893854 17.7300561785985131   T   T   T
 11.8012454194319485 11.2225946040837457 17.7098938661750971   T   T   T
 11.7978252312727570 16.8253498323676212 18.2680823692494414   T   T   T
  5.9592822689497567 26.4984331204614634 16.3516016452551192   T   T   T
 13.7173648113195039 20.9001624231524019 16.4083671214996620   T   T   T
 13.6507809311382786 15.3116104919510292 16.5470850469085704   T   T   T
 21.6656385326569207 15.3339300657734476 16.3788399809624252   T   T   T
 21.7081903055904064  9.7900064697040534 16.3655056772780014   T   T   T
 13.8161389604357083 26.5149188033452177 16.3727129772259339   T   T   T
 21.6129768206180159 20.9619738928897803 16.3498678327532971   T   T   T
 21.6764276685679391 26.5308130648307312 16.3797050824890071   T   T   T
  1.9473531786922809  6.9909242680699313 16.4255311510406692   T   T   T
  1.9553023101802409 18.1618521318456061 16.3943446418976251   T   T   T
 15.7780655760299009 25.0931793606508862 14.9661024678432621   T   T   T
  9.8628241350000643  1.3948141340000613 10.8156001569999933   F   F   F
  1.9763041843799924  6.9277223470900484 19.2435321124308452   T   T   T
  1.9725650740000149  1.3811237581817855 16.3557451054029492   T   T   T
 21.6982156369999721  4.1981327768183450 16.3557451054029492   T   T   T
 13.8079546360000549  4.1981327768183450 16.3557451054029492   T   T   T
  5.9176950450000287  4.1981327768183450 16.3557451054029492   T   T   T
 17.7530837259999217  4.1981327768183450 16.3557451054029492   T   T   T
  9.8628241350000643  4.1981327768183450 16.3557451054029492   T   T   T
  1.9725650740000149  4.1981327768183450 16.3557451054029492   T   T   T
  9.8628241350000643  1.3811237581817855 16.3557451054029492   T   T   T
 11.8353900909999528  2.7896282670000101 14.9311421647795974   T   T   T
  3.9451301480000271  2.7896282670000101 14.9311421647795974   T   T   T
 15.7805205919999434  2.7896282670000101 14.9311421647795974   T   T   T
  7.8902602960000570  2.7896282670000101 14.9311421647795974   T   T   T
  0.0000000000000000  2.7896282670000101 14.9311421647795974   T   T   T
 21.6982156369999721  4.1804251936111481 13.5904391766785544   T   T   T
 13.8079546360000549  4.1804251936111481 13.5904391766785544   T   T   T
  5.9176950450000287  4.1804251936111481 13.5904391766785544   T   T   T
 19.7256482699999580  2.7896282670000101 14.9311421647795974   T   T   T
 17.7530837259999217  1.3811237581817855 16.3557451054029492   T   T   T
  5.9176950450000287  1.3811237581817855 16.3557451054029492   T   T   T
 13.8079546360000549  1.3811237581817855 16.3557451054029492   T   T   T
 21.6982156369999721  1.3911429482368400 19.1908049430373673   T   T   T
 17.7530837259999217  4.1881135867632935 19.1908049430373673   T   T   T
  5.9176950450000287  4.1881135867632935 19.1908049430373673   T   T   T
 21.6982156369999721  4.1881135867632935 19.1908049430373673   T   T   T
 13.8079546360000549  4.1881135867632935 19.1908049430373673   T   T   T
  9.8628241350000643  4.1881135867632935 19.1908049430373673   T   T   T
  1.9725650740000149  4.1881135867632935 19.1908049430373673   T   T   T
  1.9725650740000149  1.3911429482368400 19.1908049430373673   T   T   T
 17.7530837259999217  1.3911429482368400 19.1908049430373673   T   T   T
  9.8628241350000643  1.3911429482368400 19.1908049430373673   T   T   T
 19.7256482699999580  0.0000000000000000 17.7201439025163410   T   T   T
 11.8353900909999528  0.0000000000000000 17.7201439025163410   T   T   T
  3.9451301480000271  0.0000000000000000 17.7201439025163410   T   T   T
 15.7805205919999434  0.0000000000000000 17.7201439025163410   T   T   T
  0.0000000000000000  0.0000000000000000 17.7201439025163410   T   T   T
  7.8902602960000570  0.0000000000000000 17.7201439025163410   T   T   T
 21.6982156369999721  1.3811237581817855 16.3557451054029492   T   T   T
 17.7530837259999217  4.1804251936111481 13.5904391766785544   T   T   T
  9.8628241350000643  4.1804251936111481 13.5904391766785544   T   T   T
  1.9725650740000149  4.1804251936111481 13.5904391766785544   T   T   T
 21.6982156369999721  1.3988313413889826 13.5904391766785544   T   T   T
  9.8628241350000643  4.1844424010000720 10.8156001569999933   F   F   F
  1.9725650740000149  4.1844424010000720 10.8156001569999933   F   F   F
 21.6982156369999721 23.7118402720000461 10.8156001569999933   F   F   F
  1.9836185719268884 23.6899380793027206 19.2626714660473333   T   T   T
  5.9658934370648389 26.3348170350664219 19.1205110513611061   T   T   T
 13.6974950361855434  9.8267079893746150 19.3267255882902589   T   T   T
  5.8868968618641659 20.6816074449304068 19.9633851875737953   T   T   T
  5.7054435244746999 15.4480211630164668 19.2486006709887718   T   T   T
 21.6325055490849145 26.4813845044549865 19.2254273308597803   T   T   T
 21.6989496269119826 20.9195188548330080 19.1970002935313389   T   T   T
 21.5999473253933090 15.3121597835947387 19.1913947875106388   T   T   T
  1.9520003044448533 20.9177353617490276 19.1983109742809930   T   T   T
  1.9976149919494832 26.4494453817333763 19.2267806627079736   T   T   T
  9.8278125435824464 14.9279606963568501 18.8988023002130525   T   T   T
  9.9064946119807988  9.7726911291364029 19.1958323474632913   T   T   T
  1.9800957822512004  9.7221289582162971 19.2291190432102503   T   T   T
  2.0616617414856617 15.3216618607061257 19.1901219527350904   T   T   T
 17.7530837259999217  4.1844424010000720 10.8156001569999933   F   F   F
  2.0377818341567253 18.1151070640947509 19.2743881208936614   T   T   T
  5.9176950450000287  4.1844424010000720 10.8156001569999933   F   F   F
 21.6982156369999721  4.1844424010000720 10.8156001569999933   F   F   F
 13.8079546360000549  1.3988313413889826 13.5904391766785544   T   T   T
  5.9176950450000287  1.3988313413889826 13.5904391766785544   T   T   T
 17.7530837259999217  1.3988313413889826 13.5904391766785544   T   T   T
  9.8628241350000643  1.3988313413889826 13.5904391766785544   T   T   T
  1.9725650740000149  1.3988313413889826 13.5904391766785544   T   T   T
 19.7256482699999580  0.0000000000000000 12.2103998060000407   F   F   F
 11.8353900909999528  0.0000000000000000 12.2103998060000407   F   F   F
  3.9451301480000271  0.0000000000000000 12.2103998060000407   F   F   F
 15.7805205919999434  0.0000000000000000 12.2103998060000407   F   F   F
  7.8902602960000570  0.0000000000000000 12.2103998060000407   F   F   F
  0.0000000000000000  0.0000000000000000 12.2103998060000407   F   F   F
 21.6982156369999721  1.3948141340000613 10.8156001569999933   F   F   F
 13.8079546360000549  1.3948141340000613 10.8156001569999933   F   F   F
  5.9176950450000287  1.3948141340000613 10.8156001569999933   F   F   F
 17.7530837259999217  1.3948141340000613 10.8156001569999933   F   F   F
 13.7448357430445114  9.7298831504921033 16.4754704197247364   T   T   T
  1.9725650740000149  1.3948141340000613 10.8156001569999933   F   F   F
 13.8079546360000549  4.1844424010000720 10.8156001569999933   F   F   F
  5.8941760502165446 20.8269629444921520 16.5611315879768348   T   T   T
 13.7354165214378430 20.8638414190766923 19.1446975850996033   T   T   T
  5.8733271979450494 15.3095736264761921 16.4797931734063603   T   T   T
  9.8628241350000643 26.5014685400000047 10.8156001569999933   F   F   F
 17.7530837259999217  9.7636989360000435 10.8156001569999933   F   F   F
 17.7530837259999217 15.3429548049999607 10.8156001569999933   F   F   F
 17.7530837259999217 20.9222120050000342 10.8156001569999933   F   F   F
 17.7530837259999217 26.5014685400000047 10.8156001569999933   F   F   F
  5.9176950450000287  9.7636989360000435 10.8156001569999933   F   F   F
  5.9176950450000287 20.9222120050000342 10.8156001569999933   F   F   F
  9.8628241350000643 20.9222120050000342 10.8156001569999933   F   F   F
 21.6982156369999721 26.5014685400000047 10.8156001569999933   F   F   F
 13.8079546360000549  9.7636989360000435 10.8156001569999933   F   F   F
 13.8079546360000549 15.3429548049999607 10.8156001569999933   F   F   F
 13.8079546360000549 20.9222120050000342 10.8156001569999933   F   F   F
 13.8079546360000549 26.5014685400000047 10.8156001569999933   F   F   F
 21.6982156369999721  9.7636989360000435 10.8156001569999933   F   F   F
 21.6982156369999721 15.3429548049999607 10.8156001569999933   F   F   F
 21.6982156369999721 20.9222120050000342 10.8156001569999933   F   F   F
  5.9176950450000287 26.5014685400000047 10.8156001569999933   F   F   F
  9.8628241350000643 15.3429548049999607 10.8156001569999933   F   F   F
  5.9176950450000287 15.3429548049999607 10.8156001569999933   F   F   F
  1.9725650740000149  6.9740706690000334 10.8156001569999933   F   F   F
 17.7530837259999217  6.9740706690000334 10.8156001569999933   F   F   F
 17.7530837259999217 12.5533272029998937 10.8156001569999933   F   F   F
 17.7530837259999217 18.1325837380000259 10.8156001569999933   F   F   F
 17.7530837259999217 23.7118402720000461 10.8156001569999933   F   F   F
  5.9176950450000287  6.9740706690000334 10.8156001569999933   F   F   F
  5.9176950450000287 12.5533272029998937 10.8156001569999933   F   F   F
  5.9176950450000287 18.1325837380000259 10.8156001569999933   F   F   F
  5.9176950450000287 23.7118402720000461 10.8156001569999933   F   F   F
 13.8079546360000549  6.9740706690000334 10.8156001569999933   F   F   F
 13.8079546360000549 12.5533272029998937 10.8156001569999933   F   F   F
 13.8079546360000549 18.1325837380000259 10.8156001569999933   F   F   F
 13.8079546360000549 23.7118402720000461 10.8156001569999933   F   F   F
 21.6982156369999721  6.9740706690000334 10.8156001569999933   F   F   F
 21.6982156369999721 12.5533272029998937 10.8156001569999933   F   F   F
  3.9161422531329930 16.8182997236040670 17.6460449600685649   T   T   T
  1.9725650740000149 18.1325837380000259 10.8156001569999933   F   F   F
  1.9725650740000149 12.5533272029998937 10.8156001569999933   F   F   F
 13.7978919178857460  6.9710244693004988 13.6418998977324861   T   T   T
 13.8369053429459647 18.1273665865018039 13.6524723689825080   T   T   T
 15.7507502911434276 19.5470480559829056 15.0871522942150769   T   T   T
  5.9176648092511970 26.4643351786161816 13.6194959268989280   T   T   T
 21.6894707101302551 12.5483882836018221 13.6143733020093798   T   T   T
 21.6858187641793485  6.9654337351908975 13.6230086069646088   T   T   T
  5.9451303144122267 15.3842209840664115 13.6513593295890026   T   T   T
 21.6853447277450648 18.1316966079305466 13.6108745492463505   T   T   T
 21.6947863466824806 23.7010659363647704 13.6222076672377757   T   T   T
  1.9847422461079676  9.7453522302835101 13.5902219678876559   T   T   T
  1.9703327038785119 15.3346379284571697 13.5953755200244917   T   T   T
  1.9831546155644697 26.4795149107250438 13.6040195972028588   T   T   T
  1.9970155001513734 20.9088049417143687 13.5930452889683906   T   T   T
  9.8707683772256924 15.2983170187889801 13.6202339052520145   T   T   T
  9.8675133381370337 20.8578262097063956 13.6436357515439735   T   T   T
  9.8817537273485545 26.4617669085242468 13.6222613953411749   T   T   T
 17.7547284867298139  9.8133583641056799 13.6678330519812032   T   T   T
 17.7411680824198754 15.3607211794748135 13.6730704541728354   T   T   T
 17.7298298702979800 20.9472475036350971 13.7176376573151266   T   T   T
 17.7392747987542272 26.5235706238090074 13.6595774995063159   T   T   T
  5.9172429096057817  9.7889060340821707 13.6274551500051970   T   T   T
  9.8705232318800231  9.7566764669193091 13.6095816955056037   T   T   T
  9.8628241350000643 23.7118402720000461 10.8156001569999933   F   F   F
  5.9752004509471526 20.9173588446686693 13.6850868496009817   T   T   T
 13.7911697672903681  9.7990764502447227 13.6531203171268878   T   T   T
 13.7874934199318702 15.3670578857109881 13.6773616000666411   T   T   T
 13.7969032678185783 20.8875224678974156 13.6363595468218222   T   T   T
 13.7892205620812831 26.4693371161540014 13.6152690227336794   T   T   T
 21.6798671133982239  9.7515126279200359 13.5968793577166061   T   T   T
 21.6853180538677748 15.3361740712884096 13.6120275239579680   T   T   T
 21.6665620133864927 20.9050313735018563 13.5899784576690745   T   T   T
 15.7548542449796507 14.0255147224312147 15.0987784427466885   T   T   T
  7.9148331845250146 14.0262584980018943 15.0893129158924886   T   T   T
  7.9476977467338328 19.5296043743708800 15.1323752839058230   T   T   T
 15.7638709371027499  8.3890167636024149 14.9756433330502272   T   T   T
  7.8947807519487467 25.0786449566855438 14.9634104259863570   T   T   T
 -0.0004198325886900 25.0990800149164173 14.9883074172406676   T   T   T
  7.8942674886343127  8.3700331604564209 14.9516061222595891   T   T   T
 23.6652698537384651 19.5707895778872114 14.9301920229322072   T   T   T
  0.0003526971111411 13.9216092468316184 14.9585289157379044   T   T   T
 13.8140759082595359 23.6542771785554677 13.6634113837076629   T   T   T
  0.0033934338618665  8.3710904390878085 14.9492677267864824   T   T   T
 21.7015589001773250 26.4848178241976981 13.5980538846559842   T   T   T
  9.8628241350000643 18.1325837380000259 10.8156001569999933   F   F   F
  5.9176950450000287  1.3911429482368400 19.1908049430373673   T   T   T
  9.8628241350000643  6.9740706690000334 10.8156001569999933   F   F   F
 21.7235985218171557  6.9901910983168687 16.4228315304873469   T   T   T
  3.9716474584461614 25.0681298169588231 14.9969975446176864   T   T   T
  5.9633846877382863  9.7737401974417928 16.4186956628962015   T   T   T
 17.7304745889696953 26.4279676999381792 16.4263243471875171   T   T   T
 17.7966154984468830 20.7648641733830566 16.5921007951806985   T   T   T
 17.8269045382121831 15.2760897061061129 16.4814663019861030   T   T   T
 10.0182523741028540 15.4771248673944708 16.3745890370856522   T   T   T
 10.0102879786218377 20.9284090487552348 16.4017629822804309   T   T   T
 17.7169955448954326  9.6768075507563402 16.5208228020315708   T   T   T
  9.8414083634260727 26.4795829936475968 16.3853504101344534   T   T   T
  1.9783156514144884 26.5341312242793137 16.3695961809665604   T   T   T
  9.8357704185404931  9.8416707664159695 16.3957333443990336   T   T   T
  2.0490136820322711 20.9686920609223861 16.3558405282811741   T   T   T
  1.9697789120876246 15.3618725119289863 16.3631221250687169   T   T   T
  1.9818276568257516  9.7929526067027588 16.3706560785835649   T   T   T
 11.8214404962624080  8.3798428486119487 14.9877358276505337   T   T   T
 23.6624953819287072 16.6947411264243080 17.8303247366174489   T   T   T
 23.6532467691856958 22.4118892985201441 17.7594727133622747   T   T   T
  7.9220614706931762 11.2507683291218399 17.7790896612832299   T   T   T
  7.9065003365298328  5.5759597535546259 17.7604132186105517   T   T   T
 -0.0082807655459362  5.5363246305087781 17.7844091130934885   T   T   T
  0.0263693787914213 11.1553468819635793 17.7578456508258427   T   T   T
  7.8988990291042800 16.6692156903875954 17.7291984474666009   T   T   T
  7.9363200933820046 22.0795937582709811 17.7501893746025701   T   T   T
 15.7053259290768565 11.0940754672046751 17.7236532376865199   T   T   T
 15.7607797670180236  5.5892403628282592 17.7562944085161725   T   T   T
 15.7620695071218133 22.1410781839791966 17.6996020428712768   T   T   T
 15.7919633743030570 16.5832243570042479 17.7298964127059335   T   T   T
  3.9897152709430079 11.1398103588963266 17.7915455456886313   T   T   T
  3.9538731692616920  8.3533651392798145 14.9792975276245919   T   T   T
 11.8353900909999528 22.3170261389999354 12.2103998060000407   F   F   F
 11.8353900909999528 11.1585130699999446 12.2103998060000407   F   F   F
 11.8353900909999528  5.5792565349999723 12.2103998060000407   F   F   F
 17.6911158772077535 12.5880335712961369 13.6374159505098049   T   T   T
 17.7092268507661643 18.1710307155109589 13.6106490033615177   T   T   T
 17.7421465337943403 23.7276418856993985 13.5911730710762715   T   T   T
  5.9230699677295098  6.9617086129546681 13.6241456614325518   T   T   T
 21.6710886280308550 12.5485544602643664 16.3998115760451846   T   T   T
  5.9704183896168725 12.5938889928845050 13.6220148431978494   T   T   T
  5.9635482001230047 18.1782164477230808 13.6148571311467013   T   T   T
  5.9223791318353438 23.6648854409066303 13.6662257434378862   T   T   T
 19.7256482699999580 11.1585130699999446 12.2103998060000407   F   F   F
 13.8302786628923045 12.5982770593156150 13.6245561412369049   T   T   T
 19.7256482699999580  5.5792565349999723 12.2103998060000407   F   F   F
 11.8353900909999528 16.7377696039999648 12.2103998060000407   F   F   F
  1.9725650740000149  9.7636989360000435 10.8156001569999933   F   F   F
  0.0000000000000000  5.5792565349999723 12.2103998060000407   F   F   F
 17.7441204347857635  7.0111964965116860 13.5989434162350928   T   T   T
  0.0000000000000000 11.1585130699999446 12.2103998060000407   F   F   F
  0.0000000000000000 22.3170261389999354 12.2103998060000407   F   F   F
  7.8902602960000570  5.5792565349999723 12.2103998060000407   F   F   F
  7.8902602960000570 11.1585130699999446 12.2103998060000407   F   F   F
  7.8902602960000570 16.7377696039999648 12.2103998060000407   F   F   F
  7.8902602960000570 22.3170261389999354 12.2103998060000407   F   F   F
 15.7805205919999434  5.5792565349999723 12.2103998060000407   F   F   F
 15.7805205919999434 11.1585130699999446 12.2103998060000407   F   F   F
  9.8628241350000643 12.5533272029998937 10.8156001569999933   F   F   F
 15.7805205919999434 16.7377696039999648 12.2103998060000407   F   F   F
 15.7805205919999434 22.3170261389999354 12.2103998060000407   F   F   F
  3.9451301480000271  5.5792565349999723 12.2103998060000407   F   F   F
  3.9451301480000271 11.1585130699999446 12.2103998060000407   F   F   F
  3.9451301480000271 16.7377696039999648 12.2103998060000407   F   F   F
  3.9451301480000271 22.3170261389999354 12.2103998060000407   F   F   F
  0.0000000000000000 16.7377696039999648 12.2103998060000407   F   F   F
  4.0393581278451975 22.3143461270021604 17.8499008998812876   T   T   T
  3.9626450300754703  5.5414979013302865 17.7676761832235854   T   T   T
  1.9802777345089859  6.9602370934733067 13.6242779297135410   T   T   T
  1.9773242204099468 23.7022437405726052 13.6259152880572181   T   T   T
  1.9873598624854578 18.1334137242374993 13.6165347144727669   T   T   T
  1.9760947448981403 12.5493696626267521 13.6138177811677856   T   T   T
  9.8458325810704288 18.0633205028189963 13.7355528988005364   T   T   T
 19.7256482699999580 22.3170261389999354 12.2103998060000407   F   F   F
 19.7256482699999580 16.7377696039999648 12.2103998060000407   F   F   F
  1.9725650740000149 15.3429548049999607 10.8156001569999933   F   F   F
  1.9725650740000149 20.9222120050000342 10.8156001569999933   F   F   F
  1.9725650740000149 26.5014685400000047 10.8156001569999933   F   F   F
  9.8628241350000643  9.7636989360000435 10.8156001569999933   F   F   F
  1.9725650740000149 23.7118402720000461 10.8156001569999933   F   F   F
  9.8633530949291046 23.6508249242061055 13.6546323737040858   T   T   T
  9.8700954085095471  6.9556617452345737 13.6545939697697278   T   T   T
  9.8377643196694926 12.5309086926320123 13.7159756349963597   T   T   T
  7.8153884219794172 11.1138102160270886 15.0845454722368864   T   T   T
 11.8562745703400001 22.3755754060533931 15.1173943662051187   T   T   T
  3.8865212736854269 22.3439254905131364 15.1048624343430866   T   T   T
 11.8393104286447013  5.5587164789157395 15.1648198962525189   T   T   T
 19.9059979186557143 19.5602473278641540 18.0891126975008909   T   T   T
  3.9393431159908077 11.1203032780230053 15.1858363228984139   T   T   T
  3.9284751892056127  5.6023786433317380 15.1951574125911097   T   T   T
  7.8393697888471747 16.7212239380629732 15.0306689173633572   T   T   T
 15.7548107393846486 22.3601730648890253 15.0625566593433664   T   T   T
 15.8265688797318766 16.7297281410322789 15.0235107389021412   T   T   T
 15.7614720950833451  5.5828161905085185 15.1673235281581178   T   T   T
  7.9002275002870759 22.3331986688116828 15.0519275656807690   T   T   T
  7.8846203861531681  5.5998526040028471 15.1697965696863601   T   T   T
  0.0156218791340084  8.3200866739679995 18.5669291511486740   T   T   T
 19.7256482699999580 19.5273978709999732 12.2103998060000407   F   F   F
 15.7909966308367409 11.1080514149616327 15.0921553543140394   T   T   T
 23.6614697349532364 16.7455730195456987 15.2152434758446127   T   T   T
 23.6460355564600633 25.1022394292658362 18.6701873346174203   T   T   T
  0.0000000000000000  2.7896282670000101 12.2103998060000407   F   F   F
 19.7256482699999580  2.7896282670000101 18.6162133690116534   T   T   T
  7.8902602960000570  2.7896282670000101 18.6162133690116534   T   T   T
 15.7805205919999434  2.7896282670000101 18.6162133690116534   T   T   T
 11.8353900909999528  2.7896282670000101 18.6162133690116534   T   T   T
  3.9451301480000271  2.7896282670000101 18.6162133690116534   T   T   T
  0.0000000000000000  2.7896282670000101 18.6162133690116534   T   T   T
 19.7256482699999580  0.0000000000000000 15.1353817264146731   T   T   T