Au  C  H  O Sr Ti                       
   1.00000000000000     
    23.6707801818999997    0.0000000000000000    0.0000000000000000
     0.0000000000000000   22.3170261383000010    0.0000000000000000
     0.0000000000000000    0.0000000000000000   30.0000000000000000
   Au   C    H    O    Sr   Ti
    50     1     3   265    72    72
Selective dynamics
Direct
  0.7155456853766891  0.5242217362072121  0.7527050166872259   T   T   T
  0.6207283043174237  0.5711470592677862  0.7041617228350133   T   T   T
  0.7199863301208058  0.2566782396876305  0.6919594739415257   T   T   T
  0.2951023269712297  0.7463728332896146  0.6960424510021430   T   T   T
  0.5118363397210455  0.6036371062363890  0.7768075077637528   T   T   T
  0.5783995116411653  0.7257214822015542  0.7939765503027763   T   T   T
  0.2403916547211019  0.4692805048753259  0.7088256441191950   T   T   T
  0.2860080904498137  0.6623666510794060  0.7640361849740364   T   T   T
  0.5984288966877607  0.2911586434522195  0.7848229769601014   T   T   T
  0.5139115714221614  0.4843316518131587  0.6780531522845640   T   T   T
  0.5625111003947149  0.4861989046154960  0.7623170578607735   T   T   T
  0.5513209200960729  0.2159503749160646  0.7095457495590706   T   T   T
  0.5462591433418943  0.3855257051841127  0.8282908087379938   T   T   T
  0.3921375290014696  0.8175768418097042  0.7066921910035688   T   T   T
  0.4637710262607527  0.6953538190779427  0.8304061009510125   T   T   T
  0.4343851465176075  0.2272331417767789  0.6983696511825507   T   T   T
  0.3684722951350483  0.2994672791213333  0.7560173809461854   T   T   T
  0.3494390973201992  0.4995087550099100  0.6977611728691168   T   T   T
  0.4264395889624203  0.3718059390402003  0.8168812743567144   T   T   T
  0.5964390952714780  0.7845569863938046  0.7130366094789332   T   T   T
  0.6349679711508001  0.5837732224988943  0.8000028877050345   T   T   T
  0.7325424484476885  0.6145232525999093  0.6940113459995321   T   T   T
  0.4859585955182519  0.7765628265249659  0.7551102975406894   T   T   T
  0.7629651229282993  0.4296461121519277  0.7040866846667320   T   T   T
  0.4831156152736916  0.2712333197918328  0.7749408753450683   T   T   T
  0.2891315289057732  0.5384752583199292  0.7771644553099630   T   T   T
  0.6170763026688886  0.3214144635555847  0.6959501308445891   T   T   T
  0.3683101928241631  0.6191650304545371  0.8202867036448155   T   T   T
  0.5695325801667876  0.5100292207573670  0.8566661251229338   T   T   T
  0.6600721147644985  0.1912034275914938  0.7489923624218515   T   T   T
  0.4699979371099059  0.4514812991109389  0.8792771215079390   T   T   T
  0.5175442780349455  0.3773528278130546  0.7321782425374387   T   T   T
  0.2812202463124709  0.3407923534025597  0.7024671294933519   T   T   T
  0.6692994611301373  0.6811607466635882  0.7487853944340767   T   T   T
  0.3975256042710098  0.3816459369470019  0.6905021463977120   T   T   T
  0.4520966906886228  0.5796135488053374  0.7029164974986943   T   T   T
  0.3745697117048077  0.4935807027710176  0.8330486275596928   T   T   T
  0.3243189779792601  0.4153431659757126  0.7696816600080885   T   T   T
  0.4164682683802761  0.6959843974152156  0.6997521426143808   T   T   T
  0.6997097399267643  0.3442998971118483  0.7573791705582231   T   T   T
  0.7732895278764609  0.4284841095737184  0.7943439577795215   T   T   T
  0.2568895214596769  0.5927441510281067  0.6942445499779863   T   T   T
  0.6481678943775209  0.4458364226563458  0.6943630841940814   T   T   T
  0.5646500944898646  0.6394228643284178  0.8610013042534926   T   T   T
  0.5400553611115112  0.6678592573127923  0.7016196198302053   T   T   T
  0.4432487010367214  0.4730214683524702  0.7566735951720008   T   T   T
  0.3745092957421018  0.7401178426792988  0.7790940502489355   T   T   T
  0.4624846358724482  0.5737401293250354  0.8641642997411022   T   T   T
  0.6548120918277965  0.4404751594876505  0.8125637005877790   T   T   T
  0.7065025293921295  0.7568427527680006  0.6883555399267050   T   T   T
  0.7213687765124946  0.1297228995471706  0.7727175000158323   T   T   T
  0.7485252224085686  0.1194024338018580  0.7444782408406638   T   T   T
  0.7418453141681147  0.1536946565625504  0.7998510739360785   T   T   T
  0.6842573055425234  0.0526762114636857  0.7661301815886594   T   T   T
  0.2492681366225167  0.3137922689520949  0.5459469896453819   T   T   T
  0.7507760210695291  0.1898129757787386  0.4557430783417763   T   T   T
  0.4171402296505718  0.9357796577938031  0.4539521523797097   T   T   T
  0.4171548265378602  0.6847557375160732  0.4547360740760365   T   T   T
  0.4164363090278375  0.4354708447050437  0.4538760410909354   T   T   T
  0.0845403354302885  0.6869291976762101  0.4530737591696974   T   T   T
  0.0841123922160514  0.9368068396156352  0.4536118352230767   T   T   T
  0.0827842091122511  0.4367813284942936  0.4528294451468428   T   T   T
  0.0838574146114777  0.1865506171756141  0.4529829565813700   T   T   T
  0.9165634306601881  0.8121323696760492  0.4540663444537931   T   T   T
  0.0833333358191695  0.3124999999901945  0.3605200052333331   F   F   F
  0.7464462212691594  0.5578038824497186  0.5446334741250431   T   T   T
  0.9160844955023010  0.0622454839939796  0.4541445685976808   T   T   T
  0.9161166198864150  0.3121537260603831  0.4538978260585491   T   T   T
  0.4170985278104941  0.1871286599226654  0.4535730706054446   T   T   T
  0.2520834672458437  0.6876378708918198  0.4561170770971479   T   T   T
  0.9164632605763633  0.9371464372048343  0.4536907078572932   T   T   T
  0.5827149931826804  0.1903335538014346  0.4555916278515124   T   T   T
  0.0000442217924518  0.1251749577858209  0.4984894967359309   T   T   T
  0.5832723701803721  0.8104474834985022  0.4553259665029576   T   T   T
 -0.0001110785225292  0.3737013414884301  0.4981716111464940   T   T   T
 -0.0002103203565461  0.6271450115583622  0.4977079809150033   T   T   T
  0.3336184565623581  0.1256176953238902  0.4986330022982146   T   T   T
  0.0000610386819505  0.8751643349107968  0.4995436240862769   T   T   T
  0.3334316761905970  0.8739327818502465  0.4992990148789729   T   T   T
  0.6660621640131427  0.1266502708593976  0.4991360884850947   T   T   T
  0.2511675139634164  0.4392671633398657  0.4548827451584913   T   T   T
  0.0833333358191695  0.5625000000092442  0.3605200052333331   F   F   F
  0.9166666865332829  0.0625000000159659  0.3605200052333331   F   F   F
  0.7494169141692911  0.8131616447675768  0.4530685465672763   T   T   T
  0.7495964953426021  0.4383006676973541  0.4557577091898841   T   T   T
  0.2505154603807084  0.0620374771169707  0.4542442268754691   T   T   T
  0.7490928121375771  0.6887001818378942  0.4574445795510799   T   T   T
  0.2499201806949904  0.1884820339080538  0.4540931149614689   T   T   T
  0.2500476880267756  0.9360888984953337  0.4540411320840538   T   T   T
  0.6653871808677676  0.6259940496010379  0.5029927275977453   T   T   T
  0.5844740581119682  0.5628057694812173  0.4548535091947584   T   T   T
  0.5832141740216881  0.0637340841796167  0.4539005751462666   T   T   T
  0.9166666865332829  0.6874999999963620  0.3605200052333331   F   F   F
  0.9166666865332829  0.4374999701794380  0.3605200052333331   F   F   F
  0.9166666865332829  0.1875000000030838  0.3605200052333331   F   F   F
  0.5833333134730552  0.9375000000154046  0.3605200052333331   F   F   F
  0.5833333134730552  0.6874999999963620  0.3605200052333331   F   F   F
  0.5833333134730552  0.4374999701794380  0.3605200052333331   F   F   F
  0.5833333134730552  0.1875000000030838  0.3605200052333331   F   F   F
  0.2499999999799343  0.9375000000154046  0.3605200052333331   F   F   F
  0.9166666865332829  0.9375000000154046  0.3605200052333331   F   F   F
  0.2499999999799343  0.6874999999963620  0.3605200052333331   F   F   F
  0.2499999999799343  0.1875000000030838  0.3605200052333331   F   F   F
  0.7499999404149307  0.9375000000154046  0.3605200052333331   F   F   F
  0.7499999404149307  0.6874999999963620  0.3605200052333331   F   F   F
  0.7499999404149307  0.4374999701794380  0.3605200052333331   F   F   F
  0.7499999404149307  0.1875000000030838  0.3605200052333331   F   F   F
  0.4166666269218169  0.9375000000154046  0.3605200052333331   F   F   F
  0.4166666269218169  0.6874999999963620  0.3605200052333331   F   F   F
  0.4166666269218169  0.4374999701794380  0.3605200052333331   F   F   F
  0.2499999999799343  0.4374999701794380  0.3605200052333331   F   F   F
  0.0833333358191695  0.0625000000159659  0.3605200052333331   F   F   F
  0.9153073243416417  0.6867971519855584  0.4532746660479979   T   T   T
  0.6654170052225895  0.3784803392747009  0.5032714243074907   T   T   T
  0.3343478407070072  0.3784606828229755  0.5029585830877695   T   T   T
  0.3356637870305443  0.6258143060719905  0.5037617750736414   T   T   T
  0.9177382512844623  0.0633605728763208  0.5475793130205804   T   T   T
  0.7494756066002070  0.9384503028467907  0.4553490675497865   T   T   T
  0.9155501053769998  0.3126924048234062  0.5467878485871347   T   T   T
  0.2522627058140315  0.3141321785228505  0.4541377683665687   T   T   T
  0.2518685831375528  0.5647304751694306  0.4536405170644625   T   T   T
  0.2499999999799343  0.8124999999834799  0.3605200052333331   F   F   F
  0.2499999999799343  0.5625000000092442  0.3605200052333331   F   F   F
  0.2499999999799343  0.3124999999901945  0.3605200052333331   F   F   F
  0.2499999999799343  0.0625000000159659  0.3605200052333331   F   F   F
  0.7499999404149307  0.5625000000092442  0.3605200052333331   F   F   F
  0.7499999404149307  0.3124999999901945  0.3605200052333331   F   F   F
  0.7499999404149307  0.0625000000159659  0.3605200052333331   F   F   F
  0.4166666269218169  0.8124999999834799  0.3605200052333331   F   F   F
  0.4166666269218169  0.5625000000092442  0.3605200052333331   F   F   F
  0.4166666269218169  0.3124999999901945  0.3605200052333331   F   F   F
  0.7499999404149307  0.8124999999834799  0.3605200052333331   F   F   F
  0.0834257966132998  0.3120283843929054  0.4539895001699615   T   T   T
  0.4166666269218169  0.0625000000159659  0.3605200052333331   F   F   F
  0.4168721931670563  0.0615461365608960  0.4553838532084638   T   T   T
  0.0834454617973823  0.8121441874411390  0.4541799445833380   T   T   T
  0.0839626144946752  0.5624945954967892  0.4538810408048421   T   T   T
  0.4160548440352975  0.5595163210368629  0.4578664681378937   T   T   T
  0.0836725687915627  0.0618812600711304  0.4542448628825217   T   T   T
  0.4154927433011845  0.3113282709507640  0.4573647777592552   T   T   T
  0.8333332538436267  0.7500000000123208  0.4070133268666680   F   F   F
  0.0833333358191695  0.4374999701794380  0.3605200052333331   F   F   F
  0.0833333358191695  0.6874999999963620  0.3605200052333331   F   F   F
  0.0833333358191695  0.9375000000154046  0.3605200052333331   F   F   F
  0.4166666269218169  0.1875000000030838  0.3605200052333331   F   F   F
  0.0833333358191695  0.8124999999834799  0.3605200052333331   F   F   F
  0.8333332538436267  0.4999999999932783  0.4070133268666680   F   F   F
  0.6922785770009104  0.0810884388711684  0.7898442052292747   T   T   T
  0.2510667275901739  0.0625591196600216  0.5472573917654150   T   T   T
  0.4144574302305254  0.8117720484400733  0.5478756727249054   T   T   T
  0.5833333134730552  0.0625000000159659  0.3605200052333331   F   F   F
  0.5833333134730552  0.3124999999901945  0.3605200052333331   F   F   F
  0.5833333134730552  0.8124999999834799  0.3605200052333331   F   F   F
  0.7496600151766337  0.0640525595727818  0.4534723856912248   T   T   T
  0.2504731471384302  0.8108238603484619  0.4553054111984398   T   T   T
  0.8333332538436267  0.2500000000190425  0.4070133268666680   F   F   F
  0.5843724549911873  0.3154807345022312  0.4535996529183742   T   T   T
  0.8333332538436267  0.0000000000000000  0.4070133268666680   F   F   F
  0.7483083559044758  0.8081028173571377  0.5457194665158732   T   T   T
  0.0833333358191695  0.1875000000030838  0.3605200052333331   F   F   F
  0.0000000000000000  0.0000000000000000  0.4070133268666680   F   F   F
  0.0000000000000000  0.2500000000190425  0.4070133268666680   F   F   F
  0.0000000000000000  0.4999999999932783  0.4070133268666680   F   F   F
  0.7482394619944830  0.5642773103294793  0.4537887574617432   T   T   T
  0.3333333432766779  0.0000000000000000  0.4070133268666680   F   F   F
  0.3333333432766779  0.4999999999932783  0.4070133268666680   F   F   F
  0.3333333432766779  0.7500000000123208  0.4070133268666680   F   F   F
  0.6666666865533486  0.0000000000000000  0.4070133268666680   F   F   F
  0.5827678285131537  0.4396199301662685  0.4564365412058068   T   T   T
  0.6666666865533486  0.2500000000190425  0.4070133268666680   F   F   F
  0.6666666865533486  0.7500000000123208  0.4070133268666680   F   F   F
  0.1666666716383389  0.0000000000000000  0.4070133268666680   F   F   F
  0.1666666716383389  0.2500000000190425  0.4070133268666680   F   F   F
  0.1666666716383389  0.4999999999932783  0.4070133268666680   F   F   F
  0.1666666716383389  0.7500000000123208  0.4070133268666680   F   F   F
  0.5000000000021103  0.0000000000000000  0.4070133268666680   F   F   F
  0.5000000000021103  0.2500000000190425  0.4070133268666680   F   F   F
  0.5000000000021103  0.7500000000123208  0.4070133268666680   F   F   F
  0.9166666865332829  0.3124999999901945  0.3605200052333331   F   F   F
  0.3333333432766779  0.2500000000190425  0.4070133268666680   F   F   F
  0.7473203410768970  0.3140438439865036  0.4549097029917847   T   T   T
  0.0000000000000000  0.7500000000123208  0.4070133268666680   F   F   F
  0.4166447192824839  0.8099562017938692  0.4551416072178038   T   T   T
  0.5833333134730552  0.5625000000092442  0.3605200052333331   F   F   F
  0.6666666865533486  0.4999999999932783  0.4070133268666680   F   F   F
  0.5827652387553357  0.6861212802271054  0.4546165050404418   T   T   T
  0.5000000000021103  0.4999999999932783  0.4070133268666680   F   F   F
  0.9157699420213276  0.1868321919474146  0.4532085203926215   T   T   T
  0.4159219425953642  0.9371752179675491  0.5460299465505146   T   T   T
  0.4983966266038427  0.2530584746152855  0.5908373358040111   T   T   T
  0.4157040964578210  0.1914736333388163  0.5465218762814951   T   T   T
  0.0860701091943992  0.6893047821315634  0.5453402005425592   T   T   T
  0.0826448017872096  0.4387641294247553  0.5448577455901975   T   T   T
  0.0837973287138658  0.1889863030400560  0.5455393570422733   T   T   T
  0.4994899389218270  0.1256773440101343  0.4995873674973863   T   T   T
  0.9997037833198943  0.4994648446597695  0.5941222004154786   T   T   T
  0.5806576461597130  0.1852250238360746  0.5501130763202950   T   T   T
  0.9998041276759874  0.7531661346129213  0.5923745906017733   T   T   T
  0.3340194271049823  0.9998628562210333  0.5919956592781460   T   T   T
  0.9998563906174514  0.9992020259233919  0.5933176274469034   T   T   T
  0.0007101435162996  0.2486174463832344  0.5920370775911277   T   T   T
  0.3332541503164609  0.4963786131732650  0.5909101860574862   T   T   T
  0.3355398810371705  0.7411841014380408  0.5903071219350564   T   T   T
  0.6636176568564152  0.2477749568473657  0.5904742520815843   T   T   T
  0.6660198542082614  0.0005129425674016  0.5920191315664030   T   T   T
  0.6657690195823918  0.7415982964442123  0.5903521397693724   T   T   T
  0.6666593560565085  0.4945131377326073  0.5913672263702714   T   T   T
  0.1674522046632860  0.9983867797845351  0.5923150666359498   T   T   T
  0.1683797271871182  0.2487755876354056  0.5931324387238252   T   T   T
  0.1707015120097972  0.7502489557024716  0.5949893025568221   T   T   T
  0.2485826579416423  0.4359697453806095  0.5488969869648795   T   T   T
  0.1654911397594799  0.5026062009723211  0.5871167166033912   T   T   T
  0.3345444206898071  0.2546116746870437  0.5926735425970209   T   T   T
  0.4997500984993009  0.0001275770567578  0.5910730757137660   T   T   T
  0.8327516565460599  0.8743084906552929  0.4986294572025579   T   T   T
  0.7484352377339433  0.9369057604577783  0.6402518690230676   T   T   T
  0.8321505125983698  0.0021366720271176  0.5922729517788404   T   T   T
  0.7484746866472084  0.1836717508173558  0.5509317894058834   T   T   T
  0.4231543412749992  0.6879350270246315  0.5467889339532422   T   T   T
  0.4231357433545156  0.4436719761419306  0.5458414493892585   T   T   T
  0.7519790900472827  0.4353152259015597  0.5488449562496999   T   T   T
  0.5825743389826443  0.3110376416425981  0.5449265846034335   T   T   T
  0.2530090034939578  0.8125047002615097  0.5506599773193983   T   T   T
  0.5830813986550539  0.0621881357512753  0.5456416690930690   T   T   T
  0.5827528232350746  0.9371568690199069  0.4543241662352647   T   T   T
  0.5857561369737762  0.8143094677208014  0.5503438944300317   T   T   T
  0.7481810068697731  0.3118090928331437  0.5486015988205004   T   T   T
  0.5811357329649939  0.5600082715217738  0.5489493871930436   T   T   T
  0.2524940259936609  0.5590319202899493  0.5437410001248688   T   T   T
  0.4159570196612405  0.3195624599861513  0.5525518847674965   T   T   T
  0.5766545916567651  0.4357869094683014  0.5521453753138680   T   T   T
  0.4165435957094291  0.0654084821484924  0.5473679982318400   T   T   T
  0.0849315502505331  0.8128524619069795  0.5473240669558883   T   T   T
  0.0817642385131362  0.5643741639396005  0.5462608040579816   T   T   T
  0.0857172021197167  0.3134373308294357  0.5469695470236419   T   T   T
  0.5009354553973104  0.7563921124670753  0.5929009566043816   T   T   T
  0.0823200053862964  0.0632530883209820  0.5475836283837343   T   T   T
  0.9141181852634641  0.6889952314224828  0.5454591306568327   T   T   T
  0.5837768674558161  0.9376844151288329  0.5461550084212250   T   T   T
  0.9165240092720869  0.1888974131340991  0.5454137781276552   T   T   T
  0.9157067714623758  0.4375571663920103  0.5456937721794470   T   T   T
  0.5795371807900696  0.6860916607942834  0.5474040549865437   T   T   T
  0.2515060191511341  0.9373039385130937  0.5452651644238397   T   T   T
  0.4974159479269220  0.5044051772187742  0.6090254200108252   T   T   T
  0.9177543612872094  0.5638674805907651  0.5471420899381146   T   T   T
  0.4200080503091793  0.5649157697876971  0.5553429172233473   T   T   T
  0.9154866448575402  0.8128296464048020  0.5467949575785817   T   T   T
  0.0837038448563680  0.9387671410112589  0.5459454552674091   T   T   T
  0.2490624033816121  0.6831167363133227  0.5520227813935045   T   T   T
  0.7493623081119934  0.9339386509125499  0.5476601735642815   T   T   T
  0.7518226363686842  0.6801409384057234  0.5533405028609341   T   T   T
  0.9156456782339463  0.9385701075873002  0.5464330664768857   T   T   T
  0.4177950559669772  0.0652032411871487  0.6400893824161883   T   T   T
  0.9161343463872891  0.5622024386395219  0.4540834451564775   T   T   T
  0.4124155043632581  0.8128810318068722  0.6395640502196650   T   T   T
  0.9156922875716932  0.0624602246823808  0.6417504820397109   T   T   T
  0.9133675312033716  0.5623350383217308  0.6412043188615136   T   T   T
  0.9152178263509243  0.3117280574866547  0.6396306077067699   T   T   T
  0.9139912038175744  0.8132882443460890  0.6415685063372759   T   T   T
  0.5827869623449610  0.0665177945673679  0.6391563550396760   T   T   T
  0.5837351256325922  0.3209923053749505  0.6333185483851986   T   T   T
  0.5906769317663771  0.5657309640345884  0.6389048221273881   T   T   T
  0.2474301786939572  0.5736625267658564  0.6285150851845941   T   T   T
  0.7536392170487236  0.6918872393081947  0.6570588913364873   T   T   T
  0.2621911941821659  0.7996734545578945  0.6461727917948110   T   T   T
  0.2510139519908948  0.0593884396688876  0.6423182079064406   T   T   T
  0.9166666865332829  0.5625000000092442  0.3605200052333331   F   F   F
  0.4995391093325010  0.3742614743389119  0.4997498358182598   T   T   T
  0.5002940474268952  0.6211168035891347  0.5000604503053244   T   T   T
  0.8323853897763949  0.6230653277378628  0.5000855207358345   T   T   T
  0.2518028873567678  0.1883277332663588  0.5471170618632125   T   T   T
  0.8324458441095579  0.3730807355517813  0.4997501235576781   T   T   T
  0.8328448584424967  0.1243513574988444  0.5002927845431859   T   T   T
  0.1666425877582667  0.3761371435375191  0.4978576499966078   T   T   T
  0.1676573409175245  0.6242649881278363  0.5000557061568347   T   T   T
  0.5809515597928067  0.4388048367689788  0.6462975454648335   T   T   T
  0.5784328089737080  0.6857768059071260  0.6395445054466308   T   T   T
  0.9160445319501888  0.1860581972641424  0.6401410219092714   T   T   T
  0.2490702820818363  0.3164102575026908  0.6412791706022547   T   T   T
  0.9157374970114535  0.4369476315695029  0.4536325498719227   T   T   T
  0.1670642990253974  0.1242906083818530  0.4993185702688943   T   T   T
  0.7480848134951905  0.0598773293075738  0.5446965660183225   T   T   T
  0.1677072653657006  0.8732895405580704  0.4998842823758611   T   T   T
  0.4267074160295242  0.3041688877217208  0.6557042666422579   T   T   T
  0.5911298399316736  0.8101157944007625  0.6460766296015125   T   T   T
  0.4203465734871802  0.6761096488519603  0.6337350606363780   T   T   T
  0.4999922482194688  0.8734423068213594  0.5008597890027026   T   T   T
  0.7549657190253524  0.4330861920021519  0.6374385156565725   T   T   T
  0.7533751615199336  0.5681678425183851  0.6357703824442739   T   T   T
  0.3972107253978275  0.5505676377228522  0.6519769217544585   T   T   T
  0.4175329385717598  0.9349401507837007  0.6397366331091440   T   T   T
  0.7411337214965336  0.8098126915998927  0.6399924559452654   T   T   T
  0.7466752684967116  0.3110218325535542  0.6419775153675431   T   T   T
  0.7479293778319084  0.0673445057669288  0.6398964278370299   T   T   T
  0.0835242778756502  0.3114776554831948  0.6403780658378736   T   T   T
  0.6665232978778227  0.8742940249723685  0.4989942084689897   T   T   T
  0.0868214642963063  0.5627346022609832  0.6402010095753567   T   T   T
  0.0870855297918897  0.4365509203202820  0.6396857967517309   T   T   T
  0.0838074793455398  0.1853996368621346  0.6412111860845114   T   T   T
  0.4175472739688392  0.1872504610689130  0.6396611211970692   T   T   T
  0.4151739596869263  0.4186467292807743  0.6301689936313205   T   T   T
  0.0843860895102301  0.9356027662427038  0.6408397007646978   T   T   T
  0.0831730608944518  0.6870854064490273  0.6389690622070655   T   T   T
  0.0842726089230985  0.0604319947937366  0.6422642905765734   T   T   T
  0.8332858064047847  0.5030694281603177  0.5887933273509667   T   T   T
  0.9124286871408658  0.4360644147206695  0.6397941141945399   T   T   T
  0.8304929249458025  0.7507172374232708  0.5927909065532567   T   T   T
  0.8314570115301642  0.2485291187735865  0.5912088171113006   T   T   T
  0.7457835739012645  0.1937999062799482  0.6465635296834557   T   T   T
  0.9166666865332829  0.8124999999834799  0.3605200052333331   F   F   F
  0.5821264807331427  0.9359110024215738  0.6394524229867419   T   T   T
  0.0842807108880452  0.8125696586738030  0.6422905540759579   T   T   T
  0.5795699811983199  0.1925537202226869  0.6453459756100718   T   T   T
  0.2553783639690036  0.6773672634501433  0.6626363141724875   T   T   T
  0.2405436040771265  0.4420174286048872  0.6412432891868475   T   T   T
  0.9142931377531420  0.9369977513619657  0.6412212310444392   T   T   T
  0.9163605412063969  0.6875819467757951  0.6391380542084545   T   T   T
  0.2520075185452333  0.9301997680703943  0.6374097981006371   T   T   T
  0.2535534132092159  0.1865323423598699  0.6411765117903080   T   T   T
  0.0005601676894727  0.1226610262291016  0.6200813355735904   T   T   T
  0.1666666716383389  0.3750000000061604  0.4070133268666680   F   F   F
  0.6653848072870812  0.7518765814329199  0.5022120856768675   T   T   T
  0.5011224334504418  0.7528462762821084  0.5039790663226240   T   T   T
  0.6659990757855210 -0.0000291418609586  0.5056073042576197   T   T   T
  0.1643543483260861  0.7515632027196441  0.5033519545643721   T   T   T
  0.8333332538436267  0.6249999999803961  0.4070133268666680   F   F   F
  0.6686172264692610  0.4998249299495334  0.5006757697655277   T   T   T
  0.3312029863916698  0.4992119005313718  0.5008856333543965   T   T   T
  0.3300765147384032  0.2480708994250730  0.5028508171693902   T   T   T
  0.3338616273119926  0.7511658976321699  0.5015259919900932   T   T   T
  0.6670509386912861  0.2480773720732975  0.5026660040782291   T   T   T
  0.5011832245246434  0.4998018373533941  0.5002597021442310   T   T   T
  0.9996152562919642  0.5002443139147816  0.5067905635197625   T   T   T
  0.8360848592229224  0.5000180404612253  0.5027791935821170   T   T   T
  0.8356140063788010  0.2485016554572868  0.5029373333794563   T   T   T
  0.6666666865533486  0.3750000000061604  0.4070133268666680   F   F   F
  0.1659595499187769  0.0011544713076004  0.5065724842480347   T   T   T
  0.0000000000000000  0.8749999404036828  0.4070133268666680   F   F   F
  0.5009961402183839  0.2479983797959184  0.5021040370230240   T   T   T
 -0.0000794782074797  0.7510270218339555  0.5065887925923930   T   T   T
  0.0007525680738455  0.2497634676843996  0.5059882275444161   T   T   T
  0.0000226033027281  0.0000171953312607  0.5067709812461937   T   T   T
  0.6666666865533486  0.6249999999803961  0.4070133268666680   F   F   F
  0.8333332538436267  0.8749999404036828  0.4070133268666680   F   F   F
  0.3333333432766779  0.6249999999803961  0.4070133268666680   F   F   F
  0.3333333432766779  0.1249999999871179  0.4070133268666680   F   F   F
  0.3333333432766779  0.3750000000061604  0.4070133268666680   F   F   F
  0.8341657515102757  0.0002003763006060  0.5065361546696054   T   T   T
  0.3333333432766779  0.8749999404036828  0.4070133268666680   F   F   F
  0.6666666865533486  0.1249999999871179  0.4070133268666680   F   F   F
  0.0000000000000000  0.6249999999803961  0.4070133268666680   F   F   F
  0.1662790938329431  0.2482988528214595  0.5062102568331101   T   T   T
  0.3330828334785187  0.0010769599866256  0.5057649350744886   T   T   T
  0.5002897547924076  0.9993518055779466  0.5055522691745529   T   T   T
  0.5008158802399960  0.8768207499251448  0.6094698394960776   T   T   T
  0.3259664999499750  0.3735994216395813  0.5927657710149035   T   T   T
  0.0000000000000000  0.3750000000061604  0.4070133268666680   F   F   F
  0.3340383913490328  0.6244934388718862  0.5950766395028624   T   T   T
  0.5000000000021103  0.8749999404036828  0.4070133268666680   F   F   F
  0.8333332538436267  0.3750000000061604  0.4070133268666680   F   F   F
  0.1666666716383389  0.1249999999871179  0.4070133268666680   F   F   F
  0.6655586412827399  0.1245153472892436  0.6100988675664887   T   T   T
  0.5000000000021103  0.6249999999803961  0.4070133268666680   F   F   F
  0.8394586189943790  0.6270276048603849  0.6040787778143034   T   T   T
  0.3315387546871558  0.1197217894842712  0.6128560831095011   T   T   T
  0.9991240705428794  0.8750778898247900  0.6226665831151020   T   T   T
  0.1634506358453489  0.4998156072568001  0.5018943665198424   T   T   T
  0.5000000000021103  0.1249999999871179  0.4070133268666680   F   F   F
  0.8319765980094802  0.8763013699232582  0.6177813763386893   T   T   T
  0.8377546159193181  0.3722297662926075  0.6034637460910524   T   T   T
  0.8360687234877531  0.7516757256506535  0.5026110078467856   T   T   T
  0.1666666716383389  0.8749999404036828  0.4070133268666680   F   F   F
  0.8333332538436267  0.1249999999871179  0.4070133268666680   F   F   F
  0.0000000000000000  0.1249999999871179  0.4070133268666680   F   F   F
  0.5036874552821428  0.6250783069649427  0.5940985869170912   T   T   T
  0.6712417911883651  0.3724356550618458  0.5934888701393198   T   T   T
  0.5000000000021103  0.3750000000061604  0.4070133268666680   F   F   F
  0.6666666865533486  0.8749999404036828  0.4070133268666680   F   F   F
  0.3345017963523428  0.8787098907737153  0.6028906097909718   T   T   T
  0.1594892903744990  0.6274052573424806  0.6013442699803498   T   T   T
  0.1662434016213450  0.8736068098951913  0.6179724675998456   T   T   T
  0.5016402121359428  0.3713786018683466  0.5948027333010170   T   T   T
  0.1666666716383389  0.6249999999803961  0.4070133268666680   F   F   F
  0.1678312399523905  0.1226896238576428  0.6218939916398968   T   T   T
  0.5004783640283768  0.1225055832673733  0.6067389494365760   T   T   T
  0.9996933939109440  0.6230390782517402  0.6261550950511431   T   T   T
  0.0000501015638229  0.3751280626869685  0.6236374347152198   T   T   T
  0.8339319271126012  0.1240033490598863  0.6157736445029602   T   T   T
  0.6653693526609711  0.8810664413274018  0.6069989230113259   T   T   T
  0.1631301023339896  0.3712622828190354  0.6075816513172148   T   T   T
  0.6664457004678846  0.6261669598482402  0.5934706181194174   T   T   T
  0.0835473953801491  0.2476274478605484  0.6036610677058432   T   T   T
  0.7495496178273775  0.0019158458965063  0.6047194262648148   T   T   T
  0.5825604954299892  0.0011571058572418  0.6043389193497961   T   T   T
  0.9164359608653510  0.0000031815890369  0.6039634624384099   T   T   T
  0.5847084216677261  0.7498705722675296  0.5997739823457919   T   T   T
  0.5903043998164970  0.5014238753841420  0.5935757288818778   T   T   T
  0.2424207002197517  0.4979678935269545  0.5937036971322933   T   T   T
  0.5846168457262093  0.2480180375185394  0.5966328474940702   T   T   T
  0.2496938289851356  0.9976993469341552  0.6042192816450307   T   T   T
  0.7538612989319696  0.2480990195630741  0.5935382121452235   T   T   T
  0.2492531124997450  0.2459003869629440  0.6037363143763022   T   T   T
  0.4171711987881986  0.0001059549154443  0.6046712635631326   T   T   T
  0.2494434186947646  0.7527692461823506  0.5919513717723330   T   T   T
  0.0815888710944248  0.4998258839131118  0.6031437595439328   T   T   T