Au  C  H  O Sr Ti                       
   1.00000000000000     
    23.6707801818999997    0.0000000000000000    0.0000000000000000
     0.0000000000000000   22.3170261383000010    0.0000000000000000
     0.0000000000000000    0.0000000000000000   30.0000000000000000
   Au   C    H    O    Sr   Ti
    50     2     4   264    72    72
Selective dynamics
Direct
  0.7138316813391583  0.5272246282698632  0.7534487761400968   F   F   F
  0.5678333281266674  0.5115415771625464  0.8569646041257357   F   F   F
  0.6673212975110943  0.1987660103015401  0.7553038122365265   T   T   T
  0.4692464206522260  0.4513019666850084  0.8795194608084032   F   F   F
  0.5156998071299341  0.3786400145271713  0.7328276321733611   F   F   F
  0.2824581622101405  0.3398240584570331  0.7020534612127634   F   F   F
  0.6696389876300941  0.6825824589196401  0.7487617750225368   F   F   F
  0.3977618556142986  0.3816686107854181  0.6901748108335539   F   F   F
  0.4511200448938411  0.5810715908094650  0.7026628845592668   F   F   F
  0.3737948233862909  0.4937872010427355  0.8327551759661205   F   F   F
  0.3247898890955625  0.4153903869632103  0.7686602605345456   F   F   F
  0.3676171679671612  0.6200099598744586  0.8202167427014970   F   F   F
  0.4158042751200242  0.6973855290543369  0.6993618766058560   F   F   F
  0.7720229913029044  0.4318944207951247  0.7952812983491455   F   F   F
  0.2560399157813009  0.5938982491329554  0.6944949081795073   F   F   F
  0.6490873441497698  0.4484975070083905  0.6936650397975157   F   F   F
  0.5626644024879823  0.6413049494417464  0.8621099963871330   F   F   F
  0.5392421632028075  0.6688695142280139  0.7019512916642938   F   F   F
  0.4432489114932636  0.4763653171657438  0.7570081485410540   F   F   F
  0.3731207460678618  0.7412441631683109  0.7786919736110960   F   F   F
  0.4612846737779819  0.5743790229298753  0.8639563577744056   F   F   F
  0.6540929367262862  0.4428791442434203  0.8137546717178097   F   F   F
  0.7066056091249777  0.7578671578577385  0.6881030002145465   F   F   F
  0.6997248463188441  0.3461439378830988  0.7580997326529513   F   F   F
  0.2886406406994055  0.5387859820151419  0.7770948276022693   F   F   F
  0.6165163361228352  0.3246822748010842  0.6961524304941591   F   F   F
  0.5590538375288929  0.2136148570459611  0.7121371735278004   F   F   F
  0.2933466753607377  0.7472634908459312  0.6969625118305416   F   F   F
  0.5105690988141731  0.6042878849605984  0.7770580491137977   F   F   F
  0.5775994685480512  0.7254656248563407  0.7934251688499643   F   F   F
  0.2399042717365774  0.4702576897713371  0.7084119919324081   F   F   F
  0.2846163555223171  0.6629859059827083  0.7644433826712955   F   F   F
  0.5989436587852168  0.2902565158239057  0.7849478860207313   F   F   F
  0.5134393678765719  0.4857268285428233  0.6781540415385692   F   F   F
  0.5627199272012007  0.4869746163413637  0.7620216602462975   F   F   F
  0.4843654127244577  0.2709384337784329  0.7756291042193624   F   F   F
  0.5467182171354708  0.3861948815572731  0.8280330919349836   F   F   F
  0.3911009523493973  0.8188773400805189  0.7063149836031570   F   F   F
  0.4627139005779526  0.6970361112505756  0.8298494012206348   F   F   F
  0.4412014386025120  0.2272592620967728  0.6977451186848498   F   F   F
  0.3700326502276710  0.2987371503413101  0.7550935752957102   F   F   F
  0.3492837819885466  0.4994158209151394  0.6976531545218805   F   F   F
  0.4266203952399223  0.3731786664119454  0.8154355069033841   F   F   F
  0.5965456147232686  0.7849959828634923  0.7127147413741710   F   F   F
  0.6324199017715912  0.5865440469443257  0.8001420185293142   F   F   F
  0.7319005931468823  0.6159524917969037  0.6935092046989837   F   F   F
  0.4853270159306078  0.7771605358227163  0.7545847089799125   F   F   F
  0.7633988410682520  0.4330230693739523  0.7051706766555910   F   F   F
  0.7194655635709424  0.2623690910832579  0.6898523912145791   F   F   F
  0.6199000554872498  0.5727722398412638  0.7039818763777319   F   F   F
  0.7543857562345266  0.1515850432776631  0.7652089621324194   T   T   T
  0.7164487891495739  0.1081654982345341  0.7518911664973373   T   T   T
  0.7634028304852336  0.1599977105265893  0.8001077273325166   T   T   T
  0.7829121199684650  0.1716618909267638  0.7411346559327683   T   T   T
  0.6941485025861382  0.0812515817822543  0.7763388289981776   T   T   T
  0.7148506835645279  0.0936495696018795  0.7168067269851428   T   T   T
  0.7500409635212435  0.1899100715431032  0.4559012094108610   F   F   F
  0.5824131177474996  0.0618502214551597  0.5453839745563087   F   F   F
  0.5860313578825895  0.8142451924024741  0.5503768725892257   F   F   F
  0.7478910957564011  0.3112938542960322  0.5479361181313891   F   F   F
  0.5811927108473753  0.5601095477007334  0.5489436661688956   F   F   F
  0.2527342399306391  0.5592171485387141  0.5438259270599204   F   F   F
  0.4160983894181243  0.3197185135374454  0.5526050831154947   F   F   F
  0.5765674152368305  0.4360757041566288  0.5523366154040943   F   F   F
  0.4168118093357549  0.0654990285950774  0.5473252153726591   F   F   F
  0.0853374472130710  0.8125756712581449  0.5473521023964310   F   F   F
  0.0866703512427662  0.3134745197745588  0.5471311923451978   F   F   F
  0.5003206266922717  0.7571900072207214  0.5925657566289431   F   F   F
  0.0824307840712777  0.0631330972746582  0.5475591296989890   F   F   F
  0.9145006747440689  0.6885826519355547  0.5459142402645867   F   F   F
  0.5842600160438423  0.9375980373210808  0.5463507895460609   F   F   F
  0.9167990911241901  0.1885793655560164  0.5455678698194149   F   F   F
  0.9154743710665514  0.4374184309890481  0.5457624855929026   F   F   F
  0.5792910001814988  0.6861345026649630  0.5475975312856889   F   F   F
  0.2515207017385563  0.9373375746513091  0.5453067446527982   F   F   F
  0.4973724852485262  0.5045343501274999  0.6089674442288029   F   F   F
  0.9180270581861336  0.5637300838388413  0.5470632606441370   F   F   F
  0.4200091949893405  0.5652175087236415  0.5553828509004362   F   F   F
  0.9156140677265583  0.8126176918588826  0.5468000249494693   F   F   F
  0.0841385537654986  0.9383857900827266  0.5461275603268163   F   F   F
  0.2490371180447468  0.6833815508584635  0.5519113879746200   F   F   F
  0.7486129425288652  0.9334790123655807  0.5482435205615559   F   F   F
  0.7518223458577253  0.6800360854292151  0.5534081737838790   F   F   F
  0.9157397941438603  0.9385907158488536  0.5464421800254655   F   F   F
  0.4180559574737259  0.0651484609680182  0.6401303556987088   F   F   F
  0.5825396739134021  0.9372372380576266  0.4545151854588028   F   F   F
  0.2533550620296410  0.8126592505946491  0.5505871485835172   F   F   F
  0.5826793037254419  0.3111420799130045  0.5449686941483591   F   F   F
  0.7525182300596640  0.4346985023529086  0.5496837224086661   F   F   F
  0.0857089304751142  0.6893387146906989  0.5454422801597616   F   F   F
  0.0831500162659111  0.4386554800425415  0.5450300655453475   F   F   F
  0.0837102723873429  0.1888271632235146  0.5457224332326192   F   F   F
  0.4994179460948374  0.1260432898331914  0.4991192317680486   F   F   F
  0.9998888222477404  0.4985362580131039  0.5941487560093819   F   F   F
  0.5799730631625124  0.1848366319139600  0.5506166543521900   F   F   F
  0.9997107566481915  0.7538309740766707  0.5928871984914679   F   F   F
  0.3341988717938875  0.9999935108089417  0.5920984041319670   F   F   F
  0.9999243852899724  0.9988355762710484  0.5930394676857986   F   F   F
  0.0012164314361200  0.2494610815384988  0.5922786954744623   F   F   F
  0.3331946253593614  0.4964085890309136  0.5907421850634336   F   F   F
  0.3353669561731465  0.7412056333474979  0.5904545246077220   F   F   F
  0.6632388622045156  0.2478852154613378  0.5902789868575340   F   F   F
  0.6664821212803247  0.0027030701240136  0.5917755664808553   F   F   F
  0.6655772160777644  0.7411887314882506  0.5908861204210538   F   F   F
  0.6665895264528316  0.4946783883189454  0.5915392326842266   F   F   F
  0.1675211251848978  0.9983680812523161  0.5923425132442262   F   F   F
  0.1685665338664606  0.2482257143313760  0.5931275875528854   F   F   F
  0.1710573855158088  0.7505274465974807  0.5951135154910574   F   F   F
  0.2482969398991628  0.4360678236791031  0.5489154381388914   F   F   F
  0.1656590178094959  0.5034151845673378  0.5871416137066632   F   F   F
  0.3350440888510420  0.2550591209689443  0.5931653090563103   F   F   F
  0.5000137775001505  0.0000439516643098  0.5911820669974119   F   F   F
  0.8326548910511349  0.8742285013166509  0.4992381776038286   F   F   F
  0.7479371801800170  0.9393421238295616  0.6412971803641199   F   F   F
  0.8321262105436915  0.0020843879879848  0.5922799547545594   F   F   F
  0.7485566911393846  0.1834551302473528  0.5509617194023946   F   F   F
  0.4231050201358428  0.6881789015332700  0.5466612135876261   F   F   F
  0.4231364605214836  0.4440268598690977  0.5456180279752729   F   F   F
  0.0833333358191695  0.3124999999901945  0.3605200052333331   F   F   F
  0.4127312912204815  0.8131586174603527  0.6396478197201318   F   F   F
  0.9160586721831336  0.0630998687643327  0.6408797410792673   F   F   F
  0.9142816882923981  0.5627175407021170  0.6408378700551367   F   F   F
  0.4177284188775019  0.9349473343024215  0.6397967031954295   F   F   F
  0.7412955182041969  0.8106007925204253  0.6395706371429242   F   F   F
  0.7466610332265446  0.3135016405887896  0.6390655156059779   F   F   F
  0.7486867818816734  0.0701492017468652  0.6396580497003228   F   F   F
  0.0843808638029842  0.3115905631499700  0.6408073405414072   F   F   F
  0.6665289483612895  0.8743102984319009  0.4986802446935812   F   F   F
  0.0867246299674349  0.5631029894803561  0.6399351113712441   F   F   F
  0.0874733499960385  0.4367932545585234  0.6397975929281543   F   F   F
  0.0841641162397408  0.1855899672992365  0.6415965471608942   F   F   F
  0.4185709271958800  0.1876963521501480  0.6398807302231830   F   F   F
  0.4147432519985017  0.4188904026046956  0.6298783561366292   F   F   F
  0.0844537153847824  0.9356230468271960  0.6410819504041996   F   F   F
  0.0834003048280607  0.6872095001063272  0.6388450750799493   F   F   F
  0.0840728856442610  0.0603557255205232  0.6421072039689406   F   F   F
  0.8333610946327994  0.5033805477211146  0.5892410514561703   F   F   F
  0.9124909522181355  0.4361490758929136  0.6399832606312330   F   F   F
  0.8304497233350503  0.7509652548713319  0.5926927760616607   F   F   F
  0.8317323992314840  0.2486709189518876  0.5908440810867148   F   F   F
  0.7452440308404391  0.1957719071521780  0.6470029374465582   F   F   F
  0.9166666865332829  0.8124999999834799  0.3605200052333331   F   F   F
  0.5830090456419654  0.9365580995010490  0.6395564834347525   F   F   F
  0.0846353727677993  0.8127216096974053  0.6425258571142010   F   F   F
  0.5794613226840895  0.1927672123881408  0.6457273663152776   F   F   F
  0.2545244513975859  0.6781568868977388  0.6627138588143282   F   F   F
  0.2406117540605806  0.4420915851876401  0.6411864295873997   F   F   F
  0.9142091083183104  0.9375477246652437  0.6415542279973749   F   F   F
  0.9163656188530211  0.6876471301654306  0.6390469616344703   F   F   F
  0.2520975656000317  0.9303305156386230  0.6373464134244813   F   F   F
  0.2536191679424604  0.1864925870525056  0.6412776375844871   F   F   F
  0.3967077055515418  0.5507116818586582  0.6518791146414173   F   F   F
  0.4157276560159957  0.1915451773325216  0.5466573097543517   F   F   F
  0.7527975270910972  0.5687845579886996  0.6356531884282788   F   F   F
  0.5000217410786760  0.8732713491718442  0.5010717519084977   F   F   F
  0.9151654628732828  0.3118738886342172  0.6398504834913368   F   F   F
  0.9130266698052907  0.8135249834925844  0.6420112910988109   F   F   F
  0.5828556022230131  0.0671021654733082  0.6389189985309969   F   F   F
  0.2492831677438403  0.3137791860452808  0.5459095803996874   F   F   F
  0.5903389214382528  0.5667820906130530  0.6386971369834740   F   F   F
  0.2476465078759134  0.5740275874106970  0.6287593975052630   F   F   F
  0.7541694584533047  0.6929014211262583  0.6568519057688036   F   F   F
  0.2626787052591766  0.8005763970649866  0.6461699620932251   F   F   F
  0.2510174840752981  0.0594773772333284  0.6423725372244391   F   F   F
  0.9166666865332829  0.5625000000092442  0.3605200052333331   F   F   F
  0.4995916910630172  0.3743297165841852  0.4997662960235871   F   F   F
  0.5002708695869060  0.6211435091320681  0.5000162198846709   F   F   F
  0.8324899860270918  0.6230932459812806  0.5002013202844608   F   F   F
  0.2522924949025551  0.1883251383459310  0.5473337064970352   F   F   F
  0.8324741002215745  0.3730816213398569  0.4997612743805320   F   F   F
  0.8328222398638516  0.1246749456052427  0.5000355976363480   F   F   F
  0.1667219554359107  0.3761808220615066  0.4976889171996675   F   F   F
  0.1675798851716763  0.6243091604680657  0.5002588533075496   F   F   F
  0.5808413007624154  0.4399720649098597  0.6468937377628805   F   F   F
  0.5767185238088501  0.6868263662436078  0.6397490068242817   F   F   F
  0.9160720687924240  0.1862859377724604  0.6398948643141367   F   F   F
  0.2490274747069208  0.3163139314439931  0.6412139838469670   F   F   F
  0.1677870166541808  0.8732500804355041  0.4998989005053858   F   F   F
  0.9159560325759699  0.4368891037660347  0.4536599571549331   F   F   F
  0.1671215599174687  0.1245358061050297  0.4994897031234373   F   F   F
  0.7488483393679104  0.0602216532029587  0.5446936847217145   F   F   F
  0.4307221406720245  0.3053438587165118  0.6563871994685968   F   F   F
  0.5909963641936358  0.8108429058372195  0.6458173478695457   F   F   F
  0.4204596331459598  0.6762526820343808  0.6336080980892973   F   F   F
  0.7549252214442248  0.4339874603595177  0.6385141238596503   F   F   F
  0.4987705696023994  0.2532475908280816  0.5908278398097622   F   F   F
  0.5833929381872736  0.3216702019552997  0.6335618591754510   F   F   F
  0.9157897892020017  0.1868319046396536  0.4532536537719807   F   F   F
  0.6653397517604205  0.6260280425609537  0.5030026204041818   F   F   F
  0.5845319953248236  0.5628799809537952  0.4548854465036030   F   F   F
  0.5833541327686262  0.0638717285543748  0.4538247926386063   F   F   F
  0.9166666865332829  0.6874999999963620  0.3605200052333331   F   F   F
  0.9166666865332829  0.4374999701794380  0.3605200052333331   F   F   F
  0.9166666865332829  0.1875000000030838  0.3605200052333331   F   F   F
  0.5833333134730552  0.9375000000154046  0.3605200052333331   F   F   F
  0.5833333134730552  0.6874999999963620  0.3605200052333331   F   F   F
  0.5833333134730552  0.4374999701794380  0.3605200052333331   F   F   F
  0.5833333134730552  0.1875000000030838  0.3605200052333331   F   F   F
  0.2499999999799343  0.9375000000154046  0.3605200052333331   F   F   F
  0.9166666865332829  0.9375000000154046  0.3605200052333331   F   F   F
  0.2499999999799343  0.6874999999963620  0.3605200052333331   F   F   F
  0.2499999999799343  0.1875000000030838  0.3605200052333331   F   F   F
  0.7499999404149307  0.9375000000154046  0.3605200052333331   F   F   F
  0.7499999404149307  0.6874999999963620  0.3605200052333331   F   F   F
  0.7499999404149307  0.4374999701794380  0.3605200052333331   F   F   F
  0.7499999404149307  0.1875000000030838  0.3605200052333331   F   F   F
  0.4166666269218169  0.9375000000154046  0.3605200052333331   F   F   F
  0.4166666269218169  0.6874999999963620  0.3605200052333331   F   F   F
  0.4166666269218169  0.4374999701794380  0.3605200052333331   F   F   F
  0.2499999999799343  0.4374999701794380  0.3605200052333331   F   F   F
  0.0833333358191695  0.0625000000159659  0.3605200052333331   F   F   F
  0.9153049001180378  0.6868903297737603  0.4533641155047050   F   F   F
  0.6654283741113431  0.3787560963160459  0.5032679245423779   F   F   F
  0.3343610439966014  0.3784644183306511  0.5030070225654768   F   F   F
  0.3356469723348638  0.6258656825888664  0.5037540199628125   F   F   F
  0.9171998539518285  0.0633008340151449  0.5473311360386148   F   F   F
  0.7499038071317443  0.9385283689088268  0.4555097018460401   F   F   F
  0.2499506089087333  0.9361549656761170  0.4540335977582259   F   F   F
  0.2499894765843678  0.1887524854096014  0.4543392558966630   F   F   F
  0.7490957594326062  0.6886474616358953  0.4575256308302400   F   F   F
  0.2504687114710791  0.0621219312707311  0.4542805338751990   F   F   F
  0.4174460313521209  0.9357822150417192  0.4539223902945295   F   F   F
  0.4160295394700313  0.9373423153066156  0.5460189147958019   F   F   F
  0.4171544217879983  0.6847723811039188  0.4547036470608461   F   F   F
  0.4164363388802812  0.4354563706462926  0.4538341940940853   F   F   F
  0.0844442103452039  0.6869924994792740  0.4531756800563755   F   F   F
  0.0840770195331331  0.9368488408334841  0.4537025361416269   F   F   F
  0.0827888461421225  0.4367982603604332  0.4528717495145145   F   F   F
  0.0838774069869785  0.1865424552758697  0.4529807279152607   F   F   F
  0.9165735528436727  0.8123282318736642  0.4540611424418941   F   F   F
  0.7464402237571974  0.5576773059339502  0.5446377744330064   F   F   F
  0.9161149263868253  0.5621980346492350  0.4540671769085236   F   F   F
  0.9161414550714397  0.0622500711284246  0.4541080356470957   F   F   F
  0.9161984076637069  0.3121571344431615  0.4538700234860684   F   F   F
  0.4169343390369065  0.1872623273384733  0.4536536540520260   F   F   F
  0.5827840368743864  0.4396859615385438  0.4564206709734790   F   F   F
  0.2520722912012232  0.6876320693751481  0.4561282425248123   F   F   F
  0.5831692294804895  0.1904077373793740  0.4556945691560159   F   F   F
  0.0001618302023374  0.1251202632988395  0.4984539480466026   F   F   F
  0.5832876000955167  0.8104933570583199  0.4553318023002646   F   F   F
  0.0000549444989346  0.3734724363072175  0.4984604001474366   F   F   F
  0.9997817392520290  0.6272227868747962  0.4976540480733291   F   F   F
  0.3336563954778811  0.1256290467011354  0.4985615205329736   F   F   F
  0.0001638128098094  0.8752016507015128  0.4996240129819896   F   F   F
  0.3335492106699576  0.8744300368901108  0.4992401836201026   F   F   F
  0.6658472044833843  0.1262754200303533  0.5002475145069667   F   F   F
  0.2511649953638511  0.4393249994027570  0.4548846089300937   F   F   F
  0.0833333358191695  0.5625000000092442  0.3605200052333331   F   F   F
  0.9166666865332829  0.0625000000159659  0.3605200052333331   F   F   F
  0.7496216389140571  0.8131909719192691  0.4529793403820648   F   F   F
  0.7496368172744781  0.4386114958183924  0.4562413104097729   F   F   F
  0.9163973376738141  0.9371163710071215  0.4536882627112675   F   F   F
  0.9155928778991012  0.3125058227178314  0.5467117572043207   F   F   F
  0.0809754031837713  0.5644536551007917  0.5463848184043343   F   F   F
  0.5833333134730552  0.0625000000159659  0.3605200052333331   F   F   F
  0.5843914271284376  0.3155635841005520  0.4536673765422350   F   F   F
  0.7477190229032260  0.8073507859664559  0.5452281993264307   F   F   F
  0.5000000000021103  0.4999999999932783  0.4070133268666680   F   F   F
  0.0833333358191695  0.1875000000030838  0.3605200052333331   F   F   F
  0.0000000000000000  0.0000000000000000  0.4070133268666680   F   F   F
  0.0000000000000000  0.2500000000190425  0.4070133268666680   F   F   F
  0.0000000000000000  0.4999999999932783  0.4070133268666680   F   F   F
  0.7482555546422347  0.5643416727905333  0.4537832601319352   F   F   F
  0.3333333432766779  0.0000000000000000  0.4070133268666680   F   F   F
  0.3333333432766779  0.4999999999932783  0.4070133268666680   F   F   F
  0.3333333432766779  0.7500000000123208  0.4070133268666680   F   F   F
  0.6666666865533486  0.0000000000000000  0.4070133268666680   F   F   F
  0.6666666865533486  0.2500000000190425  0.4070133268666680   F   F   F
  0.6666666865533486  0.4999999999932783  0.4070133268666680   F   F   F
  0.8333332538436267  0.2500000000190425  0.4070133268666680   F   F   F
  0.1666666716383389  0.0000000000000000  0.4070133268666680   F   F   F
  0.1666666716383389  0.4999999999932783  0.4070133268666680   F   F   F
  0.1666666716383389  0.7500000000123208  0.4070133268666680   F   F   F
  0.5000000000021103  0.0000000000000000  0.4070133268666680   F   F   F
  0.5000000000021103  0.2500000000190425  0.4070133268666680   F   F   F
  0.5000000000021103  0.7500000000123208  0.4070133268666680   F   F   F
  0.9166666865332829  0.3124999999901945  0.3605200052333331   F   F   F
  0.3333333432766779  0.2500000000190425  0.4070133268666680   F   F   F
  0.7474010336807808  0.3143146813837419  0.4547557518127689   F   F   F
  0.0000000000000000  0.7500000000123208  0.4070133268666680   F   F   F
  0.4166691775403066  0.8100413893893261  0.4551149109105097   F   F   F
  0.7491764007640427  0.0643620062052150  0.4534212420632997   F   F   F
  0.8333332538436267  0.0000000000000000  0.4070133268666680   F   F   F
  0.5827655255079947  0.6861773188908060  0.4546590124332042   F   F   F
  0.2518243159007625  0.5646177447617475  0.4538364354374451   F   F   F
  0.1666666716383389  0.2500000000190425  0.4070133268666680   F   F   F
  0.2507305037132923  0.8109371317668206  0.4553164010739010   F   F   F
  0.6666666865533486  0.7500000000123208  0.4070133268666680   F   F   F
  0.5833333134730552  0.8124999999834799  0.3605200052333331   F   F   F
  0.2499999999799343  0.5625000000092442  0.3605200052333331   F   F   F
  0.5833333134730552  0.5625000000092442  0.3605200052333331   F   F   F
  0.2499999999799343  0.8124999999834799  0.3605200052333331   F   F   F
  0.2499999999799343  0.3124999999901945  0.3605200052333331   F   F   F
  0.2499999999799343  0.0625000000159659  0.3605200052333331   F   F   F
  0.7499999404149307  0.5625000000092442  0.3605200052333331   F   F   F
  0.7499999404149307  0.3124999999901945  0.3605200052333331   F   F   F
  0.7499999404149307  0.0625000000159659  0.3605200052333331   F   F   F
  0.4166666269218169  0.8124999999834799  0.3605200052333331   F   F   F
  0.4166666269218169  0.3124999999901945  0.3605200052333331   F   F   F
  0.7499999404149307  0.8124999999834799  0.3605200052333331   F   F   F
  0.0834817830230321  0.3119475267155920  0.4540531315713352   F   F   F
  0.4166666269218169  0.0625000000159659  0.3605200052333331   F   F   F
  0.4168733399639919  0.0615712332258056  0.4553680579436161   F   F   F
  0.0834488736581989  0.8121491390730284  0.4541852100458641   F   F   F
  0.4166666269218169  0.5625000000092442  0.3605200052333331   F   F   F
  0.4138160666925828  0.8120714881086997  0.5478527828858546   F   F   F
  0.5833333134730552  0.3124999999901945  0.3605200052333331   F   F   F
  0.0839788528659824  0.5625186514218754  0.4539784375246398   F   F   F
  0.2510837596671678  0.0625825716424941  0.5472636678607756   F   F   F
  0.8333332538436267  0.4999999999932783  0.4070133268666680   F   F   F
  0.4166666269218169  0.1875000000030838  0.3605200052333331   F   F   F
  0.0833333358191695  0.9375000000154046  0.3605200052333331   F   F   F
  0.0833333358191695  0.8124999999834799  0.3605200052333331   F   F   F
  0.0833333358191695  0.4374999701794380  0.3605200052333331   F   F   F
  0.8333332538436267  0.7500000000123208  0.4070133268666680   F   F   F
  0.4155482181718853  0.3114036659318700  0.4573817043635842   F   F   F
  0.0837823924871586  0.0619136487669465  0.4541845043631412   F   F   F
  0.4160485707704922  0.5595234717208797  0.4578755847663984   F   F   F
  0.0833333358191695  0.6874999999963620  0.3605200052333331   F   F   F
  0.2522331874523545  0.3144155378947033  0.4539691567851492   F   F   F
  0.1666666716383389  0.8749999404036828  0.4070133268666680   F   F   F
  0.5000000000021103  0.1249999999871179  0.4070133268666680   F   F   F
  0.8362393278779905  0.7517739738370111  0.5026701738201282   F   F   F
  0.8380642069040221  0.3729925283208146  0.6032566483110884   F   F   F
  0.8314186253485403  0.8776691374948413  0.6184002997707623   F   F   F
  0.1635424365320546  0.4999003898998282  0.5019098785658400   F   F   F
  0.5000000000021103  0.8749999404036828  0.4070133268666680   F   F   F
  0.3318800552853034  0.1197411584477877  0.6136243253902691   F   F   F
  0.8397024220539677  0.6269814337499469  0.6041054319154142   F   F   F
  0.5000000000021103  0.6249999999803961  0.4070133268666680   F   F   F
  0.6652477644396484  0.1251950016461549  0.6078228711558751   F   F   F
  0.8333332538436267  0.1249999999871179  0.4070133268666680   F   F   F
  0.8333332538436267  0.3750000000061604  0.4070133268666680   F   F   F
  0.9989749156855439  0.8750064533439073  0.6238778564501004   F   F   F
  0.0000000000000000  0.1249999999871179  0.4070133268666680   F   F   F
  0.9998861264702370  0.6237140464779714  0.6238751953832349   F   F   F
  0.1666666716383389  0.6249999999803961  0.4070133268666680   F   F   F
  0.3341036466410259  0.6248244279091111  0.5950847497342835   F   F   F
  0.5005605426468520  0.1225724235798040  0.6065829712522230   F   F   F
  0.8352963688375112  0.1241154742902495  0.6123146873917094   F   F   F
  0.0004542559150096  0.3752824247690398  0.6246350806768248   F   F   F
  0.6665084223364346  0.6260207174479788  0.5929861568814161   F   F   F
  0.6659241817795447  0.8821139889979577  0.6071118719230313   F   F   F
  0.1633592386517080  0.3714120519644695  0.6074167665341363   F   F   F
  0.1678032434942764  0.1226836951373897  0.6217786594407002   F   F   F
  0.1598328272133784  0.6277682159029467  0.6014586925060641   F   F   F
  0.5014372461125163  0.3717644210497753  0.5949607487689335   F   F   F
  0.1663593999954287  0.8737490998211683  0.6176167157595174   F   F   F
  0.3347890994022933  0.8789954481064584  0.6025932742109106   F   F   F
  0.6704800232222397  0.3728106192211342  0.5926939575685068   F   F   F
  0.6666666865533486  0.8749999404036828  0.4070133268666680   F   F   F
  0.5000000000021103  0.3750000000061604  0.4070133268666680   F   F   F
  0.5037067832329498  0.6252022352339850  0.5939838849670807   F   F   F
  0.0000000000000000  0.3750000000061604  0.4070133268666680   F   F   F
  0.1666666716383389  0.1249999999871179  0.4070133268666680   F   F   F
  0.5015593469092892  0.8773486656993441  0.6097024425767401   F   F   F
  0.8363417841056631  0.5001193341510586  0.5028895963402817   F   F   F
  0.9997466151360683  0.4999653154374712  0.5067616648430331   F   F   F
  0.5012041732218790  0.4998204119115144  0.5001679823445713   F   F   F
  0.6667887409820210  0.2481766175410911  0.5024130964294073   F   F   F
  0.3331622065372386  0.0011936084121373  0.5058495898241162   F   F   F
  0.3302165992539727  0.2481163403896005  0.5028721740919266   F   F   F
  0.6683937590639388  0.5000627314978061  0.5005704910681743   F   F   F
  0.8333332538436267  0.6249999999803961  0.4070133268666680   F   F   F
  0.1645056841544630  0.7514948833292436  0.5034945852142627   F   F   F
  0.6660678964626925  0.0000159935711395  0.5056252640622034   F   F   F
  0.5011877626212993  0.7529822731118898  0.5037675894845464   F   F   F
  0.6654229358811250  0.7518738817637427  0.5021544338011736   F   F   F
  0.1666666716383389  0.3750000000061604  0.4070133268666680   F   F   F
  0.3257230641569890  0.3737685271408537  0.5925911045827874   F   F   F
  0.0009948036902401  0.1231540715502106  0.6196037221155564   F   F   F
  0.8361313970960538  0.2486672737043065  0.5024980392431786   F   F   F
  0.6666666865533486  0.3750000000061604  0.4070133268666680   F   F   F
  0.3312010115962281  0.4992558291086979  0.5007716890123532   F   F   F
  0.0000000000000000  0.8749999404036828  0.4070133268666680   F   F   F
  0.1660249580651438  0.0011799041744993  0.5065480362579464   F   F   F
  0.3339210830580015  0.7512619204510358  0.5015286859410395   F   F   F
  0.5003806741130177  0.9992410324061751  0.5055737438261048   F   F   F
  0.1663829898283993  0.2481744228821583  0.5062667435948072   F   F   F
  0.0000000000000000  0.6249999999803961  0.4070133268666680   F   F   F
  0.6666666865533486  0.1249999999871179  0.4070133268666680   F   F   F
  0.8342941513667199  0.9999535220594709  0.5065051425802594   F   F   F
  0.3333333432766779  0.3750000000061604  0.4070133268666680   F   F   F
  0.3333333432766779  0.8749999404036828  0.4070133268666680   F   F   F
  0.3333333432766779  0.6249999999803961  0.4070133268666680   F   F   F
  0.8333332538436267  0.8749999404036828  0.4070133268666680   F   F   F
  0.6666666865533486  0.6249999999803961  0.4070133268666680   F   F   F
  0.0002223328821245  0.9999115737717617  0.5066846686871571   F   F   F
  0.0010894146642784  0.2498042474698110  0.5061851006481675   F   F   F
  0.9999594171954769  0.7511141585862120  0.5067882143556943   F   F   F
  0.5010508738349202  0.2480531110487831  0.5022243444790178   F   F   F
  0.3333333432766779  0.1249999999871179  0.4070133268666680   F   F   F
  0.0833333358191695  0.2500000000190425  0.4070133268666680   F   F   F
  0.7521285384890746  0.7525369067042362  0.5905221130689213   F   F   F
  0.2499999999799343  0.2500000000190425  0.4070133268666680   F   F   F
  0.0833333358191695  0.7500000000123208  0.4070133268666680   F   F   F
  0.0833333358191695  0.4999999999932783  0.4070133268666680   F   F   F
  0.0833333358191695  0.0000000000000000  0.4070133268666680   F   F   F
  0.9187060060483176  0.3742884930605754  0.5058535895864082   F   F   F
  0.9166666865332829  0.7500000000123208  0.4070133268666680   F   F   F
  0.5831138486260201  0.1235141469067713  0.5045067078485488   F   F   F
  0.7525435472533744  0.6247667363480573  0.5023435119067443   F   F   F
  0.5839507276063145  0.8759728219930381  0.5057179221524777   F   F   F
  0.9179499263101931  0.1249064192615563  0.5061883278901149   F   F   F
  0.4166666269218169  0.4999999999932783  0.4070133268666680   F   F   F