Au  C  H  O Sr Ti 
 1.0000000000000000
    23.6707801818999997    0.0000000000000000    0.0000000000000000
     0.0000000000000000   22.3170261383000010    0.0000000000000000
     0.0000000000000000    0.0000000000000000   30.0000000000000000
 Au  C   H   O   Sr  Ti 
  50   2   4 264  72  72
Selective dynamics
Cartesian
 16.8969528158552436 11.7660858098539904 22.6034632842028351   F   F   F
 13.4410578900430711 11.4160867483637389 25.7089381237720112   F   F   F
 15.7960157440853486  4.4358662473051114 22.6591143670958353   T   T   T
 11.1074288744022809 10.0717177867754923 26.3855838242520377   F   F   F
 12.2070167744209126  8.4501191012091947 21.9848289652008617   F   F   F
  6.6860050682597407  7.5838623950087287 21.0616038363829148   F   F   F
 15.8508772774220024 15.2332105772547663 22.4628532506760408   F   F   F
  9.4153334489906726  8.5177083630668360 20.7052443250067135   F   F   F
 10.6783634183310099 12.9677898803183940 21.0798865367779200   F   F   F
  8.8480150975090766 11.0198618724286668 24.9826552789837137   F   F   F
  7.6880300700847961  9.2702781234564497 23.0598078160363080   F   F   F
  8.7017851740432626 13.8367784805245826 24.6065022810449960   F   F   F
  9.8424115950603550 15.5635710803778249 20.9808562981757625   F   F   F
 18.2743865225039919  9.6385990778707562 23.8584389504743619   F   F   F
  6.0606645642513364 13.2540427493907735 20.8348472453852551   F   F   F
 15.3644038422224796 10.0091305868686380 20.8099511939255422   F   F   F
 13.3187053874731660 14.3120193193125420 25.8632998916140444   F   F   F
 12.7642827099858884 14.9271784321385432 21.0585387499287826   F   F   F
 10.4920475498235035 10.6310572345674572 22.7102444562317025   F   F   F
  8.8320591614788633 16.5423653642895268 23.3607592083327944   F   F   F
 10.9189681142781332 12.8184316680173165 25.9186907332321930   F   F   F
 15.4828901237812691  9.8837454381884005 24.4126401515343581   F   F   F
 16.7259060488949096 16.9133411712702610 20.6430900064363989   F   F   F
 16.5630330250270852  7.7249033093512125 22.7429919795886164   F   F   F
  6.8323491575583546 12.0241008435815750 23.3128448280680800   F   F   F
 14.5934226709139327  7.2459428133784440 20.8845729148247585   F   F   F
 13.2332404979941352  4.7672483482239700 21.3641152058339898   F   F   F
  6.9437446695551222 16.6766988574059312 20.9088753549162405   F   F   F
 12.0855689057010007 13.4859085237236584 23.3117414734138961   F   F   F
 13.6722300531832097 16.1902353123571032 23.8027550654989462   F   F   F
  5.6787212809753855 10.4947531543634973 21.2523597579722825   F   F   F
  6.7370911877422897 14.7958737931406663 22.9333014801388870   F   F   F
 14.1774636884477623  6.4776622504540136 23.5484365806220168   F   F   F
 12.1535104137399781 10.8399783286636797 20.3446212461571143   F   F   F
 13.3200197007544414 10.8678252415788439 22.8606498073888353   F   F   F
 11.4653072123159578  6.0465401085033266 23.2688731265808677   F   F   F
 12.9412467392539554  8.6187212661913755 24.8409927580495378   F   F   F
  9.2576646719942932 18.2749070026384537 21.1894495080946434   F   F   F
 10.9527990276902276 15.5557731141180557 24.8954820366190326   F   F   F
 10.4435822690980871  5.0717508923844941 20.9323535605454154   F   F   F
  8.7589615236651195  6.6669247926482722 22.6528072588712526   F   F   F
  8.2678196245536011 11.1454759292437888 20.9295946356564713   F   F   F
 10.0984375968394904  8.3282380525713755 24.4630652071015149   F   F   F
 14.1207001145908393 17.5187758680250489 21.3814422412250522   F   F   F
 14.9698724774941105 13.0899188269207940 24.0042605558794442   F   F   F
 17.3246580553820202 13.7462278593825200 20.8052761409694682   F   F   F
 11.4880691104308585 17.3439119916108240 22.6375412693974134   F   F   F
 18.0702461580438332  9.6637871577053609 21.1551202996678214   F   F   F
 17.0303112037346160  5.8552978635871158 20.6955717364373868   F   F   F
 14.6735179481863387 12.7825730478301764 21.1194562913318968   F   F   F
 17.8568994081838390  3.3829273730028797 22.9562688639725536   T   T   T
 16.9589017995479381  2.4139322513624202 22.5567349949200739   T   T   T
 18.0703405906561869  3.5706730878901265 24.0032318199754933   T   T   T
 18.5321406935189046  3.8309829067626588 22.2340396779830058   T   T   T
 16.4310366183116052  1.8132936744127737 23.2901648699454391   T   T   T
 16.9210733935369078  2.0899798926457662 21.5192018095543531   T   T   T
 17.7540547749319124  4.2382280305537883 13.6770362823258242   F   F   F
 13.7861728852561249  1.3803130088743822 16.3615192366892295   F   F   F
 13.8718194521392206 18.1715312418311683 16.5113061776768113   F   F   F
 17.7031657276501200  6.9471530830166381 16.4380835439416337   F   F   F
 13.7572849017908521 12.4999794163486442 16.4683099850667745   F   F   F
  5.9824166378377051 12.4800637209241323 16.3147778117975939   F   F   F
  9.8493735099591024  7.1351664235136090 16.5781524934649340   F   F   F
 13.6478005461172938  9.7319128879410943 16.5700984621228677   F   F   F
  9.8662607160066500  1.4617435331896527 16.4197564611797127   F   F   F
  2.0200039542650794 18.1342724948146774 16.4205630718928361   F   F   F
  2.0515548325555253  6.9958190514998737 16.4139357703559519   F   F   F
 11.8429795749031896 16.8982291828044637 17.7769726988683310   F   F   F
  1.9512009699729116  1.4089429820704371 16.4267738909695957   F   F   F
 21.6469444480661011 15.3671170416256757 16.3774272079376289   F   F   F
 13.8298904088472074 20.9243999061133295 16.3905236863818331   F   F   F
 21.7013497569664295  4.2085306302576244 16.3670360945825131   F   F   F
 21.6699925996794924  9.7618785577568250 16.3728745677871679   F   F   F
 13.7122699266492667 15.3124816303635178 16.4279259385707448   F   F   F
  5.9536912420505157 20.9185871539039674 16.3592023395838773   F   F   F
 11.7731947668430887 11.2597062794655649 18.2690233268640050   F   F   F
 21.7304166953602866 12.5807790159774484 16.4118978193241993   F   F   F
  9.9419453289693802 12.6139739160102984 16.6614855270130775   F   F   F
 21.6732993286107281 18.1352102696597193 16.4040007484841439   F   F   F
  1.9916252110061676 20.9419802050855850 16.3838268098045141   F   F   F
  5.8949028783711404 15.2510439329402470 16.5573416392385226   F   F   F
 17.7202524039261782 20.8324755185171604 16.4473056168467622   F   F   F
 17.7962214846386217 15.1763830935110828 16.6022452135164613   F   F   F
 21.6762753709976081 20.9465535387645332 16.3932654007640650   F   F   F
  9.8957106730942623  1.4539199062933374 19.2039106709612177   F   F   F
 13.7891685684398677 20.9163479395201470 13.6354555637640402   F   F   F
  5.9971119812752693 18.1361377370520813 16.5176144575054700   F   F   F
 13.7924737150275316  6.9437659301435586 16.3490608244507953   F   F   F
 17.8126936066147579  9.7011778392896577 16.4905116722600624   F   F   F
  2.0287972529022467 15.3839901138944946 16.3632684047927519   F   F   F
  1.9682257571517081  9.7894858138179277 16.3509019663605315   F   F   F
  1.9814874566478451  4.2140607372802226 16.3716729969784929   F   F   F
 11.8216124209068685  2.8129113937646331 14.9735769530413556   F   F   F
 23.6681485177651680 11.1258467009687241 17.8244626802815382   F   F   F
 13.7284148895431120  4.1250039457391834 16.5184996305656213   F   F   F
 23.6639335661002264 16.8232655523291470 17.7866159547441001   F   F   F
  7.9107480312720453 -0.0001448194464511 17.7629521239589536   F   F   F
 23.6689903227204823 22.2910396635048720 17.7911840305739766   F   F   F
  0.0287938811308252  5.5672294771833215 17.7683608642338662   F   F   F
  7.8869767346719692 11.0783634566794671 17.7222655519029964   F   F   F
  7.9383974998474089 16.5415054932713694 17.7136357382316874   F   F   F
 15.6993813153365700  5.5320608327487983 17.7083696057260269   F   F   F
 15.7761517879930597  0.0603244866112783 17.7532669944257400   F   F   F
 15.7547319758576432 16.5411282940366924 17.7265836126316110   F   F   F
 15.7786941522218012 11.0397505221660452 17.7461769805267409   F   F   F
  3.9653557300763080 22.2806065649523326 17.7702753973267384   F   F   F
  3.9901013691777267  5.5396597549315763 17.7938276265865625   F   F   F
  4.0490617710352179 16.7495406432275402 17.8534054647317433   F   F   F
  5.8773822841915919  9.7317370191181531 16.4674631441666683   F   F   F
  3.9212781957180867 11.2347298324063551 17.6142484111999771   F   F   F
  7.9307549784379354  5.6921610694758238 17.7949592716892084   F   F   F
 11.8357162151276007  0.0009808704411790 17.7354620099224327   F   F   F
 19.7095908934552817 19.5101803147305155 14.9771453281149221   F   F   F
 17.7042565819113342 20.9633227303106366 19.2389154109235569   F   F   F
 19.6970766133771669  0.0465173412102711 17.7683986426368747   F   F   F
 17.7189208896507004  4.0941729369353927 16.5288515820719084   F   F   F
 10.0152259254938514 15.3581065333446354 16.3998364076286975   F   F   F
 10.0159701439512414  9.9093590378058991 16.3685408392580989   F   F   F
  1.9725650740000149  6.9740706679999214 10.8156001569999933   F   F   F
  9.7696716686718315 18.1472821204465973 19.1894345916040550   F   F   F
 21.6838234629701887  1.4082014205368636 19.2263922323779397   F   F   F
 21.6417608679058020 12.5581820643290527 19.2251361016541296   F   F   F
  9.8879575789819718 20.8652440975610709 19.1939010958628913   F   F   F
 17.5470432612392706 18.0901990744050174 19.1871191142877251   F   F   F
 17.6740491878959141  6.9964243074199475 19.1719654681794367   F   F   F
 17.7220002390151912  1.5655215689656841 19.1897414910097872   F   F   F
  1.9973608786392933  6.9537747422654848 19.2242202162422373   F   F   F
 15.7772602215330053 19.5120057830896485 14.9604073408073965   F   F   F
  2.0528396523158161 12.5667841347879978 19.1980533411373528   F   F   F
  2.0705624395306779  9.7479264790156304 19.1939277878446326   F   F   F
  1.9922302947147301  4.1418161512232521 19.2478964148267693   F   F   F
  9.9079004081878264  4.1888243969984433 19.1964219066954023   F   F   F
  9.8172963499828985  9.3483880640119370 18.8963506840988913   F   F   F
  1.9990853324179445 20.8803239916384840 19.2324585121258878   F   F   F
  1.9741502826884685 15.3364723763609732 19.1653522523984527   F   F   F
  1.9900707953432639  1.3469603040376303 19.2632161190681863   F   F   F
 19.7263072832005264 11.2339568410039448 17.6772315436851102   F   F   F
 21.5993727479281254  9.7335503268974986 19.1994978189368908   F   F   F
 19.6573928531837012 16.7593112219185940 17.7807832818497360   F   F   F
 19.6877547923726937  5.5495953980843584 17.7253224326015157   F   F   F
 17.6405076358971762  4.3690467690599863 19.4100881233966689   F   F   F
 21.6982156369999721 18.1325837370000720 10.8156001569999933   F   F   F
 13.8002789634502605 20.9011915866014739 19.1866945030426379   F   F   F
  2.0033853043996954 18.1375294067781923 19.2757757134259862   F   F   F
 13.7163015931680796  4.3019909174734261 19.3718209894582856   F   F   F
  6.0247923399509515 15.1344449707650455 19.8814157644297680   F   F   F
  5.6954679395493031  9.8661694621550904 19.2355928876220545   F   F   F
 21.6400428432934859 20.9232770772578753 19.2466268399213334   F   F   F
 21.6910891301206910 15.3462389778289161 19.1714088490340693   F   F   F
  5.9673460597105050 20.7622104347652972 19.1203924027344314   F   F   F
  6.0033635742824085  4.1619599398499600 19.2383291275345378   F   F   F
  9.3903808945765022 12.2902469987067935 19.5563734392425950   F   F   F
  9.8405979610911380  4.2747187291951798 16.3997192926306532   F   F   F
 17.8193047852513047 12.6935798476951582 19.0695956528484061   F   F   F
 11.8359047192442279 19.4888195252965453 15.0321525572548644   F   F   F
 21.6626805017402368  6.9600977245030569 19.1955145047401885   F   F   F
 21.6120536011732867 18.1554583207640441 19.2603387329643354   F   F   F
 13.7966468380099574  1.4975207808043085 19.1675699559298955   F   F   F
  5.9007270667122240  7.0026182966271104 16.3772874119906895   F   F   F
 13.9737828421847947 12.6488907309318375 19.1609141095041196   F   F   F
  5.8619860507459105 12.8105886723498745 18.8627819251578082   F   F   F
 17.8517794709507207 15.4634991265398956 19.7055571730640722   F   F   F
  6.2178098906560830 17.8664843790053922 19.3850988627967276   F   F   F
  5.9417796873600359  1.3273581823537148 19.2711761167331801   F   F   F
 21.6982156369999721 12.5533272030000536 10.8156001569999933   F   F   F
 11.8257250998564398  8.3539260693516937 14.9929888807075322   F   F   F
 11.8418017853995625 13.8620759289358197 15.0004865965401351   F   F   F
 19.7056874628803627 13.9055882571623606 15.0060396085337988   F   F   F
  5.9719601883815674  4.2028570349651080 16.4200111949110834   F   F   F
 19.7053114334699657  8.3260722951609392 14.9928382314159432   F   F   F
 19.7135521704149035  2.7823740198633815 15.0010679290905227   F   F   F
  3.9464387586199128  8.3952372386738965 14.9306675159900966   F   F   F
  3.9667466248067527 13.9327238525458963 15.0077655992264081   F   F   F
 13.7489667509160647  9.8188680727151318 19.4068121328864009   F   F   F
 13.6513774039091089 15.3279219679321326 19.1924702047284939   F   F   F
 21.6841405711638728  4.1573481424657981 19.1968459294240148   F   F   F
  5.8946746130411869  7.0591862759440316 19.2364195154089934   F   F   F
  3.9716495885978915 19.4883448703517352 14.9969670151616281   F   F   F
 21.6813939033909691  9.7500655482849936 13.6097987146480985   F   F   F
  3.9558977084626075  2.7792688400001442 14.9846910937032121   F   F   F
 17.7258244307586601  1.3439682086221232 16.3408105416515426   F   F   F
 10.1955291113248698  6.8143668761457468 19.6916159840579965   F   F   F
 13.9893450251296727 18.0956023236243482 19.3745204360863994   F   F   F
  9.9526075515602912 15.0919487810567805 19.0082429426788906   F   F   F
 17.8696689705784166  9.6853094965377640 19.1554237157895422   F   F   F
 11.8062885142595348  5.6517331039717469 17.7248351942927620   F   F   F
 13.8093659995037132  7.1787223049486206 19.0068557752636131   F   F   F
 21.6774587930291034  4.1695324993115452 13.5976096131593849   F   F   F
 15.7491110102009060 13.9710841891415534 15.0900786121254260   F   F   F
 13.8363283706213718 12.5618072476716893 13.6465633951080534   F   F   F
 13.8084474449691115  1.4254270356463090 13.6147437791582284   F   F   F
 21.6982156369999721 15.3429554700000619 10.8156001569999933   F   F   F
 21.6982156369999721  9.7636982699999884 10.8156001569999933   F   F   F
 21.6982156369999721  4.1844424010000720 10.8156001569999933   F   F   F
 13.8079546360000549 20.9222120050000342 10.8156001569999933   F   F   F
 13.8079546360000549 15.3429554700000619 10.8156001569999933   F   F   F
 13.8079546360000549  9.7636982699999884 10.8156001569999933   F   F   F
 13.8079546360000549  4.1844424010000720 10.8156001569999933   F   F   F
  5.9176950450000287 20.9222120050000342 10.8156001569999933   F   F   F
 21.6982156369999721 20.9222120050000342 10.8156001569999933   F   F   F
  5.9176950450000287 15.3429554700000619 10.8156001569999933   F   F   F
  5.9176950450000287  4.1844424010000720 10.8156001569999933   F   F   F
 17.7530837259999217 20.9222120050000342 10.8156001569999933   F   F   F
 17.7530837259999217 15.3429554700000619 10.8156001569999933   F   F   F
 17.7530837259999217  9.7636982699999884 10.8156001569999933   F   F   F
 17.7530837259999217  4.1844424010000720 10.8156001569999933   F   F   F
  9.8628241350000643 20.9222120050000342 10.8156001569999933   F   F   F
  9.8628241350000643 15.3429554700000619 10.8156001569999933   F   F   F
  9.8628241350000643  9.7636982699999884 10.8156001569999933   F   F   F
  5.9176950450000287  9.7636982699999884 10.8156001569999933   F   F   F
  1.9725650740000149  1.3948141340000613 10.8156001569999933   F   F   F
 21.6659810901100442 15.3293494437064961 13.6009234651411255   F   F   F
 15.7512087703887786  8.4527097015256771 15.0980377362712535   F   F   F
  7.9145867738342099  8.4462003163016668 15.0902106769642774   F   F   F
  7.9450257008588645 13.9674607974006690 15.1126205988843623   F   F   F
 21.7108361257645086  1.4126863672921495 16.4199340811585159   F   F   F
 17.7508081761854513 20.9451621404742987 13.6652910553811733   F   F   F
  5.9165259198106703 20.8921948384932961 13.6210079327466822   F   F   F
  5.9174459480168720  4.2123941505551130 13.6301776768998302   F   F   F
 17.7316810567226604 15.3685634014022448 13.7257689249071131   F   F   F
  5.9287898116756264  1.3863767639305979 13.6284160162559793   F   F   F
  9.8812732459426567 20.8838761528422872 13.6176717088358608   F   F   F
  9.8477437779722479 20.9186929512324333 16.3805674438741526   F   F   F
  9.8743706200513603 15.2820831278821405 13.6411094118254645   F   F   F
  9.8573730373904134  9.7180912058025761 13.6150258228225454   F   F   F
  1.9988603407153716 15.3316295676949377 13.5952704016912858   F   F   F
  1.9901686477181275 20.9076800685168926 13.6110760842488538   F   F   F
  1.9596765785432408  9.7480381936278349 13.5861524854354929   F   F   F
  1.9854436630165075  4.1630728502942436 13.5894218374578450   F   F   F
 21.6960110899056104 18.1287503836035562 13.6218342732568622   F   F   F
 17.6688224554848006 12.4456990132646528 16.3391332329900969   F   F   F
 21.6851550438600285 12.5465882341678405 13.6220153072556691   F   F   F
 21.6857829985220398  1.3892364644840705 13.6232410694128383   F   F   F
 21.6871311108143949  6.9664189286248019 13.6161007045819566   F   F   F
  9.8691610896283226  4.1791382539315665 13.6096096215606845   F   F   F
 13.7949528303739708  9.8124830962992746 13.6926201292042879   F   F   F
  5.9667477949720817 15.3459028657784824 13.6838472757443110   F   F   F
 13.8040706398806421  4.2493344520299958 13.6708370746804224   F   F   F
  0.0038306471463447  2.7923121864712486 14.9536184413980884   F   F   F
 13.8068725646889678 18.0878014343891067 13.6599540690079237   F   F   F
  0.0013005791564145  8.3347941230027196 14.9538120044231917   F   F   F
 23.6656137797124551 13.9977473292222463 14.9296214421998972   F   F   F
  7.8979071936420500  2.8036667189589792 14.9568456159891294   F   F   F
  0.0038775770119611 19.5318981149890512 14.9887203894597807   F   F   F
  7.8953700456148370 19.5146779893912381 14.9772055086030846   F   F   F
 15.7611228120588933  2.8180918494422422 15.0074254352090968   F   F   F
  5.9452713946456539  9.8044274948799153 13.6465382679028888   F   F   F
  1.9725650740000149 12.5533272030000536 10.8156001569999933   F   F   F
 21.6982156369999721  1.3948141340000613 10.8156001569999933   F   F   F
 17.7441290343301823 18.1480041757519324 13.5893802114619113   F   F   F
 17.7444883179633237  9.7885042167378788 13.6872393122931673   F   F   F
 21.6918399393551837 20.9136505463948446 13.6106478813381173   F   F   F
 21.6727977488627666  6.9742006139647428 16.4013527161297290   F   F   F
  1.9167509689037709 12.5969269747433597 16.3915445521299645   F   F   F
 13.8079546360000549  1.3948141340000613 10.8156001569999933   F   F   F
 13.8330010117441056  7.0424407546676386 13.6100212962671208   F   F   F
 17.6990926289672323 18.0176685931903791 16.3568459797930217   F   F   F
 11.8353900909999528 11.1585130689999925 12.2103998060000407   F   F   F
  1.9725650740000149  4.1844424010000720 10.8156001569999933   F   F   F
  0.0000000000000000  0.0000000000000000 12.2103998060000407   F   F   F
  0.0000000000000000  5.5792565349999723 12.2103998060000407   F   F   F
  0.0000000000000000 11.1585130689999925 12.2103998060000407   F   F   F
 17.7117927538219533 12.5944278625983301 13.6134978039581274   F   F   F
  7.8902602960000570  0.0000000000000000 12.2103998060000407   F   F   F
  7.8902602960000570 11.1585130689999925 12.2103998060000407   F   F   F
  7.8902602960000570 16.7377696039999648 12.2103998060000407   F   F   F
 15.7805205919999434  0.0000000000000000 12.2103998060000407   F   F   F
 15.7805205919999434  5.5792565349999723 12.2103998060000407   F   F   F
 15.7805205919999434 11.1585130689999925 12.2103998060000407   F   F   F
 19.7256482699999580  5.5792565349999723 12.2103998060000407   F   F   F
  3.9451301480000271  0.0000000000000000 12.2103998060000407   F   F   F
  3.9451301480000271 11.1585130689999925 12.2103998060000407   F   F   F
  3.9451301480000271 16.7377696039999648 12.2103998060000407   F   F   F
 11.8353900909999528  0.0000000000000000 12.2103998060000407   F   F   F
 11.8353900909999528  5.5792565349999723 12.2103998060000407   F   F   F
 11.8353900909999528 16.7377696039999648 12.2103998060000407   F   F   F
 21.6982156369999721  6.9740706679999214 10.8156001569999933   F   F   F
  7.8902602960000570  5.5792565349999723 12.2103998060000407   F   F   F
 17.6915655759825547  7.0145689600923298 13.6426725543830667   F   F   F
  0.0000000000000000 16.7377696039999648 12.2103998060000407   F   F   F
  9.8628845101295983 18.0777148601064255 13.6534473273152130   F   F   F
 17.7335898999527330  1.4363685747951387 13.6026372618990248   F   F   F
 19.7256482699999580  0.0000000000000000 12.2103998060000407   F   F   F
 13.7945146518891555 15.3134371611946793 13.6397703729961535   F   F   F
  5.9608780261442584 12.6005889679959697 13.6150930631234406   F   F   F
  3.9451301480000271  5.5792565349999723 12.2103998060000407   F   F   F
  5.9349866382943777 18.0977051661582031 13.6594920322170967   F   F   F
 15.7805205919999434 16.7377696039999648 12.2103998060000407   F   F   F
 13.8079546360000549 18.1325837370000720 10.8156001569999933   F   F   F
  5.9176950450000287 12.5533272030000536 10.8156001569999933   F   F   F
 13.8079546360000549 12.5533272030000536 10.8156001569999933   F   F   F
  5.9176950450000287 18.1325837370000720 10.8156001569999933   F   F   F
  5.9176950450000287  6.9740706679999214 10.8156001569999933   F   F   F
  5.9176950450000287  1.3948141340000613 10.8156001569999933   F   F   F
 17.7530837259999217 12.5533272030000536 10.8156001569999933   F   F   F
 17.7530837259999217  6.9740706679999214 10.8156001569999933   F   F   F
 17.7530837259999217  1.3948141340000613 10.8156001569999933   F   F   F
  9.8628241350000643 18.1325837370000720 10.8156001569999933   F   F   F
  9.8628241350000643  6.9740706679999214 10.8156001569999933   F   F   F
 17.7530837259999217 18.1325837370000720 10.8156001569999933   F   F   F
  1.9760789351313444  6.9617411074899378 13.6215939471400329   F   F   F
  9.8628241350000643  1.3948141340000613 10.8156001569999933   F   F   F
  9.8677171939821040  1.3740868212676334 13.6610417383085299   F   F   F
  1.9752999447903643 18.1247535648906961 13.6255563013758394   F   F   F
  9.8628241350000643 12.5533272030000536 10.8156001569999933   F   F   F
  9.7953491504186498 18.1230206262900282 16.4355834865755952   F   F   F
 13.8079546360000549  6.9740706679999214 10.8156001569999933   F   F   F
  1.9878449661188538 12.5537434470632832 13.6193531257390958   F   F   F
  5.9433484823266083  1.3966568871476202 16.4179100358232901   F   F   F
 19.7256482699999580 11.1585130689999925 12.2103998060000407   F   F   F
  9.8628241350000643  4.1844424010000720 10.8156001569999933   F   F   F
  1.9725650740000149 20.9222120050000342 10.8156001569999933   F   F   F
  1.9725650740000149 18.1325837370000720 10.8156001569999933   F   F   F
  1.9725650740000149  9.7636982699999884 10.8156001569999933   F   F   F
 19.7256482699999580 16.7377696039999648 12.2103998060000407   F   F   F
  9.8363505273268785  6.9496037521639575 13.7214511309074716   F   F   F
  1.9831945956771586  1.3817285178495087 13.6255351308943133   F   F   F
  9.8481942637019131 12.4868999433872681 13.7362675429918646   F   F   F
  1.9725650740000149 15.3429554700000619 10.8156001569999933   F   F   F
  5.9705563347646198  7.0168197774838248 13.6190747035545208   F   F   F
  3.9451301480000271 19.5273965409999306 12.2103998060000407   F   F   F
 11.8353900909999528  2.7896282670000101 12.2103998060000407   F   F   F
 19.7944373096596955 16.7773594242142750 15.0801052146038970   F   F   F
 19.8376336199434213  8.3240840039262611 18.0976994493326657   F   F   F
 19.6803275197627983 19.5869650822516697 18.5520089931227865   F   F   F
  3.8711770655625632 11.1562900679408532 15.0572963569751312   F   F   F
 11.8353900909999528 19.5273965409999306 12.2103998060000407   F   F   F
  7.8558598354151714  2.6722665629096696 18.4087297617079813   F   F   F
 19.8764114506484688 13.9923610452264100 18.1231629574625117   F   F   F
 11.8353900909999528 13.9481413360000008 12.2103998060000407   F   F   F
 15.7469335985512746  2.7939801241218110 18.2346861346762275   F   F   F
 19.7256482699999580  2.7896282670000101 12.2103998060000407   F   F   F
 19.7256482699999580  8.3688848019999824 12.2103998060000407   F   F   F
 23.6465156364246241 19.5275418904572042 18.7163356935030087   F   F   F
  0.0000000000000000  2.7896282670000101 12.2103998060000407   F   F   F
 23.6680847066084574 13.9194426780738070 18.7162558614970784   F   F   F
  3.9451301480000271 13.9481413360000008 12.2103998060000407   F   F   F
  7.9084939776109300 13.9442230894959245 17.8525424920284372   F   F   F
 11.8486585727262224  2.7354519808653013 18.1974891375666807   F   F   F
 19.7721167334919983  2.7698882839029975 18.3694406217513695   F   F   F
  0.0107525919105130  8.3751876828152874 18.7390524203047377   F   F   F
 15.7767743545106427 13.9709207144039134 17.7895847064425183   F   F   F
 15.7629449247152174 19.6861609494275420 18.2133561576910168   F   F   F
  3.8668406288070871  8.2888124717707736 18.2225029960241294   F   F   F
  3.9720336905628248  2.7379352311243834 18.6533597832209921   F   F   F
  3.7833677188194677 14.0099196830999713 18.0437607751818234   F   F   F
 11.8694108277466235  8.2966763018578753 17.8488224630680712   F   F   F
  3.9378567884845377 19.4994814990250802 18.5285014727854325   F   F   F
  7.9247191792480054 19.6165643908385441 18.0777982263272534   F   F   F
 15.8707852460488521  8.3200243337938016 17.7808187270552480   F   F   F
 15.7805205919999434 19.5273965409999306 12.2103998060000407   F   F   F
 11.8353900909999528  8.3688848019999824 12.2103998060000407   F   F   F
 11.9231325420391681 13.9526546254404380 17.8195165490124481   F   F   F
  0.0000000000000000  8.3688848019999824 12.2103998060000407   F   F   F
  3.9451301480000271  2.7896282670000101 12.2103998060000407   F   F   F
 11.8723010488670617 19.5798131048148534 18.2910732773022602   F   F   F
 19.7968625285032900 11.1611762525184357 15.0866878902083563   F   F   F
 23.6647823644845161 11.1577390128614358 15.2028499452909234   F   F   F
 11.8638938105860561 11.1545051970850810 15.0050394703372181   F   F   F
 15.7834097155513202  5.5385640605793993 15.0723928928822062   F   F   F
  7.8862093558596706  0.0266377901325316 15.1754876947235093   F   F   F
  7.8164845333553084  5.5372188538140383 15.0861652227578791   F   F   F
 15.8214017457562957 11.1599130496262440 15.0171147320452025   F   F   F
 19.7256482699999580 13.9481413360000008 12.2103998060000407   F   F   F
  3.8939778882933895 16.7711309540574263 15.1048375564278317   F   F   F
 15.7663467633889294  0.0003569289451337 15.1687579218660868   F   F   F
 11.8635053588670516 16.8043250707146044 15.1130276845363678   F   F   F
 15.7510800432366711 16.7795890720265781 15.0646330140351328   F   F   F
  3.9451301480000271  8.3688848019999824 12.2103998060000407   F   F   F
  7.7101190518350284  8.3414019898762923 17.7777331374835441   F   F   F
  0.0235477794758519  2.7484326338241898 18.5881116634667301   F   F   F
 19.7918825038457129  5.5495140469988309 15.0749411772954218   F   F   F
 15.7805205919999434  8.3688848019999824 12.2103998060000407   F   F   F
  7.8397863415172910 11.1419053879173759 15.0231506703705477   F   F   F
  0.0000000000000000 19.5273965409999306 12.2103998060000407   F   F   F
  3.9299402870691864  0.0263319523029701 15.1964410877384157   F   F   F
  7.9041725551679134 16.7659319154152477 15.0458605782311174   F   F   F
 11.8444009442001761 22.3000882386704617 15.1672123147832263   F   F   F
  3.9384151782352772  5.5385150823186740 15.1880023078441919   F   F   F
  0.0000000000000000 13.9481413360000008 12.2103998060000407   F   F   F
 15.7805205919999434  2.7896282670000101 12.2103998060000407   F   F   F
 19.7483934640464049 22.3159888888862916 15.1951542774076973   F   F   F
  7.8902602960000570  8.3688848019999824 12.2103998060000407   F   F   F
  7.8902602960000570 19.5273965409999306 12.2103998060000407   F   F   F
  7.8902602960000570 13.9481413360000008 12.2103998060000407   F   F   F
 19.7256482699999580 19.5273965409999306 12.2103998060000407   F   F   F
 15.7805205919999434 13.9481413360000008 12.2103998060000407   F   F   F
  0.0052627927799466 22.3150527278531357 15.2005400606146139   F   F   F
  0.0257872950450913  5.5748879202421877 15.1855530194450576   F   F   F
 23.6698195552549215 16.7626343100156916 15.2036464306708723   F   F   F
 11.8602650944953538  5.5358077629623166 15.0667303343704297   F   F   F
  7.8902602960000570  2.7896282670000101 12.2103998060000407   F   F   F
  1.9725650740000149  5.5792565349999723 12.2103998060000407   F   F   F
 17.8034693031086064 16.7943858169539517 17.7156633920677393   F   F   F
  5.9176950450000287  5.5792565349999723 12.2103998060000407   F   F   F
  1.9725650740000149 16.7377696039999648 12.2103998060000407   F   F   F
  1.9725650740000149 11.1585130689999925 12.2103998060000407   F   F   F
  1.9725650740000149  0.0000000000000000 12.2103998060000407   F   F   F
 21.7464879209609734  8.3530060828977870 15.1756076875923505   F   F   F
 21.6982156369999721 16.7377696039999648 12.2103998060000407   F   F   F
 13.8027597318482673  2.7564684449681947 15.1352012354565062   F   F   F
 17.8132928843419798 13.9429355854200452 15.0703053572022601   F   F   F
 13.8225693102295732 19.5491083648589914 15.1715376645742310   F   F   F
 21.7285909236799064  2.7875398235016418 15.1856498367033552   F   F   F
  9.8628241350000643 11.1585130689999925 12.2103998060000407   F   F   F
 21.6982156369999721 11.1585130689999925 12.2103998060000407   F   F   F