Au  O Sr Ti  H                          
   1.00000000000000     
    23.6707801818999997    0.0000000000000000    0.0000000000000000
     0.0000000000000000   22.3170261383000010    0.0000000000000000
     0.0000000000000000    0.0000000000000000   30.0000000000000000
   Au   O    Sr   Ti   H 
    50   264    72    72     1
Selective dynamics
Direct
  0.7187320570215603  0.5257994263506998  0.7538703391056595   T   T   T
  0.6248310642220656  0.5666127651839447  0.7039635124500730   T   T   T
  0.7189086000569481  0.2589755252573599  0.6917965169370255   T   T   T
  0.2906559052699419  0.7455529916379587  0.6987947768812702   T   T   T
  0.5137321706876831  0.6042900772342059  0.7766907989349486   T   T   T
  0.5772060548908764  0.7253925864024897  0.7925683876816627   T   T   T
  0.5502002040811449  0.3843370441219298  0.8296008632898109   T   T   T
  0.2416848147402987  0.4674493313356989  0.7093991244394063   T   T   T
  0.2824572582181143  0.6603769030052774  0.7661517315240831   T   T   T
  0.6024695762307103  0.2889124601861433  0.7878146023793063   T   T   T
  0.5145500567174366  0.4831312994259399  0.6779680337467794   T   T   T
  0.5622624085695919  0.4858879311992872  0.7627072468916902   T   T   T
  0.4634814195552647  0.6951102119439170  0.8299085185246081   T   T   T
  0.7646325148944036  0.4313808352627892  0.7054513072089342   T   T   T
  0.7335558844642975  0.6156173037248488  0.6939155193770985   T   T   T
  0.6360987147262706  0.5834089499081672  0.8000345175389387   T   T   T
  0.5947084387947239  0.7851158472357590  0.7125316938692904   T   T   T
  0.4838309481156170  0.7791649720096727  0.7572051732435338   T   T   T
  0.3495042368186358  0.5006097802661348  0.6974189297315631   T   T   T
  0.4309458955841128  0.3721341878130043  0.8157242837428338   T   T   T
  0.3727988731983571  0.2986134927733075  0.7557169576631156   T   T   T
  0.4409968272464529  0.2282934993739598  0.6970798347617880   T   T   T
  0.3894312414485668  0.8160022494720000  0.7066947852000212   T   T   T
  0.2899842634624747  0.5360552207097340  0.7777073661534477   T   T   T
  0.5554537709013135  0.2080410907265305  0.7116857874246562   T   T   T
  0.4539863566348221  0.5800021948481417  0.7027092192557129   T   T   T
  0.6136017924201004  0.3189276775601406  0.6976275285469608   T   T   T
  0.7053900501137933  0.7576150306290913  0.6883239124458507   T   T   T
  0.6562317816100809  0.4411823900243110  0.8122605933091485   T   T   T
  0.3684086205492008  0.6179766552965527  0.8200713602939231   T   T   T
  0.5713627779030466  0.5100794697946300  0.8570320557487888   T   T   T
  0.6645060235650324  0.1939092145494006  0.7522054027988336   T   T   T
  0.4725553415226477  0.4509750557241577  0.8794860618638430   T   T   T
  0.5162068215047901  0.3771485810356513  0.7341594012507822   T   T   T
  0.2836667506412178  0.3373132107828649  0.7026665977297729   T   T   T
  0.6693790730269410  0.6810994256648087  0.7487633599499643   T   T   T
  0.3976225422933294  0.3818803341345854  0.6901078434254397   T   T   T
  0.3761398991113792  0.4922837200537390  0.8335296597941273   T   T   T
  0.4634741242575503  0.5733459291451561  0.8633813825089823   T   T   T
  0.3267912787369313  0.4137867078683010  0.7695159426389490   T   T   T
  0.4873888311658603  0.2683800608165573  0.7752350633211799   T   T   T
  0.4260586579793246  0.6985497125921495  0.6988693582750878   T   T   T
  0.7001493663056803  0.3460237903557435  0.7565581230734116   T   T   T
  0.7742590165691838  0.4291910406754730  0.7959555300677416   T   T   T
  0.2563670873685620  0.5920467959034776  0.6949589461898852   T   T   T
  0.6475126810959031  0.4408420782973992  0.6969891453650118   T   T   T
  0.5653063322960518  0.6397463986901678  0.8606865705127271   T   T   T
  0.5458925866432297  0.6647501015520004  0.7013667459991419   T   T   T
  0.4429005205278149  0.4745893933693934  0.7559845755420264   T   T   T
  0.3729332451106456  0.7365873835213126  0.7775951529784606   T   T   T
  0.2501403113953456  0.1884794746894536  0.4540927603515091   T   T   T
  0.7495176208223655  0.9383944059182531  0.4553173238739878   T   T   T
  0.7490521320962864  0.6886049320766083  0.4572899098880387   T   T   T
  0.7496439409564867  0.4383596882752548  0.4558022248200564   T   T   T
  0.7501661288390415  0.1898751788027656  0.4557421077818471   T   T   T
  0.4175103475508172  0.9357368982038622  0.4539640320166849   T   T   T
  0.4168874202366033  0.6845185797795660  0.4547770297405282   T   T   T
  0.4165688146617685  0.4353352945627805  0.4537745009619854   T   T   T
  0.0845757864792432  0.6868106731907788  0.4530623191418029   T   T   T
  0.0839256111671194  0.9365773563862929  0.4534994816194460   T   T   T
  0.0827027296667537  0.4367380882738390  0.4528919954055701   T   T   T
  0.0837955361219909  0.1865365003169686  0.4529360144456401   T   T   T
  0.9166690492781502  0.8121521149349237  0.4541782071259454   T   T   T
  0.9163863609873494  0.5615135429887502  0.4543459672669481   T   T   T
  0.2512256725755592  0.4392208518745343  0.4549313443845158   T   T   T
  0.9161513587193921  0.0623166777611498  0.4542873335737531   T   T   T
  0.9161299073224405  0.3100555598558011  0.4552889079022033   T   T   T
  0.4170983383975952  0.1871130786053720  0.4535923850760854   T   T   T
  0.2524294476209274  0.6872889164502126  0.4560870851738290   T   T   T
  0.9164200266509468  0.9372580748844714  0.4536833180026367   T   T   T
  0.5825937373589992  0.1890362597076045  0.4550733258938525   T   T   T
 -0.0002252198783075  0.1252030325874568  0.4986541092274683   T   T   T
  0.5836945346632805  0.8099407999188152  0.4554111858922981   T   T   T
 -0.0000624817407844  0.3732234119591200  0.4985824802878344   T   T   T
  0.9998526710889060  0.6270959850524067  0.4977283645576069   T   T   T
  0.3335510612350888  0.1251523787473310  0.4983776092192083   T   T   T
  0.0000976624169395  0.8751611289284007  0.4995311114017885   T   T   T
  0.3335133445329124  0.8737739091608955  0.4988432443898465   T   T   T
  0.6659431875598609  0.1257393204066696  0.4991628442400011   T   T   T
  0.3356235103907380  0.6251076470681051  0.5044200233301179   T   T   T
  0.3343630783073948  0.3784558939100543  0.5029943486676826   T   T   T
  0.6656044471093443  0.3784897878321987  0.5032390313965011   T   T   T
  0.9153021281365594  0.6865923087103784  0.4529102018059993   T   T   T
  0.9158977115450534  0.4352298708469061  0.4523539476261902   T   T   T
  0.9158915092154748  0.1859289353152199  0.4524816710755545   T   T   T
  0.5826603432051169  0.9361009652896352  0.4537623190736717   T   T   T
  0.5827761008091705  0.6859571778338761  0.4545810322137146   T   T   T
  0.5828280469227602  0.4389293444357904  0.4559995600820312   T   T   T
  0.2499857511961711  0.9359429956828755  0.4540803664628876   T   T   T
  0.6654388780587255  0.6258212142921570  0.5029503662765087   T   T   T
  0.5846087460666142  0.5624445889475034  0.4550544190566240   T   T   T
  0.5829050672582489  0.0623504843704136  0.4547696081280010   T   T   T
  0.9166666865332829  0.6874999999963620  0.3605200052333331   F   F   F
  0.9166666865332829  0.4374999701794380  0.3605200052333331   F   F   F
  0.9166666865332829  0.1875000000030838  0.3605200052333331   F   F   F
  0.5833333134730552  0.9375000000154046  0.3605200052333331   F   F   F
  0.5833333134730552  0.6874999999963620  0.3605200052333331   F   F   F
  0.5833333134730552  0.4374999701794380  0.3605200052333331   F   F   F
  0.5833333134730552  0.1875000000030838  0.3605200052333331   F   F   F
  0.2499999999799343  0.9375000000154046  0.3605200052333331   F   F   F
  0.9166666865332829  0.9375000000154046  0.3605200052333331   F   F   F
  0.2499999999799343  0.6874999999963620  0.3605200052333331   F   F   F
  0.2499999999799343  0.1875000000030838  0.3605200052333331   F   F   F
  0.7499999404149307  0.9375000000154046  0.3605200052333331   F   F   F
  0.7499999404149307  0.6874999999963620  0.3605200052333331   F   F   F
  0.7499999404149307  0.4374999701794380  0.3605200052333331   F   F   F
  0.7499999404149307  0.1875000000030838  0.3605200052333331   F   F   F
  0.4166666269218169  0.9375000000154046  0.3605200052333331   F   F   F
  0.4166666269218169  0.6874999999963620  0.3605200052333331   F   F   F
  0.4166666269218169  0.4374999701794380  0.3605200052333331   F   F   F
  0.2499999999799343  0.4374999701794380  0.3605200052333331   F   F   F
  0.0833333358191695  0.0625000000159659  0.3605200052333331   F   F   F
  0.0833333358191695  0.3124999999901945  0.3605200052333331   F   F   F
  0.0833333358191695  0.5625000000092442  0.3605200052333331   F   F   F
  0.9166666865332829  0.3124999999901945  0.3605200052333331   F   F   F
  0.9166666865332829  0.0625000000159659  0.3605200052333331   F   F   F
  0.5833333134730552  0.8124999999834799  0.3605200052333331   F   F   F
  0.5833333134730552  0.5625000000092442  0.3605200052333331   F   F   F
  0.5833333134730552  0.3124999999901945  0.3605200052333331   F   F   F
  0.5833333134730552  0.0625000000159659  0.3605200052333331   F   F   F
  0.2499999999799343  0.8124999999834799  0.3605200052333331   F   F   F
  0.2499999999799343  0.5625000000092442  0.3605200052333331   F   F   F
  0.2499999999799343  0.3124999999901945  0.3605200052333331   F   F   F
  0.2499999999799343  0.0625000000159659  0.3605200052333331   F   F   F
  0.7499999404149307  0.8124999999834799  0.3605200052333331   F   F   F
  0.7499999404149307  0.5625000000092442  0.3605200052333331   F   F   F
  0.7499999404149307  0.3124999999901945  0.3605200052333331   F   F   F
  0.7499999404149307  0.0625000000159659  0.3605200052333331   F   F   F
  0.4166666269218169  0.8124999999834799  0.3605200052333331   F   F   F
  0.4166666269218169  0.5625000000092442  0.3605200052333331   F   F   F
  0.4166666269218169  0.3124999999901945  0.3605200052333331   F   F   F
  0.4166666269218169  0.0625000000159659  0.3605200052333331   F   F   F
  0.0833333358191695  0.8124999999834799  0.3605200052333331   F   F   F
  0.4166666269218169  0.1875000000030838  0.3605200052333331   F   F   F
  0.0833333358191695  0.9375000000154046  0.3605200052333331   F   F   F
  0.0833333358191695  0.6874999999963620  0.3605200052333331   F   F   F
  0.0833333358191695  0.4374999701794380  0.3605200052333331   F   F   F
  0.8333332538436267  0.4999999999932783  0.4070133268666680   F   F   F
  0.8333332538436267  0.7500000000123208  0.4070133268666680   F   F   F
  0.0833050752151479  0.0616570212795907  0.4543192592657466   T   T   T
  0.0835283038427169  0.3119163250257259  0.4540131930004308   T   T   T
  0.0839361459101069  0.5624539083605355  0.4539460170905322   T   T   T
  0.0835259163843865  0.8120169692584980  0.4542071659845984   T   T   T
  0.4169771480846228  0.0615175985053571  0.4553397106818809   T   T   T
  0.4154910721138560  0.3113207252161364  0.4573546629802401   T   T   T
  0.4159714352784391  0.5594108798499916  0.4578896332851491   T   T   T
  0.4166789118695370  0.8097419354973732  0.4551359961893146   T   T   T
  0.7494545655012017  0.0641091302669023  0.4532918307522151   T   T   T
  0.7475768172414758  0.3141686033930845  0.4545511259952899   T   T   T
  0.7481252127163215  0.5642770644106909  0.4536857571851680   T   T   T
  0.7492455469498064  0.8132110536747360  0.4530437156682973   T   T   T
  0.2504521435844385  0.0618603001687874  0.4541331657154476   T   T   T
  0.9155914561562294  0.3171931526763738  0.5504301474927952   T   T   T
  0.2522859256889685  0.3141172146767817  0.4541949865317029   T   T   T
  0.2519343483920263  0.5645471565304488  0.4538643939606843   T   T   T
  0.2502398763736093  0.8104364625068898  0.4555636010769890   T   T   T
  0.8333332538436267  0.2500000000190425  0.4070133268666680   F   F   F
  0.5842822586619950  0.3145342121113898  0.4541578970543720   T   T   T
  0.8333332538436267  0.0000000000000000  0.4070133268666680   F   F   F
  0.5000000000021103  0.4999999999932783  0.4070133268666680   F   F   F
  0.0833333358191695  0.1875000000030838  0.3605200052333331   F   F   F
  0.0000000000000000  0.0000000000000000  0.4070133268666680   F   F   F
  0.0000000000000000  0.2500000000190425  0.4070133268666680   F   F   F
  0.0000000000000000  0.4999999999932783  0.4070133268666680   F   F   F
  0.0000000000000000  0.7500000000123208  0.4070133268666680   F   F   F
  0.3333333432766779  0.0000000000000000  0.4070133268666680   F   F   F
  0.3333333432766779  0.2500000000190425  0.4070133268666680   F   F   F
  0.3333333432766779  0.4999999999932783  0.4070133268666680   F   F   F
  0.3333333432766779  0.7500000000123208  0.4070133268666680   F   F   F
  0.6666666865533486  0.0000000000000000  0.4070133268666680   F   F   F
  0.6666666865533486  0.2500000000190425  0.4070133268666680   F   F   F
  0.6666666865533486  0.4999999999932783  0.4070133268666680   F   F   F
  0.6666666865533486  0.7500000000123208  0.4070133268666680   F   F   F
  0.1666666716383389  0.0000000000000000  0.4070133268666680   F   F   F
  0.1666666716383389  0.2500000000190425  0.4070133268666680   F   F   F
  0.1666666716383389  0.4999999999932783  0.4070133268666680   F   F   F
  0.1666666716383389  0.7500000000123208  0.4070133268666680   F   F   F
  0.5000000000021103  0.0000000000000000  0.4070133268666680   F   F   F
  0.5000000000021103  0.2500000000190425  0.4070133268666680   F   F   F
  0.5000000000021103  0.7500000000123208  0.4070133268666680   F   F   F
  0.1671010360530359  0.1239160774048290  0.4989480462382822   T   T   T
  0.9174905543992177  0.0640295136201369  0.5477218918014528   T   T   T
  0.1677858063013169  0.8732198709102892  0.4999306806684615   T   T   T
  0.2518524475661903  0.1879579015404505  0.5471655455508792   T   T   T
  0.7493408355962549  0.9339746008133949  0.5476363034787101   T   T   T
  0.7517805891375314  0.6803327016964738  0.5530950390127126   T   T   T
  0.7530275411450771  0.4343746540471581  0.5494712033354660   T   T   T
  0.4231419988753074  0.4438760282773291  0.5455466379822105   T   T   T
  0.4231807464403380  0.6879639041246433  0.5465873979852974   T   T   T
  0.7484816712401181  0.1835457203095403  0.5507183963678270   T   T   T
  0.4159111130986053  0.9366989701532066  0.5460908828747717   T   T   T
  0.0837760054398105  0.9386786236245913  0.5458779218317217   T   T   T
  0.4155978345925188  0.1912558810702797  0.5464661661156900   T   T   T
  0.0865928223549159  0.6896953390320149  0.5451566612026559   T   T   T
  0.0823017882402270  0.4384222967182129  0.5449934574850437   T   T   T
  0.0837844345780978  0.1894612081361283  0.5449318700735499   T   T   T
  0.4993789765021263  0.1254915975504741  0.4996772510025165   T   T   T
  0.9995968073481876  0.5004279757105586  0.5939725099119261   T   T   T
  0.9995129143578620  0.7537350299691754  0.5921704230191631   T   T   T
  0.3346302569817695  0.2542567543934562  0.5926886450714317   T   T   T
  0.3340047025319797  0.9997873206968124  0.5920315041951959   T   T   T
 -0.0000674976482718  0.9992094449825142  0.5932315760554397   T   T   T
 -0.0005073286331157  0.2498632815036944  0.5909351857495950   T   T   T
  0.3333668516897213  0.4965194117879685  0.5911049311520226   T   T   T
  0.3356699740834436  0.7399548136025830  0.5910851062684479   T   T   T
  0.6636099593904767  0.2474418619721734  0.5908473037521581   T   T   T
  0.6657780139672507  0.0003573469858366  0.5918810296022365   T   T   T
  0.6659638768955657  0.7420469047559657  0.5899753995904374   T   T   T
  0.6671671726253279  0.4929997218310911  0.5909952801069716   T   T   T
  0.1675109625166757  0.9982613450605360  0.5922821678018361   T   T   T
  0.1682647016422134  0.2487216845321874  0.5933008665784159   T   T   T
  0.1707496325570654  0.7498825965879126  0.5950930101860445   T   T   T
  0.2484037678701780  0.4359230257718111  0.5491192736096713   T   T   T
  0.1653191177774480  0.5023764777463444  0.5881286957137714   T   T   T
  0.2491244235160283  0.6834048385330780  0.5519485627022775   T   T   T
  0.5808987739752627  0.1860907530122978  0.5491621020521180   T   T   T
  0.9153487658302926  0.8133337502978020  0.5471728412276875   T   T   T
  0.9166243946816490  0.5649045609081340  0.5471450901322161   T   T   T
  0.5815011997257528  0.5601639997352733  0.5494498204701463   T   T   T
  0.5862693924684360  0.8146687251858290  0.5503689168879856   T   T   T
  0.5831722224408523  0.3117331801850087  0.5456371982276659   T   T   T
  0.5826370540173450  0.0632428515021893  0.5469424800427100   T   T   T
  0.2535715078331635  0.8128488325236335  0.5514405182436234   T   T   T
  0.2518515543556529  0.5589956759873631  0.5441897812938143   T   T   T
  0.2493959199216040  0.3137215989627328  0.5460138628089695   T   T   T
  0.2510750194290780  0.0623969604121173  0.5472447476772850   T   T   T
  0.7484891032572966  0.8082257635954727  0.5456917942946370   T   T   T
  0.7465032781641645  0.5576203532049151  0.5444809620325990   T   T   T
  0.4139694354573584  0.8114658693648976  0.5479713449766468   T   T   T
  0.7483859446482605  0.0597267485329298  0.5446161949211920   T   T   T
  0.7481213033496741  0.3111293810226811  0.5478883355895429   T   T   T
  0.4159864173875966  0.3195031601668271  0.5524998801407248   T   T   T
  0.4202802031921766  0.5648806341555146  0.5555043221890801   T   T   T
  0.4165121371625121  0.0651295311687147  0.5473111731099246   T   T   T
  0.0848799477713682  0.8128527100199040  0.5473316578620273   T   T   T
  0.0829583939678641  0.5639984457609906  0.5464922666268646   T   T   T
  0.0857448589382683  0.3136361646953860  0.5471075203593895   T   T   T
  0.0822786348294796  0.0633653890018811  0.5476355349321119   T   T   T
  0.9157798175171534  0.9386558063611872  0.5461949109138952   T   T   T
  0.9132259438946707  0.6899299083643620  0.5450192354637898   T   T   T
  0.5835386398138436  0.9381656533672295  0.5456469043144450   T   T   T
  0.9159569867239897  0.1906994866536159  0.5443913137943732   T   T   T
  0.9163996726013366  0.4400717727395636  0.5439950257510361   T   T   T
  0.5765025695111059  0.4361171889839244  0.5516186120634106   T   T   T
  0.5795319780639877  0.6864686493452714  0.5470959466976737   T   T   T
  0.2516562460779979  0.9372503944384977  0.5451970302103410   T   T   T
  0.4977588820391159  0.5044450782289945  0.6090847232878435   T   T   T
  0.4985818854409352  0.2527675003705537  0.5903007656842306   T   T   T
  0.4995971577116461 -0.0000181012423551  0.5909990829168984   T   T   T
  0.7536341674056680  0.6934738720758313  0.6574109213048313   T   T   T
  0.7485637358476369  0.9364831349565818  0.6398826450581798   T   T   T
  0.2534405436205298  0.1862339246642757  0.6411829450537645   T   T   T
  0.7458077828299214  0.1941235730965913  0.6467461548658020   T   T   T
  0.7563058526037469  0.4360334489621730  0.6389092668429669   T   T   T
  0.4174197961286146  0.9349027220580195  0.6397897738466795   T   T   T
  0.4217638188357725  0.6756281903236039  0.6334399625628430   T   T   T
  0.5900231580548286  0.8105297706919155  0.6456981061187881   T   T   T
  0.9159148262602378  0.0603640418201670  0.6427323455369008   T   T   T
  0.9128578848317096  0.5615056590420398  0.6427845037772644   T   T   T
  0.9143217176953859  0.3097625156319653  0.6443175758178241   T   T   T
  0.9139679606912118  0.8126142056124525  0.6415931455522100   T   T   T
  0.5821549190175239  0.0654742945302729  0.6398157735246269   T   T   T
  0.5831158560660011  0.3194512575910526  0.6341742214828443   T   T   T
  0.5924922215003743  0.5642785043350517  0.6395411439389481   T   T   T
  0.2474512088374948  0.5735748396805074  0.6289736518278288   T   T   T
  0.2618501954413388  0.7982959897161901  0.6470862678870126   T   T   T
  0.2491321306605651  0.3158805313538867  0.6416967733490153   T   T   T
  0.2510264490973113  0.0591992278076915  0.6422764803918355   T   T   T
  0.9166666865332829  0.5625000000092442  0.3605200052333331   F   F   F
  0.4996063445860245  0.3740841618059226  0.4997960889751527   T   T   T
  0.5000033885306677  0.8726068208715935  0.5008838816304217   T   T   T
  0.5004113834795126  0.6209475960581229  0.5001226096283681   T   T   T
  0.8322838472134759  0.6231104872931276  0.4999078424817492   T   T   T
  0.8327673911401436  0.8743126791076397  0.4985970246965188   T   T   T
  0.8326458780517261  0.3729858360609942  0.4997480961091741   T   T   T
  0.8327338511802813  0.1243401500366283  0.4996288104377065   T   T   T
  0.1667206469599857  0.3761856782250499  0.4977634040395258   T   T   T
  0.1677411996324707  0.6243083360944147  0.5000127902606281   T   T   T
  0.5816734260999333  0.4381818209023992  0.6458189339099766   T   T   T
  0.5807029060159359  0.6850818677140313  0.6385590271288825   T   T   T
  0.9171730926028598  0.1852076734736342  0.6388832295931238   T   T   T
  0.5818591694893032  0.9353773590634691  0.6391532064733702   T   T   T
  0.8304783866802555  0.7506201973975269  0.5928256258025750   T   T   T
  0.8318687870607823  0.2480549637060933  0.5914249197838499   T   T   T
  0.8333517069221700  0.5038243169364151  0.5889619381310220   T   T   T
  0.8322495707181610  0.0020662865571701  0.5922789367218204   T   T   T
  0.5010847328489614  0.7563475735137748  0.5928016864738876   T   T   T
  0.4177592141663889  0.0651676508927508  0.6400100917041947   T   T   T
  0.4269942097058333  0.3049315330465576  0.6548485163933995   T   T   T
  0.4119629641361463  0.8124301059681948  0.6397700819847847   T   T   T
  0.3980423772196693  0.5509012593062111  0.6522698909727670   T   T   T
  0.7524939889550208  0.5706146449311008  0.6344860830159725   T   T   T
  0.7409984514334130  0.8099750771329336  0.6399487309873138   T   T   T
  0.7471814121962516  0.3126297187965267  0.6402615331059407   T   T   T
  0.7476437612701760  0.0666212763268181  0.6393454944419011   T   T   T
  0.0822020204335963  0.3114910793571783  0.6397899802872240   T   T   T
  0.6666108089149482  0.8745664018236652  0.4989244781075468   T   T   T
  0.0869639776597714  0.5610250134163901  0.6424811517957837   T   T   T
  0.0845997811331600  0.0597931987329878  0.6423480245108746   T   T   T
  0.0849366521597264  0.4350680461760479  0.6384227249127549   T   T   T
  0.0827522466452827  0.1850743658769145  0.6400737200732920   T   T   T
  0.4184861206941056  0.1878837455822191  0.6398126129528059   T   T   T
  0.4151609363773908  0.4189541700513805  0.6298389865992652   T   T   T
  0.0843394443878671  0.9348302484990845  0.6407217790116527   T   T   T
  0.0830117177510240  0.6870416591132977  0.6398007335470212   T   T   T
  0.9130407141547423  0.4347499870290810  0.6374002805304132   T   T   T
  0.9166371803613133  0.6875220486162239  0.6397868629162370   T   T   T
  0.9144841282369336  0.9357270410387175  0.6406965910953187   T   T   T
  0.2405946271094357  0.4417148463636830  0.6417004916447734   T   T   T
  0.2540118674085040  0.6765401964959544  0.6635685058272722   T   T   T
  0.5788341189497950  0.1904700219692285  0.6441725870034811   T   T   T
  0.2519528258117064  0.9299307703521761  0.6374172796025503   T   T   T
  0.0840509142894814  0.8118294662935950  0.6418411458039247   T   T   T
  0.9166666865332829  0.8124999999834799  0.3605200052333331   F   F   F
  0.0009510317701719  0.1198091057166004  0.6191990766079105   T   T   T
  0.8333332538436267  0.6249999999803961  0.4070133268666680   F   F   F
  0.9996895602379942  0.5012967651696643  0.5068349593547561   T   T   T
  0.3310880658709423  0.4992317298769888  0.5010941013525548   T   T   T
  0.3301276266440935  0.2479346270280158  0.5027791259086818   T   T   T
  0.3331591813705818  0.0008861299144261  0.5057801862638700   T   T   T
  0.3337693130488466  0.7508524735027925  0.5016873359659041   T   T   T
  0.6659184985126431  0.0001314320089186  0.5056597517324026   T   T   T
  0.6685995008158906  0.4995950356937323  0.5007614047681347   T   T   T
  0.6671552225877460  0.2477186323965090  0.5031548493042970   T   T   T
  0.6654750532448186  0.7518938312852409  0.5021514644282874   T   T   T
  0.1660019487343982  0.0011027973878059  0.5065997660416567   T   T   T
  0.1666008931534625  0.2481479676793802  0.5062172219077419   T   T   T
  0.1634681925746676  0.4997877996055801  0.5023728194584363   T   T   T
  0.5002110328341794  0.9992337634443317  0.5054976655871649   T   T   T
  0.1643180668473602  0.7512896031599328  0.5033760358359535   T   T   T
  0.5008975047807216  0.7526227802609872  0.5039324127383621   T   T   T
  0.8341349262958233  0.0002597787789498  0.5065611963604254   T   T   T
  0.5013432633375517  0.4997102579307389  0.5003685634653563   T   T   T
  0.5011743999181537  0.2479004457725167  0.5019659345425497   T   T   T
  0.8349628914650874  0.2487306041558608  0.5029278066677022   T   T   T
  0.9999240346188614  0.7507084948680358  0.5064823557703265   T   T   T
  0.0008703768762565  0.2494577157267695  0.5047913999920156   T   T   T
  0.0002905915547705  0.0000139148692317  0.5067460408936832   T   T   T
  0.8333332538436267  0.8749999404036828  0.4070133268666680   F   F   F
  0.0000000000000000  0.6249999999803961  0.4070133268666680   F   F   F
  0.0000000000000000  0.8749999404036828  0.4070133268666680   F   F   F
  0.3333333432766779  0.1249999999871179  0.4070133268666680   F   F   F
  0.3333333432766779  0.3750000000061604  0.4070133268666680   F   F   F
  0.3333333432766779  0.6249999999803961  0.4070133268666680   F   F   F
  0.3333333432766779  0.8749999404036828  0.4070133268666680   F   F   F
  0.6666666865533486  0.1249999999871179  0.4070133268666680   F   F   F
  0.6666666865533486  0.3750000000061604  0.4070133268666680   F   F   F
  0.6666666865533486  0.6249999999803961  0.4070133268666680   F   F   F
  0.8360105374635601  0.5000840506873450  0.5028025237262692   T   T   T
  0.6666666865533486  0.8749999404036828  0.4070133268666680   F   F   F
  0.1666666716383389  0.3750000000061604  0.4070133268666680   F   F   F
  0.1666666716383389  0.6249999999803961  0.4070133268666680   F   F   F
  0.1666666716383389  0.8749999404036828  0.4070133268666680   F   F   F
  0.5000000000021103  0.1249999999871179  0.4070133268666680   F   F   F
  0.5000000000021103  0.3750000000061604  0.4070133268666680   F   F   F
  0.5000000000021103  0.6249999999803961  0.4070133268666680   F   F   F
  0.5000000000021103  0.8749999404036828  0.4070133268666680   F   F   F
  0.8333332538436267  0.1249999999871179  0.4070133268666680   F   F   F
  0.8333332538436267  0.3750000000061604  0.4070133268666680   F   F   F
  0.1666666716383389  0.1249999999871179  0.4070133268666680   F   F   F
  0.0000000000000000  0.3750000000061604  0.4070133268666680   F   F   F
  0.8357897366852416  0.7517684802195356  0.5025217345839545   T   T   T
  0.8368962354541100  0.3721842108721533  0.6031863115490420   T   T   T
  0.8318387474956427  0.8755618800518647  0.6176068063890318   T   T   T
  0.8405307963154127  0.6266182730352517  0.6031453863517826   T   T   T
  0.9993948755178796  0.8744540923965654  0.6210594795067584   T   T   T
  0.3316206069119916  0.1197710339332433  0.6133108850336233   T   T   T
  0.3342631979140585  0.6239258542734232  0.5956076829050129   T   T   T
  0.3257764175544149  0.3735021380762728  0.5928551770470394   T   T   T
  0.6712160978892882  0.3717286889126545  0.5943394787111483   T   T   T
  0.6654934411654340  0.1242864257125098  0.6120181106392246   T   T   T
  0.3345018606251191  0.8785755825361219  0.6029972789424375   T   T   T
  0.1585709478506868  0.6266750996625242  0.6018409746601169   T   T   T
  0.1663039136599000  0.8726425679522283  0.6182174272617298   T   T   T
  0.5018304192711935  0.3710965692475754  0.5950482812951130   T   T   T
  0.5003041987235063  0.1218912096568267  0.6060993817418177   T   T   T
  0.1676836662727987  0.1224631482997571  0.6217271316308557   T   T   T
  0.1629654601858664  0.3708376096911548  0.6084940918845992   T   T   T
  0.6651860117216912  0.8807835221449103  0.6068655847556090   T   T   T
  0.6663406743941284  0.6266262288054347  0.5935227349737486   T   T   T
 -0.0009203607704581  0.3733035665709442  0.6155485425190577   T   T   T
  0.9998548550904727  0.6216819124933134  0.6423243056046717   T   T   T
  0.8336467889410001  0.1222669286480685  0.6183007377853075   T   T   T
  0.5003796733472554  0.8764333880726475  0.6097370933940576   T   T   T
  0.0000000000000000  0.1249999999871179  0.4070133268666680   F   F   F
  0.5041036420879360  0.6247896935326748  0.5938404045915520   T   T   T
  0.9163955028434095 -0.0006038946109470  0.6039502325122775   T   T   T
  0.5844074337210055  0.7500807833513411  0.5994245040854662   T   T   T
  0.5909486103847408  0.5007528437890800  0.5937535887518821   T   T   T
  0.2422679633384963  0.4976506109034354  0.5941907766409997   T   T   T
  0.2492799233041259  0.7524407610886396  0.5922586513349278   T   T   T
  0.5843730148020824  0.2471454818555457  0.5971936003832155   T   T   T
  0.5825413389561033  0.0009069081679443  0.6043101844258036   T   T   T
  0.2496312347037755  0.9974393833487938  0.6042292519896190   T   T   T
  0.2490160841894137  0.2455871565690763  0.6037143632331264   T   T   T
  0.4170622653374009  0.0000236938426399  0.6046766771137505   T   T   T
  0.4147089674325783  0.2486506598680580  0.5911225594468911   T   T   T
  0.4160563878756393  0.7499382430275252  0.5945939264660517   T   T   T
  0.7565498383960938  0.5026152077735384  0.5955493604512867   T   T   T
  0.7517681174714282  0.7525076148580619  0.5905659433284478   T   T   T
  0.7540393468240102  0.2476423650335219  0.5944829294663164   T   T   T
  0.7493160592114699  0.0014654915675137  0.6042608292717403   T   T   T
  0.0833516508075823  0.2477767024488330  0.6031377340585016   T   T   T
  0.0810244697489719  0.5000807238324055  0.6035864536411142   T   T   T
  0.0803084189060555  0.7506991222301282  0.6031951345456108   T   T   T
  0.0839060317856076  0.9981405974345762  0.6038303150855567   T   T   T