Au  C  H  O Sr Ti 
 1.0000000000000000
    23.6707800000000006    0.0000000000000000    0.0000000000000000
     0.0000000000000000   22.3170259999999985    0.0000000000000000
     0.0000000000000000    0.0000000000000000   30.0000000000000000
 Au  C   H   O   Sr  Ti 
  50   2   4 265  72  72
Selective dynamics
Cartesian
 16.9444170457167189 11.6986317464136018 22.5665390175239011   F   F   F
 13.1034990668198681  4.7504305191480736 21.2920233154704128   F   F   F
 17.0111937336006527  5.7493082853680111 20.7237856652863783   F   F   F
  6.9410592061113077 16.6545209837991237 20.9059364748351477   F   F   F
 12.1165678134040693 13.4579545859564043 23.3031446679948289   F   F   F
 13.7013699288046347 16.1954083676122771 23.8170083170651345   F   F   F
  5.6861632442933123 10.4725461476624400 21.2682655631305835   F   F   F
  6.7751574764279896 14.7728912870690738 22.9294941604460725   F   F   F
 14.2330300560322094  6.2873611311327648 23.4933904527657589   F   F   F
 12.1693254122517267 10.8208629560204415 20.3391615357472944   F   F   F
 11.4812111619020776  6.0327000404683506 23.2554004678917927   F   F   F
 18.0693221903548640  9.5856999295581815 21.1158562041202842   F   F   F
  6.8512028968902383 12.0030902640817239 23.3263224555490716   F   F   F
  9.2672375642873170 18.2284986313913748 21.1958846481622452   F   F   F
 10.9887490216285677 15.5039036010422642 24.9082098381362513   F   F   F
 10.3436913870127665  5.0786830256386200 20.9354067795215073   F   F   F
  8.7539364735670340  6.6689858898966650 22.6589424060186353   F   F   F
 10.1425070083435429  8.2824577655261518 24.4590825013463906   F   F   F
 14.1316297485115427 17.5077061447584832 21.3859335731186100   F   F   F
 15.0397792627275511 13.0289877612108995 23.9912586152891656   F   F   F
 17.3456679456779064 13.7172042249614226 20.8147017995711678   F   F   F
 11.5056656711586633 17.2790784539536979 22.6118470538207283   F   F   F
 13.0084740214218222  8.5146558651137276 24.7823561493488072   F   F   F
 13.3251680307576184 10.8389805437096243 22.8637808654350358   F   F   F
 16.7310770215208642 16.8935216077796753 20.6470693829232772   F   F   F
  8.2656526890593813 11.1450622223096332 20.9324127796354347   F   F   F
  7.6928751889327831  9.2537914104906811 23.0795774618377720   F   F   F
 14.6924523441775907 12.7515620825573919 21.1202473782895055   F   F   F
 15.5243408524426503  9.8322138312858662 24.3693094784142943   F   F   F
  8.7345393098018445 13.7911614634639470 24.6104582344300162   F   F   F
 15.6557626451282790  4.1075772566411715 22.4375632631374344   T   T   T
 11.1801402531035183 10.0211574627701694 26.3305667939753469   F   F   F
 12.2210331784509787  8.4249381207712801 21.9559545459311671   F   F   F
  6.6733617244039500  7.5841506060919626 21.0700148460817438   F   F   F
 10.6992131515059476 12.9369764224533785 21.0799563877795499   F   F   F
  9.4092010292143549  8.5203487579412496 20.7034214465220785   F   F   F
 14.5801315187023306  7.1782190224278217 20.8835640946289587   F   F   F
 10.9703572847998228 12.7713054163790822 25.9243197498312377   F   F   F
 13.5039399076367932 11.3588244872404598 25.6825065248123359   F   F   F
  8.8665910992062535 16.5083177351907118 23.3786177401743558   F   F   F
  8.8817464926570846 10.9850053933301481 24.9969992350149930   F   F   F
 12.7750230048673359 14.9109200438721867 21.0598158590547762   F   F   F
 13.3741451772070121 14.2601718075168797 25.8233832986305103   F   F   F
 15.3492966305812466  9.9511320112061927 20.8357481894868606   F   F   F
 10.4973088604937121 10.5863625902208582 22.6971361740093798   F   F   F
  6.0810942065361635 13.2315019791975832 20.8347495423054667   F   F   F
 18.3124943171473689  9.5509452201151035 23.8158928324467070   F   F   F
 16.5543059104453292  7.6659418218138651 22.7260282089283265   F   F   F
  9.8055488514376670 15.5051047051284669 20.9864648870049137   F   F   F
 15.8518552068323739 15.2042542670541785 22.4587943486014403   F   F   F
 16.9273092499594000  2.5283714622027373 22.2050920655225248   T   T   T
 16.4365337199808081  1.1437692200972389 22.0530797321239689   T   T   T
 16.1283419188488004  0.8072196502142319 23.0553330297583372   T   T   T
 18.5265358706623608  3.5546583894260055 22.2960392749088427   T   T   T
 15.5350252559978017  1.1180363944866052 21.4320414259152017   T   T   T
 17.2029287345028266  0.4786196191411455 21.6505482486015310   T   T   T
  9.8752061537323375 15.2904515507609595 13.6503075554308921   F   F   F
 13.7994256258864674  1.3953037691994858 16.3806360310372696   F   F   F
  9.8575390092184350  9.7183636004731948 13.6148451191096207   F   F   F
  1.9975239907650759 15.3308237467385844 13.5948088975224515   F   F   F
  1.9912512170114529 20.9059770763284440 13.6079852685119551   F   F   F
  1.9599520555470418  9.7486097391154356 13.5850938944095869   F   F   F
  1.9845859826128853  4.1633875204874018 13.5889300190726914   F   F   F
 21.6954235955032679 18.1287663623783075 13.6217737664276353   F   F   F
  1.9725651578052688  6.9740706249999995 10.8156003000000567   F   F   F
 13.7953448100067622  6.9436384284436308 16.3530968924931166   F   F   F
 21.6837366914895107  6.9658659798056934 13.6173106808179405   F   F   F
  9.8689130235302613  4.1793140953295786 13.6092290675493945   F   F   F
  5.9662593718471193 15.3452556046344988 13.6831355312032592   F   F   F
 21.6862036717476627 20.9138217031973817 13.6130561811695880   F   F   F
 13.8043865617595962  4.2466539331022544 13.6698087481614721   F   F   F
 13.8067193288634229 18.0875705198011438 13.6614470282885065   F   F   F
 23.6690156072170481  8.3408881964563886 14.9449729936922697   F   F   F
 23.6631160671932435 13.9972011133568355 14.9274311377684832   F   F   F
  7.8963616995576054  2.8030508412735240 14.9575694456765369   F   F   F
  0.0013720023006989 19.5315997958447944 14.9861035799874749   F   F   F
  7.8950341457410484 19.5084797583516227 14.9757162923802962   F   F   F
 15.7617034262984159  2.8428935092429137 15.0274384947735413   F   F   F
  5.9445469919388589  9.8037625862560542 13.6469461131772434   F   F   F
  1.9725651578052688 12.5533271249999991 10.8156003000000567   F   F   F
 18.2231822856095427  2.6301742086244126 22.2224602042961941   T   T   T
 21.6982155523181888  1.3948141249999999 10.8156003000000567   F   F   F
 17.7394799253839182 18.1485047301555795 13.5918486462001411   F   F   F
  5.9300193196992179  1.3846370740442751 13.6278917710372678   F   F   F
 15.7512059588064144 13.9662970174573324 15.0893353386957489   F   F   F
 23.6696394705528874  2.7934678208516779 14.9552238588336976   F   F   F
 21.6749616557567464  6.9740318555870999 16.4015095006937273   F   F   F
 13.8079544476818104 20.9222118749999986 10.8156003000000567   F   F   F
 17.7537300003036940  4.2370493985939151 13.6724442676590172   F   F   F
 13.8186891373115337  1.4235063343056678 13.6257114487327673   F   F   F
 21.6982155523181888 15.3429553749999990 10.8156003000000567   F   F   F
 21.6982155523181888  9.7636982054891632 10.8156003000000567   F   F   F
 21.6982155523181888  4.1844423749999997 10.8156003000000567   F   F   F
  5.9611008348836947 12.6003938213130784 13.6151661561136663   F   F   F
 13.8079544476818104 15.3429553749999990 10.8156003000000567   F   F   F
 13.8079544476818104  9.7636982054891632 10.8156003000000567   F   F   F
 13.8079544476818104  4.1844423749999997 10.8156003000000567   F   F   F
  5.9176950000000001 20.9222118749999986 10.8156003000000567   F   F   F
 21.6982155523181888 20.9222118749999986 10.8156003000000567   F   F   F
  5.9176950000000001 15.3429553749999990 10.8156003000000567   F   F   F
  5.9176950000000001  4.1844423749999997 10.8156003000000567   F   F   F
 17.7530835797532518 20.9222118749999986 10.8156003000000567   F   F   F
  9.8772268239845680 20.8887325799415393 13.6225714351696343   F   F   F
  5.9702703182350225  7.0161172893782799 13.6179225920491085   F   F   F
 17.7530835797532518 15.3429553749999990 10.8156003000000567   F   F   F
  9.8628241320714398 20.9222118749999986 10.8156003000000567   F   F   F
  9.8628241320714398 15.3429553749999990 10.8156003000000567   F   F   F
  9.8628241320714398  9.7636982054891632 10.8156003000000567   F   F   F
  5.9176950000000001  9.7636982054891632 10.8156003000000567   F   F   F
  1.9725651578052688  1.3948141249999999 10.8156003000000567   F   F   F
 21.6660631089862328 15.3292349161842107 13.6006385372993908   F   F   F
 15.7513143632554975  8.4485829889860735 15.0974785031108265   F   F   F
  7.9125266567806554  8.4452468683407407 15.0894523904198348   F   F   F
  7.9456375221711797 13.9665441587819803 15.1129942845473000   F   F   F
 21.7086754988390247  1.4167808595223432 16.4237639274218630   F   F   F
  5.9172447550020291  4.2121488886009253 13.6300814459387372   F   F   F
 17.7619175228768356 20.9474848440717274 13.6702656761435914   F   F   F
 17.7312813499658546 15.3674997603388146 13.7255351909587926   F   F   F
 17.7530835797532518  9.7636982054891632 10.8156003000000567   F   F   F
 17.7530835797532518  4.1844423749999997 10.8156003000000567   F   F   F
  2.0094326902056889 18.1406939141704235 16.4198716748610636   F   F   F
 13.8079544476818104 12.5533271249999991 10.8156003000000567   F   F   F
 13.8333103748664961  7.0398838667529384 13.6111808633664122   F   F   F
  5.9176950000000001 18.1325836249999988 10.8156003000000567   F   F   F
  5.9176950000000001  6.9740706249999995 10.8156003000000567   F   F   F
 17.7530835797532518 12.5533271249999991 10.8156003000000567   F   F   F
 17.7530835797532518  6.9740706249999995 10.8156003000000567   F   F   F
 17.7530835797532518  1.3948141249999999 10.8156003000000567   F   F   F
  9.8628241320714398 18.1325836249999988 10.8156003000000567   F   F   F
  9.8628241320714398 12.5533271249999991 10.8156003000000567   F   F   F
  9.8628241320714398  6.9740706249999995 10.8156003000000567   F   F   F
  1.9755505165903158  6.9627036830833182 13.6206127604583394   F   F   F
  9.8628241320714398  1.3948141249999999 10.8156003000000567   F   F   F
  9.8667978691838432  1.3744099079469747 13.6599196730463461   F   F   F
  1.9752132937473104 18.1246607895174421 13.6250244910831793   F   F   F
  1.9873991516105913 12.5533796419759636 13.6191203988349177   F   F   F
  9.8486453274325552 12.4873255551140314 13.7362226563091721   F   F   F
 17.7530835797532518 18.1325836249999988 10.8156003000000567   F   F   F
 19.7256480274350601 11.1585129999999992 12.2103998999999437   F   F   F
  9.8367503562835044  6.9497282605347923 13.7209183395679943   F   F   F
 19.7256480274350601 16.7377694999999989 12.2103998999999437   F   F   F
  1.9725651578052688  9.7636982054891632 10.8156003000000567   F   F   F
  1.9725651578052688 15.3429553749999990 10.8156003000000567   F   F   F
  1.9725651578052688 20.9222118749999986 10.8156003000000567   F   F   F
  9.8628241320714398  4.1844423749999997 10.8156003000000567   F   F   F
  1.9725651578052688 18.1325836249999988 10.8156003000000567   F   F   F
  9.8044780258095603 18.1158434315256969 16.4382384870292775   F   F   F
  5.8993954954441508  7.0009993527192567 16.3745328675317765   F   F   F
 17.6932226042661576 18.0125136065910390 16.3596613260358836   F   F   F
 17.6692599339815928 12.4459245862446011 16.3394822577306229   F   F   F
  1.9801636376284968  1.3807860986182323 13.6269651164141692   F   F   F
  5.9423684411315811  1.3950993704142440 16.4181777453871440   F   F   F
  5.9176950000000001  1.3948141249999999 10.8156003000000567   F   F   F
  5.9176950000000001 12.5533271249999991 10.8156003000000567   F   F   F
 13.8344044247439868 12.5601118168639587 13.6468189253369907   F   F   F
 13.8079544476818104  1.3948141249999999 10.8156003000000567   F   F   F
 19.7256480274350601  0.0000000000000000 12.2103998999999437   F   F   F
 11.8353900000000003 11.1585129999999992 12.2103998999999437   F   F   F
  1.9725651578052688  4.1844423749999997 10.8156003000000567   F   F   F
  5.9955103136659149 18.1342781097439563 16.5203634767109726   F   F   F
  0.0000000000000000  5.5792564999999996 12.2103998999999437   F   F   F
  0.0000000000000000 11.1585129999999992 12.2103998999999437   F   F   F
 17.7132935521818879 12.5899761383041238 13.6157757632121239   F   F   F
  7.8902601578052689  0.0000000000000000 12.2103998999999437   F   F   F
  7.8902601578052689 11.1585129999999992 12.2103998999999437   F   F   F
  7.8902601578052689 16.7377694999999989 12.2103998999999437   F   F   F
 15.7805205523181904  0.0000000000000000 12.2103998999999437   F   F   F
 15.7805205523181904  5.5792564999999996 12.2103998999999437   F   F   F
 15.7805205523181904 11.1585129999999992 12.2103998999999437   F   F   F
 13.8079544476818104  6.9740706249999995 10.8156003000000567   F   F   F
 19.7256480274350601  5.5792564999999996 12.2103998999999437   F   F   F
 15.7805205523181904 16.7377694999999989 12.2103998999999437   F   F   F
  3.9451300789025505 16.7377694999999989 12.2103998999999437   F   F   F
 11.8353900000000003  0.0000000000000000 12.2103998999999437   F   F   F
 11.8353900000000003  5.5792564999999996 12.2103998999999437   F   F   F
 11.8353900000000003 16.7377694999999989 12.2103998999999437   F   F   F
 21.6982155523181888  6.9740706249999995 10.8156003000000567   F   F   F
  7.8902601578052689  5.5792564999999996 12.2103998999999437   F   F   F
 17.6891480325618708  7.0077049715555590 13.6571762937836247   F   F   F
  0.0000000000000000 16.7377694999999989 12.2103998999999437   F   F   F
  9.8674824221979041 18.0855007374254519 13.6501817281588380   F   F   F
 17.7447473296923448  9.7797223729090970 13.6752223394648453   F   F   F
 17.7203992031616764  1.4417688189408653 13.6003535891280372   F   F   F
 13.8079544476818104 18.1325836249999988 10.8156003000000567   F   F   F
  5.9302232356668920 18.0949003521913632 13.6599233181043225   F   F   F
  3.9451300789025505  5.5792564999999996 12.2103998999999437   F   F   F
  3.9451300789025505 11.1585129999999992 12.2103998999999437   F   F   F
  3.9451300789025505  0.0000000000000000 12.2103998999999437   F   F   F
 21.6847344638234567 12.5463050339095776 13.6223656108887781   F   F   F
  0.0000000000000000  0.0000000000000000 12.2103998999999437   F   F   F
  1.9667718162169467  9.7854531478109887 16.3483172445395688   F   F   F
  1.9816349151857802  4.2159540285981993 16.3654726638452814   F   F   F
 11.8218314910617970  2.8028042130260702 14.9747837115697440   F   F   F
 23.6609687639411099 11.1171252206523867 17.8162480357955744   F   F   F
 13.7197172709743160  4.1312050027312521 16.5092657905248394   F   F   F
 23.6611439536938590 16.8204309821792393 17.7861652178316945   F   F   F
  7.9076194110949958 22.3140639101945091 17.7600872263678653   F   F   F
 23.6656314648037203 22.2964525553884734 17.7955361670218402   F   F   F
  0.0182214648610352  5.5415530985477952 17.7674527340559969   F   F   F
  7.8859298333552887 11.0773589167901605 17.7223423717960102   F   F   F
  7.9390238659788110 16.5419205898397692 17.7145926938042528   F   F   F
 15.6995524318884847  5.5194380254908353 17.7174938490526195   F   F   F
 15.7686479015611312  0.0211741896609317 17.7588670011091416   F   F   F
 21.6822421936578600  4.2114940336774342 16.3679552800660986   F   F   F
 15.7566197186755197 16.5319279783562756 17.7306292896633835   F   F   F
  3.9852951240770476  5.5490976882911243 17.7938799324328834   F   F   F
  4.0403986722163534 16.7444636903282067 17.8428770002318409   F   F   F
  5.8724981365343139  9.7275211132223482 16.4690091513291677   F   F   F
  3.9154377021403985 11.2346241004709047 17.6180901320902734   F   F   F
  7.9215906279919253  5.6807714199082131 17.7803361130611854   F   F   F
 11.8326545308702205  0.0019383296327100 17.7365213620652149   F   F   F
 19.7066525615190038 19.4941061678036149 14.9887117190104160   F   F   F
 17.7100260005146701 20.9782208862192014 19.2772831898280188   F   F   F
 19.6947221942489747  0.0362442888122484 17.7657579855563554   F   F   F
 11.8511122128398974 16.8829530161830910 17.7771448901929325   F   F   F
  9.8899387596579942  1.4523964824801618 19.2035984383507525   F   F   F
 10.1161378786964899  6.8016219422446040 19.6594699102440416   F   F   F
  9.8466624381909469  4.2736864953012130 16.3945816846005279   F   F   F
 15.7794228241363985 11.0390813674406729 17.7448257149127961   F   F   F
  2.0213687746171352 15.3817691481022614 16.3623486708153578   F   F   F
 11.7992517752478570  5.6543269267470304 17.7239426371444075   F   F   F
  9.8474302009809112 20.9144201709128943 16.3833225427060505   F   F   F
 17.7305633130259146  4.1084454949032594 16.5286016007804086   F   F   F
 13.8017172857116837  7.1608273436721399 19.0089975402261260   F   F   F
 21.6471692543878831 15.3670789296589252 16.3777921399629562   F   F   F
 21.6756250818840783 20.9467632726403536 16.3929152467338142   F   F   F
  1.9484489718311306  1.4112390144205831 16.4273891401476924   F   F   F
  2.0291012955410839  6.9916343483777057 16.4095786686744276   F   F   F
  1.9123877056675871 12.5941622376235518 16.3896928912122988   F   F   F
  9.8619007766303515  1.4602815883733791 16.4207257336977399   F   F   F
 13.6501057185482786  9.7270819317491988 16.5672397772905704   F   F   F
  5.9178928006549887 20.8899202484238842 13.6203432485927287   F   F   F
  9.8458233346847326  7.1342124772085533 16.5755400337393368   F   F   F
  5.9778663153653948 12.4774244065941957 16.3156828447523061   F   F   F
 13.7575788783684647 12.4986734030805522 16.4681880440254673   F   F   F
 17.6946571996357847  6.9686328138478295 16.4762023021630419   F   F   F
  9.7759091353763434 18.1359498380461801 19.1928783541388874   F   F   F
  9.3985163924136295 12.2783085875744078 19.5587802523677361   F   F   F
 13.8219959239883146 20.9256904707980098 16.3901536906151932   F   F   F
 13.7189668327762266 15.3121783257808755 16.4245115840907516   F   F   F
  5.9537588482985599 20.9174212685848104 16.3580558781843379   F   F   F
 11.7747830199476873 11.2564213322674487 18.2666582475082038   F   F   F
 21.7301971869124451 12.5812742039635168 16.4119760036603388   F   F   F
  9.9402142421119333 12.6084499366565908 16.6602899365519690   F   F   F
 21.6770334838872714 18.1353895903607985 16.4064815914800057   F   F   F
  1.9811213094593880 20.9517716109264782 16.3760413330406749   F   F   F
  5.8973186516891900 15.2475564215987163 16.5587858693272096   F   F   F
 17.7232322945070351 20.8232297848298913 16.4559497151448966   F   F   F
 17.7931453214993027 15.1713484776546466 16.6026873408063338   F   F   F
 17.8007908276056313  9.7182880827968301 16.4684723067238501   F   F   F
 10.0157148132857188  9.9066379670121361 16.3667397614783603   F   F   F
 10.0148041105342109 15.3530803291272377 16.4041409940923408   F   F   F
 13.8759320036588765 18.1728830304830637 16.5134447635857562   F   F   F
 21.6681751291385218  9.7592402376876226 16.3716310377735859   F   F   F
 17.5461045461524883 18.0809103900282366 19.1941913209361488   F   F   F
  3.9637211524552960 22.2801682287757359 17.7694198045361986   F   F   F
 21.6693200734206606  1.4005100178388641 19.2323111292013316   F   F   F
 13.8115741386292665  1.4800650489673832 19.1874873806744120   F   F   F
 13.9770578565210091 12.6361662674551187 19.1644013435838545   F   F   F
  5.8581050974673570 12.8015919660700277 18.8622809407276719   F   F   F
 17.8550638395175021 15.4396450292415306 19.7141629397850195   F   F   F
  6.1983339495590766 17.8425300825542266 19.3917446244100766   F   F   F
  5.9423266091838904  1.3248835224175248 19.2696482247333876   F   F   F
 21.6982155523181888 12.5533271249999991 10.8156003000000567   F   F   F
 11.8252178173041020  8.3533553853445959 14.9935094316687216   F   F   F
 11.8367561605187888 19.4897842363170817 15.0312071079946641   F   F   F
 11.8428508603462301 13.8609637132183554 15.0028054551822052   F   F   F
 19.7058364409727460 13.9057442283851493 15.0061284182156740   F   F   F
 19.7007189646380105  8.3242414561631843 14.9986242100040599   F   F   F
 19.7079804044247560  2.7777420729315132 15.0008520012741080   F   F   F
 21.6847829051926944  1.3898473361541386 13.6242522656924709   F   F   F
 21.6102243666373255 18.1558642758022053 19.2609568270659501   F   F   F
 13.7945928441928327  9.8111583471392088 13.6935126545081740   F   F   F
 13.6551425026447220 15.3194983726807017 19.1935694122810006   F   F   F
 21.6690705552738336  4.1465384812886557 19.2000023518874094   F   F   F
  5.8959648567248371  7.0571316075773742 19.2373398836618144   F   F   F
  3.9705709202995929 19.4881992527814454 14.9973907384054765   F   F   F
 13.7943040608423324 15.3121585403254947 13.6387662766072779   F   F   F
 13.7897467490535401 20.9172559958126314 13.6347144191108889   F   F   F
 21.6766472705280187  4.1693214383170298 13.5977828426663088   F   F   F
 21.6755758864850314  9.7503192938461538 13.6095209177935175   F   F   F
  3.9548598643695247  2.7744785506931482 14.9795243566702450   F   F   F
 17.7113216880293578  1.3397061184501828 16.3295103769594725   F   F   F
 17.8328144895899179 12.6761524265659631 19.0726153940762195   F   F   F
 21.6655045886457600  6.9585187686999177 19.1911346886526459   F   F   F
 21.6366048711865382 12.5595657071964624 19.2225013423054492   F   F   F
  3.9651215468597427 13.9327673818632061 15.0083402124936089   F   F   F
 13.7548872196792882  9.8011046018611179 19.3926047707007463   F   F   F
  5.9638940355590853  4.1982136340927720 16.4202192048601603   F   F   F
  3.9428828123264967  8.3889463866536449 14.9298045059217124   F   F   F
 17.7114296757641831  1.5623589129139321 19.1460936821566712   F   F   F
  1.9800490238978863  6.9471510612722565 19.2160705346949001   F   F   F
 13.9963945234669342 18.0879022799183673 19.3787700388313482   F   F   F
 15.7778830306541487 19.5182750165713443 14.9593493773837434   F   F   F
  2.0293474370718680 12.5608715727576801 19.1955133837322052   F   F   F
  1.9903095391362626  1.3451066188272471 19.2653585729906354   F   F   F
  2.0685079454995323  9.7428776173431046 19.1913617389781770   F   F   F
  1.9877509689267043  4.1344729130082634 19.2376089554419387   F   F   F
  9.8937772617542858  4.1802924575102249 19.1876757312234467   F   F   F
  1.9948889431408734 20.8767889066831138 19.2252395716475135   F   F   F
 21.5979390538443603  9.7330040175671115 19.1989480786140980   F   F   F
 21.6865764960470386 15.3506497098916110 19.1760159194040902   F   F   F
 21.6412690552398637 20.9148484325571111 19.2443033017816632   F   F   F
  9.8193224038453959  9.3460707625656525 18.8937406741605400   F   F   F
 17.8737633404040892  9.6503557785830925 19.1175398461278085   F   F   F
  9.8836050477003283 20.8641496816434966 19.1938732477028466   F   F   F
  1.9710261839879639 15.3351891880846480 19.1658087372683852   F   F   F
  5.6912272702834610  9.8626958661804363 19.2393795955366187   F   F   F
  9.9500405002224408 15.0769455855388124 19.0078950700182325   F   F   F
 19.7263379684331213 11.2263685320581139 17.6655217221404826   F   F   F
  6.0306654919148146 15.1148413754190507 19.8788701604467590   F   F   F
 13.6947479307779538  4.2696811880961514 19.3434221261097399   F   F   F
 17.6489489411846883  6.9594025906530241 19.2569760134066605   F   F   F
  2.0019616692797704 18.1358876558284052 19.2731752525454318   F   F   F
 21.6982155523181888 18.1325836249999988 10.8156003000000567   F   F   F
  5.9666634151370364 20.7589755846882227 19.1223000293357970   F   F   F
 13.7898251580619871 20.8955995704872777 19.1988681474861096   F   F   F
 19.6795627992192230  5.5668501875856355 17.7403350807113114   F   F   F
 19.6543102233951394 16.7537213633695217 17.7777230838758555   F   F   F
  6.0011685913329638  4.1604515800936426 19.2372915534039137   F   F   F
 17.6514461377882057  4.3294264592338516 19.4063075428972809   F   F   F
 15.7805205523181904  8.3688847499999994 12.2103998999999437   F   F   F
 15.7632023798194894 22.3094540839121294 15.1678070343433120   F   F   F
 19.7256480274350601 13.9481412499999990 12.2103998999999437   F   F   F
 11.8618295101966567 16.8017280478137394 15.1151071902186445   F   F   F
  3.8883928483507924 16.7699726451891671 15.1030626019255951   F   F   F
  7.7101314406006107  8.3357225177957517 17.7789345106924124   F   F   F
  3.9451300789025505  8.3688847499999994 12.2103998999999437   F   F   F
 15.8225841626952395 11.1582836853820417 15.0173152192211532   F   F   F
  7.8134129007812509  5.5358658536563610 15.0835524570605468   F   F   F
  7.8860085442880612  0.0234206125957653 15.1744373894279274   F   F   F
  7.9030242287408701 16.7637049418161510 15.0457171808951191   F   F   F
 23.6614581238732349 11.1552089557453460 15.2005533502017638   F   F   F
 11.8631375032685238 11.1552238970303428 15.0062129836970684   F   F   F
 19.7950886424042913 11.1615817442112029 15.0818635871183311   F   F   F
 15.7477074128666708 16.7774820902071582 15.0667164325142000   F   F   F
  0.0150229990283738  2.7406316159242925 18.5989179771109576   F   F   F
 15.7822577052359545  5.5426331368004202 15.0713955874511285   F   F   F
  0.0004018022578140  0.0004786410212889 15.2020344006378352   F   F   F
  0.0000000000000000 19.5273964109784863 12.2103998999999437   F   F   F
  7.8902601578052689  8.3688847499999994 12.2103998999999437   F   F   F
 11.8573457121261043  5.5340977379366612 15.0616705822925514   F   F   F
 23.6676788864659500 16.7628092520488750 15.2025397016611503   F   F   F
  0.0176612266223481  5.5719516336905714 15.1842121648382147   F   F   F
 15.7805205523181904 13.9481412499999990 12.2103998999999437   F   F   F
 19.7256480274350601 19.5273964109784863 12.2103998999999437   F   F   F
  7.8902601578052689 13.9481412499999990 12.2103998999999437   F   F   F
  7.8902601578052689  2.7896282499999998 12.2103998999999437   F   F   F
 15.7805205523181904  2.7896282499999998 12.2103998999999437   F   F   F
 19.7466464065526566 22.3144910572109119 15.1923683314712328   F   F   F
  7.8902601578052689 19.5273964109784863 12.2103998999999437   F   F   F
  0.0000000000000000 13.9481412499999990 12.2103998999999437   F   F   F
  3.9288121114965819  0.0253205357474391 15.1964911428594007   F   F   F
  7.8376035487505851 11.1414791387515333 15.0257062507752224   F   F   F
  3.8678123568649112 11.1536606704625765 15.0596298511974407   F   F   F
 19.7859907409128901  5.5486250246999553 15.0775138903294685   F   F   F
 11.8639414650347117 19.5739982140078403 18.2927605428904911   F   F   F
 19.7931541230148866 16.7762825586015261 15.0821480708340481   F   F   F
  0.0000000000000000  8.3688847499999994 12.2103998999999437   F   F   F
 23.6452245391829941 19.5239018713961379 18.6982166333990847   F   F   F
  0.0000000000000000  2.7896282499999998 12.2103998999999437   F   F   F
 19.7256480274350601  2.7896282499999998 12.2103998999999437   F   F   F
 11.8353900000000003 13.9481412499999990 12.2103998999999437   F   F   F
 19.8719459805509331 13.9954964233263528 18.1236338789975910   F   F   F
  7.8499703105685708  2.6715787039090273 18.3930971777608505   F   F   F
  7.9228437220651804 19.6086467523805474 18.0907674156622527   F   F   F
 15.7447710993940539  2.7746167237629509 18.1545264086791107   F   F   F
  7.9042753584843908 13.9366440550119215 17.8488039983683215   F   F   F
  3.9451300789025505 19.5273964109784863 12.2103998999999437   F   F   F
 19.7256480274350601  8.3688847499999994 12.2103998999999437   F   F   F
 19.8470286752585494  8.3162566191532843 18.0774875631900436   F   F   F
 19.6739026093028109 19.5857729995189267 18.5593933196290415   F   F   F
  3.9451300789025505  2.7896282499999998 12.2103998999999437   F   F   F
 11.8353900000000003  2.7896282499999998 12.2103998999999437   F   F   F
  0.0047567114125529  8.3763451902408779 18.7238332618472718   F   F   F
  3.9361966050463177  5.5382902423082063 15.1851783077303999   F   F   F
 11.8697496539360490  8.2932001464282994 17.8422184320050121   F   F   F
  3.9451300789025505 13.9481412499999990 12.2103998999999437   F   F   F
 11.8353900000000003  8.3688847499999994 12.2103998999999437   F   F   F
 15.7805205523181904 19.5273964109784863 12.2103998999999437   F   F   F
 11.8428002280960083 22.3001608601276011 15.1708405028279820   F   F   F
  3.7750086730874126 13.9995037751854170 18.0477481653792111   F   F   F
 15.8633319065892913  8.3176262427413103 17.7917533708062976   F   F   F
 11.8469168464604824  2.7231886387014912 18.1944584043577890   F   F   F
  3.9367873814806726 19.4975362626972597 18.5326497866527333   F   F   F
 11.9230743347944106 13.9495874676233509 17.8195607779884924   F   F   F
  3.8618550768298583  8.2808527805763639 18.2269695661190987   F   F   F
 15.7616856785675612 19.6836102075175710 18.2264445582951247   F   F   F
 15.7776379018499320 13.9664913317301416 17.7963542536358830   F   F   F
 19.7680885125661376  2.7589779461302197 18.3271431366186697   F   F   F
 23.6605316062341160 13.9242826098892696 18.7041141153361217   F   F   F
 11.8353900000000003 19.5273964109784863 12.2103998999999437   F   F   F
  3.9714565935410295  2.7342386317656762 18.6515154167677082   F   F   F
 21.6988131650689731 22.3107502611987165 18.1147208529651778   F   F   F
 13.8079544476818104  5.5792564999999996 12.2103998999999437   F   F   F
  1.9778958917222551  5.5257551631015103 18.1123448560694520   F   F   F
 17.7474637844959773  0.0583539641861965 18.1432754782395662   F   F   F
 13.7921774661271144  0.0274095903495909 18.1375956739422790   F   F   F
 13.8448233831453980 16.7395676795001904 17.9913692640749758   F   F   F
 13.9706295512944489 11.1902550441167765 17.8049282972499050   F   F   F
  1.9411946633731265  8.3548635748231384 15.1815745547006564   F   F   F
  5.9099487587878103 16.8005956282158095 17.7581930995590902   F   F   F
  5.9118399149235481 22.2648325598075658 18.1262804584602328   F   F   F
 17.8470142072574411  5.5388254772464247 17.7779711518397399   F   F   F
  5.8968592684118644  5.4814138784418169 18.1088168672923331   F   F   F
  1.9271359605889404 11.1513796926258095 18.0918578314429972   F   F   F