Au  O Sr Ti                             
   1.00000000000000     
    23.6707801818999997    0.0000000000000000    0.0000000000000000
     0.0000000000000000   27.8962826732999716    0.0000000000000000
     0.0000000000000000    0.0000000000000000   30.0000000000000000
   Au   O    Sr   Ti
    50   330    90    90
Selective dynamics
Direct
  0.7188553471270183  0.6200945650142202  0.7537040163767799   F   F   F
  0.7052827102411428  0.8057010217527676  0.6886818934710348   F   F   F
  0.6567863028132592  0.5533796065974528  0.8125040720757610   F   F   F
  0.3683043381138802  0.6941808378737733  0.8202316797138707   F   F   F
  0.5712792108240947  0.6080906817316674  0.8571137496455847   F   F   F
  0.6642043215386481  0.3544525795909835  0.7513627409615063   T   T   T
  0.4724604332505677  0.5608703749219828  0.8794601333904595   F   F   F
  0.5164010551210581  0.5015544326373131  0.7341717794300493   F   F   F
  0.2836273794865676  0.4698625013691995  0.7028464181753336   F   F   F
  0.6692198510198892  0.7447073930062658  0.7494360225978411   F   F   F
  0.3977220106569845  0.5062366679670731  0.6904617797758732   F   F   F
  0.6132214712021096  0.4545876264265090  0.6979974032724243   F   F   F
  0.3761104695770285  0.5938087611658815  0.8338409320521194   F   F   F
  0.3269617836910896  0.5311290751679252  0.7696727974687576   F   F   F
  0.4876487225289381  0.4143280391308437  0.7753428033719842   F   F   F
  0.4277173154275431  0.7590426417097120  0.6991374212242931   F   F   F
  0.7000643125963464  0.4766333167422303  0.7565339679047298   F   F   F
  0.7746076808506785  0.5427157276972352  0.7959019603719142   F   F   F
  0.6473352699067902  0.5519831691906063  0.6974490109315283   F   F   F
  0.5659027764408648  0.7122108451976885  0.8611170073109378   F   F   F
  0.5468712041827715  0.7313867702738293  0.7015982489686863   F   F   F
  0.4429110002222103  0.5797310882169100  0.7560821852785438   F   F   F
  0.3728375659759564  0.7891016873030949  0.7776742109908668   F   F   F
  0.4636403748700459  0.6590829478392237  0.8639444168330286   F   F   F
  0.4546800593333131  0.6640735048473942  0.7031843395346229   F   F   F
  0.2557016394096721  0.6738194288329424  0.6952037566007050   F   F   F
  0.2900848393181690  0.6288762604525218  0.7779723206845262   F   F   F
  0.5557691372892037  0.3658798169453519  0.7114256101693712   F   F   F
  0.6250719769350468  0.6529338629405643  0.7039242176331868   F   F   F
  0.7186115955178920  0.4068484184922951  0.6917098111988054   F   F   F
  0.2884763699377615  0.7966432700357302  0.6989221605540337   F   F   F
  0.5767134299043377  0.7807270882708508  0.7928855649781283   F   F   F
  0.5506287180283920  0.5077906052889603  0.8291861710560013   F   F   F
  0.2425335152442472  0.5739887789516871  0.7093007478767674   F   F   F
  0.2822528042866921  0.7284888543426646  0.7663142598408825   F   F   F
  0.6027031591504013  0.4307313712168295  0.7880317695048618   F   F   F
  0.5148830878566031  0.5863238193139182  0.6782188625804864   F   F   F
  0.5623698582316763  0.5887216096586343  0.7627979191356005   F   F   F
  0.5143008026621487  0.6836005819473741  0.7772467446558338   F   F   F
  0.7646835085971446  0.5443978667303853  0.7055422771072557   F   F   F
  0.4631669219566703  0.7560849839733805  0.8298887036223377   F   F   F
  0.4411594993047672  0.3826780406238370  0.6974215671760930   F   F   F
  0.4313179582556970  0.4976985857866936  0.8155208020705302   F   F   F
  0.3497330669549683  0.6018610236038029  0.6973378029973105   F   F   F
  0.3729445224226851  0.4389775115074812  0.7556621887817130   F   F   F
  0.4833738215248502  0.8242331098848865  0.7574945922901222   F   F   F
  0.5941647728397257  0.8279579602530802  0.7125831120243333   F   F   F
  0.6364192650582225  0.6661911163517900  0.8003054375038801   F   F   F
  0.7333365514291117  0.6924313397410060  0.6942799587792834   F   F   F
  0.3881288703256587  0.8515369012981679  0.7061345983639242   F   F   F
  0.8323059348667812  0.6986619124466671  0.5000177583984495   F   F   F
  0.2491014271569369  0.4528421909905234  0.6417627963537313   F   F   F
  0.5003374660973634  0.6963925021648265  0.5001611465806945   F   F   F
  0.4999873105593124  0.8980714529593357  0.5008884014507302   F   F   F
  0.4995426261624374  0.4981880900529632  0.5001104776257534   F   F   F
  0.9166666865332829  0.6500000000127244  0.3605200052333331   F   F   F
  0.2509186876321436  0.2489182749127465  0.6412727082590308   F   F   F
  0.8325851194269021  0.8998450259937130  0.4985774380894554   F   F   F
  0.5833883495794439  0.4550947671734846  0.6344734548198900   F   F   F
  0.2477064663245088  0.6590663970199842  0.6291602377720551   F   F   F
  0.5918047148190482  0.6511483801482001  0.6398390206126834   F   F   F
  0.5824909545684918  0.2521393661409803  0.6386200212896682   F   F   F
  0.9143452589907923  0.8500698244938931  0.6415776318920265   F   F   F
  0.9148776779975591  0.4496328065755506  0.6391058085688002   F   F   F
  0.8328902376604361  0.4983810009094398  0.4992968126499875   F   F   F
  0.9136108923501993  0.6491174051462494  0.6425375093813983   F   F   F
  0.2613425244046255  0.8399450406398401  0.6471463982616612   F   F   F
  0.8326503879953506  0.3001757807980994  0.5000247888142226   F   F   F
  0.4178692833813855  0.2522859475570129  0.6388782591031585   F   F   F
  0.1678294829256473  0.6997383118152527  0.5001243135388194   F   F   F
  0.9162572583931947  0.2503277101358208  0.6413302615054945   F   F   F
  0.7474337603338981  0.2532395996313781  0.6390712153935283   F   F   F
  0.7470816942096832  0.4497260332905242  0.6403184405884090   F   F   F
  0.7405577761230759  0.8477362922347851  0.6403789569512597   F   F   F
  0.7522546384976891  0.6567111760244302  0.6346003284877142   F   F   F
  0.3989941340362790  0.6412911390058298  0.6521250362313609   F   F   F
  0.4125663542314939  0.8501807437149154  0.6397865511562628   F   F   F
  0.4268420150490044  0.4444872848569048  0.6560231572846504   F   F   F
  0.5010182785664981  0.8048360880738770  0.5927597199933459   F   F   F
  0.8326862861702864  0.2021652063506352  0.5922242352615825   F   F   F
  0.8333605246032647  0.6028145789626222  0.5896466159765197   F   F   F
  0.8315281204245153  0.3969182073135968  0.5914263706988123   F   F   F
  0.8301808788878020  0.8002552913042393  0.5931216233403873   F   F   F
  0.5819721919360603  0.9480332774482250  0.6376315120735896   F   F   F
  0.9170677000127867  0.3491940871564765  0.6405474230441683   F   F   F
  0.5834106651478379  0.0504999554659236  0.6412808407955737   F   F   F
  0.5816474676641405  0.5502393948556872  0.6457267023439144   F   F   F
  0.1665623696214169  0.5008502940937447  0.4976714725946323   F   F   F
  0.5893808730822698  0.8479024775143316  0.6458913824678802   F   F   F
  0.4155932412397263  0.4553284953646681  0.5524513986506463   F   F   F
  0.4169487022703890  0.9476459088661784  0.6387830514457278   F   F   F
  0.4201225409336331  0.6519203632470933  0.5555853051938158   F   F   F
  0.0842514585852001  0.4498058608498994  0.6402474837696133   F   F   F
  0.7485035187472207  0.4487853684870515  0.5482442791408388   F   F   F
  0.7485645318328622  0.2483252643078089  0.5450103476084180   F   F   F
  0.4137317721901894  0.8489358439296808  0.5484951092674919   F   F   F
  0.7469522112723084  0.6462895116254259  0.5446862019515208   F   F   F
  0.7479591372469727  0.8470103993748666  0.5462984995424236   F   F   F
  0.2511737128978311  0.2505564850297120  0.5472954401328280   F   F   F
  0.2492003615297378  0.4512685207253497  0.5461244414157349   F   F   F
  0.2523105060900619  0.6473312492623080  0.5443804731189985   F   F   F
  0.2533220118832631  0.8499656647998250  0.5513580572046735   F   F   F
  0.5831871550047083  0.2500715577354597  0.5461494466107624   F   F   F
  0.5837565477387585  0.4491686295657331  0.5457607144841248   F   F   F
  0.5861224117296615  0.8518183817978127  0.5507617583138469   F   F   F
  0.5813517854372066  0.6481165849308255  0.5496453346370913   F   F   F
  0.9166628187805728  0.6503268535913449  0.5462806697647977   F   F   F
  0.9147500218818578  0.8500614856325299  0.5467914865609629   F   F   F
  0.4164361769627263  0.2522481514982005  0.5471693793244938   F   F   F
  0.4219259704792222  0.7410633454406366  0.6337639072641750   F   F   F
  0.0853224007437206  0.8499871258199505  0.5474730386361415   F   F   F
  0.0860722058960945  0.4503988097322633  0.5466808235311049   F   F   F
  0.7557783499167314  0.5486284363258420  0.6390554525788659   F   F   F
  0.7452835528851836  0.3550146874452835  0.6467264588566479   F   F   F
  0.2535931268272407  0.3492525526572123  0.6409443372782277   F   F   F
  0.7481059331687518  0.9478498381626750  0.6392112272829067   F   F   F
  0.7535428199099812  0.7542966082247844  0.6577534823642495   F   F   F
  0.4998479099197581  0.1996995836525528  0.5913176966406013   F   F   F
  0.4984663007602421  0.4028731151390801  0.5902207118309093   F   F   F
  0.4976882435215231  0.6032247726655910  0.6091466473497604   F   F   F
  0.2517023396402749  0.9499824643148500  0.5448397586511433   F   F   F
  0.5792090255490834  0.7491520274029924  0.5468227155582213   F   F   F
  0.5762381516259367  0.5486414007106717  0.5517523116496292   F   F   F
  0.9155447898022118  0.5495169212717954  0.5463061264905633   F   F   F
  0.9172908502267703  0.3511003670688453  0.5456329494121590   F   F   F
  0.5838172870273866  0.9506158610088704  0.5454780723280095   F   F   F
  0.9133672532024377  0.7509807517715146  0.5456315471793971   F   F   F
  0.9160540128502035  0.9504967948387062  0.5459847703249636   F   F   F
  0.0825790528618100  0.2502407873831558  0.5474175102786631   F   F   F
  0.0826384851756572  0.6511050409591306  0.5461924079434368   F   F   F
  0.6663529353170574  0.8989313467503735  0.4988575134304227   F   F   F
  0.4166666269218169  0.0500000000120124  0.3605200052333331   F   F   F
  0.0840470802454121  0.2486927230531677  0.6418388894748688   F   F   F
  0.0837980005884731  0.0498391316251201  0.5466042752272600   F   F   F
  0.9160865070504656  0.1507677448188431  0.5462079065847192   F   F   F
  0.5833018414143467  0.1502657547416746  0.5467005901798530   F   F   F
  0.2499909648347298  0.1502417264227986  0.5465811728330934   F   F   F
  0.7500902701970062  0.1492454538187431  0.5474494133239745   F   F   F
  0.4163562744042011  0.1508004511145842  0.5463711887215013   F   F   F
  0.0837519184830455  0.1506163504315552  0.5461245001217776   F   F   F
  0.4166125196436141  0.0499233851752905  0.5466934151830074   F   F   F
  0.4999034055896487  0.0999965549735506  0.4987673274950168   F   F   F
  0.1667393531143091  0.0998408788028655  0.4985703557177956   F   F   F
  0.6665781592407214  0.1001254209919793  0.4987200292287355   F   F   F
  0.3332997939684930  0.0999270545852298  0.4988529251482134   F   F   F
  0.0000450417060094  0.0999794669698915  0.4991060506880345   F   F   F
  0.9167439653015705  0.1498748778998191  0.4536460603220078   F   F   F
  0.5833490465454787  0.1504772457796406  0.4540182422744081   F   F   F
  0.2500386086115896  0.1499480118533327  0.4537001372263063   F   F   F
  0.8333229491656553  0.1000748960435445  0.4987266519169467   F   F   F
  0.7500490250264136  0.0490463357352766  0.5459882508552951   F   F   F
  0.2498899454325993  0.0500364796221078  0.5468408767932544   F   F   F
  0.5832122108940183  0.0501262511649472  0.5466416512894980   F   F   F
  0.9159173268121634  0.0500010325032179  0.6403051447483463   F   F   F
  0.7502197873319645  0.1509445156551479  0.6411308377350622   F   F   F
  0.2502798994514777  0.1486737059500243  0.6412714804099906   F   F   F
  0.9158927493331177  0.1499299807385768  0.6402517087925972   F   F   F
  0.5832493790924431  0.1501825942913158  0.6416444664990522   F   F   F
  0.4165266541400356  0.1499020663553310  0.6414159136864157   F   F   F
  0.0832107431156857  0.1486117587207332  0.6403685970127668   F   F   F
  0.0830388666959436  0.0492616000739119  0.6405914246050202   F   F   F
  0.7497974060779597  0.0501869507145685  0.6406991548720100   F   F   F
  0.4167620884280794  0.0496122285042873  0.6416919064351134   F   F   F
  0.8326252023340643  0.9989364232856488  0.5919242989698503   F   F   F
  0.4997369226324011  0.0003079584006329  0.5911494336407443   F   F   F
  0.1672711731177827  0.9988301535155344  0.5919445475182101   F   F   F
  0.6662320299200459  0.0001744938576280  0.5916861147954933   F   F   F
  0.9998682102424183  0.9992319923829456  0.5918465949309066   F   F   F
  0.3337831347614966  0.9999913801636779  0.5913398919238659   F   F   F
  0.9162953261869049  0.0498520373937410  0.5464714373441737   F   F   F
  0.7500037234118579  0.1506821480840870  0.4542915910718577   F   F   F
  0.4165884373752817  0.1501626519970003  0.4538287612495964   F   F   F
  0.0832750087800065  0.1497065156221780  0.4534911055405146   F   F   F
  0.9166498426186251  0.0496682730966000  0.4538690718446929   F   F   F
  0.4166666269218169  0.1500000000001833  0.3605200052333331   F   F   F
  0.0833333358191695  0.1500000000001833  0.3605200052333331   F   F   F
  0.9166666865332829  0.8499999999890662  0.3605200052333331   F   F   F
  0.0842647488638093  0.8495320692980926  0.6421082057720540   F   F   F
  0.2521050245942646  0.9454541832931653  0.6371631000379310   F   F   F
  0.5784696070497120  0.3518929228629304  0.6438103642625137   F   F   F
  0.2498116688607155  0.7416197861680800  0.6649322609796116   F   F   F
  0.2405759747270295  0.5535914009545948  0.6416607991146321   F   F   F
  0.9156523086865178  0.9496684795984223  0.6404914324527908   F   F   F
  0.9158087691296544  0.7499293707848480  0.6402970193143886   F   F   F
  0.9123635693851000  0.5487196840979749  0.6394915043667169   F   F   F
  0.0828992873979502  0.7496336815985245  0.6402294650734817   F   F   F
  0.0844721697384969  0.9488587519935052  0.6403876288269075   F   F   F
  0.4153375839578857  0.5351017778174096  0.6299878841768276   F   F   F
  0.4188471525770296  0.3507298312820026  0.6401637350124076   F   F   F
  0.0839670657289702  0.3488780799409454  0.6414945239832122   F   F   F
  0.0870626996260029  0.5495753739465101  0.6396802635079624   F   F   F
  0.7499999404149307  0.1500000000001833  0.3605200052333331   F   F   F
  0.0861572016699981  0.6497193622812532  0.6420382280868111   F   F   F
  0.2499999999799343  0.1500000000001833  0.3605200052333331   F   F   F
  0.9166666865332829  0.1500000000001833  0.3605200052333331   F   F   F
  0.5834766345988740  0.0495101523313153  0.4540899774524547   F   F   F
  0.2500630551153904  0.0490714166558419  0.4542612813059606   F   F   F
  0.7500026491210718  0.0499939153988080  0.4535894788469932   F   F   F
  0.4163554156851248  0.0491117773598901  0.4542539134678236   F   F   F
  0.0833418427481547  0.0495239967121464  0.4539037430857036   F   F   F
  0.8333332538436267  0.0000000000000000  0.4070133268666680   F   F   F
  0.5000000000021103  0.0000000000000000  0.4070133268666680   F   F   F
  0.1666666716383389  0.0000000000000000  0.4070133268666680   F   F   F
  0.6666666865533486  0.0000000000000000  0.4070133268666680   F   F   F
  0.3333333432766779  0.0000000000000000  0.4070133268666680   F   F   F
  0.0000000000000000  0.0000000000000000  0.4070133268666680   F   F   F
  0.9166666865332829  0.0500000000120124  0.3605200052333331   F   F   F
  0.5833333134730552  0.0500000000120124  0.3605200052333331   F   F   F
  0.2499999999799343  0.0500000000120124  0.3605200052333331   F   F   F
  0.7499999404149307  0.0500000000120124  0.3605200052333331   F   F   F
  0.5802714196953218  0.3483729170149417  0.5496175413012523   F   F   F
  0.0833333358191695  0.0500000000120124  0.3605200052333331   F   F   F
  0.5833333134730552  0.1500000000001833  0.3605200052333331   F   F   F
  0.2490469365021681  0.7465918350565701  0.5524788487920631   F   F   F
  0.5803743311630853  0.7474871602232369  0.6383664497643480   F   F   F
  0.2480874875153702  0.5488720993811569  0.5492117502289986   F   F   F
  0.4166666269218169  0.9500000000130839  0.3605200052333331   F   F   F
  0.7499999404149307  0.3500000000123720  0.3605200052333331   F   F   F
  0.7499999404149307  0.5499999761504029  0.3605200052333331   F   F   F
  0.7499999404149307  0.7500000000008953  0.3605200052333331   F   F   F
  0.7499999404149307  0.9500000000130839  0.3605200052333331   F   F   F
  0.2499999999799343  0.3500000000123720  0.3605200052333331   F   F   F
  0.2499999999799343  0.7500000000008953  0.3605200052333331   F   F   F
  0.4166666269218169  0.7500000000008953  0.3605200052333331   F   F   F
  0.9166666865332829  0.9500000000130839  0.3605200052333331   F   F   F
  0.5833333134730552  0.3500000000123720  0.3605200052333331   F   F   F
  0.5833333134730552  0.5499999761504029  0.3605200052333331   F   F   F
  0.5833333134730552  0.7500000000008953  0.3605200052333331   F   F   F
  0.5833333134730552  0.9500000000130839  0.3605200052333331   F   F   F
  0.9166666865332829  0.3500000000123720  0.3605200052333331   F   F   F
  0.9166666865332829  0.5499999761504029  0.3605200052333331   F   F   F
  0.9166666865332829  0.7500000000008953  0.3605200052333331   F   F   F
  0.2499999999799343  0.9500000000130839  0.3605200052333331   F   F   F
  0.4166666269218169  0.5499999761504029  0.3605200052333331   F   F   F
  0.2499999999799343  0.5499999761504029  0.3605200052333331   F   F   F
  0.0833333358191695  0.2500000000242011  0.3605200052333331   F   F   F
  0.7499999404149307  0.2500000000242011  0.3605200052333331   F   F   F
  0.7499999404149307  0.4500000000005357  0.3605200052333331   F   F   F
  0.7499999404149307  0.6500000000127244  0.3605200052333331   F   F   F
  0.7499999404149307  0.8499999999890662  0.3605200052333331   F   F   F
  0.2499999999799343  0.2500000000242011  0.3605200052333331   F   F   F
  0.2499999999799343  0.4500000000005357  0.3605200052333331   F   F   F
  0.2499999999799343  0.6500000000127244  0.3605200052333331   F   F   F
  0.2499999999799343  0.8499999999890662  0.3605200052333331   F   F   F
  0.5833333134730552  0.2500000000242011  0.3605200052333331   F   F   F
  0.5833333134730552  0.4500000000005357  0.3605200052333331   F   F   F
  0.5833333134730552  0.6500000000127244  0.3605200052333331   F   F   F
  0.5833333134730552  0.8499999999890662  0.3605200052333331   F   F   F
  0.9166666865332829  0.2500000000242011  0.3605200052333331   F   F   F
  0.9166666865332829  0.4500000000005357  0.3605200052333331   F   F   F
  0.1654406729357945  0.6026462549335179  0.5881850065464249   F   F   F
  0.0833333358191695  0.6500000000127244  0.3605200052333331   F   F   F
  0.0833333358191695  0.4500000000005357  0.3605200052333331   F   F   F
  0.5829115581724906  0.2512589445296314  0.4541828757608997   F   F   F
  0.5844387395090109  0.6496160627841832  0.4551668448599600   F   F   F
  0.6654337951624925  0.7001952834819889  0.5030498702553672   F   F   F
  0.2505581669724819  0.9481597858350241  0.4535897871187728   F   F   F
  0.9162728971424059  0.4496444548015504  0.4540109236789789   F   F   F
  0.9160905950844409  0.2498424839471909  0.4542535931647080   F   F   F
  0.2510536975830107  0.5519059670623534  0.4552310535307171   F   F   F
  0.9162100706086207  0.6497524149704148  0.4539351506274727   F   F   F
  0.9162460843398037  0.8495105879832110  0.4541726829410635   F   F   F
  0.0836134925412395  0.3498492538348046  0.4537091065111269   F   F   F
  0.0832246031123063  0.5501491535383636  0.4536200012120517   F   F   F
  0.0838371732858008  0.9492996139292202  0.4536031979714963   F   F   F
  0.0847993156395503  0.7497909393715503  0.4534653042744736   F   F   F
  0.4171946712642196  0.5481272033898961  0.4540653476853649   F   F   F
  0.4171260524544849  0.7470282791826364  0.4544878602208513   F   F   F
  0.4173579679057156  0.9479944429203684  0.4541693184832738   F   F   F
  0.7504220558443322  0.3518722471166384  0.4555751379486495   F   F   F
  0.7497456399569771  0.5507974192455691  0.4561865348037699   F   F   F
  0.7489528025549674  0.7506726320773822  0.4570165119119949   F   F   F
  0.7489868108063860  0.9498994222688992  0.4548215023056059   F   F   F
  0.2499903989713630  0.3511275427489480  0.4544172793416124   F   F   F
  0.4166880581915677  0.3504268951992273  0.4541397582629045   F   F   F
  0.4166666269218169  0.8499999999890662  0.3605200052333331   F   F   F
  0.2516443832190731  0.7501353414401351  0.4562461901697716   F   F   F
  0.5826696775216149  0.3522578508011875  0.4554803026872278   F   F   F
  0.5825901377857718  0.5511005192685730  0.4561597836851021   F   F   F
  0.5829380850379309  0.7480851492465561  0.4543521837121958   F   F   F
  0.5826537490738204  0.9483778313500366  0.4538036041289786   F   F   F
  0.9159244493507401  0.3498146816088976  0.4536254087042764   F   F   F
  0.9160922137445127  0.5497814889566044  0.4540099506854958   F   F   F
  0.9151188097962120  0.7496465604634253  0.4534723490630412   F   F   F
  0.6658769001144549  0.5028579595218332  0.5034328955160987   F   F   F
  0.3340485469299352  0.5027560130191020  0.5029697972406737   F   F   F
  0.3355482007027959  0.7004104582720885  0.5042335722679354   F   F   F
  0.6659587922524324  0.3014577011723034  0.4992847158822613   F   F   F
  0.3335698687189463  0.8983086327289413  0.4992521427148517   F   F   F
  0.0001257108873887  0.8994119531116169  0.4992341124451585   F   F   F
  0.3335288565713626  0.3008465694659392  0.4987827738210555   F   F   F
  0.9998532849530406  0.7018639264584365  0.4973752283810882   F   F   F
  0.9999721195310869  0.4990746302038289  0.4986055216366267   F   F   F
  0.5829801907058823  0.8471058300931560  0.4559877310156750   F   F   F
  0.0000766758824184  0.2999570420017790  0.4987098718041949   F   F   F
  0.9166062350960118  0.9496675260537586  0.4537030220440030   F   F   F
  0.4166666269218169  0.6500000000127244  0.3605200052333331   F   F   F
  0.2503337637301257  0.0486419587093962  0.6413348630183648   F   F   F
  0.4166666269218169  0.2500000000242011  0.3605200052333331   F   F   F
  0.9174082344697823  0.2505118539002993  0.5472402561281058   F   F   F
  0.1677640367046251  0.8986645891834470  0.4994712495598392   F   F   F
  0.2524827651638901  0.3509697783412165  0.5473427522297598   F   F   F
  0.7484642935179195  0.9478339135879565  0.5468971613178866   F   F   F
  0.7515077115182152  0.7447569489435253  0.5527582079739020   F   F   F
  0.7532813280131236  0.5474293211665895  0.5497432344194593   F   F   F
  0.4234198515985668  0.5547512678897846  0.5458846392526908   F   F   F
  0.4226986666601036  0.7504644581340045  0.5465256201296640   F   F   F
  0.7474116175765744  0.3470846489773365  0.5507173408569557   F   F   F
  0.4160308953928080  0.9484337259787381  0.5465883595970951   F   F   F
  0.0838794657107798  0.9505167902720828  0.5457700223278650   F   F   F
  0.4155172658079920  0.3526838189736523  0.5473759704831309   F   F   F
  0.0867412202280207  0.7515548450555087  0.5456631315208185   F   F   F
  0.0831156678810743  0.5503068837673410  0.5458580122654624   F   F   F
  0.0836326092716604  0.3507455785538269  0.5463217951385744   F   F   F
  0.4993168049734109  0.3009584083170367  0.4995869189128399   F   F   F
  0.9996591435097102  0.5988144228289087  0.5943981943644019   F   F   F
  0.9995456710907504  0.8027124931077410  0.5925588369396380   F   F   F
  0.3346931917447975  0.4038641261612881  0.5931259721553062   F   F   F
  0.3337574980161619  0.1999628909412223  0.5921356126517878   F   F   F
  0.9999558065741425  0.2000489681867492  0.5923440443316679   F   F   F
  0.0010335508990877  0.3999855912309442  0.5920514811831339   F   F   F
  0.3334271574519434  0.5969825438523060  0.5912750395453159   F   F   F
  0.3352132020800838  0.7919284685997923  0.5919445667772365   F   F   F
  0.6634175840977434  0.3977498765429814  0.5908356600349762   F   F   F
  0.6662271795474126  0.1999973394405785  0.5920110904643678   F   F   F
  0.6656894552289501  0.7934129944601196  0.5905221718841602   F   F   F
  0.6670377510343002  0.5948687247921711  0.5910106791612932   F   F   F
  0.1684959285901613  0.3986713759628984  0.5929870046010066   F   F   F
  0.1671085021943455  0.3001250240869879  0.4999264704160638   F   F   F
  0.5000000000021103  0.8000000000129006  0.4070133268666680   F   F   F
  0.5000000000021103  0.4000000000243773  0.4070133268666680   F   F   F
  0.5000000000021103  0.2000000000121887  0.4070133268666680   F   F   F
  0.7476546592607392  0.4512635056159837  0.4548470624151832   F   F   F
  0.7483179634152108  0.6512893827153690  0.4537111035618508   F   F   F
  0.7498719620510883  0.8499633558408561  0.4537369045021222   F   F   F
  0.2500286183721343  0.2503713084484147  0.4542813477501682   F   F   F
  0.9149037796781485  0.4496977197984933  0.5466376392909709   F   F   F
  0.2520008434484780  0.4517935933191453  0.4538738050320035   F   F   F
  0.2520962027791356  0.6519059217007026  0.4539772857672304   F   F   F
  0.2505149660293355  0.8482118351628003  0.4555919195067517   F   F   F
  0.8333332538436267  0.4000000000243773  0.4070133268666680   F   F   F
  0.5844571454458531  0.4519976542349795  0.4540441423344816   F   F   F
  0.8333332538436267  0.2000000000121887  0.4070133268666680   F   F   F
  0.5000000000021103  0.6000000000007191  0.4070133268666680   F   F   F
  0.0833333358191695  0.3500000000123720  0.3605200052333331   F   F   F
  0.0000000000000000  0.2000000000121887  0.4070133268666680   F   F   F
  0.7493008651490598  0.2513357486879997  0.4536115903022662   F   F   F
  0.0000000000000000  0.4000000000243773  0.4070133268666680   F   F   F
  0.0000000000000000  0.8000000000129006  0.4070133268666680   F   F   F
  0.3333333432766779  0.2000000000121887  0.4070133268666680   F   F   F
  0.3333333432766779  0.4000000000243773  0.4070133268666680   F   F   F
  0.3333333432766779  0.6000000000007191  0.4070133268666680   F   F   F
  0.3333333432766779  0.8000000000129006  0.4070133268666680   F   F   F
  0.6666666865533486  0.2000000000121887  0.4070133268666680   F   F   F
  0.6666666865533486  0.4000000000243773  0.4070133268666680   F   F   F
  0.4166666269218169  0.4500000000005357  0.3605200052333331   F   F   F
  0.6666666865533486  0.6000000000007191  0.4070133268666680   F   F   F
  0.6666666865533486  0.8000000000129006  0.4070133268666680   F   F   F
  0.1666666716383389  0.2000000000121887  0.4070133268666680   F   F   F
  0.1666666716383389  0.4000000000243773  0.4070133268666680   F   F   F
  0.1666666716383389  0.6000000000007191  0.4070133268666680   F   F   F
  0.1666666716383389  0.8000000000129006  0.4070133268666680   F   F   F
  0.0000000000000000  0.6000000000007191  0.4070133268666680   F   F   F
  0.1706928634762974  0.7996875933239025  0.5957491773607728   F   F   F
  0.1669946362081092  0.1996792384313864  0.5921871068498206   F   F   F
  0.0839384659771554  0.2496900019760346  0.4542872455654958   F   F   F
  0.0838299560272446  0.8493972749956527  0.4543450160531108   F   F   F
  0.0840195267000468  0.6501862604335429  0.4539242410156490   F   F   F
  0.0833589617073898  0.4497862944008304  0.4538415707314130   F   F   F
  0.4158781008757657  0.6471553971972810  0.4580760337255185   F   F   F
  0.8333332538436267  0.8000000000129006  0.4070133268666680   F   F   F
  0.8333332538436267  0.6000000000007191  0.4070133268666680   F   F   F
  0.0833333358191695  0.5499999761504029  0.3605200052333331   F   F   F
  0.0833333358191695  0.7500000000008953  0.3605200052333331   F   F   F
  0.0833333358191695  0.9500000000130839  0.3605200052333331   F   F   F
  0.4166666269218169  0.3500000000123720  0.3605200052333331   F   F   F
  0.0833333358191695  0.8499999999890662  0.3605200052333331   F   F   F
  0.4170864925707747  0.8470484135704623  0.4555908859673750   F   F   F
  0.4162565388225303  0.2501630494234206  0.4550233808740316   F   F   F
  0.4151311230152999  0.4491654988869129  0.4571852567085344   F   F   F
  0.3303539521974486  0.3987119614553265  0.5028361187321977   F   F   F
  0.5009908011744599  0.8021547343930635  0.5038302596951070   F   F   F
  0.1645318932421631  0.8010523929299609  0.5035735551405267   F   F   F
  0.5000262950192322  0.1990565467924199  0.5054086440988570   F   F   F
  0.8406356866868308  0.7011775214164189  0.6032111782116090   F   F   F
  0.1663265201426043  0.3987205326422583  0.5061731651285939   F   F   F
  0.1667098451345552  0.2001046910040216  0.5060444946258968   F   F   F
  0.3312057236543993  0.5993157385259522  0.5011941250280501   F   F   F
  0.6655651709675965  0.8014160606997081  0.5022762721758838   F   F   F
  0.6687629453090622  0.5996986226771099  0.5008749795214200   F   F   F
  0.6665882079909835  0.1988072013627615  0.5056416244144728   F   F   F
  0.3337422548410203  0.8006625183695988  0.5018541867352582   F   F   F
  0.3327292969559821  0.1993070658904514  0.5058501245838869   F   F   F
  0.0009259042089411  0.2985965637570942  0.6195204288136011   F   F   F
  0.8333332538436267  0.6999999999888900  0.4070133268666680   F   F   F
  0.6673127312437472  0.3982581231940330  0.5030791869914424   F   F   F
  0.9997442361809021  0.6004732752498398  0.5070696919860538   F   F   F
  0.9995411750632002  0.8997174021122163  0.6221057033284723   F   F   F
  0.0000000000000000  0.0999999999881709  0.4070133268666680   F   F   F
  0.8327304382603771  0.1002498538880303  0.6186014987195136   F   F   F
  0.3335844688543972  0.0990270588490247  0.6190710419737897   F   F   F
  0.6668649089894316  0.1006291523427265  0.6189761591584144   F   F   F
  0.4998621269109336  0.1002488484042559  0.6196077470538484   F   F   F
  0.1668028843779865  0.0985925774564649  0.6193016070786470   F   F   F
  0.9995162761207581  0.0995934749602654  0.6192668095865486   F   F   F
  0.8339312389410338  0.0006714012756959  0.5058839551983638   F   F   F