Au  O Sr Ti 
 1.0000000000000000
    23.6707801818999997    0.0000000000000000    0.0000000000000000
     0.0000000000000000   27.8962826732999716    0.0000000000000000
     0.0000000000000000    0.0000000000000000   30.0000000000000000
 Au  O   Sr  Ti 
  50 330  90  90
Selective dynamics
Cartesian
 17.0158669044271171 17.2983332698136891 22.6111204913034598   F   F   F
 16.6945920002127437 22.4760634529818795 20.6604568041309626   F   F   F
 15.5466442003755283 15.4372339312821385 24.3751221622728842   F   F   F
  8.7180510275337539 19.3650648797149216 24.6069503914160812   F   F   F
 13.5226246219065160 16.9634695485862501 25.7134124893675846   F   F   F
 15.7222344910093295  9.8879093545503931 22.5558822288451637   T   T   T
 11.1835070601194069 15.6461985219033330 26.3838040017138376   F   F   F
 12.2236158614717318 13.9915042288971136 22.0251533829014718   F   F   F
  6.7136813533949455 13.1074171557790464 21.0853925452600599   F   F   F
 15.8409559868556169 20.7745679441989815 22.4830806779351597   F   F   F
  9.4143902877647356 14.1221211891989284 20.7138533932762066   F   F   F
 14.5154306476464967 12.6813049265784503 20.9399220981726231   F   F   F
  8.9028282494690636 16.5650570553655960 25.0152279615634967   F   F   F
  7.7394405096337175 14.8165268168929156 23.0901839240626501   F   F   F
 11.5430257169669019 11.5582120990680419 23.2602841011595451   F   F   F
 10.1244025534777062 21.1744680942224441 20.9741226367287226   F   F   F
 16.5710684566611164 13.2962977353537539 22.6960190371419941   F   F   F
 18.3355681406277604 15.1397513510877175 23.8770588111575250   F   F   F
 15.3229308779546081 15.3982785186451583 20.9234703279457648   F   F   F
 13.3953602254586013 19.8680350606246172 25.8335102193281401   F   F   F
 12.9448680620213690 20.4029720870707010 21.0479474690605777   F   F   F
 10.4840489264054284 16.1723423113988183 22.6824655583564088   F   F   F
  8.8253560677714855 22.0130037269851009 23.3302263297260666   F   F   F
 10.9747293970024948 18.3859642180747151 25.9183325049908717   F   F   F
 10.7626317375720326 18.5251822070719534 21.0955301860387010   F   F   F
  6.0526572986178184 18.7970572574852497 20.8561126980211355   F   F   F
  6.8665344656021112 17.5433099281114266 23.3391696205358272   F   F   F
 13.1554890806568938 10.2066867979627638 21.3427683050810337   F   F   F
 14.7959413638951300 18.2144276075596352 21.1177265289955649   F   F   F
 17.0100971136684187 11.3495584874461581 20.7512943359641717   F   F   F
  6.8284607404691897 22.2233858506988007 20.9676648166209390   F   F   F
 13.6512568272152226 21.7793835451060644 23.7865669493439427   F   F   F
 13.0338113462914791 14.1654702639869150 24.8755851316799514   F   F   F
  5.7409575260901011 16.0121532289385158 21.2790224363030198   F   F   F
  6.6811440859950793 20.3221310050914177 22.9894277952265256   F   F   F
 14.2664539951858327 12.0158040877227918 23.6409530851458314   F   F   F
 12.1876843920314908 16.3562550016698651 20.3465658774144877   F   F   F
 13.3117332951282776 16.4231444389174683 22.8839375740680921   F   F   F
 12.1739012471904289 19.0699150696362594 23.3174023396750023   F   F   F
 18.1006552407270291 15.1866767770524032 21.1662683132175928   F   F   F
 10.9635223971636080 21.0919604379589671 24.8966611086701093   F   F   F
 10.4425895332002909 10.6752947941070424 20.9226470152827844   F   F   F
 10.2096325783764517 13.8839404352073110 24.4656240621159355   F   F   F
  8.2784545502328530 16.7896852444933025 20.9201340899193227   F   F   F
  8.8278878103109975 12.2458407482344729 22.6698656634514606   F   F   F
 11.4418354749997437 22.9930398220419896 22.7248377687036438   F   F   F
 14.0643437297177378 23.0969493008288573 21.3774933607299573   F   F   F
 15.0645405267196111 18.5842556961908798 24.0091631251163840   F   F   F
 17.3586483082310643 19.3162603852668759 20.8283987633785053   F   F   F
  9.1873131717278973 23.7547141053595823 21.1840379509178085   F   F   F
 19.7013308283224227 19.4900702026806627 15.0005327519533935   F   F   F
  5.8964251252293973 12.6326137662681539 19.2528838906118800   F   F   F
 11.8433781767594670 19.4267620919565900 15.0048343974207601   F   F   F
 11.8350897219888598 25.0528551125748535 15.0266520435218869   F   F   F
 11.8245636953801441 13.8975957845888107 15.0033143287726904   F   F   F
 21.6982156369999721 18.1325837379999442 10.8156001569999933   F   F   F
  5.9394410984712325  6.9438945595161581 19.2381812477710028   F   F   F
 19.7079393446751467 25.1023312072834912 14.9573231426837125   F   F   F
 13.8092573835763961 12.6954522682112589 19.0342036445967935   F   F   F
  5.8634053140027245 18.3855025117427999 18.8748071331616742   F   F   F
 14.0084793150937408 18.1646192748755233 19.1951706183804944   F   F   F
 13.7880153435358022  7.0337510309355116 19.1586006386901033   F   F   F
 21.6432656359333961 23.7137881161240891 19.2473289567608035   F   F   F
 21.6558684092073221 12.5430838714207784 19.1731742570639518   F   F   F
 19.7151617313107046 13.9029772803718199 14.9789043794996690   F   F   F
 21.6258826046110535 18.1079626221187269 19.2761252814419990   F   F   F
  6.1861814473646923 23.4313442837253945 19.4143919478498042   F   F   F
 19.7094843026116351  8.3737884328222805 15.0007436644267163   F   F   F
  9.8912919516888529  7.0378401075517951 19.1663477730947385   F   F   F
  3.9726547983749958 19.5200977437360024 15.0037294061645348   F   F   F
 21.6885241534957025  6.9832125629088280 19.2399078451647938   F   F   F
 17.6923402413945468  7.0644434553902702 19.1721364618059269   F   F   F
 17.6840065615587676 12.5456845502143342 19.2095532176522106   F   F   F
 17.5295803306059739 23.6486912405967438 19.2113687085378189   F   F   F
 17.8064541886934364 18.3198006010926591 19.0380098546314400   F   F   F
  9.4445024406402300 17.8896388895892251 19.5637510869408366   F   F   F
  9.7657674814615874 23.7168823500677490 19.1935965346878561   F   F   F
 10.1036835106242453 12.3995429430557280 19.6806947185395913   F   F   F
 11.8594935390615159 22.4519350185818354 17.7827915998003867   F   F   F
 19.7103340404196068  5.6396577430633750 17.7667270578475147   F   F   F
 19.7262937901567987 16.8162858943276987 17.6893984792956473   F   F   F
 19.6829193536370965 11.0725425093996446 17.7427911209643163   F   F   F
 19.6510290953696547 22.3241478170271037 17.7936487002116266   F   F   F
 13.7757358272969572 26.4466042913906634 19.1289453622076167   F   F   F
 21.7077079389232530  9.7412169631620049 19.2164226913251355   F   F   F
 13.8097856104906018  1.4087610326664954 19.2384252238671536   F   F   F
 13.7680493504367067 15.3496336968796872 19.3718010703173462   F   F   F
  3.9426612378848880 13.9718613810445529 14.9301441778389492   F   F   F
 13.9511050901467275 23.6533271921311616 19.3767414740364394   F   F   F
  9.8374162584688261 12.7019724159010448 16.5735419595193285   F   F   F
  9.8695010785709254 26.4357981479272190 19.1634915433717623   F   F   F
  9.9446283159013760 18.1861547336212332 16.6675591558145229   F   F   F
  1.9942977561747635 12.5479114423759128 19.2074245130883945   F   F   F
 17.7176622576441609 12.5194434989559351 16.4473283742251084   F   F   F
 17.7191064849826176  6.9273517680525378 16.3503104282524561   F   F   F
  9.7933538337819162 23.6821542737587691 16.4548532780247569   F   F   F
 17.6809415994109465 18.0290749050917718 16.3405860585456217   F   F   F
 17.7047763228167199 23.6284415281860625 16.3889549862727044   F   F   F
  5.9454777454761851  6.9895945320173745 16.4188632039848663   F   F   F
  5.8987669790204045 12.5887142157163261 16.3837332424721325   F   F   F
  5.9723865272418228 18.0581355126817229 16.3314141935699482   F   F   F
  5.9963296585254469 23.7108824478552371 16.5407417161402499   F   F   F
 13.8044949510240738  6.9760668631407512 16.3844833983228675   F   F   F
 13.8179729212689182 12.5301350583443600 16.3728214345236580   F   F   F
 13.8739747677378347 23.7625663649447070 16.5228527494154349   F   F   F
 13.7610503214392619 18.0800434584841838 16.4893600391126398   F   F   F
 21.6981240842757543 18.1417017378219860 16.3884200929439814   F   F   F
 21.6528466893536269 23.7135554928903218 16.4037445968289077   F   F   F
  9.8573692046754626  7.0367857380112282 16.4150813797347865   F   F   F
  9.9873169002485334 20.6729125632333250 19.0129172179251960   F   F   F
  2.0196477925966527 23.7114811305391733 16.4241911590842662   F   F   F
  2.0373962655376641 12.5644525120091508 16.4004247059332258   F   F   F
 17.8898631871180598 15.3046939423562218 19.1716635773659796   F   F   F
 17.6414431535306733  9.9035900741468268 19.4017937656993844   F   F   F
  6.0027471607682328  9.7428479332971527 19.2283301183467330   F   F   F
 17.7082510968127700 26.4414870172276011 19.1763368184871723   F   F   F
 17.8369464477382422 21.0420714025499045 19.7326044709274520   F   F   F
 11.8317900000927754  5.5708760353119189 17.7395308992179608   F   F   F
 11.7990862333804767 11.2386623013926865 17.7066213549273570   F   F   F
 11.7806690115139112 16.8277287738164745 18.2743994204928093   F   F   F
  5.9579907528948555 26.5009793592051217 16.3451927595343136   F   F   F
 13.7103295231448463 20.8985567217096211 16.4046814667467373   F   F   F
 13.6400066195619516 15.3050556005002250 16.5525693494889126   F   F   F
 21.6716594660920698 15.3294793695596212 16.3891837947168320   F   F   F
 21.7129900785859782  9.7943950864518143 16.3689884823648022   F   F   F
 13.8194106676184454 26.5186487724259763 16.3643421698402527   F   F   F
 21.6201154759006293 20.9495713336255314 16.3689464153819877   F   F   F
 21.6837131729246195 26.5153272688860859 16.3795431097489299   F   F   F
  1.9547106079213550  6.9807877412297099 16.4225253083598624   F   F   F
  1.9561174171581928 18.1634102726064981 16.3857722383031543   F   F   F
 15.7730938554539186 25.0768429528386498 14.9657254029126232   F   F   F
  9.8628241350000643  1.3948141340000999 10.8156001569999933   F   F   F
  1.9894599614196762  6.9376025010837727 19.2551666842461202   F   F   F
  1.9835640516124404  1.3903265040061572 16.3981282568177846   F   F   F
 21.6844823359961190  4.2058596274824822 16.3862371975414902   F   F   F
 13.8072096678165472  4.1918559703904226 16.4010177053956632   F   F   F
  5.9174811760639887  4.1911856696149909 16.3974351849927622   F   F   F
 17.7552219024152862  4.1633933674326471 16.4234823997192549   F   F   F
  9.8554778487766068  4.2067720115536753 16.3911356616449488   F   F   F
  1.9824732522246273  4.2016362868595651 16.3837350036533067   F   F   F
  9.8615433735115392  1.3926768648579957 16.4008024554903002   F   F   F
 11.8331036258956903  2.7895321638984201 14.9630198248506119   F   F   F
  3.9468505752409713  2.7851893774354304 14.9571106715338882   F   F   F
 15.7784250814426219  2.7931270467753757 14.9616008768620912   F   F   F
  7.8894661577007552  2.7875933614199053 14.9655877544463927   F   F   F
  0.0010661723219260  2.7890554721178815 14.9731815206410008   F   F   F
 21.7000448857368227  4.1809519595197422 13.6093818096602668   F   F   F
 13.8083270500989901  4.1977557841685620 13.6205472682322188   F   F   F
  5.9186089414330931  4.1829921249599824 13.6110041167891982   F   F   F
 19.7254043502329210  2.7917175885319128 14.9617995575083711   F   F   F
 17.7542455970486088  1.3682104457609028 16.3796475256588252   F   F   F
  5.9150899680020537  1.3958317795151105 16.4052263037976047   F   F   F
 13.8050880434721570  1.3983360718501070 16.3992495386849448   F   F   F
 21.6804777077642399  1.3948429366666011 19.2091543424504785   F   F   F
 17.7582876740467164  4.2107908767003313 19.2339251320519402   F   F   F
  5.9243204838640251  4.1474437272689073 19.2381444122997252   F   F   F
 21.6798959396603266  4.1824891238857527 19.2075512637778765   F   F   F
 13.8059678437269593  4.1895361029600187 19.2493339949716393   F   F   F
  9.8595108700511105  4.1817104163601027 19.2424774105924428   F   F   F
  1.9696632090638690  4.1457156298497981 19.2110579103830013   F   F   F
  1.9655947601137731  1.3742155206009961 19.2177427381506050   F   F   F
 17.7482895802302529  1.4000293636446075 19.2209746461603466   F   F   F
  9.8650837833305651  1.3839967504080324 19.2507571930534773   F   F   F
 19.7088881383596544 -0.0296698366683197 17.7577289690954601   F   F   F
 11.8291628444107157  0.0085908945957397 17.7344830092222701   F   F   F
  3.9594391696394964 -0.0326343682150911 17.7583364255463323   F   F   F
 15.7702319303783725  0.0048677299771341 17.7505834438647945   F   F   F
 -0.0031195663818713 -0.0214245575805078 17.7553978479271919   F   F   F
  7.9009072113648333 -0.0002404613906472 17.7401967577159638   F   F   F
 21.6894252478726202  1.3906865269757471 16.3941431203251327   F   F   F
 17.7531732724885778  4.2034717967737958 13.6287477321557979   F   F   F
  9.8609733274314788  4.1889797870806733 13.6148628374878022   F   F   F
  1.9711844274773478  4.1762552778311344 13.6047331662153450   F   F   F
 21.6978169283986588  1.3855601861974889 13.6160721553407189   F   F   F
  9.8628241350000643  4.1844424010001093 10.8156001569999933   F   F   F
  1.9725650740000149  4.1844424010001093 10.8156001569999933   F   F   F
 21.6982156369999721 23.7118402719999644 10.8156001569999933   F   F   F
  1.9946123474382897 23.6987867451730381 19.2632461731615230   F   F   F
  5.9675226199233631 26.3746571518000756 19.1148930011379647   F   F   F
 13.6928269103838236  9.8165044469179747 19.3143109278753329   F   F   F
  5.9132371004755306 20.6884351910569677 19.9479678293883183   F   F   F
  5.6946210148098597 15.4431422065376012 19.2498239734389784   F   F   F
 21.6742045219678481 26.4922203528005262 19.2147429735837996   F   F   F
 21.6779080627244163 20.9202417124240796 19.2089105794316275   F   F   F
 21.5963574968883520 15.3072394160010461 19.1847451310015451   F   F   F
  1.9622908092330889 20.9119930832990590 19.2068839522045103   F   F   F
  1.9995221613681384 26.4696319626453729 19.2116288648073024   F   F   F
  9.8313646511485615 14.9273504529798657 18.8996365253048104   F   F   F
  9.9144388784655444  9.7840585154016182 19.2049120503721227   F   F   F
  1.9875659553895269  9.7324015365506629 19.2448357194964679   F   F   F
  2.0608420248899519 15.3311099818963061 19.1904079052388212   F   F   F
 17.7530837259999217  4.1844424010001093 10.8156001569999933   F   F   F
  2.0394081818182070 18.1247549885139883 19.2611468426042549   F   F   F
  5.9176950450000287  4.1844424010001093 10.8156001569999933   F   F   F
 21.6982156369999721  4.1844424010001093 10.8156001569999933   F   F   F
 13.8113471588646970  1.3811492046324518 13.6226993235735510   F   F   F
  5.9191876092508044  1.3689101102107213 13.6278384391788148   F   F   F
 17.7531478431876053  1.3946443959102872 13.6076843654097512   F   F   F
  9.8554575222261320  1.3700360238196541 13.6276174040346696   F   F   F
  1.9727664396460771  1.3815354113936673 13.6171122925710613   F   F   F
 19.7256482699999580  0.0000000000000000 12.2103998060000407   F   F   F
 11.8353900909999528  0.0000000000000000 12.2103998060000407   F   F   F
  3.9451301480000271  0.0000000000000000 12.2103998060000407   F   F   F
 15.7805205919999434  0.0000000000000000 12.2103998060000407   F   F   F
  7.8902602960000570  0.0000000000000000 12.2103998060000407   F   F   F
  0.0000000000000000  0.0000000000000000 12.2103998060000407   F   F   F
 21.6982156369999721  1.3948141340000999 10.8156001569999933   F   F   F
 13.8079546360000549  1.3948141340000999 10.8156001569999933   F   F   F
  5.9176950450000287  1.3948141340000999 10.8156001569999933   F   F   F
 17.7530837259999217  1.3948141340000999 10.8156001569999933   F   F   F
 13.7354772214469367  9.7183093687709121 16.4885262390374656   F   F   F
  1.9725650740000149  1.3948141340000999 10.8156001569999933   F   F   F
 13.8079546360000549  4.1844424010001093 10.8156001569999933   F   F   F
  5.8951352889184880 20.8271368723159043 16.5743654637618008   F   F   F
 13.7379132161785442 20.8521131162496545 19.1509934929305032   F   F   F
  5.8724243828562193 15.3114912358242687 16.4763525068699330   F   F   F
  9.8628241350000643 26.5014685399999657 10.8156001569999933   F   F   F
 17.7530837259999217  9.7636989360001234 10.8156001569999933   F   F   F
 17.7530837259999217 15.3429548049998807 10.8156001569999933   F   F   F
 17.7530837259999217 20.9222120049999525 10.8156001569999933   F   F   F
 17.7530837259999217 26.5014685399999657 10.8156001569999933   F   F   F
  5.9176950450000287  9.7636989360001234 10.8156001569999933   F   F   F
  5.9176950450000287 20.9222120049999525 10.8156001569999933   F   F   F
  9.8628241350000643 20.9222120049999525 10.8156001569999933   F   F   F
 21.6982156369999721 26.5014685399999657 10.8156001569999933   F   F   F
 13.8079546360000549  9.7636989360001234 10.8156001569999933   F   F   F
 13.8079546360000549 15.3429548049998807 10.8156001569999933   F   F   F
 13.8079546360000549 20.9222120049999525 10.8156001569999933   F   F   F
 13.8079546360000549 26.5014685399999657 10.8156001569999933   F   F   F
 21.6982156369999721  9.7636989360001234 10.8156001569999933   F   F   F
 21.6982156369999721 15.3429548049998807 10.8156001569999933   F   F   F
 21.6982156369999721 20.9222120049999525 10.8156001569999933   F   F   F
  5.9176950450000287 26.5014685399999657 10.8156001569999933   F   F   F
  9.8628241350000643 15.3429548049998807 10.8156001569999933   F   F   F
  5.9176950450000287 15.3429548049998807 10.8156001569999933   F   F   F
  1.9725650740000149  6.9740706690001133 10.8156001569999933   F   F   F
 17.7530837259999217  6.9740706690001133 10.8156001569999933   F   F   F
 17.7530837259999217 12.5533272029999310 10.8156001569999933   F   F   F
 17.7530837259999217 18.1325837379999442 10.8156001569999933   F   F   F
 17.7530837259999217 23.7118402719999644 10.8156001569999933   F   F   F
  5.9176950450000287  6.9740706690001133 10.8156001569999933   F   F   F
  5.9176950450000287 12.5533272029999310 10.8156001569999933   F   F   F
  5.9176950450000287 18.1325837379999442 10.8156001569999933   F   F   F
  5.9176950450000287 23.7118402719999644 10.8156001569999933   F   F   F
 13.8079546360000549  6.9740706690001133 10.8156001569999933   F   F   F
 13.8079546360000549 12.5533272029999310 10.8156001569999933   F   F   F
 13.8079546360000549 18.1325837379999442 10.8156001569999933   F   F   F
 13.8079546360000549 23.7118402719999644 10.8156001569999933   F   F   F
 21.6982156369999721  6.9740706690001133 10.8156001569999933   F   F   F
 21.6982156369999721 12.5533272029999310 10.8156001569999933   F   F   F
  3.9161098022087808 16.8115902796309094 17.6455501963927297   F   F   F
  1.9725650740000149 18.1325837379999442 10.8156001569999933   F   F   F
  1.9725650740000149 12.5533272029999310 10.8156001569999933   F   F   F
 13.7979713589898196  7.0091905407936146 13.6254862728269313   F   F   F
 13.8341209327045771 18.1218733165437058 13.6550053457988962   F   F   F
 15.7513370908988559 19.5328455545249042 15.0914961076609462   F   F   F
  5.9309072931853564 26.4501334051093551 13.6076936135631392   F   F   F
 21.6888943348905130 12.5434088136258275 13.6203277103694003   F   F   F
 21.6845791029498187  6.9696765559901781 13.6276077949413033   F   F   F
  5.9426368893406645 15.3961248662524213 13.6569316059215549   F   F   F
 21.6874071818196974 18.1256770356740766 13.6180545188241329   F   F   F
 21.6882596549341358 23.6981874963409354 13.6251804882319085   F   F   F
  1.9791966021846439  9.7594936780187478 13.6112731953338031   F   F   F
  1.9699912859973203 15.3471162995828045 13.6086000363616044   F   F   F
  1.9844912999200497 26.4819303718240278 13.6080959391448744   F   F   F
  2.0072659600794114 20.9163799905878669 13.6039591282341483   F   F   F
  9.8753233565553096 15.2907114066898995 13.6219604305609838   F   F   F
  9.8736990957937216 20.8393120410276644 13.6346358066254751   F   F   F
  9.8791887154606162 26.4455209524242250 13.6250795544981731   F   F   F
 17.7630755275406678  9.8159276704549256 13.6672541384594606   F   F   F
 17.7470642357595381 15.3652005029984178 13.6855960441131312   F   F   F
 17.7282971558966622 20.9409759395408521 13.7104953573597932   F   F   F
 17.7291021577403001 26.4986627948176086 13.6446450691681598   F   F   F
  5.9174677816366819  9.7951531869057842 13.6325183802483352   F   F   F
  9.8633314298754247  9.7756077248044697 13.6241927478871592   F   F   F
  9.8628241350000643 23.7118402719999644 10.8156001569999933   F   F   F
  5.9566188791884178 20.9259875280464769 13.6873857050930692   F   F   F
 13.7922458552727480  9.8266845798391191 13.6644090806168510   F   F   F
 13.7903630876698990 15.3736558669185861 13.6847935105530940   F   F   F
 13.7985992705905485 20.8687947870796719 13.6305655113658872   F   F   F
 13.7918688164863674 26.4562160644318354 13.6141081238694124   F   F   F
 21.6806463038090946  9.7585292414321927 13.6087622611283674   F   F   F
 21.6846174178965647 15.3368598244811647 13.6202985205649352   F   F   F
 21.6615761870080910 20.9123523557547699 13.6041704718911731   F   F   F
 15.7618257308141949 14.0278677833399126 15.1029868654830537   F   F   F
  7.9071897244616665 14.0250238548821127 15.0890939172203069   F   F   F
  7.9426876992679540 19.5388481312937792 15.1270071680380589   F   F   F
 15.7637641816109113  8.4095492459457404 14.9785414764678322   F   F   F
  7.8958590377513618 25.0594715464721034 14.9775642814456464   F   F   F
  0.0029756747817809 25.0902500837464189 14.9770233733548395   F   F   F
  7.8948882482211040  8.3925009431143387 14.9634832146317294   F   F   F
 23.6673073222741088 19.5793944906766839 14.9212568514327071   F   F   F
 -0.0006599524510150 13.9223269592386796 14.9581656490987402   F   F   F
 13.7995959446010463 23.6311036904791223 13.6796319304701655   F   F   F
  0.0018149779580407  8.3676864335284531 14.9612961541257654   F   F   F
 21.6967847043166486 26.4921937524490829 13.6110906613200129   F   F   F
  9.8628241350000643 18.1325837379999442 10.8156001569999933   F   F   F
  5.9255954933634420  1.3569298299402601 19.2400458905509737   F   F   F
  9.8628241350000643  6.9740706690001133 10.8156001569999933   F   F   F
 21.7157686551991809  6.9883494894151514 16.4172076838432162   F   F   F
  3.9711056352633580 25.0694014083464864 14.9841374867951398   F   F   F
  5.9764640339127943  9.7907521463920126 16.4202825668928618   F   F   F
 17.7167337658637258 26.4410427807898039 16.4069148395364941   F   F   F
 17.7887738443503416 20.7759503706329163 16.5827462392171228   F   F   F
 17.8307567305283570 15.2712430869158862 16.4922970325837426   F   F   F
 10.0226782318423986 15.4754981824250155 16.3765391775806357   F   F   F
 10.0056072216935252 20.9351686603711613 16.3957686038899624   F   F   F
 17.6918161050534195  9.6823714794348330 16.5215202257086560   F   F   F
  9.8477758737221954 26.4577753167939385 16.3976507879127702   F   F   F
  1.9854923946150682 26.5158850671477673 16.3731006698359387   F   F   F
  9.8356178607250104  9.8385675083879853 16.4212791144939025   F   F   F
  2.0532323567272841 20.9655864021566849 16.3698939456244688   F   F   F
  1.9674127040846567 15.3515163866366553 16.3757403679639495   F   F   F
  1.9796491101082074  9.7844978057476766 16.3896538541571424   F   F   F
 11.8192183316541861  8.3956208313185670 14.9876075673852309   F   F   F
 23.6627118428447929 16.7046964080842422 17.8319458309321170   F   F   F
 23.6600258621588964 22.3926946131229734 17.7767651081892204   F   F   F
  7.9224489701696594 11.2663078250006539 17.7937791646592345   F   F   F
  7.9003003696014753  5.5782213298666390 17.7640683795535601   F   F   F
 23.6697340890311061  5.5806225650396080 17.7703213299500788   F   F   F
  0.0244649561391030 11.1581111182253974 17.7615444354940273   F   F   F
  7.8924809507207190 16.6535937943296410 17.7382511863594701   F   F   F
  7.9347580205084904 22.0918604170933186 17.7583370033170489   F   F   F
 15.7036118019847830 11.0957429893130968 17.7250698010492798   F   F   F
 15.7701171182740332  5.5791823149424014 17.7603327139309464   F   F   F
 15.7573887641331982 22.1332731701289411 17.7156651565247536   F   F   F
 15.7893039777618931 16.5946261003078632 17.7303203748387190   F   F   F
  3.9884300872027993 11.1214493976144198 17.7896101380301026   F   F   F
  3.9555886219688725  8.3723725092616608 14.9977941124818894   F   F   F
 11.8353900909999528 22.3170261389998572 12.2103998060000407   F   F   F
 11.8353900909999528 11.1585130700000246 12.2103998060000407   F   F   F
 11.8353900909999528  5.5792565350000141 12.2103998060000407   F   F   F
 17.6975690913343371 12.5885743128078538 13.6454118724555631   F   F   F
 17.7132700181685436 18.1685527223469414 13.6113331068555983   F   F   F
 17.7500543782813480 23.7108180364831114 13.6121071350636456   F   F   F
  5.9183724646709761  6.9844287937608982 13.6284404325050996   F   F   F
 21.6564862563508953 12.5448947090372158 16.3991291787290336   F   F   F
  5.9650565709222345 12.6033617892168213 13.6162141509601380   F   F   F
  5.9673138006766617 18.1857518681609847 13.6193185730169652   F   F   F
  5.9298846931565814 23.6619571205399986 13.6677575852025868   F   F   F
 19.7256482699999580 11.1585130700000246 12.2103998060000407   F   F   F
 13.8345566155894613 12.6090543302075329 13.6213242700344104   F   F   F
 19.7256482699999580  5.5792565350000141 12.2103998060000407   F   F   F
 11.8353900909999528 16.7377696040000430 12.2103998060000407   F   F   F
  1.9725650740000149  9.7636989360001234 10.8156001569999933   F   F   F
  0.0000000000000000  5.5792565350000141 12.2103998060000407   F   F   F
 17.7365360690508744  7.0113330913058380 13.6083477090680134   F   F   F
  0.0000000000000000 11.1585130700000246 12.2103998060000407   F   F   F
  0.0000000000000000 22.3170261389998572 12.2103998060000407   F   F   F
  7.8902602960000570  5.5792565350000141 12.2103998060000407   F   F   F
  7.8902602960000570 11.1585130700000246 12.2103998060000407   F   F   F
  7.8902602960000570 16.7377696040000430 12.2103998060000407   F   F   F
  7.8902602960000570 22.3170261389998572 12.2103998060000407   F   F   F
 15.7805205919999434  5.5792565350000141 12.2103998060000407   F   F   F
 15.7805205919999434 11.1585130700000246 12.2103998060000407   F   F   F
  9.8628241350000643 12.5533272029999310 10.8156001569999933   F   F   F
 15.7805205919999434 16.7377696040000430 12.2103998060000407   F   F   F
 15.7805205919999434 22.3170261389998572 12.2103998060000407   F   F   F
  3.9451301480000271  5.5792565350000141 12.2103998060000407   F   F   F
  3.9451301480000271 11.1585130700000246 12.2103998060000407   F   F   F
  3.9451301480000271 16.7377696040000430 12.2103998060000407   F   F   F
  3.9451301480000271 22.3170261389998572 12.2103998060000407   F   F   F
  0.0000000000000000 16.7377696040000430 12.2103998060000407   F   F   F
  4.0404332499665356 22.3083111536946284 17.8724753208231526   F   F   F
  3.9528933252385920  5.5703084792712687 17.7656132054946347   F   F   F
  1.9868889769511706  6.9654228758202903 13.6286173669649191   F   F   F
  1.9843204617792096 23.6950264852093433 13.6303504815933607   F   F   F
  1.9888077475040407 18.1377797113499248 13.6177272304695212   F   F   F
  1.9731716587670529 12.5473656111816396 13.6152471219422946   F   F   F
  9.8441591082962177 18.0532298937670426 13.7422810117655381   F   F   F
 19.7256482699999580 22.3170261389998572 12.2103998060000407   F   F   F
 19.7256482699999580 16.7377696040000430 12.2103998060000407   F   F   F
  1.9725650740000149 15.3429548049998807 10.8156001569999933   F   F   F
  1.9725650740000149 20.9222120049999525 10.8156001569999933   F   F   F
  1.9725650740000149 26.5014685399999657 10.8156001569999933   F   F   F
  9.8628241350000643  9.7636989360001234 10.8156001569999933   F   F   F
  1.9725650740000149 23.7118402719999644 10.8156001569999933   F   F   F
  9.8727626824824561 23.6295019829319131 13.6677265790211564   F   F   F
  9.8531170297465778  6.9786191411305003 13.6507014262209694   F   F   F
  9.8264775595604181 12.5300477240432109 13.7155577012561363   F   F   F
  7.8197357846876354 11.1225815819836011 15.0850835619659573   F   F   F
 11.8588431277545645 22.3771352183548160 15.1149077908532927   F   F   F
  3.8945982778470949 22.3463839892976175 15.1072066542158936   F   F   F
 11.8360125145701574  5.5529376972922275 15.1622593229656299   F   F   F
 19.8985025526245423 19.5602463415962617 18.0963353463483685   F   F   F
  3.9370784967159231 11.1228206862371533 15.1851949538577173   F   F   F
  3.9461520983386755  5.5821770245014690 15.1813348387769729   F   F   F
  7.8398978796103629 16.7186812524774915 15.0358237508415282   F   F   F
 15.7544468587026785 22.3565289682016157 15.0682881652764298   F   F   F
 15.8301406722108240 16.7293622969892795 15.0262493856425134   F   F   F
 15.7786629432012546  5.5459818867033324 15.1692487324341769   F   F   F
  7.8999395517534756 22.3355079383546489 15.0556256020576953   F   F   F
  7.8759620483232471  5.5599262488659660 15.1755037375166406   F   F   F
  0.0219168749993076  8.3297341478438813 18.5856128644080876   F   F   F
 19.7256482699999580 19.5273978710000513 12.2103998060000407   F   F   F
 15.7958129738540194 11.1099211815587164 15.0923756097431880   F   F   F
 23.6647260527595655 16.7509722241316972 15.2120907595816206   F   F   F
 23.6599194376790116 25.0987709754094936 18.6631710998540719   F   F   F
  0.0000000000000000  2.7896282670000092 12.2103998060000407   F   F   F
 19.7113791548386921  2.7965982620174161 18.5580449615854306   F   F   F
  7.8962046343483641  2.7624868259578261 18.5721312592136023   F   F   F
 15.7852126717115926  2.8071792789273147 18.5692847747523615   F   F   F
 11.8321265273656397  2.7965702127578718 18.5882324116154720   F   F   F
  3.9483544098182470  2.7503664102147702 18.5790482123594956   F   F   F
 -0.0114501216143301  2.7782877299077975 18.5780042875965563   F   F   F
 19.7398030437928185  0.0187295997741107 15.1765186559509679   F   F   F