Cu                                      
   1.00000000000000     
    12.5054068306472956    0.0000000000000000    0.0000000000000000
     0.0000000000000000   15.3159328805006201    0.0000000000000000
     0.0000000000000000    0.0000000000000000   28.1057698071600015
   Cu
   144
Selective dynamics
Direct
  0.3367752387747022  0.0833333333333357  0.6448032798844356   T   T   T
  0.3367752387747022  0.2500000000000000  0.6448032798844356   T   T   T
  0.3367752387747022  0.4166666666666643  0.6448032798844356   T   T   T
  0.3367752387747022  0.5833333333333357  0.6448032798844356   T   T   T
  0.3367752387747022  0.7500000000000000  0.6448032798844356   T   T   T
  0.3367752387747022  0.9166666666666643  0.6448032798844356   T   T   T
  0.8367752387747023  0.0833333333333357  0.6448032798844356   T   T   T
  0.8367752387747023  0.2500000000000000  0.6448032798844356   T   T   T
  0.8367752387747023  0.4166666666666643  0.6448032798844356   T   T   T
  0.8367752387747023  0.5833333333333357  0.6448032798844356   T   T   T
  0.8367752387747023  0.7500000000000000  0.6448032798844356   T   T   T
  0.8367752387747023  0.9166666666666643  0.6448032798844356   T   T   T
  0.1700154010501018 -0.0000000000000000  0.6213642393700340   T   T   T
  0.1700154010501018  0.1666666666666643  0.6213642393700340   T   T   T
  0.1700154010501018  0.3333333333333357  0.6213642393700340   T   T   T
  0.1700154010501018  0.5000000000000000  0.6213642393700340   T   T   T
  0.1700154010501018  0.6666666666666643  0.6213642393700340   T   T   T
  0.1700154010501018  0.8333333333333357  0.6213642393700340   T   T   T
  0.6700154010501018 -0.0000000000000000  0.6213642393700340   T   T   T
  0.6700154010501018  0.1666666666666643  0.6213642393700340   T   T   T
  0.6700154010501018  0.3333333333333357  0.6213642393700340   T   T   T
  0.6700154010501018  0.5000000000000000  0.6213642393700340   T   T   T
  0.6700154010501018  0.6666666666666643  0.6213642393700340   T   T   T
  0.6700154010501018  0.8333333333333357  0.6213642393700340   T   T   T
  0.0047696136674361  0.0833333333333357  0.5962478704398620   T   T   T
  0.0047696136674361  0.2500000000000000  0.5962478704398620   T   T   T
  0.0047696136674361  0.4166666666666643  0.5962478704398620   T   T   T
  0.0047696136674361  0.5833333333333357  0.5962478704398620   T   T   T
  0.0047696136674361  0.7500000000000000  0.5962478704398620   T   T   T
  0.0047696136674361  0.9166666666666643  0.5962478704398620   T   T   T
  0.5047696136674360  0.0833333333333357  0.5962478704398620   T   T   T
  0.5047696136674360  0.2500000000000000  0.5962478704398620   T   T   T
  0.5047696136674360  0.4166666666666643  0.5962478704398620   T   T   T
  0.5047696136674360  0.5833333333333357  0.5962478704398620   T   T   T
  0.5047696136674360  0.7500000000000000  0.5962478704398620   T   T   T
  0.5047696136674360  0.9166666666666643  0.5962478704398620   T   T   T
  0.3378776593319661  0.0000000000000000  0.5672469568182197   T   T   T
  0.3378776593319661  0.1666666666666643  0.5672469568182197   T   T   T
  0.3378776593319661  0.3333333333333357  0.5672469568182197   T   T   T
  0.3378776593319661  0.5000000000000000  0.5672469568182197   T   T   T
  0.3378776593319661  0.6666666666666643  0.5672469568182197   T   T   T
  0.3378776593319661  0.8333333333333357  0.5672469568182197   T   T   T
  0.8378776593319660  0.0000000000000000  0.5672469568182197   T   T   T
  0.8378776593319660  0.1666666666666643  0.5672469568182197   T   T   T
  0.8378776593319660  0.3333333333333357  0.5672469568182197   T   T   T
  0.8378776593319660  0.5000000000000000  0.5672469568182197   T   T   T
  0.8378776593319660  0.6666666666666643  0.5672469568182197   T   T   T
  0.8378776593319660  0.8333333333333357  0.5672469568182197   T   T   T
  0.1684366272816470  0.0833333333333357  0.5408376569466776   T   T   T
  0.1684366272816470  0.2500000000000000  0.5408376569466776   T   T   T
  0.1684366272816470  0.4166666666666643  0.5408376569466776   T   T   T
  0.1684366272816470  0.5833333333333357  0.5408376569466776   T   T   T
  0.1684366272816470  0.7500000000000000  0.5408376569466776   T   T   T
  0.1684366272816470  0.9166666666666643  0.5408376569466776   T   T   T
  0.6684366272816469  0.0833333333333357  0.5408376569466776   T   T   T
  0.6684366272816469  0.2500000000000000  0.5408376569466776   T   T   T
  0.6684366272816469  0.4166666666666643  0.5408376569466776   T   T   T
  0.6684366272816469  0.5833333333333357  0.5408376569466776   T   T   T
  0.6684366272816469  0.7500000000000000  0.5408376569466776   T   T   T
  0.6684366272816469  0.9166666666666643  0.5408376569466776   T   T   T
  0.0012498895883348  0.0000000000000000  0.5141362616759254   T   T   T
  0.0012498895883348  0.1666666666666643  0.5141362616759254   T   T   T
  0.0012498895883348  0.3333333333333357  0.5141362616759254   T   T   T
  0.0012498895883348  0.5000000000000000  0.5141362616759254   T   T   T
  0.0012498895883348  0.6666666666666643  0.5141362616759254   T   T   T
  0.0012498895883348  0.8333333333333357  0.5141362616759254   T   T   T
  0.5012498895883348 -0.0000000000000000  0.5141362616759254   T   T   T
  0.5012498895883348  0.1666666666666643  0.5141362616759254   T   T   T
  0.5012498895883348  0.3333333333333357  0.5141362616759254   T   T   T
  0.5012498895883348  0.5000000000000000  0.5141362616759254   T   T   T
  0.5012498895883348  0.6666666666666643  0.5141362616759254   T   T   T
  0.5012498895883348  0.8333333333333357  0.5141362616759254   T   T   T
  0.3333333333333357  0.0833333333333357  0.4868908026831633   F   F   F
  0.3333333333333357  0.2500000000000000  0.4868908026831633   F   F   F
  0.3333333333333357  0.4166666666666643  0.4868908026831633   F   F   F
  0.3333333333333357  0.5833333333333357  0.4868908026831633   F   F   F
  0.3333333333333357  0.7500000000000000  0.4868908026831633   F   F   F
  0.3333333333333357  0.9166666666666643  0.4868908026831633   F   F   F
  0.8333333333333357  0.0833333333333357  0.4868908026831633   F   F   F
  0.8333333333333357  0.2500000000000000  0.4868908026831633   F   F   F
  0.8333333333333357  0.4166666666666643  0.4868908026831633   F   F   F
  0.8333333333333357  0.5833333333333357  0.4868908026831633   F   F   F
  0.8333333333333357  0.7500000000000000  0.4868908026831633   F   F   F
  0.8333333333333357  0.9166666666666643  0.4868908026831633   F   F   F
  0.1666666666666643  0.0000000000000000  0.4606724080494899   F   F   F
  0.1666666666666643  0.1666666666666643  0.4606724080494899   F   F   F
  0.1666666666666643  0.3333333333333357  0.4606724080494899   F   F   F
  0.1666666666666643  0.5000000000000000  0.4606724080494899   F   F   F
  0.1666666666666643  0.6666666666666643  0.4606724080494899   F   F   F
  0.1666666666666643  0.8333333333333357  0.4606724080494899   F   F   F
  0.6666666666666643  0.0000000000000000  0.4606724080494899   F   F   F
  0.6666666666666643  0.1666666666666643  0.4606724080494899   F   F   F
  0.6666666666666643  0.3333333333333357  0.4606724080494899   F   F   F
  0.6666666666666643  0.5000000000000000  0.4606724080494899   F   F   F
  0.6666666666666643  0.6666666666666643  0.4606724080494899   F   F   F
  0.6666666666666643  0.8333333333333357  0.4606724080494899   F   F   F
  0.0000000000000000  0.0833333333333357  0.4344540134158166   F   F   F
  0.0000000000000000  0.2500000000000000  0.4344540134158166   F   F   F
  0.0000000000000000  0.4166666666666643  0.4344540134158166   F   F   F
  0.0000000000000000  0.5833333333333357  0.4344540134158166   F   F   F
  0.0000000000000000  0.7500000000000000  0.4344540134158166   F   F   F
  0.0000000000000000  0.9166666666666643  0.4344540134158166   F   F   F
  0.5000000000000000  0.0833333333333357  0.4344540134158166   F   F   F
  0.5000000000000000  0.2500000000000000  0.4344540134158166   F   F   F
  0.5000000000000000  0.4166666666666643  0.4344540134158166   F   F   F
  0.5000000000000000  0.5833333333333357  0.4344540134158166   F   F   F
  0.5000000000000000  0.7500000000000000  0.4344540134158166   F   F   F
  0.5000000000000000  0.9166666666666643  0.4344540134158166   F   F   F
  0.3333333333333357  0.0000000000000000  0.4082356187821503   F   F   F
  0.3333333333333357  0.1666666666666643  0.4082356187821503   F   F   F
  0.3333333333333357  0.3333333333333357  0.4082356187821503   F   F   F
  0.3333333333333357  0.5000000000000000  0.4082356187821503   F   F   F
  0.3333333333333357  0.6666666666666643  0.4082356187821503   F   F   F
  0.3333333333333357  0.8333333333333357  0.4082356187821503   F   F   F
  0.8333333333333357  0.0000000000000000  0.4082356187821503   F   F   F
  0.8333333333333357  0.1666666666666643  0.4082356187821503   F   F   F
  0.8333333333333357  0.3333333333333357  0.4082356187821503   F   F   F
  0.8333333333333357  0.5000000000000000  0.4082356187821503   F   F   F
  0.8333333333333357  0.6666666666666643  0.4082356187821503   F   F   F
  0.8333333333333357  0.8333333333333357  0.4082356187821503   F   F   F
  0.1666666666666643  0.0833333333333357  0.3820172241484769   F   F   F
  0.1666666666666643  0.2500000000000000  0.3820172241484769   F   F   F
  0.1666666666666643  0.4166666666666643  0.3820172241484769   F   F   F
  0.1666666666666643  0.5833333333333357  0.3820172241484769   F   F   F
  0.1666666666666643  0.7500000000000000  0.3820172241484769   F   F   F
  0.1666666666666643  0.9166666666666643  0.3820172241484769   F   F   F
  0.6666666666666643  0.0833333333333357  0.3820172241484769   F   F   F
  0.6666666666666643  0.2500000000000000  0.3820172241484769   F   F   F
  0.6666666666666643  0.4166666666666643  0.3820172241484769   F   F   F
  0.6666666666666643  0.5833333333333357  0.3820172241484769   F   F   F
  0.6666666666666643  0.7500000000000000  0.3820172241484769   F   F   F
  0.6666666666666643  0.9166666666666643  0.3820172241484769   F   F   F
  0.0000000000000000  0.0000000000000000  0.3557988295148036   F   F   F
  0.0000000000000000  0.1666666666666643  0.3557988295148036   F   F   F
  0.0000000000000000  0.3333333333333357  0.3557988295148036   F   F   F
  0.0000000000000000  0.5000000000000000  0.3557988295148036   F   F   F
  0.0000000000000000  0.6666666666666643  0.3557988295148036   F   F   F
  0.0000000000000000  0.8333333333333357  0.3557988295148036   F   F   F
  0.5000000000000000  0.0000000000000000  0.3557988295148036   F   F   F
  0.5000000000000000  0.1666666666666643  0.3557988295148036   F   F   F
  0.5000000000000000  0.3333333333333357  0.3557988295148036   F   F   F
  0.5000000000000000  0.5000000000000000  0.3557988295148036   F   F   F
  0.5000000000000000  0.6666666666666643  0.3557988295148036   F   F   F
  0.5000000000000000  0.8333333333333357  0.3557988295148036   F   F   F
 
  0.00000000E+00  0.00000000E+00  0.00000000E+00
  0.00000000E+00  0.00000000E+00  0.00000000E+00
  0.00000000E+00  0.00000000E+00  0.00000000E+00
  0.00000000E+00  0.00000000E+00  0.00000000E+00
  0.00000000E+00  0.00000000E+00  0.00000000E+00
  0.00000000E+00  0.00000000E+00  0.00000000E+00
  0.00000000E+00  0.00000000E+00  0.00000000E+00
  0.00000000E+00  0.00000000E+00  0.00000000E+00
  0.00000000E+00  0.00000000E+00  0.00000000E+00
  0.00000000E+00  0.00000000E+00  0.00000000E+00
  0.00000000E+00  0.00000000E+00  0.00000000E+00
  0.00000000E+00  0.00000000E+00  0.00000000E+00
  0.00000000E+00  0.00000000E+00  0.00000000E+00
  0.00000000E+00  0.00000000E+00  0.00000000E+00
  0.00000000E+00  0.00000000E+00  0.00000000E+00
  0.00000000E+00  0.00000000E+00  0.00000000E+00
  0.00000000E+00  0.00000000E+00  0.00000000E+00
  0.00000000E+00  0.00000000E+00  0.00000000E+00
  0.00000000E+00  0.00000000E+00  0.00000000E+00
  0.00000000E+00  0.00000000E+00  0.00000000E+00
  0.00000000E+00  0.00000000E+00  0.00000000E+00
  0.00000000E+00  0.00000000E+00  0.00000000E+00
  0.00000000E+00  0.00000000E+00  0.00000000E+00
  0.00000000E+00  0.00000000E+00  0.00000000E+00
  0.00000000E+00  0.00000000E+00  0.00000000E+00
  0.00000000E+00  0.00000000E+00  0.00000000E+00
  0.00000000E+00  0.00000000E+00  0.00000000E+00
  0.00000000E+00  0.00000000E+00  0.00000000E+00
  0.00000000E+00  0.00000000E+00  0.00000000E+00
  0.00000000E+00  0.00000000E+00  0.00000000E+00
  0.00000000E+00  0.00000000E+00  0.00000000E+00
  0.00000000E+00  0.00000000E+00  0.00000000E+00
  0.00000000E+00  0.00000000E+00  0.00000000E+00
  0.00000000E+00  0.00000000E+00  0.00000000E+00
  0.00000000E+00  0.00000000E+00  0.00000000E+00
  0.00000000E+00  0.00000000E+00  0.00000000E+00
  0.00000000E+00  0.00000000E+00  0.00000000E+00
  0.00000000E+00  0.00000000E+00  0.00000000E+00
  0.00000000E+00  0.00000000E+00  0.00000000E+00
  0.00000000E+00  0.00000000E+00  0.00000000E+00
  0.00000000E+00  0.00000000E+00  0.00000000E+00
  0.00000000E+00  0.00000000E+00  0.00000000E+00
  0.00000000E+00  0.00000000E+00  0.00000000E+00
  0.00000000E+00  0.00000000E+00  0.00000000E+00
  0.00000000E+00  0.00000000E+00  0.00000000E+00
  0.00000000E+00  0.00000000E+00  0.00000000E+00
  0.00000000E+00  0.00000000E+00  0.00000000E+00
  0.00000000E+00  0.00000000E+00  0.00000000E+00
  0.00000000E+00  0.00000000E+00  0.00000000E+00
  0.00000000E+00  0.00000000E+00  0.00000000E+00
  0.00000000E+00  0.00000000E+00  0.00000000E+00
  0.00000000E+00  0.00000000E+00  0.00000000E+00
  0.00000000E+00  0.00000000E+00  0.00000000E+00
  0.00000000E+00  0.00000000E+00  0.00000000E+00
  0.00000000E+00  0.00000000E+00  0.00000000E+00
  0.00000000E+00  0.00000000E+00  0.00000000E+00
  0.00000000E+00  0.00000000E+00  0.00000000E+00
  0.00000000E+00  0.00000000E+00  0.00000000E+00
  0.00000000E+00  0.00000000E+00  0.00000000E+00
  0.00000000E+00  0.00000000E+00  0.00000000E+00
  0.00000000E+00  0.00000000E+00  0.00000000E+00
  0.00000000E+00  0.00000000E+00  0.00000000E+00
  0.00000000E+00  0.00000000E+00  0.00000000E+00
  0.00000000E+00  0.00000000E+00  0.00000000E+00
  0.00000000E+00  0.00000000E+00  0.00000000E+00
  0.00000000E+00  0.00000000E+00  0.00000000E+00
  0.00000000E+00  0.00000000E+00  0.00000000E+00
  0.00000000E+00  0.00000000E+00  0.00000000E+00
  0.00000000E+00  0.00000000E+00  0.00000000E+00
  0.00000000E+00  0.00000000E+00  0.00000000E+00
  0.00000000E+00  0.00000000E+00  0.00000000E+00
  0.00000000E+00  0.00000000E+00  0.00000000E+00
  0.00000000E+00  0.00000000E+00  0.00000000E+00
  0.00000000E+00  0.00000000E+00  0.00000000E+00
  0.00000000E+00  0.00000000E+00  0.00000000E+00
  0.00000000E+00  0.00000000E+00  0.00000000E+00
  0.00000000E+00  0.00000000E+00  0.00000000E+00
  0.00000000E+00  0.00000000E+00  0.00000000E+00
  0.00000000E+00  0.00000000E+00  0.00000000E+00
  0.00000000E+00  0.00000000E+00  0.00000000E+00
  0.00000000E+00  0.00000000E+00  0.00000000E+00
  0.00000000E+00  0.00000000E+00  0.00000000E+00
  0.00000000E+00  0.00000000E+00  0.00000000E+00
  0.00000000E+00  0.00000000E+00  0.00000000E+00
  0.00000000E+00  0.00000000E+00  0.00000000E+00
  0.00000000E+00  0.00000000E+00  0.00000000E+00
  0.00000000E+00  0.00000000E+00  0.00000000E+00
  0.00000000E+00  0.00000000E+00  0.00000000E+00
  0.00000000E+00  0.00000000E+00  0.00000000E+00
  0.00000000E+00  0.00000000E+00  0.00000000E+00
  0.00000000E+00  0.00000000E+00  0.00000000E+00
  0.00000000E+00  0.00000000E+00  0.00000000E+00
  0.00000000E+00  0.00000000E+00  0.00000000E+00
  0.00000000E+00  0.00000000E+00  0.00000000E+00
  0.00000000E+00  0.00000000E+00  0.00000000E+00
  0.00000000E+00  0.00000000E+00  0.00000000E+00
  0.00000000E+00  0.00000000E+00  0.00000000E+00
  0.00000000E+00  0.00000000E+00  0.00000000E+00
  0.00000000E+00  0.00000000E+00  0.00000000E+00
  0.00000000E+00  0.00000000E+00  0.00000000E+00
  0.00000000E+00  0.00000000E+00  0.00000000E+00
  0.00000000E+00  0.00000000E+00  0.00000000E+00
  0.00000000E+00  0.00000000E+00  0.00000000E+00
  0.00000000E+00  0.00000000E+00  0.00000000E+00
  0.00000000E+00  0.00000000E+00  0.00000000E+00
  0.00000000E+00  0.00000000E+00  0.00000000E+00
  0.00000000E+00  0.00000000E+00  0.00000000E+00
  0.00000000E+00  0.00000000E+00  0.00000000E+00
  0.00000000E+00  0.00000000E+00  0.00000000E+00
  0.00000000E+00  0.00000000E+00  0.00000000E+00
  0.00000000E+00  0.00000000E+00  0.00000000E+00
  0.00000000E+00  0.00000000E+00  0.00000000E+00
  0.00000000E+00  0.00000000E+00  0.00000000E+00
  0.00000000E+00  0.00000000E+00  0.00000000E+00
  0.00000000E+00  0.00000000E+00  0.00000000E+00
  0.00000000E+00  0.00000000E+00  0.00000000E+00
  0.00000000E+00  0.00000000E+00  0.00000000E+00
  0.00000000E+00  0.00000000E+00  0.00000000E+00
  0.00000000E+00  0.00000000E+00  0.00000000E+00
  0.00000000E+00  0.00000000E+00  0.00000000E+00
  0.00000000E+00  0.00000000E+00  0.00000000E+00
  0.00000000E+00  0.00000000E+00  0.00000000E+00
  0.00000000E+00  0.00000000E+00  0.00000000E+00
  0.00000000E+00  0.00000000E+00  0.00000000E+00
  0.00000000E+00  0.00000000E+00  0.00000000E+00
  0.00000000E+00  0.00000000E+00  0.00000000E+00
  0.00000000E+00  0.00000000E+00  0.00000000E+00
  0.00000000E+00  0.00000000E+00  0.00000000E+00
  0.00000000E+00  0.00000000E+00  0.00000000E+00
  0.00000000E+00  0.00000000E+00  0.00000000E+00
  0.00000000E+00  0.00000000E+00  0.00000000E+00
  0.00000000E+00  0.00000000E+00  0.00000000E+00
  0.00000000E+00  0.00000000E+00  0.00000000E+00
  0.00000000E+00  0.00000000E+00  0.00000000E+00
  0.00000000E+00  0.00000000E+00  0.00000000E+00
  0.00000000E+00  0.00000000E+00  0.00000000E+00
  0.00000000E+00  0.00000000E+00  0.00000000E+00
  0.00000000E+00  0.00000000E+00  0.00000000E+00
  0.00000000E+00  0.00000000E+00  0.00000000E+00
  0.00000000E+00  0.00000000E+00  0.00000000E+00
  0.00000000E+00  0.00000000E+00  0.00000000E+00
  0.00000000E+00  0.00000000E+00  0.00000000E+00
  0.00000000E+00  0.00000000E+00  0.00000000E+00
  0.00000000E+00  0.00000000E+00  0.00000000E+00
