Cu 
 1.0000000000000000
    12.5054068306472956    0.0000000000000000    0.0000000000000000
     0.0000000000000000   15.3159328805006201    0.0000000000000000
     0.0000000000000000    0.0000000000000000   28.1057698071600015
 Cu 
 144
Selective dynamics
Cartesian
  4.1684689435490982  1.2763277400417186 18.1057698071600015   T   T   T
  4.1684689435490982  3.8289832201251555 18.1057698071600015   T   T   T
  4.1684689435490982  6.3816387002085921 18.1057698071600015   T   T   T
  4.1684689435490982  8.9342941802920279 18.1057698071600015   T   T   T
  4.1684689435490982 11.4869496603754655 18.1057698071600015   T   T   T
  4.1684689435490982 14.0396051404589031 18.1057698071600015   T   T   T
 10.4211723588727452  1.2763277400417186 18.1057698071600015   T   T   T
 10.4211723588727452  3.8289832201251555 18.1057698071600015   T   T   T
 10.4211723588727452  6.3816387002085921 18.1057698071600015   T   T   T
 10.4211723588727452  8.9342941802920279 18.1057698071600015   T   T   T
 10.4211723588727452 11.4869496603754655 18.1057698071600015   T   T   T
 10.4211723588727452 14.0396051404589031 18.1057698071600015   T   T   T
  2.0842344717745487  0.0000000000000001 17.3688816428727293   T   T   T
  2.0842344717745487  2.5526554800834367 17.3688816428727293   T   T   T
  2.0842344717745487  5.1053109601668734 17.3688816428727293   T   T   T
  2.0842344717745487  7.6579664402503100 17.3688816428727293   T   T   T
  2.0842344717745487 10.2106219203337467 17.3688816428727293   T   T   T
  2.0842344717745487 12.7632774004171843 17.3688816428727293   T   T   T
  8.3369378870981965  0.0000000000000001 17.3688816428727293   T   T   T
  8.3369378870981965  2.5526554800834367 17.3688816428727293   T   T   T
  8.3369378870981965  5.1053109601668734 17.3688816428727293   T   T   T
  8.3369378870981965  7.6579664402503100 17.3688816428727293   T   T   T
  8.3369378870981965 10.2106219203337467 17.3688816428727293   T   T   T
  8.3369378870981965 12.7632774004171843 17.3688816428727293   T   T   T
 -0.0000000000000003  1.2763277400417183 16.6319934785854571   T   T   T
 -0.0000000000000003  3.8289832201251550 16.6319934785854571   T   T   T
 -0.0000000000000003  6.3816387002085921 16.6319934785854571   T   T   T
 -0.0000000000000003  8.9342941802920279 16.6319934785854571   T   T   T
 -0.0000000000000003 11.4869496603754655 16.6319934785854571   T   T   T
 -0.0000000000000003 14.0396051404589031 16.6319934785854571   T   T   T
  6.2527034153236478  1.2763277400417183 16.6319934785854571   T   T   T
  6.2527034153236478  3.8289832201251550 16.6319934785854571   T   T   T
  6.2527034153236478  6.3816387002085921 16.6319934785854571   T   T   T
  6.2527034153236478  8.9342941802920279 16.6319934785854571   T   T   T
  6.2527034153236478 11.4869496603754655 16.6319934785854571   T   T   T
  6.2527034153236478 14.0396051404589031 16.6319934785854571   T   T   T
  4.1684689435490982  0.0000000000000002 15.8951053142981831   T   T   T
  4.1684689435490982  2.5526554800834367 15.8951053142981831   T   T   T
  4.1684689435490982  5.1053109601668734 15.8951053142981831   T   T   T
  4.1684689435490982  7.6579664402503100 15.8951053142981831   T   T   T
  4.1684689435490982 10.2106219203337467 15.8951053142981831   T   T   T
  4.1684689435490982 12.7632774004171843 15.8951053142981831   T   T   T
 10.4211723588727452  0.0000000000000002 15.8951053142981831   T   T   T
 10.4211723588727452  2.5526554800834367 15.8951053142981831   T   T   T
 10.4211723588727452  5.1053109601668734 15.8951053142981831   T   T   T
 10.4211723588727452  7.6579664402503100 15.8951053142981831   T   T   T
 10.4211723588727452 10.2106219203337467 15.8951053142981831   T   T   T
 10.4211723588727452 12.7632774004171843 15.8951053142981831   T   T   T
  2.0842344717745491  1.2763277400417183 15.1582171500109091   T   T   T
  2.0842344717745491  3.8289832201251550 15.1582171500109091   T   T   T
  2.0842344717745491  6.3816387002085921 15.1582171500109091   T   T   T
  2.0842344717745491  8.9342941802920279 15.1582171500109091   T   T   T
  2.0842344717745491 11.4869496603754655 15.1582171500109091   T   T   T
  2.0842344717745491 14.0396051404589031 15.1582171500109091   T   T   T
  8.3369378870981965  1.2763277400417183 15.1582171500109091   T   T   T
  8.3369378870981965  3.8289832201251550 15.1582171500109091   T   T   T
  8.3369378870981965  6.3816387002085921 15.1582171500109091   T   T   T
  8.3369378870981965  8.9342941802920279 15.1582171500109091   T   T   T
  8.3369378870981965 11.4869496603754655 15.1582171500109091   T   T   T
  8.3369378870981965 14.0396051404589031 15.1582171500109091   T   T   T
  0.0000000000000000  0.0000000000000000 14.4213289857236369   T   T   T
  0.0000000000000000  2.5526554800834367 14.4213289857236369   T   T   T
  0.0000000000000000  5.1053109601668734 14.4213289857236369   T   T   T
  0.0000000000000000  7.6579664402503100 14.4213289857236369   T   T   T
  0.0000000000000000 10.2106219203337467 14.4213289857236369   T   T   T
  0.0000000000000000 12.7632774004171843 14.4213289857236369   T   T   T
  6.2527034153236478  0.0000000000000000 14.4213289857236369   T   T   T
  6.2527034153236478  2.5526554800834367 14.4213289857236369   T   T   T
  6.2527034153236478  5.1053109601668734 14.4213289857236369   T   T   T
  6.2527034153236478  7.6579664402503100 14.4213289857236369   T   T   T
  6.2527034153236478 10.2106219203337467 14.4213289857236369   T   T   T
  6.2527034153236478 12.7632774004171843 14.4213289857236369   T   T   T
  4.1684689435490982  1.2763277400417186 13.6844408214363646   F   F   F
  4.1684689435490982  3.8289832201251555 13.6844408214363646   F   F   F
  4.1684689435490982  6.3816387002085921 13.6844408214363646   F   F   F
  4.1684689435490982  8.9342941802920279 13.6844408214363646   F   F   F
  4.1684689435490982 11.4869496603754655 13.6844408214363646   F   F   F
  4.1684689435490982 14.0396051404589031 13.6844408214363646   F   F   F
 10.4211723588727452  1.2763277400417186 13.6844408214363646   F   F   F
 10.4211723588727452  3.8289832201251555 13.6844408214363646   F   F   F
 10.4211723588727452  6.3816387002085921 13.6844408214363646   F   F   F
 10.4211723588727452  8.9342941802920279 13.6844408214363646   F   F   F
 10.4211723588727452 11.4869496603754655 13.6844408214363646   F   F   F
 10.4211723588727452 14.0396051404589031 13.6844408214363646   F   F   F
  2.0842344717745487  0.0000000000000001 12.9475526571490906   F   F   F
  2.0842344717745487  2.5526554800834367 12.9475526571490906   F   F   F
  2.0842344717745487  5.1053109601668734 12.9475526571490906   F   F   F
  2.0842344717745487  7.6579664402503100 12.9475526571490906   F   F   F
  2.0842344717745487 10.2106219203337467 12.9475526571490906   F   F   F
  2.0842344717745487 12.7632774004171843 12.9475526571490906   F   F   F
  8.3369378870981965  0.0000000000000001 12.9475526571490906   F   F   F
  8.3369378870981965  2.5526554800834367 12.9475526571490906   F   F   F
  8.3369378870981965  5.1053109601668734 12.9475526571490906   F   F   F
  8.3369378870981965  7.6579664402503100 12.9475526571490906   F   F   F
  8.3369378870981965 10.2106219203337467 12.9475526571490906   F   F   F
  8.3369378870981965 12.7632774004171843 12.9475526571490906   F   F   F
 -0.0000000000000003  1.2763277400417183 12.2106644928618184   F   F   F
 -0.0000000000000003  3.8289832201251550 12.2106644928618184   F   F   F
 -0.0000000000000003  6.3816387002085921 12.2106644928618184   F   F   F
 -0.0000000000000003  8.9342941802920279 12.2106644928618184   F   F   F
 -0.0000000000000003 11.4869496603754655 12.2106644928618184   F   F   F
 -0.0000000000000003 14.0396051404589031 12.2106644928618184   F   F   F
  6.2527034153236478  1.2763277400417183 12.2106644928618184   F   F   F
  6.2527034153236478  3.8289832201251550 12.2106644928618184   F   F   F
  6.2527034153236478  6.3816387002085921 12.2106644928618184   F   F   F
  6.2527034153236478  8.9342941802920279 12.2106644928618184   F   F   F
  6.2527034153236478 11.4869496603754655 12.2106644928618184   F   F   F
  6.2527034153236478 14.0396051404589031 12.2106644928618184   F   F   F
  4.1684689435490982  0.0000000000000002 11.4737763285745462   F   F   F
  4.1684689435490982  2.5526554800834367 11.4737763285745462   F   F   F
  4.1684689435490982  5.1053109601668734 11.4737763285745462   F   F   F
  4.1684689435490982  7.6579664402503100 11.4737763285745462   F   F   F
  4.1684689435490982 10.2106219203337467 11.4737763285745462   F   F   F
  4.1684689435490982 12.7632774004171843 11.4737763285745462   F   F   F
 10.4211723588727452  0.0000000000000002 11.4737763285745462   F   F   F
 10.4211723588727452  2.5526554800834367 11.4737763285745462   F   F   F
 10.4211723588727452  5.1053109601668734 11.4737763285745462   F   F   F
 10.4211723588727452  7.6579664402503100 11.4737763285745462   F   F   F
 10.4211723588727452 10.2106219203337467 11.4737763285745462   F   F   F
 10.4211723588727452 12.7632774004171843 11.4737763285745462   F   F   F
  2.0842344717745491  1.2763277400417183 10.7368881642872722   F   F   F
  2.0842344717745491  3.8289832201251550 10.7368881642872722   F   F   F
  2.0842344717745491  6.3816387002085921 10.7368881642872722   F   F   F
  2.0842344717745491  8.9342941802920279 10.7368881642872722   F   F   F
  2.0842344717745491 11.4869496603754655 10.7368881642872722   F   F   F
  2.0842344717745491 14.0396051404589031 10.7368881642872722   F   F   F
  8.3369378870981965  1.2763277400417183 10.7368881642872722   F   F   F
  8.3369378870981965  3.8289832201251550 10.7368881642872722   F   F   F
  8.3369378870981965  6.3816387002085921 10.7368881642872722   F   F   F
  8.3369378870981965  8.9342941802920279 10.7368881642872722   F   F   F
  8.3369378870981965 11.4869496603754655 10.7368881642872722   F   F   F
  8.3369378870981965 14.0396051404589031 10.7368881642872722   F   F   F
  0.0000000000000000  0.0000000000000000 10.0000000000000000   F   F   F
  0.0000000000000000  2.5526554800834367 10.0000000000000000   F   F   F
  0.0000000000000000  5.1053109601668734 10.0000000000000000   F   F   F
  0.0000000000000000  7.6579664402503100 10.0000000000000000   F   F   F
  0.0000000000000000 10.2106219203337467 10.0000000000000000   F   F   F
  0.0000000000000000 12.7632774004171843 10.0000000000000000   F   F   F
  6.2527034153236478  0.0000000000000000 10.0000000000000000   F   F   F
  6.2527034153236478  2.5526554800834367 10.0000000000000000   F   F   F
  6.2527034153236478  5.1053109601668734 10.0000000000000000   F   F   F
  6.2527034153236478  7.6579664402503100 10.0000000000000000   F   F   F
  6.2527034153236478 10.2106219203337467 10.0000000000000000   F   F   F
  6.2527034153236478 12.7632774004171843 10.0000000000000000   F   F   F
