Au O  Sr Ti H                           
   1.00000000000000     
    23.6707801818999997    0.0000000000000000    0.0000000000000000
     0.0000000000000000   22.3170261383000010    0.0000000000000000
     0.0000000000000000    0.0000000000000000   30.0000000000000000
   Au   O    Sr   Ti   H 
    50   264    72    72     1
Selective dynamics
Direct
  0.7175592626443574  0.5270442791042456  0.7542857834978633   F   F   F
  0.6246493022840980  0.5677341671452893  0.7036502767486255   F   F   F
  0.7329601912069705  0.2563929099328064  0.6929500214096223   F   F   F
  0.2918802727867700  0.7461638984942169  0.6981276203993616   F   F   F
  0.5123373447270652  0.6038843123895603  0.7772768030242077   F   F   F
  0.5771542582932270  0.7245961956788491  0.7925991352807316   F   F   F
  0.5477855521482269  0.3903592128184670  0.8320026822290814   F   F   F
  0.2405638101499932  0.4694059993127198  0.7091464622673058   F   F   F
  0.2827933031277468  0.6616874237761934  0.7655345503639808   F   F   F
  0.5968418115771996  0.2971641376018539  0.7881583909762995   F   F   F
  0.5145385065166934  0.4835006824268575  0.6780893363796139   F   F   F
  0.5628010409192328  0.4869885159866030  0.7624334106594333   F   F   F
  0.4631038811038835  0.6956919927091860  0.8299828300715646   F   F   F
  0.7636633747154988  0.4323143110006598  0.7057281919707563   F   F   F
  0.7339954705643024  0.6159838255073851  0.6937053566198514   F   F   F
  0.6345653278021359  0.5843886480855716  0.8003404617991166   F   F   F
  0.5948277819135228  0.7844683828059331  0.7127197954716422   F   F   F
  0.4841491308923693  0.7790953091900761  0.7572700052235959   F   F   F
  0.3493231196359048  0.5003921438661010  0.6979473904698210   F   F   F
  0.4303183761096960  0.3729539328271514  0.8161545420203495   F   F   F
  0.3691569567370223  0.3001095878815505  0.7569878276121429   F   F   F
  0.4300314223261168  0.2267858175511890  0.6982091021021759   F   F   F
  0.3903237052695090  0.8165810345169504  0.7064710476297407   F   F   F
  0.2884746492586672  0.5376207570137836  0.7779817803339242   F   F   F
  0.5465501832558175  0.2122351960280042  0.7088202378337414   F   F   F
  0.4532396292796363  0.5797379201029926  0.7029480088294306   F   F   F
  0.6168204898350567  0.3173162654841448  0.6969857292467125   F   F   F
  0.7055621090889233  0.7576111671957335  0.6882758619250353   F   F   F
  0.6553858549645852  0.4416246687963508  0.8121647180803890   F   F   F
  0.3674108368079771  0.6191253661393858  0.8201823321929709   F   F   F
  0.5687937600804602  0.5123067878098908  0.8574429392505181   F   F   F
  0.6535920463318448  0.2053821121221304  0.7459606970197754   F   F   F
  0.4687851493047788  0.4534991441829135  0.8816318791295004   F   F   F
  0.5188577205091036  0.3771401392515017  0.7343586842324257   F   F   F
  0.2820888222706870  0.3402143578080867  0.7027196276456351   F   F   F
  0.6696404129039806  0.6810952936833630  0.7487099792587557   F   F   F
  0.3978068745939112  0.3820550792629618  0.6908717920404399   F   F   F
  0.3753281482612181  0.4936278968027352  0.8328108656292059   F   F   F
  0.4618817969198332  0.5752546820640774  0.8642397251476268   F   F   F
  0.3252078866464103  0.4153594241295977  0.7696515381762765   F   F   F
  0.4829896776920961  0.2688288053508288  0.7743232344807325   F   F   F
  0.4237215792250666  0.6980083943574087  0.6994027666542095   F   F   F
  0.7014574317026288  0.3440197001524368  0.7566653823640124   F   F   F
  0.7732133014063649  0.4294321114216189  0.7958052001327971   F   F   F
  0.2561606759981530  0.5926497386785812  0.6947228894978821   F   F   F
  0.6479234130581233  0.4419859989590194  0.6959595803920564   F   F   F
  0.5647929821710846  0.6410997230216537  0.8618287290034772   F   F   F
  0.5444169049050132  0.6647228108599705  0.7015660044441816   F   F   F
  0.4436229732950494  0.4735991250529210  0.7559144125229054   F   F   F
  0.3728770369363943  0.7382451741732936  0.7779914035432753   F   F   F
  0.2498826287233911  0.1884747688120498  0.4540948318245626   F   F   F
  0.7494814220233224  0.9384028911924460  0.4552981904469320   F   F   F
  0.7490671396175372  0.6886417801802907  0.4573250604501027   F   F   F
  0.7496682262841929  0.4384666511412831  0.4557899951123972   F   F   F
  0.7506696695432069  0.1896239941506295  0.4555112990087054   F   F   F
  0.4175574851201276  0.9356969775793047  0.4539082591993235   F   F   F
  0.4169159686034050  0.6846079560216936  0.4548306204335688   F   F   F
  0.4172701660382003  0.4355600259828165  0.4542049824290046   F   F   F
  0.0845323309538699  0.6868456361058364  0.4529969941844456   F   F   F
  0.0840001121538734  0.9366952476238382  0.4534847303258900   F   F   F
  0.0829285406343345  0.4368662745831458  0.4529495981188134   F   F   F
  0.0838905573319124  0.1866045800371765  0.4529713726531099   F   F   F
  0.9165914664846255  0.8120454108031439  0.4540949206721621   F   F   F
  0.9161613825804693  0.5623877153786552  0.4538132325027959   F   F   F
  0.2511908253616753  0.4392568278831845  0.4549283788509157   F   F   F
  0.9161185316113816  0.0621651451682155  0.4540906627386363   F   F   F
  0.9162961327005945  0.3122559964027545  0.4538261323849540   F   F   F
  0.4172834032368016  0.1870585918319563  0.4534893712093933   F   F   F
  0.2524323019197396  0.6873114456926572  0.4561367619487910   F   F   F
  0.9165420472149037  0.9368968601584413  0.4534329876895242   F   F   F
  0.5827093221555444  0.1896473549623536  0.4553200375646469   F   F   F
  0.0001428889757236  0.1250511764670250  0.4983104584091791   F   F   F
  0.5836471502284226  0.8100430744472149  0.4554771672015718   F   F   F
  0.0001270662208128  0.3737043796010369  0.4983314779595602   F   F   F
  0.9998909928291155  0.6272008504227387  0.4976632299771495   F   F   F
  0.3337765276005129  0.1257700283705390  0.4985178062167890   F   F   F
  0.0000505039640970  0.8751252846272735  0.4995346241821963   F   F   F
  0.3335638929841949  0.8737943841637943  0.4989198021230550   F   F   F
  0.6661529829671338  0.1263321905696415  0.4990699530684708   F   F   F
  0.3358024101058490  0.6251819248400565  0.5044075156531207   F   F   F
  0.3344539072672887  0.3784581641802518  0.5030106219978663   F   F   F
  0.6655377789322614  0.3791044045806657  0.5030395991242713   F   F   F
  0.9153445999498189  0.6866897938112189  0.4529841692179133   F   F   F
  0.9158563515489462  0.4370815817225449  0.4536554272794007   F   F   F
  0.9158644335331658  0.1868377529568690  0.4531264406774653   F   F   F
  0.5827524672591409  0.9366523099718407  0.4540438100843147   F   F   F
  0.5827623571635812  0.6859818959713522  0.4545989354818118   F   F   F
  0.5824193204463342  0.4388345785525161  0.4562638176884590   F   F   F
  0.2499860177624029  0.9360125012534439  0.4540573150554437   F   F   F
  0.6654248681309625  0.6258237053333602  0.5029627907183638   F   F   F
  0.5846268626460898  0.5624632112682022  0.4550701001947530   F   F   F
  0.5831644862980880  0.0629874621219670  0.4543246227624067   F   F   F
  0.9166666865332829  0.6874999999963620  0.3605200052333331   F   F   F
  0.9166666865332829  0.4374999701794380  0.3605200052333331   F   F   F
  0.9166666865332829  0.1875000000030838  0.3605200052333331   F   F   F
  0.5833333134730552  0.9375000000154046  0.3605200052333331   F   F   F
  0.5833333134730552  0.6874999999963620  0.3605200052333331   F   F   F
  0.5833333134730552  0.4374999701794380  0.3605200052333331   F   F   F
  0.5833333134730552  0.1875000000030838  0.3605200052333331   F   F   F
  0.2499999999799343  0.9375000000154046  0.3605200052333331   F   F   F
  0.9166666865332829  0.9375000000154046  0.3605200052333331   F   F   F
  0.2499999999799343  0.6874999999963620  0.3605200052333331   F   F   F
  0.2499999999799343  0.1875000000030838  0.3605200052333331   F   F   F
  0.7499999404149307  0.9375000000154046  0.3605200052333331   F   F   F
  0.7499999404149307  0.6874999999963620  0.3605200052333331   F   F   F
  0.7499999404149307  0.4374999701794380  0.3605200052333331   F   F   F
  0.7499999404149307  0.1875000000030838  0.3605200052333331   F   F   F
  0.4166666269218169  0.9375000000154046  0.3605200052333331   F   F   F
  0.4166666269218169  0.6874999999963620  0.3605200052333331   F   F   F
  0.4166666269218169  0.4374999701794380  0.3605200052333331   F   F   F
  0.2499999999799343  0.4374999701794380  0.3605200052333331   F   F   F
  0.0833333358191695  0.0625000000159659  0.3605200052333331   F   F   F
  0.0833333358191695  0.3124999999901945  0.3605200052333331   F   F   F
  0.0833333358191695  0.5625000000092442  0.3605200052333331   F   F   F
  0.9166666865332829  0.3124999999901945  0.3605200052333331   F   F   F
  0.9166666865332829  0.0625000000159659  0.3605200052333331   F   F   F
  0.5833333134730552  0.8124999999834799  0.3605200052333331   F   F   F
  0.5833333134730552  0.5625000000092442  0.3605200052333331   F   F   F
  0.5833333134730552  0.3124999999901945  0.3605200052333331   F   F   F
  0.5833333134730552  0.0625000000159659  0.3605200052333331   F   F   F
  0.2499999999799343  0.8124999999834799  0.3605200052333331   F   F   F
  0.2499999999799343  0.5625000000092442  0.3605200052333331   F   F   F
  0.2499999999799343  0.3124999999901945  0.3605200052333331   F   F   F
  0.2499999999799343  0.0625000000159659  0.3605200052333331   F   F   F
  0.7499999404149307  0.8124999999834799  0.3605200052333331   F   F   F
  0.7499999404149307  0.5625000000092442  0.3605200052333331   F   F   F
  0.7499999404149307  0.3124999999901945  0.3605200052333331   F   F   F
  0.7499999404149307  0.0625000000159659  0.3605200052333331   F   F   F
  0.4166666269218169  0.8124999999834799  0.3605200052333331   F   F   F
  0.4166666269218169  0.5625000000092442  0.3605200052333331   F   F   F
  0.4166666269218169  0.3124999999901945  0.3605200052333331   F   F   F
  0.4166666269218169  0.0625000000159659  0.3605200052333331   F   F   F
  0.0833333358191695  0.8124999999834799  0.3605200052333331   F   F   F
  0.4166666269218169  0.1875000000030838  0.3605200052333331   F   F   F
  0.0833333358191695  0.9375000000154046  0.3605200052333331   F   F   F
  0.0833333358191695  0.6874999999963620  0.3605200052333331   F   F   F
  0.0833333358191695  0.4374999701794380  0.3605200052333331   F   F   F
  0.8333332538436267  0.4999999999932783  0.4070133268666680   F   F   F
  0.8333332538436267  0.7500000000123208  0.4070133268666680   F   F   F
  0.0837706034971220  0.0618486582097617  0.4541604278029823   F   F   F
  0.0835085348266560  0.3120505213633393  0.4539693814395562   F   F   F
  0.0839650468521853  0.5624760770859325  0.4538730833447104   F   F   F
  0.0835028800950823  0.8121223689715649  0.4541702020896778   F   F   F
  0.4170013114538520  0.0615545753343127  0.4553329595568485   F   F   F
  0.4155852783842349  0.3113638214323231  0.4573622743207366   F   F   F
  0.4160661017830378  0.5594994521782439  0.4578895633228512   F   F   F
  0.4166562018287792  0.8097868638844119  0.4551433223403123   F   F   F
  0.7495422958984648  0.0639855511824976  0.4533852190289664   F   F   F
  0.7474704578528701  0.3141799272393087  0.4545217556492460   F   F   F
  0.7481274060711414  0.5643414125192123  0.4536576590948087   F   F   F
  0.7494464346167433  0.8131671645954484  0.4530532631024187   F   F   F
  0.2505212919605668  0.0620189772592923  0.4542338125303758   F   F   F
  0.9158592249367672  0.3130071639988188  0.5466628683443346   F   F   F
  0.2522822355807790  0.3141346558097808  0.4541544073401198   F   F   F
  0.2519465923697126  0.5645454167445507  0.4538590284021495   F   F   F
  0.2502331170615975  0.8105063561744217  0.4554870072551083   F   F   F
  0.8333332538436267  0.2500000000190425  0.4070133268666680   F   F   F
  0.5842461543034148  0.3146580389995108  0.4542699848418366   F   F   F
  0.8333332538436267  0.0000000000000000  0.4070133268666680   F   F   F
  0.5000000000021103  0.4999999999932783  0.4070133268666680   F   F   F
  0.0833333358191695  0.1875000000030838  0.3605200052333331   F   F   F
  0.0000000000000000  0.0000000000000000  0.4070133268666680   F   F   F
  0.0000000000000000  0.2500000000190425  0.4070133268666680   F   F   F
  0.0000000000000000  0.4999999999932783  0.4070133268666680   F   F   F
  0.0000000000000000  0.7500000000123208  0.4070133268666680   F   F   F
  0.3333333432766779  0.0000000000000000  0.4070133268666680   F   F   F
  0.3333333432766779  0.2500000000190425  0.4070133268666680   F   F   F
  0.3333333432766779  0.4999999999932783  0.4070133268666680   F   F   F
  0.3333333432766779  0.7500000000123208  0.4070133268666680   F   F   F
  0.6666666865533486  0.0000000000000000  0.4070133268666680   F   F   F
  0.6666666865533486  0.2500000000190425  0.4070133268666680   F   F   F
  0.6666666865533486  0.4999999999932783  0.4070133268666680   F   F   F
  0.6666666865533486  0.7500000000123208  0.4070133268666680   F   F   F
  0.1666666716383389  0.0000000000000000  0.4070133268666680   F   F   F
  0.1666666716383389  0.2500000000190425  0.4070133268666680   F   F   F
  0.1666666716383389  0.4999999999932783  0.4070133268666680   F   F   F
  0.1666666716383389  0.7500000000123208  0.4070133268666680   F   F   F
  0.5000000000021103  0.0000000000000000  0.4070133268666680   F   F   F
  0.5000000000021103  0.2500000000190425  0.4070133268666680   F   F   F
  0.5000000000021103  0.7500000000123208  0.4070133268666680   F   F   F
  0.1671187691670042  0.1243320180101932  0.4994070196016125   F   F   F
  0.9176786423808636  0.0634446562424884  0.5474929182082562   F   F   F
  0.1677691304535784  0.8732552169149841  0.4999279893079276   F   F   F
  0.2519871339874840  0.1882348525491366  0.5472339346598005   F   F   F
  0.7494061882997798  0.9341570235062662  0.5475707165258967   F   F   F
  0.7517958357448080  0.6803656842124681  0.5530339896633762   F   F   F
  0.7527804162744332  0.4344405530826876  0.5496919904810227   F   F   F
  0.4232491563994074  0.4433943956510831  0.5461224593718512   F   F   F
  0.4233290112848493  0.6878292484517985  0.5467399752441082   F   F   F
  0.7489414892066080  0.1839505074751884  0.5502967447237666   F   F   F
  0.4159453431889801  0.9369883603717497  0.5459449093947697   F   F   F
  0.0836182076501331  0.9389622636247736  0.5457044776318938   F   F   F
  0.4161605427547457  0.1915006157500159  0.5462882867637546   F   F   F
  0.0867633771489267  0.6898265373191350  0.5450868264491575   F   F   F
  0.0826914001228118  0.4386016310284546  0.5451891971919736   F   F   F
  0.0838302248191667  0.1889748419004533  0.5456178490918049   F   F   F
  0.4996017744677204  0.1255510760109715  0.4995104451663295   F   F   F
  0.9996604554662909  0.4995450923243965  0.5944181596469136   F   F   F
  0.9994866606933712  0.7535940580846940  0.5922398013329158   F   F   F
  0.3347707746262358  0.2545296576835057  0.5925795452849414   F   F   F
  0.3340053376027967  0.9997666595259389  0.5920048660901642   F   F   F
  0.9998350668234650  0.9989072228733491  0.5929446412860386   F   F   F
  0.0010358155873007  0.2502461231107489  0.5915259537691355   F   F   F
  0.3334019305312026  0.4963930870594666  0.5911558722046379   F   F   F
  0.3358397802981798  0.7401827565543115  0.5907238887348996   F   F   F
  0.6642067732609718  0.2461333192969448  0.5912435800518523   F   F   F
  0.6658776818146421  0.0003201437172891  0.5919153843759375   F   F   F
  0.6659395816250182  0.7418259136689613  0.5900306605336496   F   F   F
  0.6670242578811383  0.4936809822915151  0.5913989826602659   F   F   F
  0.1674127844246414  0.9984347547555288  0.5922096068417630   F   F   F
  0.1685969200276816  0.2492805317115767  0.5932739842756618   F   F   F
  0.1707867025074208  0.7500527505539196  0.5950712900080077   F   F   F
  0.2484132949816384  0.4359351097699857  0.5491900693462455   F   F   F
  0.1655406209138590  0.5030900385540704  0.5876780531837937   F   F   F
  0.2491676268841303  0.6833108611437027  0.5520384528249664   F   F   F
  0.5807886094646264  0.1854612935080908  0.5497986548924700   F   F   F
  0.9153998893023569  0.8130899017390476  0.5469825581215417   F   F   F
  0.9167808715257308  0.5635316297207567  0.5465127853832286   F   F   F
  0.5814169911840850  0.5600618233894252  0.5494578974895887   F   F   F
  0.5862223557439705  0.8147818101411914  0.5505365684877859   F   F   F
  0.5840944396561127  0.3109609426524216  0.5457327077998855   F   F   F
  0.5829004095617520  0.0625430205541235  0.5461150127926260   F   F   F
  0.2534670627271467  0.8127578234586892  0.5511410412831452   F   F   F
  0.2524073879773781  0.5590460153725942  0.5441533184832181   F   F   F
  0.2494103038857602  0.3138151449223301  0.5459649519972842   F   F   F
  0.2514776322033114  0.0625809037710710  0.5471338419251879   F   F   F
  0.7484561815138591  0.8082766350316604  0.5456515320172599   F   F   F
  0.7465481076489553  0.5575364632658832  0.5444656712049110   F   F   F
  0.4143537879484072  0.8116634284642572  0.5480039872157363   F   F   F
  0.7483358502511308  0.0598070525554704  0.5445626178675980   F   F   F
  0.7475033895641161  0.3111810103134047  0.5474167720996661   F   F   F
  0.4159893258583267  0.3193309904296413  0.5525995585961425   F   F   F
  0.4203984125901670  0.5645929473391362  0.5555616778398331   F   F   F
  0.4165009650377414  0.0654343076341206  0.5473073020928254   F   F   F
  0.0848538669913950  0.8129459536471657  0.5473341880812441   F   F   F
  0.0825456616921585  0.5642559874450299  0.5462837719401463   F   F   F
  0.0866223088870939  0.3135108581122026  0.5469495254908168   F   F   F
  0.0822529591731325  0.0632781585371305  0.5475792901525978   F   F   F
  0.9157920478013324  0.9387156087266675  0.5461792723768468   F   F   F
  0.9132572279137250  0.6894704894255526  0.5449706970297470   F   F   F
  0.5836108446981143  0.9381392312243975  0.5457251877878235   F   F   F
  0.9170860423922136  0.1890007240576210  0.5452029300511185   F   F   F
  0.9158695006561715  0.4376797449881522  0.5458302740616077   F   F   F
  0.5767011945833502  0.4357091846787142  0.5521660926048213   F   F   F
  0.5795168182512640  0.6864371556781563  0.5471590110449966   F   F   F
  0.2515910810804272  0.9372952814563007  0.5451607959406104   F   F   F
  0.4975450627793663  0.5042662772500677  0.6091513628822867   F   F   F
  0.4988143544464947  0.2531543997274284  0.5911248116874646   F   F   F
  0.4996432620754447  0.0000502859904614  0.5909903518266546   F   F   F
  0.7539776677432144  0.6937778055534665  0.6570509088881025   F   F   F
  0.7485299174086819  0.9366036915360993  0.6399246168933104   F   F   F
  0.2535537480068086  0.1865223766183206  0.6411713775687318   F   F   F
  0.7493070121431344  0.1925461723110544  0.6447804077890495   F   F   F
  0.7556291188372271  0.4360337129529981  0.6393656445726492   F   F   F
  0.4173499820387718  0.9350161495204716  0.6397720679193242   F   F   F
  0.4217236473218406  0.6759354161332567  0.6336923482131880   F   F   F
  0.5910919871212386  0.8099461523799789  0.6459772639751549   F   F   F
  0.9163171698141852  0.0624916708219416  0.6415115592497997   F   F   F
  0.9128422531411147  0.5616386909002742  0.6423391339277629   F   F   F
  0.9151918089425806  0.3119968874330965  0.6395650151118772   F   F   F
  0.9139767623024326  0.8127021792767195  0.6416103791578607   F   F   F
  0.5823648069431613  0.0656191290907628  0.6393930245261146   F   F   F
  0.5850498383109723  0.3198320694093795  0.6340113634301616   F   F   F
  0.5915175652907791  0.5643160923651180  0.6396150232201592   F   F   F
  0.2476115784685291  0.5739998058161575  0.6288104821802847   F   F   F
  0.2621214051787533  0.7988711483367297  0.6467526819922753   F   F   F
  0.2497313547172979  0.3164860635938780  0.6414171012814336   F   F   F
  0.2508521548143108  0.0594531316465421  0.6420549027056452   F   F   F
  0.9166666865332829  0.5625000000092442  0.3605200052333331   F   F   F
  0.4997066538203114  0.3731131713918998  0.5007355871584309   F   F   F
  0.5000740934725982  0.8727884447526222  0.5008295438093455   F   F   F
  0.5004162231799256  0.6208687452900818  0.5001357005144413   F   F   F
  0.8322880784700857  0.6230699171558527  0.4999618806872306   F   F   F
  0.8327880878592993  0.8745720701205926  0.4985254781493893   F   F   F
  0.8326131951559077  0.3730885958630950  0.4996280720170319   F   F   F
  0.8329627561783539  0.1244201233638904  0.4997232744777165   F   F   F
  0.1668043935241954  0.3762541123567615  0.4977581969258935   F   F   F
  0.1678320516755250  0.6243335531953278  0.5000051125565648   F   F   F
  0.5813503519652699  0.4379875462801834  0.6460866936348850   F   F   F
  0.5799225012835407  0.6851172181327954  0.6389509327322713   F   F   F
  0.9167153904994052  0.1866996918096646  0.6398543640808967   F   F   F
  0.5817861636159378  0.9352405622626989  0.6390611201526895   F   F   F
  0.8304860503956277  0.7506492607454405  0.5927873803345562   F   F   F
  0.8322183143399116  0.2493568676552087  0.5903485031538196   F   F   F
  0.8333381063378127  0.5034224207480733  0.5892592859414805   F   F   F
  0.8324161652790636  0.0018068827754476  0.5922609132452905   F   F   F
  0.5012721012218364  0.7565229108199603  0.5929840113098663   F   F   F
  0.4176964346733953  0.0651637733988935  0.6400005069382502   F   F   F
  0.4263833900671301  0.3043427646711478  0.6561864870244065   F   F   F
  0.4121366718973576  0.8126357800892805  0.6396623520412206   F   F   F
  0.3977190028881168  0.5505023577920198  0.6523865645664415   F   F   F
  0.7524218543959762  0.5708711986684989  0.6343081025425832   F   F   F
  0.7410352488677319  0.8100396042834177  0.6399249652341936   F   F   F
  0.7480304727526743  0.3120252256394451  0.6405562494055488   F   F   F
  0.7478107452891294  0.0668679824856326  0.6389841048262781   F   F   F
  0.0837024211105728  0.3120148590624012  0.6405041573000929   F   F   F
  0.6665870759219175  0.8745118187716585  0.4989159847575166   F   F   F
  0.0871003630311051  0.5617484323177777  0.6418295761585924   F   F   F
  0.0840521324462742  0.0608004142162670  0.6418826399141508   F   F   F
  0.0869690224904147  0.4365846435810710  0.6395232141518008   F   F   F
  0.0834518505545887  0.1859312565370388  0.6409583883390582   F   F   F
  0.4174974182976641  0.1866242968146921  0.6390889154240469   F   F   F
  0.4154663796495868  0.4180824550393183  0.6301934531581068   F   F   F
  0.0842613895444728  0.9355409148856779  0.6406068168458390   F   F   F
  0.0830744699649131  0.6871030958976121  0.6397381805751579   F   F   F
  0.9125949395749799  0.4361836235812078  0.6397116886907455   F   F   F
  0.9163956798369526  0.6874437283720667  0.6396235699606549   F   F   F
  0.9146634747669609  0.9367340958643311  0.6409568177906380   F   F   F
  0.2408025975717649  0.4420980790285398  0.6417457535393112   F   F   F
  0.2542587715650697  0.6771647815160904  0.6635395947357878   F   F   F
  0.5793588497890028  0.1909660634504959  0.6453515306051969   F   F   F
  0.2518515304150526  0.9300892664365605  0.6373711834289253   F   F   F
  0.0840164742040628  0.8119083201802511  0.6418803231355881   F   F   F
  0.9166666865332829  0.8124999999834799  0.3605200052333331   F   F   F
  0.0006488402692568  0.1229624107068119  0.6191952774017011   F   F   F
  0.8333332538436267  0.6249999999803961  0.4070133268666680   F   F   F
  0.9997507298169950  0.5008306734108459  0.5071339696254356   F   F   F
  0.3312477915278649  0.4991911143257113  0.5010931901213524   F   F   F
  0.3302412463307718  0.2481629167239419  0.5028344790601480   F   F   F
  0.3331235825996330  0.0010408412023253  0.5057388648195982   F   F   F
  0.3337961479933327  0.7510086828079210  0.5016433292900757   F   F   F
  0.6660013788548227  0.0000746592237704  0.5055353671453560   F   F   F
  0.6685971586344408  0.4997708112490713  0.5006050939561675   F   F   F
  0.6673149252651172  0.2476520755433924  0.5028596094377349   F   F   F
  0.6654546630862086  0.7519261842504932  0.5021671147718649   F   F   F
  0.1660415158959836  0.0012081592403348  0.5064882930845300   F   F   F
  0.1664921663539900  0.2483230376847203  0.5062733505573007   F   F   F
  0.1634597994324309  0.4999180638216316  0.5021304512650602   F   F   F
  0.5002440877432832  0.9992908017568780  0.5054730556837228   F   F   F
  0.1643876552467489  0.7515061873756181  0.5033248766037701   F   F   F
  0.5010001592163889  0.7527421122009841  0.5039675490704667   F   F   F
  0.8342197402000764  0.0002947974761867  0.5064563299189970   F   F   F
  0.5013160360904152  0.4996368084612968  0.5004331030417006   F   F   F
  0.5015991736058325  0.2479249610005283  0.5021272689689056   F   F   F
  0.8357909985179504  0.2486426903040595  0.5027096627006316   F   F   F
  0.9997514034712367  0.7507878239737948  0.5065935312376411   F   F   F
  0.0009839378838805  0.2499062464666650  0.5057297426270182   F   F   F
  0.0000515040378630  0.0000135553562259  0.5065325632396380   F   F   F
  0.8333332538436267  0.8749999404036828  0.4070133268666680   F   F   F
  0.0000000000000000  0.6249999999803961  0.4070133268666680   F   F   F
  0.0000000000000000  0.8749999404036828  0.4070133268666680   F   F   F
  0.3333333432766779  0.1249999999871179  0.4070133268666680   F   F   F
  0.3333333432766779  0.3750000000061604  0.4070133268666680   F   F   F
  0.3333333432766779  0.6249999999803961  0.4070133268666680   F   F   F
  0.3333333432766779  0.8749999404036828  0.4070133268666680   F   F   F
  0.6666666865533486  0.1249999999871179  0.4070133268666680   F   F   F
  0.6666666865533486  0.3750000000061604  0.4070133268666680   F   F   F
  0.6666666865533486  0.6249999999803961  0.4070133268666680   F   F   F
  0.8361387871957433  0.5000015995713838  0.5028803399009050   F   F   F
  0.6666666865533486  0.8749999404036828  0.4070133268666680   F   F   F
  0.1666666716383389  0.3750000000061604  0.4070133268666680   F   F   F
  0.1666666716383389  0.6249999999803961  0.4070133268666680   F   F   F
  0.1666666716383389  0.8749999404036828  0.4070133268666680   F   F   F
  0.5000000000021103  0.1249999999871179  0.4070133268666680   F   F   F
  0.5000000000021103  0.3750000000061604  0.4070133268666680   F   F   F
  0.5000000000021103  0.6249999999803961  0.4070133268666680   F   F   F
  0.5000000000021103  0.8749999404036828  0.4070133268666680   F   F   F
  0.8333332538436267  0.1249999999871179  0.4070133268666680   F   F   F
  0.8333332538436267  0.3750000000061604  0.4070133268666680   F   F   F
  0.1666666716383389  0.1249999999871179  0.4070133268666680   F   F   F
  0.0000000000000000  0.3750000000061604  0.4070133268666680   F   F   F
  0.8358873930899833  0.7517910522427442  0.5025464247509746   F   F   F
  0.8369476285707620  0.3728449326083236  0.6042395559040372   F   F   F
  0.8321756763411017  0.8759359264000963  0.6182237091562826   F   F   F
  0.8404625011335369  0.6267758628000308  0.6029431081388879   F   F   F
  0.9991108537015165  0.8747807660492271  0.6218917888338993   F   F   F
  0.3313671011626411  0.1195972795743145  0.6122449884621588   F   F   F
  0.3344052359850522  0.6241237293427417  0.5954503852675970   F   F   F
  0.3263605426319742  0.3734774958250853  0.5927954611447390   F   F   F
  0.6717644349572325  0.3721341334652948  0.5941045482494332   F   F   F
  0.6657581336696978  0.1242932442688272  0.6117147164639718   F   F   F
  0.3343928404482881  0.8787096198228994  0.6029953400545622   F   F   F
  0.1587952313280496  0.6270017534133530  0.6014191351970197   F   F   F
  0.1659374088755925  0.8731339137097152  0.6178831146852772   F   F   F
  0.5024267105349480  0.3709058448413103  0.5952980162016743   F   F   F
  0.5004788722979825  0.1218781335951604  0.6061743093613785   F   F   F
  0.1676591943096284  0.1230386201162901  0.6218033667275336   F   F   F
  0.1634826122253656  0.3714906208400350  0.6077490738179989   F   F   F
  0.6652421718634471  0.8808900902639181  0.6069075944687867   F   F   F
  0.6662838942099683  0.6264412472518543  0.5933136989853409   F   F   F
  0.0000419604810844  0.3750720694345517  0.6225629164224316   F   F   F
  0.9997283348617501  0.6220514986278545  0.6411682501043430   F   F   F
  0.8342575420713487  0.1239908779032532  0.6172254038353202   F   F   F
  0.5003571261043973  0.8765807610208540  0.6094164067837582   F   F   F
  0.0000000000000000  0.1249999999871179  0.4070133268666680   F   F   F
  0.5040126405991856  0.6248092880178078  0.5939103011594682   F   F   F
  0.9164894543935631  0.9999269524910872  0.6038758668620829   F   F   F
  0.5844542491304097  0.7498438339297167  0.5995085223193115   F   F   F
  0.5907474398665187  0.5007679129421518  0.5936528272006356   F   F   F
  0.2424120983802425  0.4979034541627740  0.5940118250325312   F   F   F
  0.2492393173949665  0.7525867225114453  0.5921517495931781   F   F   F
  0.5853124921283097  0.2472641784476863  0.5970168743715476   F   F   F
  0.5826346473195230  0.0008057291778201  0.6042004735639850   F   F   F
  0.2494424770782189  0.9975246938777005  0.6041904071294368   F   F   F
  0.2495304075589928  0.2460865771666363  0.6037609615087192   F   F   F
  0.4170690105288060  0.0000385390754829  0.6046582315882034   F   F   F
  0.4152293702382011  0.2483564175283632  0.5909563288067048   F   F   F
  0.4161232220375553  0.7500157827540193  0.5944459248011924   F   F   F
  0.7564985905542230  0.5028997295910713  0.5950207188834753   F   F   F
  0.7517557782716864  0.7525453314102748  0.5905226465525146   F   F   F
  0.7545760679564637  0.2485684308848448  0.5934506440106304   F   F   F
  0.7498413089352098  0.0015762876810541  0.6041671325459461   F   F   F
  0.0836685507026615  0.2484236356613678  0.6036159002675774   F   F   F
  0.0814038319588022  0.5002587791666855  0.6033594884212832   F   F   F
  0.0802625148501903  0.7508332401091522  0.6032310696702723   F   F   F
  0.0834998205424284  0.9987294090141319  0.6036331473162306   F   F   F