Au O  Sr Ti H 
 1.0000000000000000
    23.6707801818999997    0.0000000000000000    0.0000000000000000
     0.0000000000000000   22.3170261383000010    0.0000000000000000
     0.0000000000000000    0.0000000000000000   30.0000000000000000
 Au  O   Sr  Ti  H  
  50 264  72  72   1
Selective dynamics
Cartesian
 16.9851875735408733 11.7620609528109519 22.6285735049360106   F   F   F
 14.7859363251441369 12.6701382477873867 21.1095083024587993   F   F   F
 17.3497395681436544  5.7219272726453028 20.7885006422885965   F   F   F
  6.9090337765685863 16.6521592261512268 20.9438286119807771   F   F   F
 12.1274246660126721 13.4769019841071636 23.3183040907262153   F   F   F
 13.6616915791064901 16.1708322386775656 23.7779740584220214   F   F   F
 12.9665113917213795  8.7116567557959073 24.9600804668723555   F   F   F
  5.6943330697808321 10.4757459561368478 21.2743938680192244   F   F   F
  6.6939381152502495 14.7668955317976796 22.9660365109193769   F   F   F
 14.1277113252108997  6.6318198262259607 23.6447517292890232   F   F   F
 12.1795278828798104 10.7902973676061169 20.3426800913884023   F   F   F
 13.3219397257435954 10.8681354403249131 22.8730023197829340   F   F   F
 10.9620301709948471 15.5257763854968758 24.8994849021469840   F   F   F
 18.0765078758584785  9.6479697785628851 21.1718457591227214   F   F   F
 17.3742454382378355 13.7469271346182733 20.8111606985956108   F   F   F
 15.0206563854595991 13.0418167342515439 24.0102138539735037   F   F   F
 14.0800376717622040 17.5070014037499355 21.3815938641493481   F   F   F
 11.4601876526112303 17.3870903794218101 22.7181001567077949   F   F   F
  8.2687507773570346 11.1672645540596740 20.9384217140945665   F   F   F
 10.1859716891247682  8.3232226672852629 24.4846362606104577   F   F   F
  8.7382331755411666  6.6975535171069263 22.7096348283642016   F   F   F
 10.1791792691913798  5.0611850180855873 20.9462730630651990   F   F   F
  9.2392666272191892 18.2236602913548644 21.1941314288922911   F   F   F
  6.8284200106526054 11.9980964867692208 23.3394534100176401   F   F   F
 12.9372692462255632  4.7364584172242168 21.2646071350122874   F   F   F
 10.7285356344041816 12.9380263163021390 21.0884402648828342   F   F   F
 14.6006222265774852  7.0815553909173952 20.9095718774014649   F   F   F
 16.7012055889216136 16.9076282209752087 20.6482758577511376   F   F   F
 15.5134945071933625  9.8557492768462343 24.3649415424115858   F   F   F
  8.6969011545295647 13.8170369790173044 24.6054699657890836   F   F   F
 13.4637920637009234 11.4331639743818378 25.7232881775155029   F   F   F
 15.4710336573592517  4.5835179645689221 22.3788209105932978   F   F   F
 11.0965102217325811 10.1207522544268311 26.4489563738850393   F   F   F
 12.2817670478526679  8.4166463454778047 22.0307605269727631   F   F   F
  6.6772625037405122  7.5925727158280107 21.0815888293689788   F   F   F
 15.8509110147669414 15.2000214718046642 22.4612993777625860   F   F   F
  9.4163990833612008  8.5263331901817487 20.7261537612132081   F   F   F
  8.8843100935707966 11.0163066755406760 24.9843259688761599   F   F   F
 10.9331024849103162 12.8379737758035315 25.9271917544288826   F   F   F
  7.6979243982274665  9.2695871250894921 23.0895461452883026   F   F   F
 11.4327424907763397  5.9994594757424577 23.2296970344218821   F   F   F
 10.0298203601640274 15.5774715816270444 20.9820829996262610   F   F   F
 16.6040446727930515  7.6774966403920741 22.6999614709203570   F   F   F
 18.3025620913112803  9.5836476552215615 23.8741560039839520   F   F   F
  6.0635230527991304 13.2261797089465976 20.8416866849365157   F   F   F
 15.3368526852052156  9.8638130915310569 20.8787874117617065   F   F   F
 13.3690905292515474 14.3074392759311433 25.8548618701043900   F   F   F
 12.8867728833169117 14.8346363446861886 21.0469801333254338   F   F   F
 10.5009018845079396 10.5693240528819867 22.6774323756870722   F   F   F
  8.8262903761996103 16.4754368484992675 23.3397421062981643   F   F   F
  5.9149167757867520  4.2061963419886075 13.6228449547369159   F   F   F
 17.7408099911319255 20.9423618509981146 13.6589457134080519   F   F   F
 17.7310036033712635 15.3684366082089685 13.7197518135030680   F   F   F
 17.7452317937279744  9.7852717142928132 13.6736998533720175   F   F   F
 17.7689367369768334  4.2318436339083938 13.6653389702611463   F   F   F
  9.8839114435855251 20.8819739061657081 13.6172477759796600   F   F   F
  9.8687262471351715 15.2784136490242854 13.6449186130070199   F   F   F
  9.8771103767551889  9.7204044846571929 13.6261494728700505   F   F   F
  2.0009462242726852 15.3283520139512905 13.5899098255334732   F   F   F
  1.9883481900492197 20.9042523248425276 13.6045419097767599   F   F   F
  1.9629832561611720  9.7495560688138241 13.5884879435643242   F   F   F
  1.9857549419408320  4.1644592902161710 13.5891411795932324   F   F   F
 21.6964351197629064 18.1224386583802755 13.6228476201647730   F   F   F
 21.6862546982078825 12.5508213439643210 13.6143969750838050   F   F   F
  5.9458828108463120  9.8029061092957352 13.6478513655273961   F   F   F
 21.6852403823380513  1.3873411696102727 13.6227198821590658   F   F   F
 21.6894443386808931  6.9686252335611272 13.6147839715486505   F   F   F
  9.8774237115734067  4.1745914833074087 13.6046811362817444   F   F   F
  5.9752695295531337 15.3387474986757582 13.6841028584637474   F   F   F
 21.6952653270925673 20.9087517170470711 13.6029896306856966   F   F   F
 13.7931842746877642  4.2323649777543624 13.6596011269393589   F   F   F
  0.0033822935346897  2.7907703738397180 14.9493137522753319   F   F   F
 13.8153833968493363 18.0777524655874267 13.6643150160470626   F   F   F
  0.0030077565813975  8.3399704075535048 14.9499443387868602   F   F   F
 23.6681998971196812 13.9972577728481937 14.9298968993144108   F   F   F
  7.9007508147095642  2.8068130105600138 14.9555341865037299   F   F   F
  0.0011954682324120 19.5301938513141522 14.9860387254659706   F   F   F
  7.8957175874476766 19.5004921108831297 14.9675940636916032   F   F   F
 15.7683608273319500  2.8193587990514244 14.9720985920542198   F   F   F
  7.9487050341678076 13.9522013578482582 15.1322254695936937   F   F   F
  7.9167849199014979  8.4460607422637910 15.0903186599359493   F   F   F
 15.7537984678555745  8.4604829061713378 15.0911879737281360   F   F   F
 21.6669208161013529 15.3248740773887633 13.5895250765375035   F   F   F
 21.6790343757120887  9.7543610838715988 13.6096628183820485   F   F   F
 21.6792256825838905  4.1696630163596655 13.5937932203239953   F   F   F
 13.7942055529509666 20.9032940841405797 13.6213143025294467   F   F   F
 13.7944396547050996 15.3090759027933032 13.6379680644542614   F   F   F
 13.7863197079767410  9.7934827599462899 13.6879145306537549   F   F   F
  5.9173640750023404 20.8890154562487496 13.6217194516632478   F   F   F
 15.7511257810978620 13.9665239898923019 15.0888837215509710   F   F   F
 13.8385739541294566 12.5525061877046884 13.6521030058425055   F   F   F
 13.8039583650527096  1.4056928385611858 13.6297386828721674   F   F   F
 21.6982156369999721 15.3429554700000619 10.8156001569999933   F   F   F
 21.6982156369999721  9.7636982699999884 10.8156001569999933   F   F   F
 21.6982156369999721  4.1844424010000720 10.8156001569999933   F   F   F
 13.8079546360000549 20.9222120050000342 10.8156001569999933   F   F   F
 13.8079546360000549 15.3429554700000619 10.8156001569999933   F   F   F
 13.8079546360000549  9.7636982699999884 10.8156001569999933   F   F   F
 13.8079546360000549  4.1844424010000720 10.8156001569999933   F   F   F
  5.9176950450000287 20.9222120050000342 10.8156001569999933   F   F   F
 21.6982156369999721 20.9222120050000342 10.8156001569999933   F   F   F
  5.9176950450000287 15.3429554700000619 10.8156001569999933   F   F   F
  5.9176950450000287  4.1844424010000720 10.8156001569999933   F   F   F
 17.7530837259999217 20.9222120050000342 10.8156001569999933   F   F   F
 17.7530837259999217 15.3429554700000619 10.8156001569999933   F   F   F
 17.7530837259999217  9.7636982699999884 10.8156001569999933   F   F   F
 17.7530837259999217  4.1844424010000720 10.8156001569999933   F   F   F
  9.8628241350000643 20.9222120050000342 10.8156001569999933   F   F   F
  9.8628241350000643 15.3429554700000619 10.8156001569999933   F   F   F
  9.8628241350000643  9.7636982699999884 10.8156001569999933   F   F   F
  5.9176950450000287  9.7636982699999884 10.8156001569999933   F   F   F
  1.9725650740000149  1.3948141340000613 10.8156001569999933   F   F   F
  1.9725650740000149  6.9740706679999214 10.8156001569999933   F   F   F
  1.9725650740000149 12.5533272030000536 10.8156001569999933   F   F   F
 21.6982156369999721  6.9740706679999214 10.8156001569999933   F   F   F
 21.6982156369999721  1.3948141340000613 10.8156001569999933   F   F   F
 13.8079546360000549 18.1325837370000720 10.8156001569999933   F   F   F
 13.8079546360000549 12.5533272030000536 10.8156001569999933   F   F   F
 13.8079546360000549  6.9740706679999214 10.8156001569999933   F   F   F
 13.8079546360000549  1.3948141340000613 10.8156001569999933   F   F   F
  5.9176950450000287 18.1325837370000720 10.8156001569999933   F   F   F
  5.9176950450000287 12.5533272030000536 10.8156001569999933   F   F   F
  5.9176950450000287  6.9740706679999214 10.8156001569999933   F   F   F
  5.9176950450000287  1.3948141340000613 10.8156001569999933   F   F   F
 17.7530837259999217 18.1325837370000720 10.8156001569999933   F   F   F
 17.7530837259999217 12.5533272030000536 10.8156001569999933   F   F   F
 17.7530837259999217  6.9740706679999214 10.8156001569999933   F   F   F
 17.7530837259999217  1.3948141340000613 10.8156001569999933   F   F   F
  9.8628241350000643 18.1325837370000720 10.8156001569999933   F   F   F
  9.8628241350000643 12.5533272030000536 10.8156001569999933   F   F   F
  9.8628241350000643  6.9740706679999214 10.8156001569999933   F   F   F
  9.8628241350000643  1.3948141340000613 10.8156001569999933   F   F   F
  1.9725650740000149 18.1325837370000720 10.8156001569999933   F   F   F
  9.8628241350000643  4.1844424010000720 10.8156001569999933   F   F   F
  1.9725650740000149 20.9222120050000342 10.8156001569999933   F   F   F
  1.9725650740000149 15.3429554700000619 10.8156001569999933   F   F   F
  1.9725650740000149  9.7636982699999884 10.8156001569999933   F   F   F
 19.7256482699999580 11.1585130689999925 12.2103998060000407   F   F   F
 19.7256482699999580 16.7377696039999648 12.2103998060000407   F   F   F
  1.9829155410855281  1.3802781218860170 13.6248128340894858   F   F   F
  1.9767121711943811  6.9640396417357877 13.6190814431867633   F   F   F
  1.9875181670010389 12.5527933144952488 13.6161925003412509   F   F   F
  1.9765783192862247 18.1241561358365679 13.6251060626903033   F   F   F
  9.8707463789882315  1.3737150666677460 13.6599887867054814   F   F   F
  9.8372277714669583  6.9487145414261180 13.7208682296221767   F   F   F
  9.8486092364463236 12.4863638986264700 13.7366868996855658   F   F   F
  9.8625773649144364 18.0720346077604468 13.6542996702092783   F   F   F
 17.7422509232491663  1.4279672182133760 13.6015565708689738   F   F   F
 17.6932089002993820  7.0115616483288115 13.6356526694774214   F   F   F
 17.7087593771649452 12.5944220541164551 13.6097297728443216   F   F   F
 17.7399818119215489 18.1474728670839411 13.5915978930725938   F   F   F
  5.9300344328842085  1.3840791365663243 13.6270143759113722   F   F   F
 21.6791023910435676  6.9853890604368596 16.3998860503299717   F   F   F
  5.9717173422309253  7.0105513246527655 13.6246322202036172   F   F   F
  5.9637724055621879 12.5989748217456228 13.6157708520645624   F   F   F
  5.9232131081967720 18.0880915360028069 13.6646102176531858   F   F   F
 19.7256482699999580  5.5792565349999723 12.2103998060000407   F   F   F
 13.8295622906365860  7.0222316809783836 13.6280995452550986   F   F   F
 19.7256482699999580  0.0000000000000000 12.2103998060000407   F   F   F
 11.8353900909999528 11.1585130689999925 12.2103998060000407   F   F   F
  1.9725650740000149  4.1844424010000720 10.8156001569999933   F   F   F
  0.0000000000000000  0.0000000000000000 12.2103998060000407   F   F   F
  0.0000000000000000  5.5792565349999723 12.2103998060000407   F   F   F
  0.0000000000000000 11.1585130689999925 12.2103998060000407   F   F   F
  0.0000000000000000 16.7377696039999648 12.2103998060000407   F   F   F
  7.8902602960000570  0.0000000000000000 12.2103998060000407   F   F   F
  7.8902602960000570  5.5792565349999723 12.2103998060000407   F   F   F
  7.8902602960000570 11.1585130689999925 12.2103998060000407   F   F   F
  7.8902602960000570 16.7377696039999648 12.2103998060000407   F   F   F
 15.7805205919999434  0.0000000000000000 12.2103998060000407   F   F   F
 15.7805205919999434  5.5792565349999723 12.2103998060000407   F   F   F
 15.7805205919999434 11.1585130689999925 12.2103998060000407   F   F   F
 15.7805205919999434 16.7377696039999648 12.2103998060000407   F   F   F
  3.9451301480000271  0.0000000000000000 12.2103998060000407   F   F   F
  3.9451301480000271  5.5792565349999723 12.2103998060000407   F   F   F
  3.9451301480000271 11.1585130689999925 12.2103998060000407   F   F   F
  3.9451301480000271 16.7377696039999648 12.2103998060000407   F   F   F
 11.8353900909999528  0.0000000000000000 12.2103998060000407   F   F   F
 11.8353900909999528  5.5792565349999723 12.2103998060000407   F   F   F
 11.8353900909999528 16.7377696039999648 12.2103998060000407   F   F   F
  3.9558316492219028  2.7747208957610123 14.9822105880484528   F   F   F
 21.7221694214218388  1.4158960516991501 16.4247875462477140   F   F   F
  3.9712262082750907 19.4884595012985500 14.9978396792378650   F   F   F
  5.9647320572846523  4.2008421244781839 16.4170180397940371   F   F   F
 17.7390291501996877 20.8476067108658754 16.4271214957768201   F   F   F
 17.7955939695831482 15.1837387581720780 16.5910196899013229   F   F   F
 17.8188997588712326  9.6954211786839117 16.4907597144306237   F   F   F
 10.0186377433049909  9.8952443173209552 16.3836737811554585   F   F   F
 10.0205279707448049 15.3503033163859577 16.4021992573233426   F   F   F
 17.7280293601144265  4.1052282834773539 16.5089023417130250   F   F   F
  9.8457507863113509 20.9107937296991686 16.3783472818430127   F   F   F
  1.9793082124907126 20.9548453801914789 16.3711343289568347   F   F   F
  9.8508447279278375  4.2737242471936048 16.3886486029126281   F   F   F
  2.0537568283316006 15.3948768642441181 16.3526047934746295   F   F   F
  1.9573699552405908  9.7882840639631059 16.3556759157592317   F   F   F
  1.9843268242937764  4.2173564861735517 16.3685354727541394   F   F   F
 11.8259637819125345  2.8019266450284679 14.9853133549897830   F   F   F
 23.6627428978806513 11.1483608826631215 17.8325447894073648   F   F   F
 23.6586290400140555 16.8179782919437422 17.7671940399874835   F   F   F
  7.9242854175020012  5.6803450234954154 17.7773863585483021   F   F   F
  7.9061669259771463 22.3118186728413122 17.7601459827048878   F   F   F
 23.6668760849334632 22.2926386026012082 17.7883392385811980   F   F   F
  0.0245185630759568  5.5847492704708479 17.7457786130741439   F   F   F
  7.8918838098252593 11.0780174987775393 17.7346761661391739   F   F   F
  7.9495896157757802 16.5186779251414961 17.7217166620469442   F   F   F
 15.7222925251894754  5.4929637202564390 17.7373074015555154   F   F   F
 15.7618442342676239  0.0071446557068047 17.7574615312781603   F   F   F
 15.7633094510722298 16.5553483054185158 17.7009198160095274   F   F   F
 15.7889845842994863 11.0174913857812946 17.7419694798079064   F   F   F
  3.9627912197554207 22.2820945192663658 17.7662882052528595   F   F   F
  3.9908206333205634  5.5632001419766262 17.7982195282698719   F   F   F
  4.0426544930446999 16.7389468392155578 17.8521387002402392   F   F   F
  5.8801364997717878  9.7287752393394307 16.4757020803874319   F   F   F
  3.9184756488272319 11.2274735403295001 17.6303415955137943   F   F   F
  5.8979921244198499 15.2494663487283635 16.5611535847489826   F   F   F
 13.7477195067885472  4.1389445348629703 16.4939596467740834   F   F   F
 21.6682295582117348 18.1457485898980337 16.4094767436462519   F   F   F
 21.7009184848562562 12.5763501102368700 16.3953835614968959   F   F   F
 13.7625937923401160 12.4989143516457837 16.4837369246877437   F   F   F
 13.8763405205310697 18.1835069539323193 16.5160970546334767   F   F   F
 13.8259710865699095  6.9397234851644471 16.3719812339965820   F   F   F
 13.7977074626756426  1.3957742244745304 16.3834503837787899   F   F   F
  5.9997631251661545 18.1383375902354587 16.5342312384943853   F   F   F
  5.9746797971000012 12.4762445375826196 16.3245995544965652   F   F   F
  5.9037364783807584  7.0034207918261080 16.3789485599186051   F   F   F
  5.9526717525492883  1.3966196652174039 16.4140152577556115   F   F   F
 17.7165417483988890 18.0383307909787938 16.3695459605177334   F   F   F
 17.6713761513718843 12.4425558237600864 16.3339701361473040   F   F   F
  9.8080774320643531 18.1139139485390750 16.4401196164720282   F   F   F
 17.7136934135297182  1.3347155551351060 16.3368785360279318   F   F   F
 17.6939884195972823  6.9446347409068121 16.4225031629899050   F   F   F
  9.8467918904091380  7.1265180601874967 16.5779867578843536   F   F   F
  9.9511584132416022 12.6000355632673191 16.6668503351950008   F   F   F
  9.8589027889575629  1.4602991538123065 16.4192190627847374   F   F   F
  2.0085572331375507 18.1425360965689819 16.4200256424373663   F   F   F
  1.9539202128846194 12.5925156205029438 16.3885131582043044   F   F   F
  2.0504176325151207  6.9966300151308518 16.4084857647245812   F   F   F
  1.9469917158980430  1.4121803180566594 16.4273787045778619   F   F   F
 21.6775122558374420 20.9493407763832700 16.3853781713054367   F   F   F
 21.6175110914771338 15.3869309340964797 16.3491209108923456   F   F   F
 13.8145240166220340 20.9364777445996069 16.3717556336346810   F   F   F
 21.7081421173546580  4.2179340989516119 16.3560879015336376   F   F   F
 21.6793456253387298  9.7677103091050572 16.3749082218481590   F   F   F
 13.6509672076215516  9.7237332631722762 16.5649827781446817   F   F   F
 13.7176152165398211 15.3192359455696696 16.4147703313499136   F   F   F
  5.9553571759813027 20.9176432955655578 16.3548238782183084   F   F   F
 11.7772798116399393 11.2537236900529418 18.2745408864686461   F   F   F
 11.8073249356793966  5.6496533557427338 17.7337443506239794   F   F   F
 11.8269458259553382  0.0011222337635866 17.7297105547996594   F   F   F
 17.8472396352112419 15.4830574207091267 19.7115272666429924   F   F   F
 17.7182871345566255 20.9022090652393899 19.1977385067992685   F   F   F
  6.0018150333661096  4.1626247543688688 19.2351413270619389   F   F   F
 17.7366815731964067  4.2970579602954952 19.3434122336714687   F   F   F
 17.8863307710388639  9.7309757691520158 19.1809693371794800   F   F   F
  9.8789996837596092 20.8667798485810394 19.1931620375797003   F   F   F
  9.9825277532643266 15.0848683496486018 19.0107704463956253   F   F   F
 13.9916084944292880 18.0755894532795409 19.3793179192546745   F   F   F
 21.6899423035723871  1.3946282511593548 19.2453467774940705   F   F   F
 21.6076883148537142 12.5341053451020716 19.2701740178328436   F   F   F
 21.6633041337552505  6.9628426919127158 19.1869504533564132   F   F   F
 21.6345430318254799 18.1370957775718473 19.2483113747358985   F   F   F
 13.7850293308261413  1.4644238190910890 19.1817907357835367   F   F   F
 13.8485861181151080  7.1377006528757452 19.0203409029048984   F   F   F
 14.0016822617306502 12.5938569835756766 19.1884506966047965   F   F   F
  5.8611592444217573 12.8099686697783302 18.8643144654086434   F   F   F
  6.2046181629569324 17.8284282985645817 19.4025804597681919   F   F   F
  5.9113360020413088  7.0630277536321779 19.2425130384430076   F   F   F
  5.9378662147654557  1.3268170929597090 19.2616470811692828   F   F   F
 21.6982156369999721 12.5533272030000536 10.8156001569999933   F   F   F
 11.8284463580133856  8.3267763984969783 15.0220676147529382   F   F   F
 11.8371439412527071 19.4780425347505179 15.0248863142802733   F   F   F
 11.8452424183485778 13.8559440170922841 15.0040710154332064   F   F   F
 19.7009081534814214 13.9050676271556082 14.9988564206168427   F   F   F
 19.7127437658223101 19.5178477487083306 14.9557643444817359   F   F   F
 19.7086039190849576  8.3262279457783546 14.9888421605110498   F   F   F
 19.7168783012074158  2.7766871452424149 14.9916982343315901   F   F   F
  3.9483901324863777  8.3968728601087008 14.9327459077768019   F   F   F
  3.9727156026885795 13.9332682256779119 15.0001533766969004   F   F   F
 13.7610163900400782  9.7745795185848099 19.3826008090464939   F   F   F
 13.7272180504203476 15.2897788648689872 19.1685279819682002   F   F   F
 21.6993684978760726  4.1665819021287680 19.1956309224268402   F   F   F
 13.7713323918238419 20.8717880736150470 19.1718336045806055   F   F   F
 19.6582527430492107 16.7522591727515895 17.7836214100365986   F   F   F
 19.6992567820914317  5.5649037332258953 17.7104550946146695   F   F   F
 19.7257631323231450 11.2348913224410900 17.6777785782445136   F   F   F
 19.7039400681808061  0.0403242501285773 17.7678273973587650   F   F   F
 11.8655017193412231 16.8833415749918032 17.7895203392960717   F   F   F
  9.8872004879172888  1.4542616342134227 19.2000152081475655   F   F   F
 10.0928274994922962  6.7920254341685382 19.6855946107321174   F   F   F
  9.7555965653822501 18.1356139451703662 19.1898705612365994   F   F   F
  9.4143190915290162 12.2855755080403579 19.5715969369931528   F   F   F
 17.8104123194647563 12.7401474622876218 19.0292430762775346   F   F   F
 17.5408824829875698 18.0776750218512312 19.1977489570257482   F   F   F
 17.7064648898912544  6.9634751164044415 19.2166874821664315   F   F   F
 17.7012637694017307  1.4922945129472382 19.1695231447883572   F   F   F
  1.9813016108012089  6.9632437652336696 19.2151247190027021   F   F   F
 15.7786361462431977 19.5165031177794148 14.9674795427255880   F   F   F
  2.0617335470729805 12.5365544471849688 19.2548872847576931   F   F   F
  1.9895795509556491  1.3568844332838463 19.2564791974245182   F   F   F
  2.0586246140053284  9.7432709023791073 19.1856964245541199   F   F   F
  1.9753704102504601  4.1494327120639936 19.2287516501717590   F   F   F
  9.8824896150347037  4.1648993100552811 19.1726674627215097   F   F   F
  9.8344133456552445  9.3303570770770943 18.9058035947432437   F   F   F
  1.9945328297286222 20.8784910509527286 19.2182045053751160   F   F   F
  1.9664375172673001 15.3340977508538838 19.1921454172547463   F   F   F
 21.6018342097936262  9.7343213285602523 19.1913506607224456   F   F   F
 21.6918006970632895 15.3416996546898599 19.1887070988196697   F   F   F
 21.6507980516215035 20.9051193020411539 19.2287045337190925   F   F   F
  5.6999853543516981  9.8663143853721120 19.2523726061793319   F   F   F
  6.0185034910366717 15.1123041290307647 19.9061878420735674   F   F   F
 13.7138759797938974  4.2617946295530160 19.3605459181560029   F   F   F
  5.9615222149298912 20.7568264700170033 19.1211355028677694   F   F   F
  1.9887354925425902 18.1193792033658632 19.2564096940676244   F   F   F
 21.6982156369999721 18.1325837370000720 10.8156001569999933   F   F   F
  0.0153585553866597  2.7441553337722921 18.5758583220510616   F   F   F
 19.7256482699999580 13.9481413360000008 12.2103998060000407   F   F   F
 23.6648797621921787 11.1770512293721911 15.2140190887631661   F   F   F
  7.8408936589960083 11.1404611464139300 15.0327957036404776   F   F   F
  7.8170679488923627  5.5382582990849798 15.0850343718045306   F   F   F
  7.8852950971228637  0.0232284803181713 15.1721659445879151   F   F   F
  7.9012152447152086 16.7602804043146527 15.0492998787023176   F   F   F
 15.7647722397147518  0.0016661718483760 15.1660610143606629   F   F   F
 15.8262163722787221 11.1533982578049375 15.0181528186850635   F   F   F
 15.7958649080516693  5.5268578431060806 15.0857882831321390   F   F   F
 15.7518310509340225 16.7807563079904298 15.0650134431560154   F   F   F
  3.9303322238432612  0.0269625213458005 15.1946487925358671   F   F   F
  3.9409994717736883  5.5418317227520175 15.1882005167190783   F   F   F
  3.8692209809426146 11.1566844973157338 15.0639135379518727   F   F   F
 11.8411678382663954 22.3011989425710269 15.1641916705116735   F   F   F
  3.8911840519636778 16.7713832267558622 15.0997462981131836   F   F   F
 11.8590646399079791 16.7989653933884533 15.1190264721139904   F   F   F
 19.7466320936776967  0.0065790029815679 15.1936898975698611   F   F   F
 11.8665416919576803 11.1504077140875815 15.0129930912511114   F   F   F
 11.8732437778464206  5.5329478349858139 15.0638180690671479   F   F   F
 19.7838250039290706  5.5489654186128634 15.0812898810188596   F   F   F
 23.6648957081136828 16.7553514919405195 15.1978059371292993   F   F   F
  0.0232905773619555  5.5771642345210610 15.1718922788105495   F   F   F
  0.0012191407587637  0.0003025152391404 15.1959768971890981   F   F   F
 19.7256482699999580 19.5273965409999306 12.2103998060000407   F   F   F
  0.0000000000000000 13.9481413360000008 12.2103998060000407   F   F   F
  0.0000000000000000 19.5273965409999306 12.2103998060000407   F   F   F
  7.8902602960000570  2.7896282670000101 12.2103998060000407   F   F   F
  7.8902602960000570  8.3688848019999824 12.2103998060000407   F   F   F
  7.8902602960000570 13.9481413360000008 12.2103998060000407   F   F   F
  7.8902602960000570 19.5273965409999306 12.2103998060000407   F   F   F
 15.7805205919999434  2.7896282670000101 12.2103998060000407   F   F   F
 15.7805205919999434  8.3688848019999824 12.2103998060000407   F   F   F
 15.7805205919999434 13.9481413360000008 12.2103998060000407   F   F   F
 19.7920574332709016 11.1585487668263230 15.0864101970271793   F   F   F
 15.7805205919999434 19.5273965409999306 12.2103998060000407   F   F   F
  3.9451301480000271  8.3688848019999824 12.2103998060000407   F   F   F
  3.9451301480000271 13.9481413360000008 12.2103998060000407   F   F   F
  3.9451301480000271 19.5273965409999306 12.2103998060000407   F   F   F
 11.8353900909999528  2.7896282670000101 12.2103998060000407   F   F   F
 11.8353900909999528  8.3688848019999824 12.2103998060000407   F   F   F
 11.8353900909999528 13.9481413360000008 12.2103998060000407   F   F   F
 11.8353900909999528 19.5273965409999306 12.2103998060000407   F   F   F
 19.7256482699999580  2.7896282670000101 12.2103998060000407   F   F   F
 19.7256482699999580  8.3688848019999824 12.2103998060000407   F   F   F
  3.9451301480000271  2.7896282670000101 12.2103998060000407   F   F   F
  0.0000000000000000  8.3688848019999824 12.2103998060000407   F   F   F
 19.7861067386544356 16.7777405634413519 15.0763927425292437   F   F   F
 19.8112033396609952  8.3207901065526109 18.1271866771211450   F   F   F
 19.6982475073941217 19.5482849649470403 18.5467112746884482   F   F   F
 19.8944031154617669 13.9877733129638759 18.0882932441665680   F   F   F
 23.6497333953191067 19.5225052212027030 18.6567536650169643   F   F   F
  7.8437178111343213  2.6690556143295070 18.3673496538648422   F   F   F
  7.9156328326785541 13.9285855812751986 17.8635115580278097   F   F   F
  7.7252086646870195  8.3349070363953341 17.7838638343420961   F   F   F
 15.9011882738909360  8.3049271834985454 17.8231364474829590   F   F   F
 15.7590144364073517  2.7738555811614631 18.3514414939191646   F   F   F
  7.9153394206525691 19.6101855535632623 18.0898602016368777   F   F   F
  3.7588070147002961 13.9928145196857248 18.0425740559106522   F   F   F
  3.9278679294482854 19.4857523744959487 18.5364934405582815   F   F   F
 11.8928322225879004  8.2775154341717982 17.8589404860502761   F   F   F
 11.8467253718508232  2.7199574931304253 18.1852292808413800   F   F   F
  3.9686239339776845  2.7458561011555882 18.6541010018259144   F   F   F
  3.8697609775494550  8.2905658954203325 18.2324722145399569   F   F   F
 15.7468012179094003 19.6588471693893325 18.2072278340635769   F   F   F
 15.7714595985843928 13.9803056890289028 17.7994109695603342   F   F   F
  0.0009932373240898  8.3704931773170923 18.6768874926729147   F   F   F
 23.6643496561293567 13.8823395542465384 19.2350475031302608   F   F   F
 19.7475268934630250  2.7671076630777414 18.5167621150596702   F   F   F
 11.8438435444644572 19.5626757560332862 18.2824922035126889   F   F   F
  0.0000000000000000  2.7896282670000101 12.2103998060000407   F   F   F
 11.9303724245222060 13.9438852121460002 17.8173090347840564   F   F   F
 21.6940204139795512 -0.0016302031657223 18.1162760058625310   F   F   F
 13.8344880575433233 16.7342844414525089 17.9852556695792920   F   F   F
 13.9834527921006160 11.1756506023519329 17.8095848160191679   F   F   F
  5.7380834941918755 11.1117244009005098 17.8203547509759055   F   F   F
  5.8996890947430733 16.7954975576254881 17.7645524877953207   F   F   F
 13.8548033388892229  5.5182011334822842 17.9105062311464636   F   F   F
 13.7914166630592252  0.0179814791218490 18.1260142069195602   F   F   F
  5.9044980429471279 22.2617846668684116 18.1257122138830731   F   F   F
  5.9065794260288174  5.4919205749126814 18.1128288452615251   F   F   F
  9.8723488689098424  0.0008600775548956 18.1397469476461417   F   F   F
  9.8288031479771814  5.5425766615950653 17.7286898642011863   F   F   F
  9.8499613174348948 16.7381218278590538 17.8333777440358432   F   F   F
 17.9069118449262064 11.2232264102279586 17.8506215665042127   F   F   F
 17.7946457779422182 16.7945738313387132 17.7156793965753678   F   F   F
 17.8614042351198208  5.5473081692132480 17.8035193203188769   F   F   F
 17.7493287951135379  0.0351780533795089 18.1250139763784439   F   F   F
  1.9804998718208127  5.5440767704261873 18.1084770080273856   F   F   F
  1.9268922122611707 11.1642882505769379 18.1007846526385627   F   F   F
  1.8998763458652821 16.7563650450203596 18.0969320901080906   F   F   F
  1.9765058972879350 22.2886703260572432 18.1089944194869048   F   F   F