Au O  Sr Ti H                           
   1.00000000000000     
    23.6707801818999997    0.0000000000000000    0.0000000000000000
     0.0000000000000000   22.3170261383000010    0.0000000000000000
     0.0000000000000000    0.0000000000000000   30.0000000000000000
   Au   O    Sr   Ti   H 
    50   264    72    72     1
Selective dynamics
Direct
  0.7166424689538715  0.5234708668951598  0.7520843778422019   F   F   F
  0.6241305958121544  0.5672362118784804  0.7034177984385366   F   F   F
  0.7191522860614512  0.2594304887476113  0.6917873226274978   F   F   F
  0.2884145942072749  0.7448676874212623  0.6993049961280988   F   F   F
  0.5138656941337274  0.6046656247980309  0.7768656653728456   F   F   F
  0.5771026012120686  0.7252995043630293  0.7925837817803298   F   F   F
  0.5509444162696937  0.3848314026132229  0.8302458511750501   F   F   F
  0.2425373782218330  0.4663275707033634  0.7092977486940910   F   F   F
  0.2832305161740649  0.6600792882982418  0.7659550049691504   F   F   F
  0.6019144061433011  0.2889182963036276  0.7886713874516644   F   F   F
  0.5149632375892921  0.4826358077839430  0.6780295073233447   F   F   F
  0.5614401196019045  0.4870422379093995  0.7626869986054601   F   F   F
  0.4636754348862624  0.6953754233356690  0.8299504560201001   F   F   F
  0.7676674358337934  0.4299291533293186  0.7052112064815361   F   F   F
  0.7340750616233862  0.6152205509481377  0.6943436002865511   F   F   F
  0.6368582664625677  0.5832396434611411  0.8000059422369290   F   F   F
  0.5948686256404159  0.7849135269437681  0.7125843107286585   F   F   F
  0.4835346451626492  0.7797537730118052  0.7574380363118820   F   F   F
  0.3496632917371798  0.5013817458972980  0.6973401076318240   F   F   F
  0.4309266148180768  0.3720900650916619  0.8159602794672125   F   F   F
  0.3729371721215458  0.2986368246308828  0.7559207923854956   F   F   F
  0.4405398740049336  0.2286182136276764  0.6971241427663202   F   F   F
  0.3874713505747707  0.8139120559759050  0.7062122176661134   F   F   F
  0.2901087452813869  0.5359249272438120  0.7778857458361443   F   F   F
  0.5547753911385271  0.2066751635250412  0.7116859842956771   F   F   F
  0.4545313602573486  0.5798063184823761  0.7027929925916467   F   F   F
  0.6118443271476650  0.3176771834949363  0.6981811637549669   F   F   F
  0.7057190961387718  0.7577115173518791  0.6884459135852268   F   F   F
  0.6573518700364573  0.4413777411709106  0.8103073440928341   F   F   F
  0.3683281227561750  0.6187022080710349  0.8204543807305953   F   F   F
  0.5723573918454790  0.5098232109858643  0.8577066221000393   F   F   F
  0.6639434345393909  0.1949527018643948  0.7521382560684913   F   F   F
  0.4726002710907764  0.4520611832096506  0.8789977579772525   F   F   F
  0.5158918796520098  0.3772543067865186  0.7347958872081577   F   F   F
  0.2838941976737317  0.3373866361670750  0.7026614468427681   F   F   F
  0.6694865866532353  0.6812169701526543  0.7487374851640638   F   F   F
  0.3976902072056632  0.3821632684723824  0.6904393172801235   F   F   F
  0.3760742492885285  0.4922909630393946  0.8337944413090170   F   F   F
  0.4633870654399033  0.5740734655147719  0.8635892537780308   F   F   F
  0.3266889402501576  0.4134945445425160  0.7696945050241766   F   F   F
  0.4873295557988016  0.2681707221985050  0.7752686886501508   F   F   F
  0.4294347102557126  0.6992435576240510  0.6988795849842404   F   F   F
  0.6992925366182519  0.3470155583132737  0.7557335973644896   F   F   F
  0.7769436197958512  0.4289531611157145  0.7959916872278043   F   F   F
  0.2562052387954949  0.5914738426969137  0.6949128270925371   F   F   F
  0.6477702613924379  0.4399237088496619  0.6982402302212947   F   F   F
  0.5655699045781333  0.6393449389688755  0.8604718461357237   F   F   F
  0.5468095818950474  0.6647432151528747  0.7014400360002782   F   F   F
  0.4426737567678245  0.4744235584996375  0.7561293328769736   F   F   F
  0.3727495346332432  0.7369202625295586  0.7781554222036320   F   F   F
  0.2499617343389318  0.1886572256327455  0.4542738754154598   F   F   F
  0.7494171859626775  0.9384587153348392  0.4553127521896627   F   F   F
  0.7489856578728222  0.6886467892655048  0.4572686736015896   F   F   F
  0.7494628145943665  0.4383550658254833  0.4557933872915640   F   F   F
  0.7501409067060223  0.1896579633724258  0.4556095633721782   F   F   F
  0.4174461846859998  0.9357331834208722  0.4540485430107566   F   F   F
  0.4169120353237901  0.6845864081833142  0.4548030026739482   F   F   F
  0.4167987373582349  0.4354030147919445  0.4538590444666397   F   F   F
  0.0843525925950814  0.6869235234734674  0.4531012046116061   F   F   F
  0.0838830818987049  0.9366676765857349  0.4534610012038058   F   F   F
  0.0831752160769454  0.4370922490974678  0.4531357284922706   F   F   F
  0.0838806300011257  0.1866066295338129  0.4529827364878258   F   F   F
  0.9165340067083676  0.8120405296528403  0.4540664931367644   F   F   F
  0.9161368745455931  0.5624010173423883  0.4537509480916242   F   F   F
  0.2512018251006936  0.4393966130963776  0.4550304887610750   F   F   F
  0.9161287942982810  0.0621269910310929  0.4541035182287558   F   F   F
  0.9163103857277122  0.3122403979392416  0.4538253668858374   F   F   F
  0.4170691420944905  0.1871326365318495  0.4536391502934265   F   F   F
  0.2524468430906168  0.6873033048899444  0.4560467937577499   F   F   F
  0.9168067446381798  0.9367733927763311  0.4532474915590896   F   F   F
  0.5826123787652406  0.1890521188582710  0.4550970075260068   F   F   F
  0.0001015474380068  0.1250982341136861  0.4984063296329992   F   F   F
  0.5837025855771287  0.8099606313582939  0.4554104040178544   F   F   F
  0.0000128739923824  0.3736493162160315  0.4985537702793224   F   F   F
  0.9997235178870625  0.6269607859307484  0.4976923310031083   F   F   F
  0.3334615914425072  0.1250943953788308  0.4983566830246033   F   F   F
  0.0000408247199530  0.8749774838608388  0.4994884851592971   F   F   F
  0.3334739455837052  0.8737852899526573  0.4988079035013655   F   F   F
  0.6659467025388892  0.1257791985485426  0.4992602978605731   F   F   F
  0.3357324280245493  0.6250385834223593  0.5043090277271034   F   F   F
  0.3343585850789879  0.3785831182581774  0.5029885892684192   F   F   F
  0.6655118650405996  0.3785546060191791  0.5033005079760073   F   F   F
  0.9153366751650012  0.6866789160716849  0.4529876931268149   F   F   F
  0.9161603703996306  0.4370111135044823  0.4536385000205527   F   F   F
  0.9158023337381138  0.1869263617731391  0.4531903482025967   F   F   F
  0.5826149933176126  0.9361440372146319  0.4537408880040985   F   F   F
  0.5828292958314378  0.6859471481123478  0.4544918245878975   F   F   F
  0.5825498557648743  0.4385709288366400  0.4558616856763322   F   F   F
  0.2500366544407484  0.9357829348236990  0.4538749956446466   F   F   F
  0.6654440106491109  0.6257730745810193  0.5029514489818396   F   F   F
  0.5846031098350224  0.5623053282870458  0.4550313615424670   F   F   F
  0.5828701490349815  0.0624111169879598  0.4547614977986854   F   F   F
  0.9166666865332829  0.6874999999963620  0.3605200052333331   F   F   F
  0.9166666865332829  0.4374999701794380  0.3605200052333331   F   F   F
  0.9166666865332829  0.1875000000030838  0.3605200052333331   F   F   F
  0.5833333134730552  0.9375000000154046  0.3605200052333331   F   F   F
  0.5833333134730552  0.6874999999963620  0.3605200052333331   F   F   F
  0.5833333134730552  0.4374999701794380  0.3605200052333331   F   F   F
  0.5833333134730552  0.1875000000030838  0.3605200052333331   F   F   F
  0.2499999999799343  0.9375000000154046  0.3605200052333331   F   F   F
  0.9166666865332829  0.9375000000154046  0.3605200052333331   F   F   F
  0.2499999999799343  0.6874999999963620  0.3605200052333331   F   F   F
  0.2499999999799343  0.1875000000030838  0.3605200052333331   F   F   F
  0.7499999404149307  0.9375000000154046  0.3605200052333331   F   F   F
  0.7499999404149307  0.6874999999963620  0.3605200052333331   F   F   F
  0.7499999404149307  0.4374999701794380  0.3605200052333331   F   F   F
  0.7499999404149307  0.1875000000030838  0.3605200052333331   F   F   F
  0.4166666269218169  0.9375000000154046  0.3605200052333331   F   F   F
  0.4166666269218169  0.6874999999963620  0.3605200052333331   F   F   F
  0.4166666269218169  0.4374999701794380  0.3605200052333331   F   F   F
  0.2499999999799343  0.4374999701794380  0.3605200052333331   F   F   F
  0.0833333358191695  0.0625000000159659  0.3605200052333331   F   F   F
  0.0833333358191695  0.3124999999901945  0.3605200052333331   F   F   F
  0.0833333358191695  0.5625000000092442  0.3605200052333331   F   F   F
  0.9166666865332829  0.3124999999901945  0.3605200052333331   F   F   F
  0.9166666865332829  0.0625000000159659  0.3605200052333331   F   F   F
  0.5833333134730552  0.8124999999834799  0.3605200052333331   F   F   F
  0.5833333134730552  0.5625000000092442  0.3605200052333331   F   F   F
  0.5833333134730552  0.3124999999901945  0.3605200052333331   F   F   F
  0.5833333134730552  0.0625000000159659  0.3605200052333331   F   F   F
  0.2499999999799343  0.8124999999834799  0.3605200052333331   F   F   F
  0.2499999999799343  0.5625000000092442  0.3605200052333331   F   F   F
  0.2499999999799343  0.3124999999901945  0.3605200052333331   F   F   F
  0.2499999999799343  0.0625000000159659  0.3605200052333331   F   F   F
  0.7499999404149307  0.8124999999834799  0.3605200052333331   F   F   F
  0.7499999404149307  0.5625000000092442  0.3605200052333331   F   F   F
  0.7499999404149307  0.3124999999901945  0.3605200052333331   F   F   F
  0.7499999404149307  0.0625000000159659  0.3605200052333331   F   F   F
  0.4166666269218169  0.8124999999834799  0.3605200052333331   F   F   F
  0.4166666269218169  0.5625000000092442  0.3605200052333331   F   F   F
  0.4166666269218169  0.3124999999901945  0.3605200052333331   F   F   F
  0.4166666269218169  0.0625000000159659  0.3605200052333331   F   F   F
  0.0833333358191695  0.8124999999834799  0.3605200052333331   F   F   F
  0.4166666269218169  0.1875000000030838  0.3605200052333331   F   F   F
  0.0833333358191695  0.9375000000154046  0.3605200052333331   F   F   F
  0.0833333358191695  0.6874999999963620  0.3605200052333331   F   F   F
  0.0833333358191695  0.4374999701794380  0.3605200052333331   F   F   F
  0.8333332538436267  0.4999999999932783  0.4070133268666680   F   F   F
  0.8333332538436267  0.7500000000123208  0.4070133268666680   F   F   F
  0.0837406297461243  0.0618687249171828  0.4541818551294412   F   F   F
  0.0835148365081224  0.3122724739596521  0.4537832320800135   F   F   F
  0.0839715908241416  0.5625407427763562  0.4539285232365557   F   F   F
  0.0835706341883977  0.8121125587590825  0.4541895433389911   F   F   F
  0.4169151144730847  0.0615178866860617  0.4553501798532196   F   F   F
  0.4154402998128361  0.3112782275595549  0.4573650709045225   F   F   F
  0.4159950612130032  0.5594061031649673  0.4578957198698461   F   F   F
  0.4166312829610490  0.8097083725870533  0.4551816935744029   F   F   F
  0.7496081261833751  0.0640571619352670  0.4533598107909782   F   F   F
  0.7473680031095213  0.3140472078215879  0.4546172031234974   F   F   F
  0.7481016748435110  0.5642764762271213  0.4536532378729419   F   F   F
  0.7494636006776005  0.8131791172569436  0.4530787564181793   F   F   F
  0.2501532494213095  0.0619279865710070  0.4541210206972366   F   F   F
  0.9154756831276529  0.3123559400547862  0.5466775405670674   F   F   F
  0.2522592914684125  0.3142310098094256  0.4541578089765892   F   F   F
  0.2519256402803549  0.5646796714746500  0.4536076922548133   F   F   F
  0.2501841813502423  0.8103905684410293  0.4555173205101042   F   F   F
  0.8333332538436267  0.2500000000190425  0.4070133268666680   F   F   F
  0.5842719305931752  0.3144501368565997  0.4541655806095193   F   F   F
  0.8333332538436267  0.0000000000000000  0.4070133268666680   F   F   F
  0.5000000000021103  0.4999999999932783  0.4070133268666680   F   F   F
  0.0833333358191695  0.1875000000030838  0.3605200052333331   F   F   F
  0.0000000000000000  0.0000000000000000  0.4070133268666680   F   F   F
  0.0000000000000000  0.2500000000190425  0.4070133268666680   F   F   F
  0.0000000000000000  0.4999999999932783  0.4070133268666680   F   F   F
  0.0000000000000000  0.7500000000123208  0.4070133268666680   F   F   F
  0.3333333432766779  0.0000000000000000  0.4070133268666680   F   F   F
  0.3333333432766779  0.2500000000190425  0.4070133268666680   F   F   F
  0.3333333432766779  0.4999999999932783  0.4070133268666680   F   F   F
  0.3333333432766779  0.7500000000123208  0.4070133268666680   F   F   F
  0.6666666865533486  0.0000000000000000  0.4070133268666680   F   F   F
  0.6666666865533486  0.2500000000190425  0.4070133268666680   F   F   F
  0.6666666865533486  0.4999999999932783  0.4070133268666680   F   F   F
  0.6666666865533486  0.7500000000123208  0.4070133268666680   F   F   F
  0.1666666716383389  0.0000000000000000  0.4070133268666680   F   F   F
  0.1666666716383389  0.2500000000190425  0.4070133268666680   F   F   F
  0.1666666716383389  0.4999999999932783  0.4070133268666680   F   F   F
  0.1666666716383389  0.7500000000123208  0.4070133268666680   F   F   F
  0.5000000000021103  0.0000000000000000  0.4070133268666680   F   F   F
  0.5000000000021103  0.2500000000190425  0.4070133268666680   F   F   F
  0.5000000000021103  0.7500000000123208  0.4070133268666680   F   F   F
  0.1670530999375188  0.1242979575574310  0.4993269551628430   F   F   F
  0.9177133073309776  0.0632792822219557  0.5474638971575345   F   F   F
  0.1677662668983047  0.8732445872227501  0.4999311476203090   F   F   F
  0.2519359549623843  0.1880583067961510  0.5473144314288874   F   F   F
  0.7491430932199705  0.9341152525327772  0.5476099516142412   F   F   F
  0.7517068711566921  0.6804124025626876  0.5530158667269021   F   F   F
  0.7529883926175884  0.4344557218682255  0.5493507668251780   F   F   F
  0.4231670199979050  0.4437777493171495  0.5455817261963887   F   F   F
  0.4228764398726952  0.6877811440546751  0.5467114807894191   F   F   F
  0.7484991643806822  0.1835934201338816  0.5507366926259323   F   F   F
  0.4158294299291825  0.9366200300042564  0.5461330574232406   F   F   F
  0.0835913108750148  0.9389506208802629  0.5456982435729145   F   F   F
  0.4156108666768930  0.1913161333520321  0.5464792450819260   F   F   F
  0.0865478224838725  0.6897030720411550  0.5451532169767503   F   F   F
  0.0829017838308204  0.4384409371271403  0.5453166090015173   F   F   F
  0.0837751663305966  0.1888431990636192  0.5456762636914476   F   F   F
  0.4993681444979785  0.1254544215017148  0.4996840035313639   F   F   F
  0.9996881697287066  0.4986131071678628  0.5945078049104211   F   F   F
  0.9994325868752085  0.7539446376608367  0.5921755054614835   F   F   F
  0.3347592096561200  0.2541880786552255  0.5927444999916034   F   F   F
  0.3340034102385303  0.9997991196157656  0.5920025705316903   F   F   F
  0.9996613413571538  0.9982182829214565  0.5927326486987354   F   F   F
  0.0011386302181720  0.2497977989050355  0.5919246627133461   F   F   F
  0.3335644187845119  0.4965955513960694  0.5910357827036918   F   F   F
  0.3352765106265068  0.7393531050835662  0.5915400235306691   F   F   F
  0.6634961943569877  0.2471625063172667  0.5907841252615356   F   F   F
  0.6657579981397745  0.0005924317571839  0.5918111589963431   F   F   F
  0.6657398257550113  0.7421999407489679  0.5900607117563581   F   F   F
  0.6670932495325630  0.4932593609076008  0.5910503125539464   F   F   F
  0.1673591472685132  0.9983811542996719  0.5922811353148418   F   F   F
  0.1685884644434239  0.2492396844262856  0.5931303326535371   F   F   F
  0.1707904636369904  0.7498806482548659  0.5950596755753708   F   F   F
  0.2481706825140222  0.4358094549976315  0.5493875134804256   F   F   F
  0.1654452771387653  0.5034063173902865  0.5878133651867472   F   F   F
  0.2490565731059462  0.6833126655064348  0.5518754517787059   F   F   F
  0.5807310822463521  0.1859946044951002  0.5491494956569554   F   F   F
  0.9152377799052900  0.8130582853732236  0.5468262748284118   F   F   F
  0.9166048053246598  0.5631416675872600  0.5463889449803219   F   F   F
  0.5814789301171430  0.5601366202997369  0.5493796350565248   F   F   F
  0.5861492608674581  0.8146808623451989  0.5503615643409674   F   F   F
  0.5832106718824903  0.3117582409341395  0.5458161429333401   F   F   F
  0.5826100657625375  0.0632712349765256  0.5469611877804539   F   F   F
  0.2539781885152763  0.8127940471332167  0.5512511009693242   F   F   F
  0.2523370345731237  0.5588420892261894  0.5437445150495250   F   F   F
  0.2495508664253308  0.3136809691076508  0.5459831269634847   F   F   F
  0.2510296532930525  0.0624443285964844  0.5472324942770115   F   F   F
  0.7484654744368342  0.8082431114649040  0.5457226451957951   F   F   F
  0.7465870221470183  0.5575764356497928  0.5444825658265700   F   F   F
  0.4134233747768192  0.8114254930225684  0.5482261373983519   F   F   F
  0.7482804369959908  0.0596082947155949  0.5445351953677857   F   F   F
  0.7480119411903061  0.3112376690220700  0.5480277718801787   F   F   F
  0.4159140545032045  0.3196779909003098  0.5526644884862932   F   F   F
  0.4206328780569919  0.5647387460062703  0.5556591408040887   F   F   F
  0.4164794337293429  0.0652131897490165  0.5473306237563094   F   F   F
  0.0848991844420226  0.8128932440987668  0.5473410855852876   F   F   F
  0.0825556018241258  0.5638900017584874  0.5463827468464117   F   F   F
  0.0864264412705680  0.3133161316117139  0.5468958592330111   F   F   F
  0.0823265797358985  0.0631911251707962  0.5475133691546219   F   F   F
  0.9156664670134731  0.9387183779360697  0.5460252380543196   F   F   F
  0.9131965604478438  0.6893407092821491  0.5450058358656236   F   F   F
  0.5835123240367750  0.9381505764323066  0.5456737184878904   F   F   F
  0.9170066923057618  0.1888354807633732  0.5454979031620368   F   F   F
  0.9154898834667122  0.4373071294393895  0.5458100697295265   F   F   F
  0.5764820159130366  0.4360769244115801  0.5515631063210265   F   F   F
  0.5794565207986224  0.6865268379774818  0.5468207029876737   F   F   F
  0.2516488386347717  0.9374435370779040  0.5450163830030945   F   F   F
  0.4981434230223840  0.5034801851329362  0.6090893140440130   F   F   F
  0.4985831824340536  0.2528766842224712  0.5903449526551157   F   F   F
  0.4995816003450742  0.9999729728513529  0.5909947742548098   F   F   F
  0.7523455743469256  0.6934554785340055  0.6564313621170541   F   F   F
  0.7483108460431680  0.9367718084966157  0.6398357769720633   F   F   F
  0.2534499895427089  0.1866077117945650  0.6412523978136733   F   F   F
  0.7456340248589512  0.1943989718585044  0.6468230545863562   F   F   F
  0.7556933024444064  0.4359509860714681  0.6388815858531629   F   F   F
  0.4172867210574367  0.9349552885654546  0.6397422794688836   F   F   F
  0.4213256517361401  0.6754835104032537  0.6337532638706094   F   F   F
  0.5893569925823670  0.8107525742309534  0.6456404293788580   F   F   F
  0.9162514613065227  0.0623855359938332  0.6413877130339500   F   F   F
  0.9133703487109841  0.5616541079115223  0.6426546557112331   F   F   F
  0.9153268497565605  0.3120245005832558  0.6394026139327522   F   F   F
  0.9138934301359640  0.8126153029635503  0.6415442224606380   F   F   F
  0.5821144552957804  0.0655776594972437  0.6398546186682594   F   F   F
  0.5834065357234834  0.3192409979744610  0.6342487166744490   F   F   F
  0.5916126678923277  0.5645669293385467  0.6392191969848042   F   F   F
  0.2478423527318654  0.5740348293160693  0.6286352322393753   F   F   F
  0.2615285726785430  0.7982542364420127  0.6470110348164368   F   F   F
  0.2499052841561422  0.3167637762824711  0.6412073888219112   F   F   F
  0.2508932316359207  0.0594662164814608  0.6420783355614859   F   F   F
  0.9166666865332829  0.5625000000092442  0.3605200052333331   F   F   F
  0.4994482546186418  0.3737765546317604  0.4999959145482578   F   F   F
  0.4999318294078350  0.8725219508753312  0.5008752077029897   F   F   F
  0.5003961978025657  0.6209338215030158  0.5000301979019497   F   F   F
  0.8322776961232563  0.6230836196239835  0.4998955435393952   F   F   F
  0.8326984331657030  0.8749926874998906  0.4983957246482404   F   F   F
  0.8326566819463039  0.3729654807557665  0.4993730214138452   F   F   F
  0.8328848613695570  0.1245431658361866  0.4996943189545107   F   F   F
  0.1667724082932907  0.3761786193624275  0.4977917255957536   F   F   F
  0.1677524306813538  0.6242855574974158  0.4999924740600079   F   F   F
  0.5828802110800737  0.4383239241637256  0.6462858475909101   F   F   F
  0.5802825411025836  0.6850144439198047  0.6381477046475510   F   F   F
  0.9171467831502156  0.1866282220761235  0.6406349507257119   F   F   F
  0.5821150405432576  0.9356156131172781  0.6391936103675278   F   F   F
  0.8305225912201450  0.7505905597254738  0.5928316679546271   F   F   F
  0.8317048907507498  0.2478051690735725  0.5914422496865797   F   F   F
  0.8333836100369751  0.5037270227115656  0.5894719932409984   F   F   F
  0.8321765858076731  0.0020247845569301  0.5922562911568860   F   F   F
  0.5006382800446474  0.7562068531693100  0.5926328157981544   F   F   F
  0.4176807374304587  0.0652131657643835  0.6399771804464720   F   F   F
  0.4268365427092178  0.3050921580994554  0.6549297542321995   F   F   F
  0.4119851715736189  0.8124563838054897  0.6397701883968949   F   F   F
  0.3987853915351280  0.5509048083706389  0.6521891373873956   F   F   F
  0.7523426256735561  0.5706982896573436  0.6344611212100020   F   F   F
  0.7410737187812089  0.8099442578221314  0.6399989812434939   F   F   F
  0.7471208792479729  0.3126637609757665  0.6402935624001316   F   F   F
  0.7476247431145353  0.0669594517576328  0.6392285556102237   F   F   F
  0.0839846121123244  0.3118454762809435  0.6404258513896153   F   F   F
  0.6665359733833895  0.8744609150287772  0.4988875811828066   F   F   F
  0.0866351833432972  0.5618600376619227  0.6421717533054476   F   F   F
  0.0835493049953584  0.0604473806809764  0.6414801513413053   F   F   F
  0.0870883005528782  0.4366584760102157  0.6395294268205376   F   F   F
  0.0838141768790734  0.1855251696453379  0.6409614521263052   F   F   F
  0.4186484286678791  0.1879529229037686  0.6399585847859370   F   F   F
  0.4151878128122846  0.4189350334473190  0.6300603022535682   F   F   F
  0.0842503777884005  0.9352584276138671  0.6408744365777466   F   F   F
  0.0828233548480668  0.6871801816355614  0.6399413252744779   F   F   F
  0.9126135045147521  0.4362542569297503  0.6395483424899098   F   F   F
  0.9166736365844486  0.6875538613999268  0.6398960332094390   F   F   F
  0.9141004086547468  0.9367133934768432  0.6408706966892765   F   F   F
  0.2408315835651393  0.4428814111041390  0.6417502061427598   F   F   F
  0.2505022482605312  0.6758754370236204  0.6651534592661932   F   F   F
  0.5787169312165616  0.1901936450042925  0.6441698562523683   F   F   F
  0.2519396632624407  0.9301443770112812  0.6373528509792337   F   F   F
  0.0840171532534697  0.8117384763967408  0.6419150070252613   F   F   F
  0.9166666865332829  0.8124999999834799  0.3605200052333331   F   F   F
  0.0006830874522947  0.1229097019811149  0.6190724909011820   F   F   F
  0.8333332538436267  0.6249999999803961  0.4070133268666680   F   F   F
  0.9996113800475825  0.5003834168252581  0.5071881730937164   F   F   F
  0.3312239912298338  0.4992866791048698  0.5009416059126721   F   F   F
  0.3301046740874156  0.2480427919472987  0.5027960460392222   F   F   F
  0.3330955062148320  0.0009692666498751  0.5057212691214161   F   F   F
  0.3338003403582235  0.7507513823559790  0.5017751475636842   F   F   F
  0.6658851686661080  0.0001118132107294  0.5055356327162741   F   F   F
  0.6686627459126484  0.4996151140784022  0.5008210165926243   F   F   F
  0.6671162930437902  0.2478511795005574  0.5030650825451914   F   F   F
  0.6656089429540586  0.7518983026560022  0.5021652249890636   F   F   F
  0.1659803218065790  0.0010600100366318  0.5065127593129901   F   F   F
  0.1664777121456069  0.2482987786387838  0.5062078579027443   F   F   F
  0.1633872638386649  0.4998708617093328  0.5021587685189601   F   F   F
  0.5000172813660271  0.9991252831574116  0.5054763916295855   F   F   F
  0.1643102592885057  0.7513245072399783  0.5034946632779622   F   F   F
  0.5009597375266424  0.7526369882104831  0.5039725447856398   F   F   F
  0.8341798169777945  0.0003885040416662  0.5064228564918807   F   F   F
  0.5013441223252926  0.4997050158038334  0.5003438163843086   F   F   F
  0.5011067787144583  0.2478715151582804  0.5019998590651866   F   F   F
  0.8354363150701261  0.2483850807084238  0.5032394117044205   F   F   F
  0.9996813081797669  0.7506548968386184  0.5065212358375106   F   F   F
  0.0008832674830259  0.2498190452916518  0.5058937755918222   F   F   F
  0.0000346211061952  0.9999529211607054  0.5064197605507630   F   F   F
  0.8333332538436267  0.8749999404036828  0.4070133268666680   F   F   F
  0.0000000000000000  0.6249999999803961  0.4070133268666680   F   F   F
  0.0000000000000000  0.8749999404036828  0.4070133268666680   F   F   F
  0.3333333432766779  0.1249999999871179  0.4070133268666680   F   F   F
  0.3333333432766779  0.3750000000061604  0.4070133268666680   F   F   F
  0.3333333432766779  0.6249999999803961  0.4070133268666680   F   F   F
  0.3333333432766779  0.8749999404036828  0.4070133268666680   F   F   F
  0.6666666865533486  0.1249999999871179  0.4070133268666680   F   F   F
  0.6666666865533486  0.3750000000061604  0.4070133268666680   F   F   F
  0.6666666865533486  0.6249999999803961  0.4070133268666680   F   F   F
  0.8360303574903156  0.4997659642215808  0.5031025491910768   F   F   F
  0.6666666865533486  0.8749999404036828  0.4070133268666680   F   F   F
  0.1666666716383389  0.3750000000061604  0.4070133268666680   F   F   F
  0.1666666716383389  0.6249999999803961  0.4070133268666680   F   F   F
  0.1666666716383389  0.8749999404036828  0.4070133268666680   F   F   F
  0.5000000000021103  0.1249999999871179  0.4070133268666680   F   F   F
  0.5000000000021103  0.3750000000061604  0.4070133268666680   F   F   F
  0.5000000000021103  0.6249999999803961  0.4070133268666680   F   F   F
  0.5000000000021103  0.8749999404036828  0.4070133268666680   F   F   F
  0.8333332538436267  0.1249999999871179  0.4070133268666680   F   F   F
  0.8333332538436267  0.3750000000061604  0.4070133268666680   F   F   F
  0.1666666716383389  0.1249999999871179  0.4070133268666680   F   F   F
  0.0000000000000000  0.3750000000061604  0.4070133268666680   F   F   F
  0.8357829809885544  0.7516400082446637  0.5025101327590988   F   F   F
  0.8372067057840624  0.3726386448718912  0.6041221284790126   F   F   F
  0.8319591067032377  0.8757352732940618  0.6181213781029697   F   F   F
  0.8407847223485660  0.6266339459656436  0.6031075671669157   F   F   F
  0.9989829485177921  0.8747652207399881  0.6219915091421200   F   F   F
  0.3315192364906636  0.1198620622549242  0.6133431886049863   F   F   F
  0.3346385105822876  0.6237604232977390  0.5953934421476390   F   F   F
  0.3260418918871224  0.3738168103067991  0.5928173798140577   F   F   F
  0.6711632014465749  0.3720167228501836  0.5945622614367991   F   F   F
  0.6654069162687151  0.1243839713886388  0.6116782390502138   F   F   F
  0.3344986421788576  0.8787571247389323  0.6029063592073882   F   F   F
  0.1585543360349817  0.6271519414417668  0.6020089777975883   F   F   F
  0.1662792437962182  0.8725233488537683  0.6189934918637121   F   F   F
  0.5018948071636800  0.3711115654039290  0.5951257910346612   F   F   F
  0.5001361827656226  0.1218821717159386  0.6059718608157851   F   F   F
  0.1676004821914105  0.1225050930316769  0.6214738671750837   F   F   F
  0.1634730443813197  0.3717555041877958  0.6077512406100922   F   F   F
  0.6652602201846847  0.8808675884275630  0.6068471897591223   F   F   F
  0.6664599023087447  0.6268182826470508  0.5938273256004578   F   F   F
  0.0001689503400044  0.3749512403144379  0.6228592443520711   F   F   F
  0.9997276681691716  0.6223813353571614  0.6460186007034139   F   F   F
  0.8337598281477341  0.1248083205314998  0.6196460109726303   F   F   F
  0.5004606888199632  0.8764285445791131  0.6099275448217796   F   F   F
  0.0000000000000000  0.1249999999871179  0.4070133268666680   F   F   F
  0.5040711161764975  0.6248483521742969  0.5938488986659749   F   F   F
  0.9162728840345409  0.9997824056703450  0.6036571273795062   F   F   F
  0.5848033429728119  0.7504385112345702  0.5994981790295171   F   F   F
  0.5908285624194676  0.5006941120930435  0.5936522264944415   F   F   F
  0.2423091297307209  0.4987068234013492  0.5936627452082561   F   F   F
  0.2497126063781536  0.7526776273388904  0.5921877694096267   F   F   F
  0.5843821092787991  0.2469848198548945  0.5970866951219023   F   F   F
  0.5825031252467667  0.0010333104760747  0.6042803790611089   F   F   F
  0.2494224639635050  0.9975234874801089  0.6041574354380757   F   F   F
  0.2492692896880371  0.2459591639381884  0.6037494670294876   F   F   F
  0.4170211582143750  0.0000711144487013  0.6046701219167829   F   F   F
  0.4147784366537266  0.2487855968305226  0.5910510746091902   F   F   F
  0.4166379686462776  0.7499658133412410  0.5947807711826840   F   F   F
  0.7565350506397976  0.5027966141888527  0.5957687801506495   F   F   F
  0.7520109800972392  0.7523373449573612  0.5906248088602482   F   F   F
  0.7540420699538046  0.2479241476660548  0.5941981932868075   F   F   F
  0.7495988908392022  0.0017153272561856  0.6041627781537713   F   F   F
  0.0838375644717928  0.2480990292143517  0.6036983581459126   F   F   F
  0.0811811410444676  0.5005425909272319  0.6034780016311245   F   F   F
  0.0801482790506611  0.7506764085534670  0.6031170203610401   F   F   F
  0.0832996958806547  0.9981641661026117  0.6034808444908890   F   F   F