Au O  Sr Ti H 
 1.0000000000000000
    23.6707801818999997    0.0000000000000000    0.0000000000000000
     0.0000000000000000   22.3170261383000010    0.0000000000000000
     0.0000000000000000    0.0000000000000000   30.0000000000000000
 Au  O   Sr  Ti  H  
  50 264  72  72   1
Selective dynamics
Cartesian
 16.9634863516211674 11.6823130191377871 22.5625313352659909   F   F   F
 14.7736581382678214 12.6590253670823021 21.1025339531560050   F   F   F
 17.0228956806715033  5.7897169984524570 20.7536196788250145   F   F   F
  6.8269984607322218 16.6232316497554571 20.9791498838428865   F   F   F
 12.1636018888588477 13.4943385535492038 23.3059699611853723   F   F   F
 13.6604688156935801 16.1865279969656903 23.7775134534099948   F   F   F
 13.0412841699650688  8.5882924709578941 24.9073755352515640   F   F   F
  5.7410489657832855 10.4070445843969566 21.2789324608226913   F   F   F
  6.7042872891623277 14.7310067303022532 22.9786501490745607   F   F   F
 14.2477835961368786  6.4477971704411168 23.6601416235499578   F   F   F
 12.1895815987356126 10.7709959375937512 20.3408852197003718   F   F   F
 13.2897256563963779 10.8693343538801930 22.8806099581637739   F   F   F
 10.9755592949395862 15.5187114985135413 24.8985136806029921   F   F   F
 18.1712871264245273  9.5947401524675762 21.1563361944460802   F   F   F
 17.3761294207018757 13.7298931163289684 20.8303080085965284   F   F   F
 15.0749320324613105 13.0161743680150561 24.0001782671079624   F   F   F
 14.0810044746432350 17.5169356971093144 21.3775293218598286   F   F   F
 11.4456422959781037 17.4017853337424988 22.7231410893565133   F   F   F
  8.2768029163903591 11.1893495284565194 20.9202032289547439   F   F   F
 10.2003691738890563  8.3039437084524419 24.4788083840164674   F   F   F
  8.8277138229484891  6.6646858211463700 22.6776237715648499   F   F   F
 10.4279225189327622  5.1020786492202941 20.9137242829895058   F   F   F
  9.1717491662393815 18.1640966274917481 21.1863665299833173   F   F   F
  6.8671003384024587 11.9602506094667067 23.3365723750844083   F   F   F
 13.1319663339677497  4.6123750265258430 21.3505795288703482   F   F   F
 10.7591119144317755 12.9395527647226540 21.0837897777495087   F   F   F
 14.4828325734548997  7.0896100075979609 20.9454349126490591   F   F   F
 16.7049215948699903 16.9098677380328475 20.6533774075569063   F   F   F
 15.5600316177939071  9.8502385865750810 24.3092203227850447   F   F   F
  8.7186140285733735 13.8075933493451437 24.6136314219178054   F   F   F
 13.5481460078599696 11.3777379254835793 25.7311986630012193   F   F   F
 15.7160590921976517  4.3507645432399373 22.5641476820547062   F   F   F
 11.1868171308961273 10.0886612418006383 26.3699327393174947   F   F   F
 12.2115632808699175  8.4191942253409984 22.0438766162446669   F   F   F
  6.7199971480516894  7.5294663780536961 21.0798434052830892   F   F   F
 15.8472698273992609 15.2027369287503120 22.4621245549219424   F   F   F
  9.4136374752595771  8.5287476515962926 20.7131795184036065   F   F   F
  8.9019708869818182 10.9864702897989783 25.0138332392706140   F   F   F
 10.9687333651636951 12.8116125351976926 25.9076776133408302   F   F   F
  7.7329820925192676  9.2279685585998035 23.0908351507252299   F   F   F
 11.5354707914563832  5.9847730168309052 23.2580606595044266   F   F   F
 10.1650546289408332 15.6050367525338967 20.9663875495272976   F   F   F
 16.5527999171339424  7.7443552852741133 22.6720079209346252   F   F   F
 18.3908616379173466  9.5729589087258500 23.8797506168342046   F   F   F
  6.0645778889794162 13.1999372075876948 20.8473848127761130   F   F   F
 15.3332274657923211  9.8177889092557606 20.9472069066388329   F   F   F
 13.3874808887672270 14.2682777143582005 25.8141553840716611   F   F   F
 12.9434094143942389 14.8350917078242617 21.0432010800083731   F   F   F
 10.4784331887469762 10.5877229556616808 22.6838799863092291   F   F   F
  8.8232722972090301 16.4458687607150580 23.3446626661090662   F   F   F
  5.9167892674233968  4.2102682356251719 13.6282162624638694   F   F   F
 17.7392894734606372 20.9436076798430157 13.6593825656898034   F   F   F
 17.7290748669034066 15.3685483960945888 13.7180602080477456   F   F   F
 17.7403695387713434  9.7827814618834879 13.6738016187469871   F   F   F
 17.7564205080894695  4.2326017259191735 13.6682869011653523   F   F   F
  9.8812768754751357 20.8827819128783361 13.6214562903227794   F   F   F
  9.8686331433378882 15.2779327653518990 13.6440900802184419   F   F   F
  9.8659512921002861  9.7169004618064143 13.6157713339991240   F   F   F
  1.9966916770915140 15.3300902283704517 13.5930361383481930   F   F   F
  1.9855779926045563 20.9036370212645863 13.6038300361140827   F   F   F
  1.9688222563394899  9.7545991479565082 13.5940718547681687   F   F   F
  1.9855199542759776  4.1645050288862455 13.5894820946347679   F   F   F
 21.6950750020298315 18.1223297256213449 13.6219947941029087   F   F   F
 21.6856745739015899 12.5511182042366123 13.6125284427487472   F   F   F
  5.9461431832506104  9.8060256995524195 13.6509146628322799   F   F   F
 21.6854833081436880  1.3864896827347697 13.6231055468627673   F   F   F
 21.6897817189526769  6.9682771222432365 13.6147610065750584   F   F   F
  9.8723519831722992  4.1762439408102319 13.6091745088027274   F   F   F
  5.9756137304126744 15.3385658201689239 13.6814038127325297   F   F   F
 21.7015309216136814 20.9059962922533167 13.5974247467726617   F   F   F
 13.7908895490058985  4.2190810780610501 13.6529102257801025   F   F   F
  0.0024037070830751  2.7918205605702813 14.9521898889900626   F   F   F
 13.8166955948028267 18.0759125810170147 13.6623121205356224   F   F   F
  0.0003047374437354  8.3387415565511631 14.9566131083795906   F   F   F
 23.6642356345804714 13.9919002473055496 14.9307699300931862   F   F   F
  7.8932960301420660  2.7917348914241793 14.9507004907380896   F   F   F
  0.0009663529720661 19.5268953777462890 14.9846545547790146   F   F   F
  7.8935884623028318 19.5002891551355440 14.9642371050408727   F   F   F
 15.7634780086592112  2.8070176616623153 14.9778089358172952   F   F   F
  7.9470485037047247 13.9490024036828224 15.1292708318131979   F   F   F
  7.9145285693357614  8.4488493456868490 15.0896576780525944   F   F   F
 15.7531850658223078  8.4482130373038675 15.0990152392802841   F   F   F
 21.6667332302619364 15.3246313185912779 13.5896307938045187   F   F   F
 21.6862307390977982  9.7527884428071339 13.6091550006165569   F   F   F
 21.6777557319858296  4.1716405016285325 13.5957104460778559   F   F   F
 13.7909514375003255 20.8919509477326208 13.6122266401230299   F   F   F
 13.7960241451974763 15.3083004339156155 13.6347547376369782   F   F   F
 13.7894095808079022  9.7875988823458080 13.6758505702900610   F   F   F
  5.9185626846846580 20.8838922162355658 13.6162498693393648   F   F   F
 15.7515788994369910 13.9653940620688939 15.0885434694551197   F   F   F
 13.8380117065598984 12.5489827090873600 13.6509408462739152   F   F   F
 13.7969911723983252  1.3928305291407848 13.6428449339606264   F   F   F
 21.6982156369999721 15.3429554700000619 10.8156001569999933   F   F   F
 21.6982156369999721  9.7636982699999884 10.8156001569999933   F   F   F
 21.6982156369999721  4.1844424010000720 10.8156001569999933   F   F   F
 13.8079546360000549 20.9222120050000342 10.8156001569999933   F   F   F
 13.8079546360000549 15.3429554700000619 10.8156001569999933   F   F   F
 13.8079546360000549  9.7636982699999884 10.8156001569999933   F   F   F
 13.8079546360000549  4.1844424010000720 10.8156001569999933   F   F   F
  5.9176950450000287 20.9222120050000342 10.8156001569999933   F   F   F
 21.6982156369999721 20.9222120050000342 10.8156001569999933   F   F   F
  5.9176950450000287 15.3429554700000619 10.8156001569999933   F   F   F
  5.9176950450000287  4.1844424010000720 10.8156001569999933   F   F   F
 17.7530837259999217 20.9222120050000342 10.8156001569999933   F   F   F
 17.7530837259999217 15.3429554700000619 10.8156001569999933   F   F   F
 17.7530837259999217  9.7636982699999884 10.8156001569999933   F   F   F
 17.7530837259999217  4.1844424010000720 10.8156001569999933   F   F   F
  9.8628241350000643 20.9222120050000342 10.8156001569999933   F   F   F
  9.8628241350000643 15.3429554700000619 10.8156001569999933   F   F   F
  9.8628241350000643  9.7636982699999884 10.8156001569999933   F   F   F
  5.9176950450000287  9.7636982699999884 10.8156001569999933   F   F   F
  1.9725650740000149  1.3948141340000613 10.8156001569999933   F   F   F
  1.9725650740000149  6.9740706679999214 10.8156001569999933   F   F   F
  1.9725650740000149 12.5533272030000536 10.8156001569999933   F   F   F
 21.6982156369999721  6.9740706679999214 10.8156001569999933   F   F   F
 21.6982156369999721  1.3948141340000613 10.8156001569999933   F   F   F
 13.8079546360000549 18.1325837370000720 10.8156001569999933   F   F   F
 13.8079546360000549 12.5533272030000536 10.8156001569999933   F   F   F
 13.8079546360000549  6.9740706679999214 10.8156001569999933   F   F   F
 13.8079546360000549  1.3948141340000613 10.8156001569999933   F   F   F
  5.9176950450000287 18.1325837370000720 10.8156001569999933   F   F   F
  5.9176950450000287 12.5533272030000536 10.8156001569999933   F   F   F
  5.9176950450000287  6.9740706679999214 10.8156001569999933   F   F   F
  5.9176950450000287  1.3948141340000613 10.8156001569999933   F   F   F
 17.7530837259999217 18.1325837370000720 10.8156001569999933   F   F   F
 17.7530837259999217 12.5533272030000536 10.8156001569999933   F   F   F
 17.7530837259999217  6.9740706679999214 10.8156001569999933   F   F   F
 17.7530837259999217  1.3948141340000613 10.8156001569999933   F   F   F
  9.8628241350000643 18.1325837370000720 10.8156001569999933   F   F   F
  9.8628241350000643 12.5533272030000536 10.8156001569999933   F   F   F
  9.8628241350000643  6.9740706679999214 10.8156001569999933   F   F   F
  9.8628241350000643  1.3948141340000613 10.8156001569999933   F   F   F
  1.9725650740000149 18.1325837370000720 10.8156001569999933   F   F   F
  9.8628241350000643  4.1844424010000720 10.8156001569999933   F   F   F
  1.9725650740000149 20.9222120050000342 10.8156001569999933   F   F   F
  1.9725650740000149 15.3429554700000619 10.8156001569999933   F   F   F
  1.9725650740000149  9.7636982699999884 10.8156001569999933   F   F   F
 19.7256482699999580 11.1585130689999925 12.2103998060000407   F   F   F
 19.7256482699999580 16.7377696039999648 12.2103998060000407   F   F   F
  1.9822060390143468  1.3807259511201213 13.6254556538832752   F   F   F
  1.9768613369111627  6.9689929636291250 13.6134969624003581   F   F   F
  1.9876730679226737 12.5542364603987089 13.6178556970967524   F   F   F
  1.9781821115355982 18.1239372010681556 13.6256863001696349   F   F   F
  9.8687060292040183  1.3728962851458368 13.6605053955966085   F   F   F
  9.8337960155723447  6.9468043407302842 13.7209521271356927   F   F   F
  9.8469276507291053 12.4842806262571528 13.7368715960954066   F   F   F
  9.8619875158738939 18.0702829154256328 13.6554508072320875   F   F   F
 17.7438091774526185  1.4295653572546070 13.6007943237292928   F   F   F
 17.6907837165911026  7.0085997456145126 13.6385160937049967   F   F   F
 17.7081502989320043 12.5929728691885465 13.6095971361882633   F   F   F
 17.7403881459747197 18.1477396149429318 13.5923626925454837   F   F   F
  5.9213225788397645  1.3820484949974368 13.6236306209170746   F   F   F
 21.6700236571893718  6.9708556786559646 16.4003262170120152   F   F   F
  5.9711742371905583  7.0127016593813911 13.6247342692976421   F   F   F
  5.9632764532606961 12.6019709880664887 13.6082307676444092   F   F   F
  5.9220547617302080 18.0855074981302408 13.6655196153031326   F   F   F
 19.7256482699999580  5.5792565349999723 12.2103998060000407   F   F   F
 13.8301724355253963  7.0175919234208157 13.6249674182855642   F   F   F
 19.7256482699999580  0.0000000000000000 12.2103998060000407   F   F   F
 11.8353900909999528 11.1585130689999925 12.2103998060000407   F   F   F
  1.9725650740000149  4.1844424010000720 10.8156001569999933   F   F   F
  0.0000000000000000  0.0000000000000000 12.2103998060000407   F   F   F
  0.0000000000000000  5.5792565349999723 12.2103998060000407   F   F   F
  0.0000000000000000 11.1585130689999925 12.2103998060000407   F   F   F
  0.0000000000000000 16.7377696039999648 12.2103998060000407   F   F   F
  7.8902602960000570  0.0000000000000000 12.2103998060000407   F   F   F
  7.8902602960000570  5.5792565349999723 12.2103998060000407   F   F   F
  7.8902602960000570 11.1585130689999925 12.2103998060000407   F   F   F
  7.8902602960000570 16.7377696039999648 12.2103998060000407   F   F   F
 15.7805205919999434  0.0000000000000000 12.2103998060000407   F   F   F
 15.7805205919999434  5.5792565349999723 12.2103998060000407   F   F   F
 15.7805205919999434 11.1585130689999925 12.2103998060000407   F   F   F
 15.7805205919999434 16.7377696039999648 12.2103998060000407   F   F   F
  3.9451301480000271  0.0000000000000000 12.2103998060000407   F   F   F
  3.9451301480000271  5.5792565349999723 12.2103998060000407   F   F   F
  3.9451301480000271 11.1585130689999925 12.2103998060000407   F   F   F
  3.9451301480000271 16.7377696039999648 12.2103998060000407   F   F   F
 11.8353900909999528  0.0000000000000000 12.2103998060000407   F   F   F
 11.8353900909999528  5.5792565349999723 12.2103998060000407   F   F   F
 11.8353900909999528 16.7377696039999648 12.2103998060000407   F   F   F
  3.9542772073259327  2.7739607677464782 14.9798086548853924   F   F   F
 21.7229899678359537  1.4122053953602547 16.4239169147261030   F   F   F
  3.9711584256877934 19.4882222781791334 14.9979344286093657   F   F   F
  5.9635206098317282  4.1969021482941047 16.4194329428666848   F   F   F
 17.7328014843984647 20.8466745069587418 16.4282985484272750   F   F   F
 17.7934881083739604 15.1847813728150740 16.5904760018071364   F   F   F
 17.8238227211732116  9.6957597008671730 16.4805230047553657   F   F   F
 10.0166935106001187  9.9037996311067165 16.3674517858916246   F   F   F
 10.0098152523310162 15.3492297692980735 16.4013444236824846   F   F   F
 17.7175591863909716  4.0972591559478033 16.5221007787779328   F   F   F
  9.8430070290185014 20.9025736912602760 16.3839917226973171   F   F   F
  1.9786715448392878 20.9545855487578017 16.3709473071874605   F   F   F
  9.8378334663177327  4.2696071486957372 16.3943773524578553   F   F   F
  2.0486544812377678 15.3921214864081950 16.3545965093024677   F   F   F
  1.9623499017467769  9.7846978539671881 16.3594982700455205   F   F   F
  1.9830235469136690  4.2144186095429328 16.3702879107435244   F   F   F
 11.8204335782548586  2.7997696038190392 14.9905201059409290   F   F   F
 23.6633989160940708 11.1275617455642291 17.8352341473127396   F   F   F
 23.6573490705508185 16.8258021855079889 17.7652651638445143   F   F   F
  7.9240116656365123  5.6727219953929584 17.7823349997480733   F   F   F
  7.9061213037612807 22.3125430855143101 17.7600771159508106   F   F   F
 23.6627638676084224 22.2772635116871491 17.7819794609621411   F   F   F
  0.0269522656027804  5.5747440074535630 17.7577398814004113   F   F   F
  7.8957300335513825 11.0825359006695088 17.7310734811107906   F   F   F
  7.9362565831945675 16.5001625715832709 17.7462007059201312   F   F   F
 15.7054725681515155  5.5159321138901021 17.7235237578461131   F   F   F
 15.7590112283083528  0.0132213150102075 17.7543347698902316   F   F   F
 15.7585810737833292 16.5636954775394187 17.7018213526908426   F   F   F
 15.7906176705146368 11.0080820503360091 17.7315093766184688   F   F   F
  3.9615215864232627 22.2808983164918608 17.7684340594453509   F   F   F
  3.9906204830442804  5.5622885520430208 17.7939099796061413   F   F   F
  4.0427435219159209 16.7351060277091541 17.8517902672611157   F   F   F
  5.8743936733814754  9.7259709985004434 16.4816254044127817   F   F   F
  3.9162187872852154 11.2345319433843560 17.6344009556024446   F   F   F
  5.8953633948481388 15.2495066167385041 16.5562635533612195   F   F   F
 13.7463577926502474  4.1508464500998530 16.4744848697086468   F   F   F
 21.6643923023083218 18.1450430066355501 16.4047882448523588   F   F   F
 21.6967508605133439 12.5676473151106762 16.3916683494096524   F   F   F
 13.7640599352092412 12.5005835962482532 16.4813890516957180   F   F   F
 13.8746103077767806 18.1812540993306371 16.5108469302291141   F   F   F
 13.8050516138686223  6.9575168117576265 16.3744842880002572   F   F   F
 13.7908347984273565  1.4120258047736609 16.4088356334135703   F   F   F
  6.0118618713422238 18.1391459949266611 16.5375330290797464   F   F   F
  5.9730144771329519 12.4716935124430943 16.3123354514857546   F   F   F
  5.9070637033567532  7.0004263866627552 16.3794938089046020   F   F   F
  5.9420677422384056  1.3935717134764147 16.4169748283104084   F   F   F
 17.7167617191358424 18.0375826446631429 16.3716793558738694   F   F   F
 17.6722972879014328 12.4434478884965394 16.3344769747971128   F   F   F
  9.7860538264013979 18.1086039370675529 16.4467841219505928   F   F   F
 17.7123817385481637  1.3302798712274235 16.3360558610335183   F   F   F
 17.7060262333520519  6.9458991947891038 16.4408331564053398   F   F   F
  9.8450101587081171  7.1342620787614299 16.5799346545888255   F   F   F
  9.9567083937669878 12.6032893559326542 16.6697742241227189   F   F   F
  9.8583931260894904  1.4553644601907478 16.4199187126892951   F   F   F
  2.0096299325497085 18.1413597761996499 16.4202325675586245   F   F   F
  1.9541555035633800 12.5843479083702654 16.3914824053924271   F   F   F
  2.0457812932194415  6.9922842987296647 16.4068757769902582   F   F   F
  1.9487343720560715  1.4102379921451922 16.4254010746387173   F   F   F
 21.6745396606128757 20.9494025769018712 16.3807571416295161   F   F   F
 21.6160750452280332 15.3840346272440023 16.3501750759687354   F   F   F
 13.8121919557040869 20.9367309359009717 16.3702115546367786   F   F   F
 21.7062638389008704  4.2142463600346662 16.3649370948611974   F   F   F
 21.6703597902937481  9.7593946381637462 16.3743020918858342   F   F   F
 13.6457790774960426  9.7319401204026761 16.5468931896308291   F   F   F
 13.7161879287927846 15.3212373877879120 16.4046210896302505   F   F   F
  5.9567243423540619 20.9209519201480454 16.3504914900928640   F   F   F
 11.7914434654220130 11.2361804517278365 18.2726794213204045   F   F   F
 11.8018529137886610  5.6434555715594827 17.7103485796533775   F   F   F
 11.8254862446899995 22.3164229727172057 17.7298432276442348   F   F   F
 17.8086067111914090 15.4758640401906611 19.6929408635116516   F   F   F
 17.7131015444194233 20.9059609358415308 19.1950733091618879   F   F   F
  5.9993589895703892  4.1645291817277252 19.2375719344101697   F   F   F
 17.6497390985816622  4.3384069362249162 19.4046916375906662   F   F   F
 17.8878500470956894  9.7291295511746316 19.1664475755948658   F   F   F
  9.8775022469764657 20.8654216130570695 19.1922683840665975   F   F   F
  9.9731068872418689 15.0747831576601232 19.0125979161182848   F   F   F
 13.9505398200828896 18.0935863908061769 19.3692128813658186   F   F   F
 21.6883869319313085  1.3922596374262779 19.2416313910184869   F   F   F
 21.6201887490030451 12.5344494069450274 19.2796396713370264   F   F   F
 21.6665006551785631  6.9634589353065275 19.1820784179825985   F   F   F
 21.6325704944309507 18.1351569566201185 19.2463266738191159   F   F   F
 13.7791033120128539  1.4634983410884825 19.1956385600477653   F   F   F
 13.8096878637944442  7.1245096962130789 19.0274615002334926   F   F   F
 14.0039334145066725 12.5994549188681635 19.1765759095441126   F   F   F
  5.8666218512809865 12.8107502901413355 18.8590569671811856   F   F   F
  6.1905853551597705 17.8146606596850816 19.4103310444931303   F   F   F
  5.9154530475553599  7.0692254749624519 19.2362216646572577   F   F   F
  5.9388385351804240  1.3271091075625625 19.2623500668445011   F   F   F
 21.6982156369999721 12.5533272030000536 10.8156001569999933   F   F   F
 11.8223298473115257  8.3415811396006827 14.9998774364476439   F   F   F
 11.8337764398479184 19.4720951839252976 15.0262562310897501   F   F   F
 11.8447684020430639 13.8573963246372323 15.0009059370584339   F   F   F
 19.7006623952316957 13.9053734254949806 14.9968663061819552   F   F   F
 19.7106215692778477 19.5272346777564252 14.9518717394472933   F   F   F
 19.7096332853412619  8.3234803827100272 14.9811906424154060   F   F   F
 19.7150344703110711  2.7794330873128414 14.9908295686352790   F   F   F
  3.9476330171165319  8.3951880809809136 14.9337517678726375   F   F   F
  3.9708309116376626 13.9321971044329977 14.9997742218001804   F   F   F
 13.7972293488559465  9.7820864726040568 19.3885754277272433   F   F   F
 13.7357404738335607 15.2874852500712706 19.1444311394264801   F   F   F
 21.7095798984853978  4.1649869102172321 19.2190485217714588   F   F   F
 13.7791171652773290 20.8801580933398689 19.1758083110257793   F   F   F
 19.6591176928739664 16.7509491405546136 17.7849500386389181   F   F   F
 19.6871036451721615  5.5302744354208357 17.7432674905974999   F   F   F
 19.7268402403834351 11.2416891324219819 17.6841597972299240   F   F   F
 19.6982690351775283  0.0451871698813727 17.7676887347065140   F   F   F
 11.8504986775813705 16.8762881081410860 17.7789844739447425   F   F   F
  9.8868289219303467  1.4553639249250485 19.1993154133942348   F   F   F
 10.1035539760720283  6.8087496668958467 19.6478926269660512   F   F   F
  9.7520104345214307 18.1316103536157378 19.1931056519067802   F   F   F
  9.4395613427810012 12.2945570081226396 19.5656741216218322   F   F   F
 17.8085369137922065 12.7362886473659636 19.0338336363001481   F   F   F
 17.5417930958532189 18.0755471723825281 19.1999694373049117   F   F   F
 17.6849341019865349  6.9777253261953218 19.2088068720039971   F   F   F
 17.6968609528136938  1.4943358350812981 19.1768566683067974   F   F   F
  1.9879812919729434  6.9594636452723897 19.2127755416883872   F   F   F
 15.7774265092870412 19.5153670976190057 14.9666274354841207   F   F   F
  2.0507223809377613 12.5390451465673447 19.2651525991633825   F   F   F
  1.9776772328956977  1.3490057746490940 19.2444045402392234   F   F   F
  2.0614480188023800  9.7449186226301787 19.1858828046162238   F   F   F
  1.9839469570314983  4.1403700602875482 19.2288435637892157   F   F   F
  9.9097349284952223  4.1945502932133447 19.1987575435781004   F   F   F
  9.8278194512833803  9.3493840916934161 18.9018090676069548   F   F   F
  1.9942721728712562 20.8721867751239678 19.2262330973323152   F   F   F
  1.9604934265361642 15.3358180752824911 19.1982397582342657   F   F   F
 21.6022736564021187  9.7358976548458820 19.1864502746972008   F   F   F
 21.6983801501333673 15.3441574963512224 19.1968809962830953   F   F   F
 21.6374698374514658 20.9046572863184039 19.2261209006783780   F   F   F
  5.7006714754292949  9.8837960277782493 19.2525061842827832   F   F   F
  5.9295836536468434 15.0835297942910316 19.9546037779858878   F   F   F
 13.6986812663710520  4.2445565468993811 19.3250956875710926   F   F   F
  5.9636083881870832 20.7580563741535258 19.1205855293771059   F   F   F
  1.9887515661718975 18.1155887952098809 19.2574502107578880   F   F   F
 21.6982156369999721 18.1325837370000720 10.8156001569999933   F   F   F
  0.0161692129283032  2.7429790317632112 18.5721747270353923   F   F   F
 19.7256482699999580 13.9481413360000008 12.2103998060000407   F   F   F
 23.6615812444320603 11.1670697924611506 15.2156451928114294   F   F   F
  7.8403302873729315 11.1425938680883885 15.0282481773801706   F   F   F
  7.8138351773409154  5.5355774713047694 15.0838813811766812   F   F   F
  7.8846305071899865  0.0216311491602473 15.1716380736424838   F   F   F
  7.9013144812628520 16.7545382234032303 15.0532544269104598   F   F   F
 15.7620214538828556  0.0024953383465155 15.1660689814882073   F   F   F
 15.8277688743240361 11.1499235599774664 15.0246304977787499   F   F   F
 15.7911631284035874  5.5313012513223487 15.0919524763557327   F   F   F
 15.7554829757723489 16.7801340737173383 15.0649567496719605   F   F   F
  3.9288837120046067  0.0236562716943678 15.1953827793897904   F   F   F
  3.9406573293843135  5.5412903329897087 15.1862357370823968   F   F   F
  3.8675040068471946 11.1556310865417281 15.0647630555687240   F   F   F
 11.8357991543664571 22.2975050596604021 15.1642917488874804   F   F   F
  3.8893520292492751 16.7673286664200027 15.1048398983388399   F   F   F
 11.8581078269754947 16.7966193385447866 15.1191763435691673   F   F   F
 19.7456870798588859  0.0086702548526953 15.1926856947563742   F   F   F
 11.8672065150495527 11.1519298991338403 15.0103144915292344   F   F   F
 11.8615884066099753  5.5317550827273285 15.0599957719555064   F   F   F
 19.7754293700015289  5.5432163385336644 15.0971823511325489   F   F   F
 23.6632364978774739 16.7523849535903793 15.1956370751252230   F   F   F
  0.0209076304324741  5.5752181636190192 15.1768132677545999   F   F   F
  0.0008195085943440 22.3159754786129838 15.1925928165228257   F   F   F
 19.7256482699999580 19.5273965409999306 12.2103998060000407   F   F   F
  0.0000000000000000 13.9481413360000008 12.2103998060000407   F   F   F
  0.0000000000000000 19.5273965409999306 12.2103998060000407   F   F   F
  7.8902602960000570  2.7896282670000101 12.2103998060000407   F   F   F
  7.8902602960000570  8.3688848019999824 12.2103998060000407   F   F   F
  7.8902602960000570 13.9481413360000008 12.2103998060000407   F   F   F
  7.8902602960000570 19.5273965409999306 12.2103998060000407   F   F   F
 15.7805205919999434  2.7896282670000101 12.2103998060000407   F   F   F
 15.7805205919999434  8.3688848019999824 12.2103998060000407   F   F   F
 15.7805205919999434 13.9481413360000008 12.2103998060000407   F   F   F
 19.7894908175484652 11.1532900865657414 15.0930764757322233   F   F   F
 15.7805205919999434 19.5273965409999306 12.2103998060000407   F   F   F
  3.9451301480000271  8.3688848019999824 12.2103998060000407   F   F   F
  3.9451301480000271 13.9481413360000008 12.2103998060000407   F   F   F
  3.9451301480000271 19.5273965409999306 12.2103998060000407   F   F   F
 11.8353900909999528  2.7896282670000101 12.2103998060000407   F   F   F
 11.8353900909999528  8.3688848019999824 12.2103998060000407   F   F   F
 11.8353900909999528 13.9481413360000008 12.2103998060000407   F   F   F
 11.8353900909999528 19.5273965409999306 12.2103998060000407   F   F   F
 19.7256482699999580  2.7896282670000101 12.2103998060000407   F   F   F
 19.7256482699999580  8.3688848019999824 12.2103998060000407   F   F   F
  3.9451301480000271  2.7896282670000101 12.2103998060000407   F   F   F
  0.0000000000000000  8.3688848019999824 12.2103998060000407   F   F   F
 19.7836352227531407 16.7743697105881395 15.0753039827730220   F   F   F
 19.8173358994270927  8.3161863777467140 18.1236638543704807   F   F   F
 19.6931211351021851 19.5438069843348075 18.5436413430890497   F   F   F
 19.9020303430127292 13.9846061512613389 18.0932270150074466   F   F   F
 23.6467057798309277 19.5221582961300975 18.6597452742635426   F   F   F
  7.8473189730417880  2.6749647763336184 18.4002956581495027   F   F   F
  7.9211546243917912 13.9204776707726925 17.8618032644292271   F   F   F
  7.7176659529509593  8.3424795265527081 17.7845213944217413   F   F   F
 15.8869566076222277  8.3023069277321824 17.8368678431039918   F   F   F
 15.7507008465126397  2.7758803406657404 18.3503471715063746   F   F   F
  7.9178438301596952 19.6112457220160756 18.0871907762216324   F   F   F
  3.7531048351712286 13.9961662698415275 18.0602693339276108   F   F   F
  3.9359594287128448 19.4721263826466711 18.5698047559114414   F   F   F
 11.8802416548084793  8.2821065053449718 17.8537737310399365   F   F   F
 11.8386136432596167  2.7200476119774266 18.1791558244735256   F   F   F
  3.9672341723332831  2.7339493632628225 18.6442160152524323   F   F   F
  3.8695344992161727  8.2964773040159336 18.2325372183027383   F   F   F
 15.7472284357539962 19.6583449953191405 18.2054156927737054   F   F   F
 15.7756258476008888 13.9887199977985546 17.8148197680136740   F   F   F
  0.0039991863599440  8.3677966306853371 18.6857773305622175   F   F   F
 23.6643338749959433 13.8897005291558031 19.3805580211024449   F   F   F
 19.7357456165836957  2.7853505515787278 18.5893803291788373   F   F   F
 11.8462949547396175 19.5592787377243518 18.2978263446534939   F   F   F
  0.0000000000000000  2.7896282670000101 12.2103998060000407   F   F   F
 11.9317565870589046 13.9447570079474641 17.8154669599793039   F   F   F
 21.6888940246171629 22.3121700799575144 18.1097138213852844   F   F   F
 13.8427513811496308 16.7475558704088634 17.9849453708854234   F   F   F
 13.9853730262192126 11.1740035868734289 17.8095667948331595   F   F   F
  5.7356461459233792 11.1296532131965229 17.8098823562476660   F   F   F
  5.9108922142265623 16.7975262830355838 17.7656330822887440   F   F   F
 13.8327804509735284  5.5119666804649423 17.9126008536571248   F   F   F
 13.7883034329859662  0.0230604169035919 18.1284113718332520   F   F   F
  5.9040243169079956 22.2617577436617147 18.1247230631423051   F   F   F
  5.9003985623039572  5.4890770905629456 18.1124840108846108   F   F   F
  9.8712161672938894  0.0015870630105112 18.1401036575035306   F   F   F
  9.8181291982224259  5.5521546672993880 17.7315322382756193   F   F   F
  9.8621457712593426 16.7370066591679603 17.8434231354804496   F   F   F
 17.9077748835971811 11.2209251811013591 17.8730634045195202   F   F   F
 17.8006866042569634 16.7899321922326230 17.7187442658074268   F   F   F
 17.8487640857813901  5.5329296837791295 17.8259457986042520   F   F   F
 17.7435905696508556  0.0382810032120392 18.1248833446131243   F   F   F
  1.9845005595976506  5.5368325198634869 18.1109507443773872   F   F   F
  1.9216209445794052 11.1706220850554860 18.1043400489336577   F   F   F
  1.8971722953657584 16.7528650310928882 18.0935106108311494   F   F   F
  1.9717687904101313 22.2760557852263545 18.1044253347266455   F   F   F