Au  C  H  O Sr Ti                       
   1.00000000000000     
    23.6707801818999997    0.0000000000000000    0.0000000000000000
     0.0000000000000000   22.3170261383000010    0.0000000000000000
     0.0000000000000000    0.0000000000000000   30.0000000000000000
   Au   C    H    O    Sr   Ti
    50     3     7   264    72    72
Selective dynamics
Direct
  0.7159072447820375  0.5238459636033105  0.7527501016960899   T   T   T
  0.7199661453249317  0.2534826083869717  0.6921305725452391   T   T   T
  0.2937012790835533  0.7461594531165703  0.6969462607062270   T   T   T
  0.5118244273621008  0.6034345594017420  0.7768176812137895   T   T   T
  0.5783390678865837  0.7256502629841077  0.7939607148271455   T   T   T
  0.2404668744179476  0.4697277227799367  0.7091663888503044   T   T   T
  0.2853195122449420  0.6621261784033442  0.7647490608709271   T   T   T
  0.6013640548682999  0.2840442451015221  0.7834563369431368   T   T   T
  0.5144520788556337  0.4843056496413426  0.6780589406388018   T   T   T
  0.4849873701596897  0.2705795956348886  0.7745942294479446   T   T   T
  0.2895521061388623  0.5381054629044487  0.7775737423499446   T   T   T
  0.7630144833256286  0.4292993933206579  0.7038985472510978   T   T   T
  0.5629826732815776  0.4854636171124977  0.7625056965310891   T   T   T
  0.4639774014846063  0.6949645934524614  0.8308043235506531   T   T   T
  0.4369782148627145  0.2275588949712289  0.6976578294504728   T   T   T
  0.3692938438519607  0.2987416870976590  0.7554659807772702   T   T   T
  0.3495262222156740  0.4995235391149463  0.6977689602033770   T   T   T
  0.4280456280281774  0.3709613769705861  0.8154759399195344   T   T   T
  0.5963685744832709  0.7845992017490616  0.7130609401961107   T   T   T
  0.6353154313272580  0.5837294489259217  0.7998288937638490   T   T   T
  0.7327531739454869  0.6144753115993582  0.6940894184962043   T   T   T
  0.4857769933983443  0.7761874374936515  0.7550888897570309   T   T   T
  0.5491926589676660  0.3813014836593595  0.8268104691473854   T   T   T
  0.3914809359804093  0.8167733653163222  0.7066531433919799   T   T   T
  0.7063415381050944  0.7568331282249223  0.6883530722181650   T   T   T
  0.5531986715577467  0.2131114169477509  0.7095141274385206   T   T   T
  0.3250396467413468  0.4149350677149652  0.7694409337635277   T   T   T
  0.6559381702880615  0.4400622672203048  0.8122443522434506   T   T   T
  0.3688012045241832  0.6185814019779450  0.8205853431924852   T   T   T
  0.5705918400994954  0.5088663726974813  0.8561405000265770   T   T   T
  0.6622052169330856  0.1818226763339207  0.7465891021627541   T   T   T
  0.4723028210665340  0.4490278357553848  0.8776500025854207   T   T   T
  0.5179852068532776  0.3770416391088963  0.7318253213193777   T   T   T
  0.2814250394907714  0.3407690367879653  0.7023487617201419   T   T   T
  0.4522814179200125  0.5795538902103936  0.7027842634837155   T   T   T
  0.3975392569721442  0.3816852734975577  0.6904638348953240   T   T   T
  0.6211049014699882  0.5707938131256001  0.7043458674136552   T   T   T
  0.4633353244431234  0.5723333878545409  0.8643054284892543   T   T   T
  0.6170193389796367  0.3199391330754677  0.6957006401862785   T   T   T
  0.3745858510817336  0.7391322629919542  0.7790108429799072   T   T   T
  0.6481601655100155  0.4449589345954529  0.6945634576956395   T   T   T
  0.6694110744805972  0.6811320934799779  0.7487579174609775   T   T   T
  0.7002285209721657  0.3420132557396065  0.7570297838197457   T   T   T
  0.7736410257520593  0.4268493609006253  0.7937986442565688   T   T   T
  0.4170774910665759  0.6958557418795952  0.6994075173663291   T   T   T
  0.4439379330420177  0.4733586784357840  0.7563816141927249   T   T   T
  0.5649406730920055  0.6389747323226906  0.8608041323115336   T   T   T
  0.5404248324468079  0.6677032647936495  0.7015887327376551   T   T   T
  0.3757538702024835  0.4927316247728025  0.8329284538875654   T   T   T
  0.2568734833138218  0.5930122735177934  0.6945148523350153   T   T   T
  0.6408822369568213  0.0522275834060652  0.7987489608125182   T   T   T
  0.7202927863586785  0.1118835706911747  0.7591297552493483   T   T   T
  0.6898140478367468  0.0525474404088028  0.7652042336913613   T   T   T
  0.6035782283127049  0.0746600013869142  0.7851339029382733   T   T   T
  0.6286009639694370  0.0063405007375468  0.8066568489545228   T   T   T
  0.6524796355682085  0.0746655202733160  0.8299171911153584   T   T   T
  0.7414035275796520  0.1278418100677064  0.7893710082454042   T   T   T
  0.7227201599836460  0.0213448095719601  0.7770764572766750   T   T   T
  0.6760009629602252  0.0349674500798537  0.7328848290549156   T   T   T
  0.7488901412925997  0.1121004767692330  0.7306143934108760   T   T   T
  0.2522560100589482  0.3141888683340427  0.4540704407899602   T   T   T
  0.2521150852035091  0.6876093012523526  0.4560743002649325   T   T   T
  0.4171054271480439  0.1871470708821326  0.4535750250586806   T   T   T
  0.9161652346454952  0.3121595228814806  0.4538911538843570   T   T   T
  0.5827854632146168  0.3109344851383794  0.5448474238571187   T   T   T
  0.9161161061996372  0.5622010604646527  0.4540301847765617   T   T   T
  0.9165847932557298  0.8120808965844487  0.4540570594076170   T   T   T
  0.0838459422571777  0.1865729086401892  0.4529642398096154   T   T   T
  0.0827419536244306  0.4368162463710943  0.4528769389897684   T   T   T
  0.0838844514229782  0.9366495833772293  0.4534809144927763   T   T   T
  0.0845795653505739  0.6868552585414687  0.4530294784395191   T   T   T
  0.4164414690647159  0.4354610318372298  0.4538400014693710   T   T   T
  0.9164436876469588  0.9371243931156193  0.4536566733765195   T   T   T
 -0.0000005837353555  0.1250965306756909  0.4984348230965621   T   T   T
  0.5832029687133679  0.8105000691958388  0.4552921605987831   T   T   T
 -0.0000383435635596  0.3733711060199983  0.4984035143368720   T   T   T
  0.9998253359750903  0.6270535248250571  0.4976910395506683   T   T   T
  0.3336031021698753  0.1255849969792646  0.4984962852192504   T   T   T
  0.0000707314498114  0.8751310339539500  0.4995264524372829   T   T   T
  0.3333788087609009  0.8737912382702226  0.4992825615688862   T   T   T
  0.6660648265239729  0.1264418545418805  0.4991354435290642   T   T   T
  0.2511383225051144  0.4393262694865366  0.4549162332597411   T   T   T
  0.0833333358191695  0.5625000000092442  0.3605200052333331   F   F   F
  0.9166666865332829  0.0625000000159659  0.3605200052333331   F   F   F
  0.7494615477594156  0.8131187479082288  0.4530911890273041   T   T   T
  0.2505100229649465  0.0620433259584763  0.4542366089687853   T   T   T
  0.9155090549203366  0.3126336748370268  0.5467183268379676   T   T   T
  0.5826473896953310  0.1902072907467380  0.4555172830573592   T   T   T
  0.5832406833904409  0.0623985074592455  0.5460111948751900   T   T   T
  0.0000000000000000  0.0000000000000000  0.4070133268666680   F   F   F
  0.4171641534467296  0.6847210913819664  0.4547356931219902   T   T   T
  0.4171764282762280  0.9358641876946944  0.4540156409634474   T   T   T
  0.9166666865332829  0.4374999701794380  0.3605200052333331   F   F   F
  0.9166666865332829  0.1875000000030838  0.3605200052333331   F   F   F
  0.5833333134730552  0.9375000000154046  0.3605200052333331   F   F   F
  0.5833333134730552  0.6874999999963620  0.3605200052333331   F   F   F
  0.5833333134730552  0.4374999701794380  0.3605200052333331   F   F   F
  0.5833333134730552  0.1875000000030838  0.3605200052333331   F   F   F
  0.2499999999799343  0.9375000000154046  0.3605200052333331   F   F   F
  0.9166666865332829  0.9375000000154046  0.3605200052333331   F   F   F
  0.2499999999799343  0.6874999999963620  0.3605200052333331   F   F   F
  0.2499999999799343  0.1875000000030838  0.3605200052333331   F   F   F
  0.7499999404149307  0.9375000000154046  0.3605200052333331   F   F   F
  0.7499999404149307  0.6874999999963620  0.3605200052333331   F   F   F
  0.7496041241979290  0.4381253817139632  0.4557303057449076   T   T   T
  0.7499999404149307  0.4374999701794380  0.3605200052333331   F   F   F
  0.2504510603345959  0.8108055852729775  0.4553323937983244   T   T   T
  0.4166666269218169  0.9375000000154046  0.3605200052333331   F   F   F
  0.4166666269218169  0.4374999701794380  0.3605200052333331   F   F   F
  0.2499999999799343  0.4374999701794380  0.3605200052333331   F   F   F
  0.0833333358191695  0.0625000000159659  0.3605200052333331   F   F   F
  0.9154451070521561  0.6866887849205829  0.4531599469823959   T   T   T
  0.6654465079652984  0.3784895033580629  0.5031038112977317   T   T   T
  0.3343355845042571  0.3784634784825084  0.5029404440173695   T   T   T
  0.3355704205126745  0.6255928230998410  0.5036755348910172   T   T   T
  0.9177521900130512  0.0633594330664552  0.5475818642793414   T   T   T
  0.2498850057605727  0.1885045241232403  0.4541045058681994   T   T   T
  0.7494899765802447  0.9383209632556062  0.4553008009704024   T   T   T
  0.7490701562628675  0.6885842253131037  0.4574362386314251   T   T   T
  0.7506188621284825  0.1891871130408307  0.4554651609005633   T   T   T
  0.7499999404149307  0.1875000000030838  0.3605200052333331   F   F   F
  0.2518494549450975  0.5646121052322449  0.4537129283811433   T   T   T
  0.4166666269218169  0.6874999999963620  0.3605200052333331   F   F   F
  0.0821091365778230  0.5642710142082182  0.5462766250860365   T   T   T
  0.2499999999799343  0.3124999999901945  0.3605200052333331   F   F   F
  0.8333332538436267  0.0000000000000000  0.4070133268666680   F   F   F
  0.5833333134730552  0.0625000000159659  0.3605200052333331   F   F   F
  0.2499999999799343  0.0625000000159659  0.3605200052333331   F   F   F
  0.7499999404149307  0.3124999999901945  0.3605200052333331   F   F   F
  0.7499999404149307  0.0625000000159659  0.3605200052333331   F   F   F
  0.4166666269218169  0.8124999999834799  0.3605200052333331   F   F   F
  0.4166666269218169  0.5625000000092442  0.3605200052333331   F   F   F
  0.4166666269218169  0.3124999999901945  0.3605200052333331   F   F   F
  0.7499999404149307  0.8124999999834799  0.3605200052333331   F   F   F
  0.4166666269218169  0.0625000000159659  0.3605200052333331   F   F   F
  0.4169403060612862  0.0615580750508373  0.4553522065208807   T   T   T
  0.0835178688924230  0.8120282220548591  0.4541861732534790   T   T   T
  0.0839714543544860  0.5624715810790423  0.4538826432068061   T   T   T
  0.4160721304297807  0.5595027297405721  0.4578639241333416   T   T   T
  0.0837315948952701  0.0618801490366442  0.4542028489052739   T   T   T
  0.0834591058159708  0.3119535845252114  0.4539593711956263   T   T   T
  0.2492602955615509  0.3137131217785097  0.5458967046333104   T   T   T
  0.8333332538436267  0.7500000000123208  0.4070133268666680   F   F   F
  0.0833333358191695  0.4374999701794380  0.3605200052333331   F   F   F
  0.0833333358191695  0.6874999999963620  0.3605200052333331   F   F   F
  0.0833333358191695  0.9375000000154046  0.3605200052333331   F   F   F
  0.4166666269218169  0.1875000000030838  0.3605200052333331   F   F   F
  0.0833333358191695  0.8124999999834799  0.3605200052333331   F   F   F
  0.8333332538436267  0.4999999999932783  0.4070133268666680   F   F   F
  0.2499999999799343  0.5625000000092442  0.3605200052333331   F   F   F
  0.7482522988641306  0.8080784908854768  0.5456760017906388   T   T   T
  0.7466383951367404  0.5579674459388245  0.5447869885758454   T   T   T
  0.2510777438008706  0.0624064664353828  0.5472695874479314   T   T   T
  0.4155061866525535  0.3113386891822298  0.4573494065269038   T   T   T
  0.4145051794542461  0.8116192756601993  0.5478534399177123   T   T   T
  0.7499999404149307  0.5625000000092442  0.3605200052333331   F   F   F
  0.9166666865332829  0.6874999999963620  0.3605200052333331   F   F   F
  0.2499999999799343  0.8124999999834799  0.3605200052333331   F   F   F
  0.5833333134730552  0.3124999999901945  0.3605200052333331   F   F   F
  0.5000000000021103  0.4999999999932783  0.4070133268666680   F   F   F
  0.0833333358191695  0.1875000000030838  0.3605200052333331   F   F   F
  0.0000000000000000  0.2500000000190425  0.4070133268666680   F   F   F
  0.0000000000000000  0.4999999999932783  0.4070133268666680   F   F   F
  0.7482926609177418  0.5640959765370256  0.4538750210941819   T   T   T
  0.3333333432766779  0.0000000000000000  0.4070133268666680   F   F   F
  0.3333333432766779  0.4999999999932783  0.4070133268666680   F   F   F
  0.3333333432766779  0.7500000000123208  0.4070133268666680   F   F   F
  0.6666666865533486  0.0000000000000000  0.4070133268666680   F   F   F
  0.6666666865533486  0.2500000000190425  0.4070133268666680   F   F   F
  0.6666666865533486  0.4999999999932783  0.4070133268666680   F   F   F
  0.5844404292595506  0.5627988285014260  0.4548120617319356   T   T   T
  0.5843599131677982  0.3153925107414746  0.4535746219715931   T   T   T
  0.1666666716383389  0.2500000000190425  0.4070133268666680   F   F   F
  0.1666666716383389  0.7500000000123208  0.4070133268666680   F   F   F
  0.5000000000021103  0.0000000000000000  0.4070133268666680   F   F   F
  0.5000000000021103  0.2500000000190425  0.4070133268666680   F   F   F
  0.5000000000021103  0.7500000000123208  0.4070133268666680   F   F   F
  0.9166666865332829  0.3124999999901945  0.3605200052333331   F   F   F
  0.3333333432766779  0.2500000000190425  0.4070133268666680   F   F   F
  0.7474221244396678  0.3135334449413085  0.4552784956401427   T   T   T
  0.0000000000000000  0.7500000000123208  0.4070133268666680   F   F   F
  0.4166606782989246  0.8100126406605767  0.4550912066649367   T   T   T
  0.5833333134730552  0.5625000000092442  0.3605200052333331   F   F   F
  0.7497713664969550  0.0636271695260560  0.4537756809239372   T   T   T
  0.5833333134730552  0.8124999999834799  0.3605200052333331   F   F   F
  0.1666666716383389  0.0000000000000000  0.4070133268666680   F   F   F
  0.8333332538436267  0.2500000000190425  0.4070133268666680   F   F   F
  0.1666666716383389  0.4999999999932783  0.4070133268666680   F   F   F
  0.6666666865533486  0.7500000000123208  0.4070133268666680   F   F   F
  0.5831446747061186  0.0635974772639954  0.4539765927439537   T   T   T
  0.2529522878560352  0.8124676732105112  0.5507131620621066   T   T   T
  0.5911228591889162  0.5648848900714897  0.6391290177941198   T   T   T
  0.0835714789439030  0.1888783834236945  0.5454797599736093   T   T   T
  0.4994870105141513  0.1254975201781043  0.4996218303714087   T   T   T
  0.9997389078326798  0.4999328444809856  0.5941419060203542   T   T   T
  0.5806162796818434  0.1853318353411654  0.5497566012479783   T   T   T
  0.9996792539564652  0.7531654647738445  0.5923196510720909   T   T   T
  0.3340467463294719  0.9997432211766074  0.5920498254511948   T   T   T
  0.9998716924824853  0.9991785484447330  0.5932788162292041   T   T   T
  0.0009971576490908  0.2498616734014223  0.5920002637577644   T   T   T
  0.3332919258314241  0.4963084401329905  0.5909416499469744   T   T   T
  0.3355371692136009  0.7411807531761254  0.5904154257350436   T   T   T
  0.6635493969412507  0.2473099736593924  0.5905917464121453   T   T   T
  0.6660337525297053  0.0003988087905316  0.5921170447661497   T   T   T
  0.6657325229252914  0.7415443469994973  0.5901501265794517   T   T   T
  0.3972610686519990  0.5505098409576824  0.6519274864820512   T   T   T
  0.0825916099693612  0.4385657146574072  0.5450916120275996   T   T   T
  0.6667539191614010  0.4943149419790069  0.5912502920383004   T   T   T
  0.1706280423689439  0.7499667723692910  0.5949244590419182   T   T   T
  0.2484613679216951  0.4358059954982248  0.5491229291651981   T   T   T
  0.1655925815188942  0.5026258426126073  0.5873894698486938   T   T   T
  0.3346370041979201  0.2545708137693560  0.5926057586347764   T   T   T
  0.4997223319026883  0.0001021052066025  0.5910277372503784   T   T   T
  0.8327288027426487  0.8743147443948772  0.4986085145643366   T   T   T
  0.7484723180174274  0.9368587276344514  0.6401952068623468   T   T   T
  0.8321474753580440  0.0020173753173710  0.5922626782943555   T   T   T
  0.5010019455893195  0.7561565825270555  0.5929968514711330   T   T   T
  0.4176410353632112  0.0650381673854713  0.6400939970166342   T   T   T
  0.4271038298369068  0.3045763439989805  0.6554887305826622   T   T   T
  0.4156336960130766  0.1912564172667224  0.5464404744981426   T   T   T
  0.4984552009002487  0.2529092969814772  0.5906174211407741   T   T   T
  0.1674033403631638  0.9983315962541266  0.5923092586226164   T   T   T
  0.1684906596539919  0.2480637629468715  0.5930592275641527   T   T   T
  0.9160992422415667  0.0622657971744156  0.4541414434440678   T   T   T
  0.4158690945448151  0.9369720979688055  0.5461096855518994   T   T   T
  0.5857915237801525  0.8141932877508359  0.5503261005126554   T   T   T
  0.6653996610536087  0.6258178527149183  0.5030123300535434   T   T   T
  0.4124296157706667  0.8127895117891900  0.6395531703641130   T   T   T
  0.9139997642157217  0.6890460035325944  0.5453167207650540   T   T   T
  0.9156196970464052  0.9385125473111604  0.5463977854133688   T   T   T
  0.0823968415172274  0.0631949679348765  0.5475568448265778   T   T   T
  0.0866600250013279  0.3134064432131732  0.5470382520961795   T   T   T
  0.0849127537184700  0.8128666113401645  0.5473252753311771   T   T   T
  0.4164579634497055  0.0652352548910531  0.5473055498266747   T   T   T
  0.5765940081077970  0.4355608199132713  0.5521837060717637   T   T   T
  0.2500258547996169  0.9360466235170718  0.4540804780324157   T   T   T
  0.4159868929639249  0.3194891969496738  0.5523983123352757   T   T   T
  0.2523885332337201  0.5589897450840671  0.5438694703898864   T   T   T
  0.5811273627844430  0.5599198922101979  0.5489784135444404   T   T   T
  0.5838138154120011  0.9377079365438045  0.5461133608207467   T   T   T
  0.7488190660857768  0.1842756103547290  0.5506050528190705   T   T   T
  0.9158352012744055  0.4375032956904830  0.5456676636047294   T   T   T
  0.2515129529056248  0.9372618356954887  0.5452795619474793   T   T   T
  0.4974917593548948  0.5043647364095143  0.6089078455288756   T   T   T
  0.9173653616996077  0.5637705491319719  0.5470279837902471   T   T   T
  0.4199777704590311  0.5648864088690615  0.5553487583400699   T   T   T
  0.9154907458348726  0.8128228755484072  0.5468158619679706   T   T   T
  0.0837318661122397  0.9387693618582306  0.5458864676926914   T   T   T
  0.2492154955741771  0.6831054476894247  0.5519706304467810   T   T   T
  0.7492767668948200  0.9339846631647930  0.5476051955495023   T   T   T
  0.7518160140812725  0.6801536199494297  0.5533067166595104   T   T   T
  0.7519343193511866  0.4356229823399048  0.5486449209697833   T   T   T
  0.4231729535679509  0.4436324349487614  0.5457448095935955   T   T   T
  0.4230254019463724  0.6878389343108768  0.5467398970285989   T   T   T
  0.9165048538585427  0.1888102529395198  0.5455874391910677   T   T   T
  0.7476172456306290  0.3124391581913574  0.5493726387887659   T   T   T
  0.5794365043025930  0.6859609503046703  0.5473829929497732   T   T   T
  0.7411368672068992  0.8097366273423836  0.6399759716671574   T   T   T
  0.0833333358191695  0.3124999999901945  0.3605200052333331   F   F   F
  0.9157077808974399  0.0623940675771972  0.6417491293448966   T   T   T
  0.5834462246574632  0.3205505496661029  0.6332922967842284   T   T   T
  0.2474940228926920  0.5736305792488404  0.6288220109249407   T   T   T
  0.7534253237836519  0.6919128002530084  0.6569711386731016   T   T   T
  0.2620023769446536  0.7991076820207950  0.6464478606559018   T   T   T
  0.2510170793525920  0.0593423574485979  0.6422987421167122   T   T   T
  0.9166666865332829  0.5625000000092442  0.3605200052333331   F   F   F
  0.4995293974007586  0.3742081670767365  0.4996780741393733   T   T   T
  0.4999704875097952  0.8733827892506936  0.5008481614452706   T   T   T
  0.5002696634772763  0.6210681378281717  0.5000243973764898   T   T   T
  0.8323971714885265  0.6231284231578982  0.5000101805342522   T   T   T
  0.8323544439179490  0.3730595313269349  0.4999062513641389   T   T   T
  0.8328256119547330  0.1243135170021277  0.5002865347891273   T   T   T
  0.1667729582537091  0.3762556116511035  0.4977577600600979   T   T   T
  0.1677439309494898  0.6242642729637226  0.5000153037805137   T   T   T
  0.5824777156007850  0.0656880913020933  0.6396914568920975   T   T   T
  0.5792071237011543  0.6852808669138017  0.6395166589346151   T   T   T
  0.2490746687890991  0.3162043089068033  0.6411961853466207   T   T   T
  0.1677616329572154  0.8733387626677352  0.4998466453814827   T   T   T
  0.5828356022879354  0.6861139034948541  0.4545984656209752   T   T   T
  0.5827106061567655  0.9371786865779387  0.4543127029781293   T   T   T
  0.9157515237631785  0.1868561068797908  0.4532648038463721   T   T   T
  0.9156903550643609  0.4368578360828422  0.4535765189958589   T   T   T
  0.1670693954985074  0.1243038856098247  0.4993353380136715   T   T   T
  0.7479040388818043  0.0603217251081775  0.5449901505700756   T   T   T
  0.7534458620208855  0.5680722421278321  0.6357981198095751   T   T   T
  0.9151585764597449  0.3117362050139501  0.6396944121730176   T   T   T
  0.9129487558557235  0.5618771451030625  0.6415731273622287   T   T   T
  0.5911199446411095  0.8099107400915311  0.6459851969236505   T   T   T
  0.5827889229729365  0.4396240382020385  0.4563976038705481   T   T   T
  0.9140026080238666  0.8132295872153912  0.6415631198949847   T   T   T
  0.9165514192867165  0.1860048767031019  0.6399388680418693   T   T   T
  0.2519827415506599  0.1880865791596983  0.5472141994704173   T   T   T
  0.5812152778904498  0.4383058677824131  0.6461107817491342   T   T   T
  0.0861219352231313  0.6893632639466352  0.5452273069923229   T   T   T
  0.6664942727034034  0.8743414932670619  0.4988625892369984   T   T   T
  0.7481256357240443  0.0671661115086898  0.6397351715284872   T   T   T
  0.0843698097646830  0.3112409008536650  0.6404983297094923   T   T   T
  0.0870657896551058  0.5623688927041618  0.6407836622698089   T   T   T
  0.0842212685748998  0.0603238959495959  0.6422519746944386   T   T   T
  0.0869493743294684  0.4364243624357783  0.6396171185871133   T   T   T
  0.0835922585981266  0.1852867226744153  0.6410801515868867   T   T   T
  0.4177795035155618  0.1872163639227183  0.6395162923052065   T   T   T
  0.0842612110372230  0.9354652633703002  0.6408174649366198   T   T   T
  0.9126846087033528  0.4357164891495515  0.6396024086965675   T   T   T
  0.9162809401563504  0.6874355676990886  0.6392301946711112   T   T   T
  0.9143525169619506  0.9368708541564772  0.6412047869673838   T   T   T
  0.4151759280809051  0.4186499589263462  0.6301237036741472   T   T   T
  0.7547904776297005  0.4325459873772102  0.6372807503534147   T   T   T
  0.4175316779433242  0.9348735580975663  0.6397811260832670   T   T   T
  0.0830586702424815  0.6869748556488059  0.6391224951991720   T   T   T
  0.2519455613020778  0.9301029136846439  0.6374144431636143   T   T   T
  0.7464428007090864  0.1923890863459565  0.6458792400067079   T   T   T
  0.2536199369513091  0.1863896992696822  0.6412099482614870   T   T   T
  0.8304245563810546  0.7507303065309701  0.5927742409183151   T   T   T
  0.8314826722003776  0.2493427428550194  0.5913373689131421   T   T   T
  0.5820908100946349  0.9354023361073271  0.6393235319412593   T   T   T
  0.9166666865332829  0.8124999999834799  0.3605200052333331   F   F   F
  0.0842216368753921  0.8123174379517381  0.6421858214166407   T   T   T
  0.7459957245556855  0.3096525251680649  0.6433034782120371   T   T   T
  0.5792582770263551  0.1910907453922537  0.6444890139749657   T   T   T
  0.2550359159666931  0.6773255488141552  0.6626813592880605   T   T   T
  0.8332122657954294  0.5023752513958100  0.5889742913575315   T   T   T
  0.2405290307255318  0.4420185963784421  0.6416190731744789   T   T   T
  0.4203024279327619  0.6756811722457392  0.6335390113122825   T   T   T
  0.5010965032815370  0.7527328992053979  0.5039792096264165   T   T   T
  0.8333332538436267  0.6249999999803961  0.4070133268666680   F   F   F
  0.9996756132293875  0.5002996350477591  0.5069702317596831   T   T   T
  0.3261052108325518  0.3733503954619692  0.5927230351521147   T   T   T
  0.6666666865533486  0.3750000000061604  0.4070133268666680   F   F   F
  0.6660428103463426 -0.0001086629821566  0.5056685203506864   T   T   T
  0.1643727035890660  0.7515013294935219  0.5033364948158859   T   T   T
  0.6685930710650340  0.4997766169479146  0.5006794820182853   T   T   T
  0.0006451654793558  0.1222372329960292  0.6197795133228978   T   T   T
  0.3301273918155989  0.2480239268502295  0.5027575512939809   T   T   T
  0.3330951627546277  0.0009522198930596  0.5057871319330844   T   T   T
  0.3338331587898470  0.7510923369179493  0.5015129927720662   T   T   T
  0.8360807351502852  0.4999283917130226  0.5028217938538209   T   T   T
  0.6653580796217624  0.7518330692740850  0.5021849647315579   T   T   T
  0.1666666716383389  0.3750000000061604  0.4070133268666680   F   F   F
  0.6670093237898519  0.2478783741061746  0.5026730251019154   T   T   T
  0.0000231026919497 -0.0000781851083450  0.5067361261091966   T   T   T
  0.0000000000000000  0.8749999404036828  0.4070133268666680   F   F   F
  0.3333333432766779  0.3750000000061604  0.4070133268666680   F   F   F
  0.5009690777726667  0.2477773351387941  0.5019599846400745   T   T   T
  0.9999042199794977  0.7508962396381420  0.5065733322981757   T   T   T
  0.0007809603101638  0.2497289753600552  0.5059507943926368   T   T   T
  0.6666666865533486  0.6249999999803961  0.4070133268666680   F   F   F
  0.8333332538436267  0.8749999404036828  0.4070133268666680   F   F   F
  0.3333333432766779  0.6249999999803961  0.4070133268666680   F   F   F
  0.3333333432766779  0.1249999999871179  0.4070133268666680   F   F   F
  0.6666666865533486  0.1249999999871179  0.4070133268666680   F   F   F
  0.8341214232448996  0.0001738836892076  0.5064909965629838   T   T   T
  0.3333333432766779  0.8749999404036828  0.4070133268666680   F   F   F
  0.0000000000000000  0.6249999999803961  0.4070133268666680   F   F   F
  0.1660002936032382  0.0010800543717203  0.5065796147795825   T   T   T
  0.3311925137284678  0.4991918187327106  0.5009304514131676   T   T   T
  0.1635328718962866  0.4997949908220785  0.5020786660464808   T   T   T
  0.8355758809610256  0.2484639617792988  0.5029611495314312   T   T   T
  0.5007375210281436  0.8765937480761322  0.6094756673998037   T   T   T
  0.5012504080602591  0.4997550194736152  0.5002407767854772   T   T   T
  0.0000000000000000  0.3750000000061604  0.4070133268666680   F   F   F
  0.9991457955301246  0.8749016127469446  0.6223881733078334   T   T   T
  0.0000000000000000  0.1249999999871179  0.4070133268666680   F   F   F
  0.8333332538436267  0.1249999999871179  0.4070133268666680   F   F   F
  0.5000000000021103  0.6249999999803961  0.4070133268666680   F   F   F
  0.8395447962111535  0.6268332541898027  0.6039062280655731   T   T   T
  0.1663468462098693  0.2481189130511114  0.5061278671581185   T   T   T
  0.3315481429607858  0.1195874153710942  0.6129305700616329   T   T   T
  0.6653392315831274  0.1237917118121694  0.6101048782594202   T   T   T
  0.8360552915479813  0.7516159654300690  0.5025850203123101   T   T   T
  0.3339873132122753  0.6242875820085309  0.5949672589645753   T   T   T
  0.1666666716383389  0.8749999404036828  0.4070133268666680   F   F   F
  0.8333332538436267  0.3750000000061604  0.4070133268666680   F   F   F
  0.8378914352505387  0.3722737747457774  0.6031948558390289   T   T   T
  0.8320135208402765  0.8761848664278290  0.6177966094565672   T   T   T
  0.1666666716383389  0.1249999999871179  0.4070133268666680   F   F   F
  0.3344872999189566  0.8785864826540688  0.6029752037456183   T   T   T
  0.0002897140816114  0.3744801159966412  0.6234783629363301   T   T   T
  0.5000000000021103  0.1249999999871179  0.4070133268666680   F   F   F
  0.5015589032329226  0.3711807111963604  0.5948220853874252   T   T   T
  0.1666666716383389  0.6249999999803961  0.4070133268666680   F   F   F
  0.5037546148466371  0.6249255472729742  0.5940605763160746   T   T   T
  0.5000000000021103  0.3750000000061604  0.4070133268666680   F   F   F
  0.6666666865533486  0.8749999404036828  0.4070133268666680   F   F   F
  0.5002657038646871  0.9992127424086524  0.5055596591645654   T   T   T
  0.1661659854055115  0.8733722655949130  0.6179538992413662   T   T   T
  0.6708337182575587  0.3723674231626960  0.5935668375611053   T   T   T
  0.1594147243142429  0.6271606488895302  0.6014416961519400   T   T   T
  0.1677989366174072  0.1226801467353363  0.6220144987611604   T   T   T
  0.1633195363663501  0.3713082636219878  0.6074860518717202   T   T   T
  0.6654367769604722  0.8809560381628134  0.6070050550109440   T   T   T
  0.6664529049881884  0.6260846693932640  0.5935722195391653   T   T   T
  0.8341914369224096  0.1238477379313123  0.6155913132367411   T   T   T
  0.9996000657970170  0.6223497828409091  0.6287135056631034   T   T   T
  0.5000000000021103  0.8749999404036828  0.4070133268666680   F   F   F
  0.5003167124979019  0.1219174429934117  0.6063828911027717   T   T   T
  0.5825296072679661  0.0008466802209345  0.6043529398164879   T   T   T
  0.5844043349430867  0.2474852015893053  0.5964638294271902   T   T   T
  0.5833333134730552  0.2500000000190425  0.4070133268666680   F   F   F
  0.0837314789528301  0.2476715640991350  0.6036255090941063   T   T   T
  0.7496946696225689  0.0017461210058959  0.6045276269162123   T   T   T
  0.9164522675809489 -0.0000853234479922  0.6039518137712706   T   T   T
  0.0816468458015040  0.4999025542185659  0.6032564004566723   T   T   T
  0.2425630793531921  0.4977109257859311  0.5940219095511954   T   T   T
  0.0819953950319839  0.3746124629793606  0.5060851690675304   T   T   T