Au O  Sr Ti H                           
   1.00000000000000     
    23.6707801818999997    0.0000000000000000    0.0000000000000000
     0.0000000000000000   22.3170261383000010    0.0000000000000000
     0.0000000000000000    0.0000000000000000   30.0000000000000000
   Au   O    Sr   Ti   H 
    50   264    72    72     1
Selective dynamics
Direct
  0.7182534716056423  0.5260322147475378  0.7541281855372901   F   F   F
  0.6247001272286283  0.5671340051049683  0.7039277718584103   F   F   F
  0.7191418451022216  0.2590425882017584  0.6918630423248686   F   F   F
  0.2912503469127614  0.7456670546157014  0.6984360661788571   F   F   F
  0.5137425535842368  0.6042018026275500  0.7767752933542482   F   F   F
  0.5771006132313872  0.7254407423410925  0.7927037939700909   F   F   F
  0.5502300635084580  0.3844070691353068  0.8295506780375561   F   F   F
  0.2416096040568334  0.4675165006394764  0.7093512673471238   F   F   F
  0.2832865824502022  0.6606069187609620  0.7658643460891739   F   F   F
  0.6024269594790184  0.2889031037430954  0.7877421815772649   F   F   F
  0.5146129532430521  0.4834395496970387  0.6781012967797224   F   F   F
  0.5625446917406407  0.4859531010222753  0.7627341887795680   F   F   F
  0.4637075242120261  0.6952119989817263  0.8298622136003431   F   F   F
  0.7645836762563079  0.4317436927880109  0.7057825210793212   F   F   F
  0.7335119487733976  0.6157857722691631  0.6939609583574295   F   F   F
  0.6355940462379408  0.5837106375423460  0.8001056917848288   F   F   F
  0.5946855642136839  0.7847718984919112  0.7126322685611939   F   F   F
  0.4838801095721479  0.7794595692508892  0.7571495958627992   F   F   F
  0.3493543913905981  0.5008698012229615  0.6974129485264342   F   F   F
  0.4309663800860051  0.3722404117962625  0.8156917805271107   F   F   F
  0.3728056366050794  0.2987729880533152  0.7557327729388916   F   F   F
  0.4409777534186148  0.2285581573102675  0.6970966970296004   F   F   F
  0.3895206801602882  0.8161003164783835  0.7066752150115931   F   F   F
  0.2900612712316217  0.5362273348887570  0.7776123195859199   F   F   F
  0.5554851639180285  0.2081584370605185  0.7118848834074925   F   F   F
  0.4538413874061433  0.5800807308633864  0.7027877280726500   F   F   F
  0.6136979140073962  0.3191186970088040  0.6975657474996737   F   F   F
  0.7055056989127664  0.7577578953056445  0.6883630562204317   F   F   F
  0.6562568952938364  0.4412586104032670  0.8124328122358335   F   F   F
  0.3686415176075712  0.6181005619347957  0.8201880226079794   F   F   F
  0.5713699531153864  0.5101665257240668  0.8571069151764306   F   F   F
  0.6645994439408582  0.1939812933091929  0.7522455443199547   F   F   F
  0.4725806262937766  0.4510925980102272  0.8794471675808637   F   F   F
  0.5162683768672665  0.3772090779669171  0.7341993842563141   F   F   F
  0.2836990252181337  0.3378429907367675  0.7026416427367366   F   F   F
  0.6692543944110270  0.6812401079112291  0.7487895106247962   F   F   F
  0.3977717253331079  0.3823009610459209  0.6902881836462456   F   F   F
  0.3761597421045195  0.4924280456000645  0.8335673897323730   F   F   F
  0.4640295248376418  0.5735180952312291  0.8632664004333250   F   F   F
  0.3267928435956335  0.4139034077058596  0.7695453688713769   F   F   F
  0.4873444375626192  0.2683872586827931  0.7753137693795438   F   F   F
  0.4252478838210010  0.6984259285003489  0.6992052263742110   F   F   F
  0.7001071727719932  0.3460926603758878  0.7566009619081342   F   F   F
  0.7742697246234371  0.4293296518727914  0.7960962172361121   F   F   F
  0.2563323168821654  0.5920444430629530  0.6949662716765772   F   F   F
  0.6476849139478702  0.4411610778456776  0.6967947073928897   F   F   F
  0.5656195886975794  0.6404160678500190  0.8611276980458626   F   F   F
  0.5453241524660726  0.6649527306133294  0.7013800914481081   F   F   F
  0.4431144469972637  0.4748053506256440  0.7560802835095259   F   F   F
  0.3730923477955344  0.7372186537492524  0.7780112256463667   F   F   F
  0.2502485670910133  0.1885811647268341  0.4540806509389412   F   F   F
  0.7493974522468463  0.9385115488355780  0.4553746097264622   F   F   F
  0.7490783426252534  0.6886391917747758  0.4572588832232114   F   F   F
  0.7494774845376710  0.4382851816672044  0.4557953763387133   F   F   F
  0.7495433630371480  0.1894926374450705  0.4557240439651054   F   F   F
  0.4173104762230224  0.9357190639507493  0.4539719518049452   F   F   F
  0.4169903101398376  0.6845574358383359  0.4547110081813699   F   F   F
  0.4164550297288798  0.4354512848459606  0.4538157905065745   F   F   F
  0.0845259264438099  0.6868105767463604  0.4530332576689275   F   F   F
  0.0837340886682938  0.9366640191890596  0.4534941973488671   F   F   F
  0.0827957356041082  0.4368655967954282  0.4529103390885965   F   F   F
  0.0837951097558545  0.1867526950829443  0.4530642146469575   F   F   F
  0.9169618101600960  0.8122785161325012  0.4540894535858158   F   F   F
  0.9161269215942980  0.5623821010537853  0.4538303492740496   F   F   F
  0.2512359617768567  0.4393605142720034  0.4549573921591019   F   F   F
  0.9162041013782769  0.0624699119013528  0.4538021940330950   F   F   F
  0.9162221402704631  0.3123526775884287  0.4536471778941902   F   F   F
  0.4169160355033625  0.1872505030402678  0.4535393562470844   F   F   F
  0.2524262283950662  0.6872928572624204  0.4560409800370167   F   F   F
  0.9164217871643103  0.9374442007441175  0.4537463424585937   F   F   F
  0.5828732056257806  0.1894425875130068  0.4551471958968420   F   F   F
  0.0003623251543345  0.1239635428387018  0.4988420727690368   F   F   F
  0.5838566039356934  0.8099275508195163  0.4554438860423033   F   F   F
  0.9999883643648886  0.3733798239168635  0.4984451902603624   F   F   F
  0.9997089280541616  0.6270766038491971  0.4976514357137773   F   F   F
  0.3336287394568487  0.1257215507434282  0.4983700147698826   F   F   F
  0.9998767562180717  0.8758379328131198  0.5000957502942924   F   F   F
  0.3334478947472022  0.8735993636783945  0.4988809921376998   F   F   F
  0.6659280021572087  0.1251062378716128  0.4999674040832929   F   F   F
  0.3357389509584223  0.6251560618027057  0.5040902741898705   F   F   F
  0.3343564556611156  0.3785013443694609  0.5029779676001311   F   F   F
  0.6655420988654299  0.3785769128971523  0.5033118688826335   F   F   F
  0.9153590954765320  0.6867417235075166  0.4529752775769822   F   F   F
  0.9161183692048098  0.4370060905583202  0.4536794326054903   F   F   F
  0.9166934218768006  0.1871927346901572  0.4537947286155912   F   F   F
  0.5829019592778835  0.9362697367307149  0.4537085525605278   F   F   F
  0.5827615392381560  0.6859954966128754  0.4545746329740581   F   F   F
  0.5827326153482559  0.4391124266407473  0.4560272684742515   F   F   F
  0.2500228653124452  0.9359818885270670  0.4540322964662309   F   F   F
  0.6653989875583193  0.6260668040088930  0.5029622678714318   F   F   F
  0.5846224046977326  0.5625304648828688  0.4550318810911946   F   F   F
  0.5830709255923239  0.0628543124887315  0.4543878606157534   F   F   F
  0.9166666865332829  0.6874999999963620  0.3605200052333331   F   F   F
  0.9166666865332829  0.4374999701794380  0.3605200052333331   F   F   F
  0.9166666865332829  0.1875000000030838  0.3605200052333331   F   F   F
  0.5833333134730552  0.9375000000154046  0.3605200052333331   F   F   F
  0.5833333134730552  0.6874999999963620  0.3605200052333331   F   F   F
  0.5833333134730552  0.4374999701794380  0.3605200052333331   F   F   F
  0.5833333134730552  0.1875000000030838  0.3605200052333331   F   F   F
  0.2499999999799343  0.9375000000154046  0.3605200052333331   F   F   F
  0.9166666865332829  0.9375000000154046  0.3605200052333331   F   F   F
  0.2499999999799343  0.6874999999963620  0.3605200052333331   F   F   F
  0.2499999999799343  0.1875000000030838  0.3605200052333331   F   F   F
  0.7499999404149307  0.9375000000154046  0.3605200052333331   F   F   F
  0.7499999404149307  0.6874999999963620  0.3605200052333331   F   F   F
  0.7499999404149307  0.4374999701794380  0.3605200052333331   F   F   F
  0.7499999404149307  0.1875000000030838  0.3605200052333331   F   F   F
  0.4166666269218169  0.9375000000154046  0.3605200052333331   F   F   F
  0.4166666269218169  0.6874999999963620  0.3605200052333331   F   F   F
  0.4166666269218169  0.4374999701794380  0.3605200052333331   F   F   F
  0.2499999999799343  0.4374999701794380  0.3605200052333331   F   F   F
  0.0833333358191695  0.0625000000159659  0.3605200052333331   F   F   F
  0.0833333358191695  0.3124999999901945  0.3605200052333331   F   F   F
  0.0833333358191695  0.5625000000092442  0.3605200052333331   F   F   F
  0.9166666865332829  0.3124999999901945  0.3605200052333331   F   F   F
  0.9166666865332829  0.0625000000159659  0.3605200052333331   F   F   F
  0.5833333134730552  0.8124999999834799  0.3605200052333331   F   F   F
  0.5833333134730552  0.5625000000092442  0.3605200052333331   F   F   F
  0.5833333134730552  0.3124999999901945  0.3605200052333331   F   F   F
  0.5833333134730552  0.0625000000159659  0.3605200052333331   F   F   F
  0.2499999999799343  0.8124999999834799  0.3605200052333331   F   F   F
  0.2499999999799343  0.5625000000092442  0.3605200052333331   F   F   F
  0.2499999999799343  0.3124999999901945  0.3605200052333331   F   F   F
  0.2499999999799343  0.0625000000159659  0.3605200052333331   F   F   F
  0.7499999404149307  0.8124999999834799  0.3605200052333331   F   F   F
  0.7499999404149307  0.5625000000092442  0.3605200052333331   F   F   F
  0.7499999404149307  0.3124999999901945  0.3605200052333331   F   F   F
  0.7499999404149307  0.0625000000159659  0.3605200052333331   F   F   F
  0.4166666269218169  0.8124999999834799  0.3605200052333331   F   F   F
  0.4166666269218169  0.5625000000092442  0.3605200052333331   F   F   F
  0.4166666269218169  0.3124999999901945  0.3605200052333331   F   F   F
  0.4166666269218169  0.0625000000159659  0.3605200052333331   F   F   F
  0.0833333358191695  0.8124999999834799  0.3605200052333331   F   F   F
  0.4166666269218169  0.1875000000030838  0.3605200052333331   F   F   F
  0.0833333358191695  0.9375000000154046  0.3605200052333331   F   F   F
  0.0833333358191695  0.6874999999963620  0.3605200052333331   F   F   F
  0.0833333358191695  0.4374999701794380  0.3605200052333331   F   F   F
  0.8333332538436267  0.4999999999932783  0.4070133268666680   F   F   F
  0.8333332538436267  0.7500000000123208  0.4070133268666680   F   F   F
  0.0837803299429325  0.0618674818942750  0.4541250269858637   F   F   F
  0.0835511939623643  0.3122515161153672  0.4537903849417120   F   F   F
  0.0839451626161747  0.5624831145768070  0.4538765029152856   F   F   F
  0.0834332170115175  0.8120601755984183  0.4541870575475926   F   F   F
  0.4168220372841844  0.0615169497399464  0.4553222266973549   F   F   F
  0.4155299974433646  0.3113971417637202  0.4573552309338496   F   F   F
  0.4160894344813570  0.5594440253050337  0.4578459477478987   F   F   F
  0.4161755061357297  0.8096271772086112  0.4551759889068165   F   F   F
  0.7495664180775776  0.0639024670489050  0.4534808443634404   F   F   F
  0.7474068636680400  0.3140578348834140  0.4545726951304374   F   F   F
  0.7481336990829277  0.5642386824337322  0.4537259544684602   F   F   F
  0.7487046200572323  0.8131878508512642  0.4531550586008919   F   F   F
  0.2504874715352017  0.0619460895044597  0.4541883612579198   F   F   F
  0.9157055502793128  0.3116721237446498  0.5464451948172737   F   F   F
  0.2522636296068370  0.3141805591462656  0.4541639527980763   F   F   F
  0.2519221999448291  0.5645590665030582  0.4537948198942416   F   F   F
  0.2503137781792617  0.8104256750707108  0.4555535182689070   F   F   F
  0.8333332538436267  0.2500000000190425  0.4070133268666680   F   F   F
  0.5842970905773086  0.3148026142521232  0.4540663854231752   F   F   F
  0.8333332538436267  0.0000000000000000  0.4070133268666680   F   F   F
  0.5000000000021103  0.4999999999932783  0.4070133268666680   F   F   F
  0.0833333358191695  0.1875000000030838  0.3605200052333331   F   F   F
  0.0000000000000000  0.0000000000000000  0.4070133268666680   F   F   F
  0.0000000000000000  0.2500000000190425  0.4070133268666680   F   F   F
  0.0000000000000000  0.4999999999932783  0.4070133268666680   F   F   F
  0.0000000000000000  0.7500000000123208  0.4070133268666680   F   F   F
  0.3333333432766779  0.0000000000000000  0.4070133268666680   F   F   F
  0.3333333432766779  0.2500000000190425  0.4070133268666680   F   F   F
  0.3333333432766779  0.4999999999932783  0.4070133268666680   F   F   F
  0.3333333432766779  0.7500000000123208  0.4070133268666680   F   F   F
  0.6666666865533486  0.0000000000000000  0.4070133268666680   F   F   F
  0.6666666865533486  0.2500000000190425  0.4070133268666680   F   F   F
  0.6666666865533486  0.4999999999932783  0.4070133268666680   F   F   F
  0.6666666865533486  0.7500000000123208  0.4070133268666680   F   F   F
  0.1666666716383389  0.0000000000000000  0.4070133268666680   F   F   F
  0.1666666716383389  0.2500000000190425  0.4070133268666680   F   F   F
  0.1666666716383389  0.4999999999932783  0.4070133268666680   F   F   F
  0.1666666716383389  0.7500000000123208  0.4070133268666680   F   F   F
  0.5000000000021103  0.0000000000000000  0.4070133268666680   F   F   F
  0.5000000000021103  0.2500000000190425  0.4070133268666680   F   F   F
  0.5000000000021103  0.7500000000123208  0.4070133268666680   F   F   F
  0.1672806425870519  0.1248037612527355  0.4988030335111873   F   F   F
  0.9162028308212626  0.0606426957394604  0.5463922970189259   F   F   F
  0.1679089258775548  0.8729779638306638  0.4996216726733209   F   F   F
  0.2519093184364323  0.1883026981448808  0.5472945547472818   F   F   F
  0.7511926554247452  0.9346091467260536  0.5479112873096739   F   F   F
  0.7517154130620582  0.6804333689117499  0.5530212334076552   F   F   F
  0.7529671923013339  0.4344663355701854  0.5494918695715612   F   F   F
  0.4231268609555627  0.4439249058040033  0.5455302659183161   F   F   F
  0.4231146532391392  0.6880123502255842  0.5465836983991608   F   F   F
  0.7485557088231829  0.1829909338856126  0.5510358707735747   F   F   F
  0.4158796723296732  0.9364940622770277  0.5460388427120790   F   F   F
  0.0862605619050356  0.9380218575635411  0.5459806179244566   F   F   F
  0.4156805785715036  0.1914559086815188  0.5465564334263320   F   F   F
  0.0864316005936487  0.6895976345373782  0.5451466740576549   F   F   F
  0.0826141620616099  0.4385220840780235  0.5451222292591353   F   F   F
  0.0838005194669478  0.1883751529686819  0.5460356177409693   F   F   F
  0.4991219283225661  0.1262057145567042  0.4989677353818394   F   F   F
  0.9995438186487746  0.4989390461882266  0.5944387498524719   F   F   F
  0.9994896951592764  0.7541345572991673  0.5923615572243790   F   F   F
  0.3346627371337405  0.2544924500917887  0.5926469975164039   F   F   F
  0.3340082684105781  0.9999266368895547  0.5919070783467859   F   F   F
  0.0029771553049898  0.9964988192382975  0.5914801981635165   F   F   F
  0.0010712060383185  0.2484027750944193  0.5923030643524925   F   F   F
  0.3333958795778571  0.4965403808401021  0.5910903754732928   F   F   F
  0.3355324466560674  0.7399096443690425  0.5907897490025036   F   F   F
  0.6633489048541747  0.2473211559733528  0.5908527768619152   F   F   F
  0.6631972275317892  0.0006978479688868  0.5905161534089771   F   F   F
  0.6658809185123289  0.7421488404708754  0.5899979533394912   F   F   F
  0.6670279122880629  0.4933567991981391  0.5911170724373775   F   F   F
  0.1684862119831934  0.9985033442697286  0.5923871267338114   F   F   F
  0.1685835293290978  0.2495032875426659  0.5931363915066967   F   F   F
  0.1709269411780880  0.7492992667325140  0.5950181117514575   F   F   F
  0.2483133822921673  0.4359215555151721  0.5491738376280182   F   F   F
  0.1654188190041168  0.5031841290738228  0.5876701098274069   F   F   F
  0.2493608638366211  0.6831265551427705  0.5519097589624380   F   F   F
  0.5808057585417004  0.1858366613783033  0.5494410003193479   F   F   F
  0.9143581313689921  0.8132479831662138  0.5468397798298952   F   F   F
  0.9167713080006905  0.5634885410236450  0.5464951084302783   F   F   F
  0.5814586798528012  0.5602521090475534  0.5494161816959178   F   F   F
  0.5861603204878634  0.8148581431019437  0.5504917558872151   F   F   F
  0.5828782788272662  0.3116820696463520  0.5455024097887247   F   F   F
  0.5805842387678055  0.0628060472296283  0.5461251604963167   F   F   F
  0.2534390788276042  0.8128607952946538  0.5514507572039236   F   F   F
  0.2523618927709634  0.5589910168959733  0.5440010927142822   F   F   F
  0.2494849737881850  0.3137502364986346  0.5459420809178184   F   F   F
  0.2514417928248989  0.0627709135526331  0.5471394917493626   F   F   F
  0.7488131602462076  0.8085911670614010  0.5458189432057026   F   F   F
  0.7464600424880743  0.5576812332066652  0.5445686650641619   F   F   F
  0.4139037329017015  0.8115571717734298  0.5481396561274323   F   F   F
  0.7506936669670594  0.0583634690422414  0.5445991183329753   F   F   F
  0.7477561881408192  0.3109677308136298  0.5477651540486974   F   F   F
  0.4159704360484398  0.3197335491891238  0.5525329601326590   F   F   F
  0.4202460833929464  0.5649730163212041  0.5554385242304747   F   F   F
  0.4163035049657609  0.0654114466423295  0.5472237445293970   F   F   F
  0.0851899068213555  0.8125304624458067  0.5474063923281278   F   F   F
  0.0824690759460935  0.5640547392141002  0.5463065814907466   F   F   F
  0.0862563520857051  0.3132333679819794  0.5469022641371311   F   F   F
  0.0845127345898149  0.0623950218217715  0.5471417468850248   F   F   F
  0.9127122891951274  0.9388770685176553  0.5465181735327747   F   F   F
  0.9132048934598558  0.6895415594363783  0.5450137994636393   F   F   F
  0.5818212754011469  0.9382584806600747  0.5452162819578206   F   F   F
  0.9167826519720066  0.1870451180916817  0.5461947432436176   F   F   F
  0.9155123091645052  0.4371631148804553  0.5457721008016918   F   F   F
  0.5765121060799245  0.4361311786466970  0.5516339820341827   F   F   F
  0.5795336308525521  0.6864821542214230  0.5471096047774111   F   F   F
  0.2518921547152857  0.9373283557164882  0.5450634897771138   F   F   F
  0.4976990683120732  0.5043536537506981  0.6089883254709676   F   F   F
  0.4985225354543630  0.2530600329619688  0.5902714189477152   F   F   F
  0.4985061949602283  0.0003786091247022  0.5907930303049298   F   F   F
  0.7536903694100445  0.6934975035574595  0.6574071617369341   F   F   F
  0.7467637749325817  0.9368443543863236  0.6392443138095345   F   F   F
  0.2535133863412824  0.1868253231157553  0.6413870382458597   F   F   F
  0.7457634445733419  0.1943512231744009  0.6467465817942966   F   F   F
  0.7560915892234306  0.4362612786814282  0.6392089238982877   F   F   F
  0.4171875193681203  0.9350342933986511  0.6398632231784163   F   F   F
  0.4216022104469275  0.6758767829188699  0.6336313336264610   F   F   F
  0.5898200515228567  0.8101924344422144  0.6458590006751734   F   F   F
  0.9181382480609912  0.0618128918935241  0.6395791784496794   F   F   F
  0.9130418438175170  0.5615648419147874  0.6426507145638496   F   F   F
  0.9152742417300175  0.3117238761337973  0.6394880859042402   F   F   F
  0.9135933724858774  0.8132948551062711  0.6411513652531156   F   F   F
  0.5812412896865027  0.0657820614465336  0.6395540689282768   F   F   F
  0.5829251253018768  0.3199183809966826  0.6341293990983488   F   F   F
  0.5918232149584526  0.5643169132148600  0.6396339737351227   F   F   F
  0.2474872837724647  0.5737086354625021  0.6289576817850389   F   F   F
  0.2618355808187118  0.7983172543245232  0.6469370949594904   F   F   F
  0.2497123332603195  0.3165710421211045  0.6414006926262346   F   F   F
  0.2511840174618030  0.0593575464400189  0.6424259124564315   F   F   F
  0.9166666865332829  0.5625000000092442  0.3605200052333331   F   F   F
  0.4995653223785510  0.3741763752215235  0.4997281746418736   F   F   F
  0.4996928294347924  0.8718459409468124  0.5001499529794415   F   F   F
  0.5004176429973768  0.6209965850916674  0.5001125834097238   F   F   F
  0.8322798202982398  0.6230105381795994  0.4999788752389378   F   F   F
  0.8324838457652035  0.8741120950570220  0.4975518341932883   F   F   F
  0.8326408661936924  0.3728857454862577  0.4994665634921631   F   F   F
  0.8329578598236793  0.1250134589787777  0.4994121750217531   F   F   F
  0.1667490741124311  0.3762183312231500  0.4977590914486214   F   F   F
  0.1677468765011554  0.6243308413537960  0.5000305882477676   F   F   F
  0.5815908653753894  0.4383347756501976  0.6459182746719350   F   F   F
  0.5805502152470794  0.6848858075414910  0.6385544848702267   F   F   F
  0.9164756087091206  0.1858255624296703  0.6404725011353918   F   F   F
  0.5804205861239993  0.9353979751740056  0.6386512349572229   F   F   F
  0.8303869729483253  0.7504853267085707  0.5928879938278513   F   F   F
  0.8315338608314278  0.2479228211046660  0.5913007959580767   F   F   F
  0.8333115136590195  0.5038607837498148  0.5893387525192324   F   F   F
  0.8317911170111287  0.0024844112041578  0.5993788548225183   F   F   F
  0.5010679956899935  0.7562843982934027  0.5927455471523828   F   F   F
  0.4174482798452601  0.0653699199726034  0.6401527166701513   F   F   F
  0.4269530195142934  0.3052163601322917  0.6550547640688009   F   F   F
  0.4118066104965123  0.8124259585769380  0.6397576952450450   F   F   F
  0.3981215222501433  0.5509379231898848  0.6521850119170693   F   F   F
  0.7520292964478017  0.5710850668318486  0.6342714680482260   F   F   F
  0.7410256621674094  0.8100393002508852  0.6398706793752424   F   F   F
  0.7467719941855506  0.3126487896015888  0.6400764309441129   F   F   F
  0.7462458017996667  0.0671182104406114  0.6386104947735944   F   F   F
  0.0835730868833622  0.3122250748377411  0.6404024376184054   F   F   F
  0.6665989527878082  0.8751906832487535  0.4996865241610706   F   F   F
  0.0867699717566879  0.5617294221435714  0.6419907110775114   F   F   F
  0.0844443720187442  0.0602002448484100  0.6420202716547081   F   F   F
  0.0869640698002101  0.4366775381200370  0.6395000923841820   F   F   F
  0.0854727422337263  0.1863052730790784  0.6417030552441716   F   F   F
  0.4183652550180597  0.1882219986342477  0.6398463511918706   F   F   F
  0.4150345817305379  0.4190835902231029  0.6298728445685242   F   F   F
  0.0860370042547061  0.9348451108036926  0.6413356296967052   F   F   F
  0.0829645363349059  0.6869718873119339  0.6398223442686088   F   F   F
  0.9125139406031479  0.4361494186127004  0.6397327209181896   F   F   F
  0.9165387243850844  0.6876681768744390  0.6398785393292954   F   F   F
  0.9154535291574888  0.9373571788662858  0.6395865200750208   F   F   F
  0.2406424560560154  0.4421269162002091  0.6416025559231571   F   F   F
  0.2540001927402713  0.6765924502877283  0.6637308104474826   F   F   F
  0.5783126751450709  0.1910690948054494  0.6442523360707852   F   F   F
  0.2524567708185046  0.9297280257093377  0.6374368875557863   F   F   F
  0.0850068440452105  0.8111281251824423  0.6421501249949060   F   F   F
  0.9166666865332829  0.8124999999834799  0.3605200052333331   F   F   F
  0.0023863954136161  0.1246735037324456  0.6207946792133399   F   F   F
  0.8333332538436267  0.6249999999803961  0.4070133268666680   F   F   F
  0.9993937810615847  0.5004724110069247  0.5071602344547728   F   F   F
  0.3311780358919378  0.4992851985452376  0.5010660823173225   F   F   F
  0.3301078654415548  0.2482084417192425  0.5027673302316273   F   F   F
  0.3331239848957637  0.0010527501953845  0.5056014531551725   F   F   F
  0.3337719472087883  0.7507901746316250  0.5016228944538739   F   F   F
  0.6649568474911405  0.0004447778527421  0.5050550042797539   F   F   F
  0.6686171761316402  0.4996862673595359  0.5007556532240329   F   F   F
  0.6670802735002255  0.2474804391509835  0.5030797750376266   F   F   F
  0.6655369502153334  0.7520718037785770  0.5021223244713724   F   F   F
  0.1667390707454928  0.0010569878099105  0.5064408410056700   F   F   F
  0.1663940645472977  0.2482592396969991  0.5062531511022144   F   F   F
  0.1633624785185503  0.4998665665111730  0.5021856988460840   F   F   F
  0.4995722598289660  0.9993740175770540  0.5052730836782899   F   F   F
  0.1643132840596238  0.7512557400480091  0.5033422322834511   F   F   F
  0.5008960105286206  0.7525292324992918  0.5038357837552496   F   F   F
  0.8340335029109340  0.0001632481843572  0.5061655472900668   F   F   F
  0.5013295863875342  0.4997801976897520  0.5003572941627468   F   F   F
  0.5010700186594690  0.2480048433785882  0.5019194376179286   F   F   F
  0.8355451486383956  0.2479277295316891  0.5032411367318232   F   F   F
  0.9995877997617058  0.7509696225328284  0.5066368000901775   F   F   F
  0.0008436885234886  0.2491815404827449  0.5060988125565089   F   F   F
  0.0016777012875551  0.9996601922634269  0.5053820054293254   F   F   F
  0.8333332538436267  0.8749999404036828  0.4070133268666680   F   F   F
  0.0000000000000000  0.6249999999803961  0.4070133268666680   F   F   F
  0.0000000000000000  0.8749999404036828  0.4070133268666680   F   F   F
  0.3333333432766779  0.1249999999871179  0.4070133268666680   F   F   F
  0.3333333432766779  0.3750000000061604  0.4070133268666680   F   F   F
  0.3333333432766779  0.6249999999803961  0.4070133268666680   F   F   F
  0.3333333432766779  0.8749999404036828  0.4070133268666680   F   F   F
  0.6666666865533486  0.1249999999871179  0.4070133268666680   F   F   F
  0.6666666865533486  0.3750000000061604  0.4070133268666680   F   F   F
  0.6666666865533486  0.6249999999803961  0.4070133268666680   F   F   F
  0.8361107652982298  0.4998698835331510  0.5030904007430195   F   F   F
  0.6666666865533486  0.8749999404036828  0.4070133268666680   F   F   F
  0.1666666716383389  0.3750000000061604  0.4070133268666680   F   F   F
  0.1666666716383389  0.6249999999803961  0.4070133268666680   F   F   F
  0.1666666716383389  0.8749999404036828  0.4070133268666680   F   F   F
  0.5000000000021103  0.1249999999871179  0.4070133268666680   F   F   F
  0.5000000000021103  0.3750000000061604  0.4070133268666680   F   F   F
  0.5000000000021103  0.6249999999803961  0.4070133268666680   F   F   F
  0.5000000000021103  0.8749999404036828  0.4070133268666680   F   F   F
  0.8333332538436267  0.1249999999871179  0.4070133268666680   F   F   F
  0.8333332538436267  0.3750000000061604  0.4070133268666680   F   F   F
  0.1666666716383389  0.1249999999871179  0.4070133268666680   F   F   F
  0.0000000000000000  0.3750000000061604  0.4070133268666680   F   F   F
  0.8357346303665310  0.7517245626745606  0.5023896162571830   F   F   F
  0.8370882309099130  0.3724492209906316  0.6045389553951992   F   F   F
  0.8321399572910053  0.8755252649179894  0.6148191067753359   F   F   F
  0.8406223857761930  0.6268264124806890  0.6032247477406329   F   F   F
  0.0005010805553241  0.8738136847606555  0.6237596536151528   F   F   F
  0.3314885999546888  0.1201775245621093  0.6133902401311460   F   F   F
  0.3343268608910108  0.6238958539661610  0.5955227027581387   F   F   F
  0.3259201892634067  0.3738543381407453  0.5928488285022127   F   F   F
  0.6710683235902621  0.3720298234941311  0.5941942287194664   F   F   F
  0.6638047259185527  0.1265074969873865  0.6128271775038314   F   F   F
  0.3346080725022844  0.8784092375274426  0.6027405406546009   F   F   F
  0.1586520844808348  0.6268602124342735  0.6016340829758420   F   F   F
  0.1671917709589650  0.8718903202449297  0.6183574929801878   F   F   F
  0.5016521874680251  0.3715048953389015  0.5950140341943921   F   F   F
  0.4996542935692290  0.1225242627842960  0.6059926601946088   F   F   F
  0.1682791492975539  0.1226068426989642  0.6217106180742178   F   F   F
  0.1634161945629415  0.3716790046634628  0.6078032109321398   F   F   F
  0.6635290513175676  0.8796562708157296  0.6070205655601839   F   F   F
  0.6662088472997141  0.6266260873322977  0.5935032420632922   F   F   F
  0.9998598141154318  0.3751572288092362  0.6225400447183702   F   F   F
  0.9995521232907265  0.6221917071915257  0.6435396972006515   F   F   F
  0.8337010646800991  0.1252219977254612  0.6160406928065782   F   F   F
  0.4996175573557124  0.8761284750331413  0.6096023184405510   F   F   F
  0.0000000000000000  0.1249999999871179  0.4070133268666680   F   F   F
  0.5039711042641173  0.6247144328388998  0.5939097893298992   F   F   F
  0.9251992271549483  0.9993994491991316  0.6013347740218080   F   F   F
  0.5841498561431919  0.7497615270780216  0.5994207785788532   F   F   F
  0.5907670057246435  0.5008636661813668  0.5937278505524617   F   F   F
  0.2422867072972323  0.4980910400825636  0.5940053353655657   F   F   F
  0.2495216291625653  0.7522885770287857  0.5921420615651343   F   F   F
  0.5838997548759579  0.2478485033433628  0.5970300137453748   F   F   F
  0.5801631925131900  0.0012114247464652  0.6041302285700425   F   F   F
  0.2502693611766773  0.9973854005028713  0.6045203944919848   F   F   F
  0.2492627444174929  0.2461028740453415  0.6037813206925833   F   F   F
  0.4166344038980370  0.0003151009820002  0.6049026991245157   F   F   F
  0.4146348458347049  0.2488945125982980  0.5910834859933232   F   F   F
  0.4160357204033147  0.7499137415461092  0.5945294393929643   F   F   F
  0.7564954329298388  0.5026960546444954  0.5957026647136772   F   F   F
  0.7516858245511813  0.7525538335731312  0.5906056707087046   F   F   F
  0.7537287093140606  0.2481948685981408  0.5943971216769910   F   F   F
  0.7413315866098102  0.0018230766474545  0.6036346240974950   F   F   F
  0.0841368813646355  0.2482677292385063  0.6038927237951768   F   F   F
  0.0811445056857565  0.5004203421651638  0.6033597041753040   F   F   F
  0.0803153146446007  0.7504608110973621  0.6030959733319321   F   F   F
  0.0863595641628834  0.9979215573242399  0.6041093574416863   F   F   F