Au O  Sr Ti H 
 1.0000000000000000
    23.6707801818999997    0.0000000000000000    0.0000000000000000
     0.0000000000000000   22.3170261383000010    0.0000000000000000
     0.0000000000000000    0.0000000000000000   30.0000000000000000
 Au  O   Sr  Ti  H  
  50 264  72  72   1
Selective dynamics
Cartesian
 17.0016200412637666 11.7394746861086166 22.6238455661186251   F   F   F
 14.7871393912338931 12.6567444158463154 21.1178331557523613   F   F   F
 17.0226485350207426  5.7810602118315950 20.7558912697460514   F   F   F
  6.8941229396740136 16.6410711483277680 20.9530819853656745   F   F   F
 12.1606870559803681 13.4839874220470506 23.3032588006275212   F   F   F
 13.6604217586398580 16.1896800086138910 23.7811138191028348   F   F   F
 13.0243748827815242  8.5788226096399072 24.8865203411266656   F   F   F
  5.7190878274651222 10.4335779648577667 21.2805380204136263   F   F   F
  6.7056144216604006 14.7427818731302249 22.9759303826751911   F   F   F
 14.2599161334783009  6.4474581176706947 23.6322654473178808   F   F   F
 12.1812900949746030 10.7889330668768633 20.3430389033915944   F   F   F
 13.3158717406873812 10.8450280575021338 22.8820256633870365   F   F   F
 10.9763188743158846 15.5150643529349566 24.8958664080103631   F   F   F
 18.0982921313320304  9.6352352769962675 21.1734756323796667   F   F   F
 17.3628001002121799 13.7425071753241852 20.8188287507229255   F   F   F
 15.0450069534226465 13.0266855552362859 24.0031707535447687   F   F   F
 14.0766712678513404 17.5137749712473401 21.3789680568357490   F   F   F
 11.4538197080759421 17.3952195807202123 22.7144878758840534   F   F   F
  8.2694910041882874 11.1779244457779061 20.9223884557931150   F   F   F
 10.2013104488050121  8.3072989997887330 24.4707534158132809   F   F   F
  8.8246002746521555  6.6677245838037908 22.6719831881667275   F   F   F
 10.4382874662800926  5.1007383708149101 20.9129009108880410   F   F   F
  9.2202583963784157 18.2129320943229871 21.2002564503477799   F   F   F
  6.8659765906061079 11.9669994487833318 23.3283695875775798   F   F   F
 13.1487672094103232  4.6454772807872624 21.3565465022247807   F   F   F
 10.7427797187393939 12.9456768330023646 21.0836318421794715   F   F   F
 14.5267084205596220  7.1217803023657176 20.9269724249902467   F   F   F
 16.6998703160418884 16.9109027560393343 20.6508916866130221   F   F   F
 15.5341127113566060  9.8475799421196282 24.3729843670750839   F   F   F
  8.7260323292108080 13.7941663967966779 24.6056406782394106   F   F   F
 13.5247725627367803 11.3853996894696472 25.7132074552928280   F   F   F
 15.7315873465369691  4.3290855931224321 22.5673663295986948   F   F   F
 11.1863521232246956 10.0670453005879637 26.3834150274259720   F   F   F
 12.2204752636914105  8.4181848525917022 22.0259815276894457   F   F   F
  6.7153772637576994  7.5396508549138739 21.0792492821021753   F   F   F
 15.8417736558739701 15.2032532947131696 22.4636853187438668   F   F   F
  9.4155670729350458  8.5318205403590035 20.7086455093874164   F   F   F
  8.9039945686362998 10.9895295648886595 25.0070216919712678   F   F   F
 10.9839408803433987 12.7992183220633908 25.8979920129996657   F   F   F
  7.7354415657702020  9.2370931685031152 23.0863610661412579   F   F   F
 11.5358230544164790  5.9896054672105681 23.2594130813862208   F   F   F
 10.0659491807450614 15.5867897020087174 20.9761567912262912   F   F   F
 16.5720829904572611  7.7237589478824180 22.6980288572440081   F   F   F
 18.3275684530616978  9.5813610627924053 23.8828865170834312   F   F   F
  6.0675859264349397 13.2126713108712455 20.8489881502972381   F   F   F
 15.3312072251928111  9.8454033054825683 20.9038412217867133   F   F   F
 13.3886569506370172 14.2921821255961810 25.8338309413758829   F   F   F
 12.9082481409052878 14.8397674698316759 21.0414027434431468   F   F   F
 10.4888646702964596 10.5962434205171210 22.6824085052858031   F   F   F
  8.8313869522171231 16.4525279653644851 23.3403367693910795   F   F   F
  5.9235788224468733  4.2085707823998613 13.6224195281681411   F   F   F
 17.7388223610110352 20.9447867664600054 13.6612382917938362   F   F   F
 17.7312687873042947 15.3683788426955008 13.7177664966963935   F   F   F
 17.7407167877745557  9.7812218552965042 13.6738612901614047   F   F   F
 17.7422761832544609  4.2289121428770997 13.6717213189531712   F   F   F
  9.8780645502792179 20.8824668082944420 13.6191585541484397   F   F   F
  9.8704859693023952 15.2772861887718232 13.6413302454411980   F   F   F
  9.8578154643589624  9.7179777058636425 13.6144737151971569   F   F   F
  2.0007946245229031 15.3275695933094092 13.5909977300678619   F   F   F
  1.9820512065988778 20.9035553990474305 13.6048259204660038   F   F   F
  1.9598396574835426  9.7495409426075526 13.5873101726579364   F   F   F
  1.9834956233490728  4.1677647775640718 13.5919264394086383   F   F   F
 21.7052014434967724 18.1276408761085932 13.6226836075744746   F   F   F
 21.6854389797793701 12.5506960489294084 13.6149104782215282   F   F   F
  5.9469512250081840  9.8052200811451655 13.6487217647730628   F   F   F
 21.6872658854804925  1.3941426567597242 13.6140658209928702   F   F   F
 21.6876928801320439  6.9707828701089243 13.6094153368257160   F   F   F
  9.8687278307093216  4.1788743707594156 13.6061806874126408   F   F   F
  5.9751257644856599 15.3383326601923056 13.6812294011104161   F   F   F
 21.6924186778703891 20.9209667312041709 13.6123902737577804   F   F   F
 13.7970635242873314  4.2277951772349738 13.6544158769052260   F   F   F
  0.0085765190826178  2.7664976257276357 14.9652621830712125   F   F   F
 13.8203413295124271 18.0751743217683867 13.6633165812691857   F   F   F
 -0.0002754245609987  8.3327272898664368 14.9533557078109762   F   F   F
 23.6638902818529147 13.9944849588189921 14.9295430714133133   F   F   F
  7.8972525540474079  2.8057311340886191 14.9511004430964096   F   F   F
 -0.0029172764707280 19.5460980395051109 15.0028725088287871   F   F   F
  7.8929718186782747 19.4961398336130358 14.9664297641309645   F   F   F
 15.7630353560351661  2.7919991806451310 14.9990221224987099   F   F   F
  7.9472029066384833 13.9516241717676159 15.1227082256962060   F   F   F
  7.9144781643535023  8.4470243956749016 15.0893390280040265   F   F   F
 15.7539007240438753  8.4487108604826933 15.0993560664790039   F   F   F
 21.6672639365278421 15.3260329937784086 13.5892583273095617   F   F   F
 21.6852365380478105  9.7526763455863250 13.6103829781647416   F   F   F
 21.6988484834394413  4.1775851529800514 13.6138418584677865   F   F   F
 13.7977441456655416 20.8947561871186700 13.6112565768159079   F   F   F
 13.7944202937720952 15.3093794286656379 13.6372389892217072   F   F   F
 13.7937356427322264  9.7996835029938456 13.6808180542274638   F   F   F
  5.9182362852596375 20.8883322712338924 13.6209688939868467   F   F   F
 15.7505131677518282 13.9719492293883434 15.0888680361428751   F   F   F
 13.8384684310138084 12.5540070883810504 13.6509564327358355   F   F   F
 13.8017437101528895  1.4027213347159553 13.6316358184725885   F   F   F
 21.6982156369999721 15.3429554700000619 10.8156001569999933   F   F   F
 21.6982156369999721  9.7636982699999884 10.8156001569999933   F   F   F
 21.6982156369999721  4.1844424010000720 10.8156001569999933   F   F   F
 13.8079546360000549 20.9222120050000342 10.8156001569999933   F   F   F
 13.8079546360000549 15.3429554700000619 10.8156001569999933   F   F   F
 13.8079546360000549  9.7636982699999884 10.8156001569999933   F   F   F
 13.8079546360000549  4.1844424010000720 10.8156001569999933   F   F   F
  5.9176950450000287 20.9222120050000342 10.8156001569999933   F   F   F
 21.6982156369999721 20.9222120050000342 10.8156001569999933   F   F   F
  5.9176950450000287 15.3429554700000619 10.8156001569999933   F   F   F
  5.9176950450000287  4.1844424010000720 10.8156001569999933   F   F   F
 17.7530837259999217 20.9222120050000342 10.8156001569999933   F   F   F
 17.7530837259999217 15.3429554700000619 10.8156001569999933   F   F   F
 17.7530837259999217  9.7636982699999884 10.8156001569999933   F   F   F
 17.7530837259999217  4.1844424010000720 10.8156001569999933   F   F   F
  9.8628241350000643 20.9222120050000342 10.8156001569999933   F   F   F
  9.8628241350000643 15.3429554700000619 10.8156001569999933   F   F   F
  9.8628241350000643  9.7636982699999884 10.8156001569999933   F   F   F
  5.9176950450000287  9.7636982699999884 10.8156001569999933   F   F   F
  1.9725650740000149  1.3948141340000613 10.8156001569999933   F   F   F
  1.9725650740000149  6.9740706679999214 10.8156001569999933   F   F   F
  1.9725650740000149 12.5533272030000536 10.8156001569999933   F   F   F
 21.6982156369999721  6.9740706679999214 10.8156001569999933   F   F   F
 21.6982156369999721  1.3948141340000613 10.8156001569999933   F   F   F
 13.8079546360000549 18.1325837370000720 10.8156001569999933   F   F   F
 13.8079546360000549 12.5533272030000536 10.8156001569999933   F   F   F
 13.8079546360000549  6.9740706679999214 10.8156001569999933   F   F   F
 13.8079546360000549  1.3948141340000613 10.8156001569999933   F   F   F
  5.9176950450000287 18.1325837370000720 10.8156001569999933   F   F   F
  5.9176950450000287 12.5533272030000536 10.8156001569999933   F   F   F
  5.9176950450000287  6.9740706679999214 10.8156001569999933   F   F   F
  5.9176950450000287  1.3948141340000613 10.8156001569999933   F   F   F
 17.7530837259999217 18.1325837370000720 10.8156001569999933   F   F   F
 17.7530837259999217 12.5533272030000536 10.8156001569999933   F   F   F
 17.7530837259999217  6.9740706679999214 10.8156001569999933   F   F   F
 17.7530837259999217  1.3948141340000613 10.8156001569999933   F   F   F
  9.8628241350000643 18.1325837370000720 10.8156001569999933   F   F   F
  9.8628241350000643 12.5533272030000536 10.8156001569999933   F   F   F
  9.8628241350000643  6.9740706679999214 10.8156001569999933   F   F   F
  9.8628241350000643  1.3948141340000613 10.8156001569999933   F   F   F
  1.9725650740000149 18.1325837370000720 10.8156001569999933   F   F   F
  9.8628241350000643  4.1844424010000720 10.8156001569999933   F   F   F
  1.9725650740000149 20.9222120050000342 10.8156001569999933   F   F   F
  1.9725650740000149 15.3429554700000619 10.8156001569999933   F   F   F
  1.9725650740000149  9.7636982699999884 10.8156001569999933   F   F   F
 19.7256482699999580 11.1585130689999925 12.2103998060000407   F   F   F
 19.7256482699999580 16.7377696039999648 12.2103998060000407   F   F   F
  1.9831457736461342  1.3806982105454064 13.6237508095758066   F   F   F
  1.9777219462184015  6.9685252468704135 13.6137115482514517   F   F   F
  1.9870474916212522 12.5529503703629217 13.6162950874585373   F   F   F
  1.9749293397484708 18.1227681647023644 13.6256117264277474   F   F   F
  9.8665028195257349  1.3728753752948333 13.6596668009206059   F   F   F
  9.8359192284673309  6.9494581521328813 13.7206569280154760   F   F   F
  9.8491615396192564 12.4851269356481449 13.7353784324370700   F   F   F
  9.8511989228299175 18.0684708760425821 13.6552796672045069   F   F   F
 17.7428219140484238  1.4261130274322895 13.6044253309033198   F   F   F
 17.6917035763295338  7.0088369100310670 13.6371808539131827   F   F   F
 17.7089083376637646 12.5921294241135477 13.6117786340538451   F   F   F
 17.7224224825476604 18.1479345227956088 13.5946517580268171   F   F   F
  5.9292338770296444  1.3824524986365543 13.6256508377375578   F   F   F
 21.6754647920074426  6.9555949321887889 16.3933558445181689   F   F   F
  5.9712769243117059  7.0115757506129590 13.6249185839423088   F   F   F
  5.9631950178347237 12.5992794437630042 13.6138445968272137   F   F   F
  5.9251224197821477 18.0862909737024715 13.6666055480671123   F   F   F
 19.7256482699999580  5.5792565349999723 12.2103998060000407   F   F   F
 13.8307679919791191  7.0254581706698147 13.6219915626953281   F   F   F
 19.7256482699999580  0.0000000000000000 12.2103998060000407   F   F   F
 11.8353900909999528 11.1585130689999925 12.2103998060000407   F   F   F
  1.9725650740000149  4.1844424010000720 10.8156001569999933   F   F   F
  0.0000000000000000  0.0000000000000000 12.2103998060000407   F   F   F
  0.0000000000000000  5.5792565349999723 12.2103998060000407   F   F   F
  0.0000000000000000 11.1585130689999925 12.2103998060000407   F   F   F
  0.0000000000000000 16.7377696039999648 12.2103998060000407   F   F   F
  7.8902602960000570  0.0000000000000000 12.2103998060000407   F   F   F
  7.8902602960000570  5.5792565349999723 12.2103998060000407   F   F   F
  7.8902602960000570 11.1585130689999925 12.2103998060000407   F   F   F
  7.8902602960000570 16.7377696039999648 12.2103998060000407   F   F   F
 15.7805205919999434  0.0000000000000000 12.2103998060000407   F   F   F
 15.7805205919999434  5.5792565349999723 12.2103998060000407   F   F   F
 15.7805205919999434 11.1585130689999925 12.2103998060000407   F   F   F
 15.7805205919999434 16.7377696039999648 12.2103998060000407   F   F   F
  3.9451301480000271  0.0000000000000000 12.2103998060000407   F   F   F
  3.9451301480000271  5.5792565349999723 12.2103998060000407   F   F   F
  3.9451301480000271 11.1585130689999925 12.2103998060000407   F   F   F
  3.9451301480000271 16.7377696039999648 12.2103998060000407   F   F   F
 11.8353900909999528  0.0000000000000000 12.2103998060000407   F   F   F
 11.8353900909999528  5.5792565349999723 12.2103998060000407   F   F   F
 11.8353900909999528 16.7377696039999648 12.2103998060000407   F   F   F
  3.9596633193651329  2.7852488020354329 14.9640910053356215   F   F   F
 21.6872358104046548  1.3533646259144805 16.3917689105677447   F   F   F
  3.9745352750265446 19.4822720369687623 14.9886501801995831   F   F   F
  5.9628901024809977  4.2023562364117293 16.4188366424184480   F   F   F
 17.7813162208168443 20.8576967565795535 16.4373386192901805   F   F   F
 17.7936903019380814 15.1852492793750198 16.5906370022297480   F   F   F
 17.8233208931473150  9.6959965671312940 16.4847560871469376   F   F   F
 10.0157429147365473  9.9070837262703009 16.3659079775495933   F   F   F
 10.0154539485645735 15.3543896034575447 16.3975109519749225   F   F   F
 17.7188976374598433  4.0838134545971299 16.5310761232072103   F   F   F
  9.8441963058362116 20.8997624661991317 16.3811652813624811   F   F   F
  2.0418547992211966 20.9338583135422382 16.3794185377337165   F   F   F
  9.8394836012510609  4.2727265183774064 16.3966930027899416   F   F   F
  2.0459034184220379 15.3897684348805814 16.3544002217297333   F   F   F
  1.9555416700722992  9.7865088125911033 16.3536668777741276   F   F   F
  1.9836236754311531  4.2039732126083242 16.3810685322291683   F   F   F
 11.8146054492894983  2.8165362305648611 14.9690320614551240   F   F   F
 23.6599820134119909 11.1348357352011771 17.8331624955740899   F   F   F
 23.6587008681895128 16.8300406270407841 17.7708467167313913   F   F   F
  7.9217280857657606  5.6795146606984659 17.7794099254921250   F   F   F
  7.9062363004838021 22.3153888918465952 17.7572123504035311   F   F   F
  0.0704715887917531 22.2388901957261496 17.7444059449055871   F   F   F
  0.0253562826625541  5.5436112246083811 17.7690919305747173   F   F   F
  7.8917405790385828 11.0813046579300689 17.7327112641988016   F   F   F
  7.9423147886907826 16.5125828733641455 17.7236924700752141   F   F   F
 15.7019861107072369  5.5194727024119619 17.7255833058575476   F   F   F
 15.6983957901505740  0.0155738913622353 17.7154846022694095   F   F   F
 15.7619208494269820 16.5625550712975453 17.6999386001848293   F   F   F
 15.7890710869623483 11.0102565832128665 17.7335121731213334   F   F   F
  3.9882000875351169 22.2836252332474984 17.7716138020142473   F   F   F
  3.9905036650380104  5.5681713896814964 17.7940917452008733   F   F   F
  4.0459740517910276 16.7221313210785070 17.8505433525437454   F   F   F
  5.8777714884620087  9.7284727486804954 16.4752151288405244   F   F   F
  3.9155925025958749 11.2295733609181898 17.6301032948221668   F   F   F
  5.9025661938452982 15.2453531868879804 16.5572927688731681   F   F   F
 13.7481254388222851  4.1473216294339990 16.4832300095804456   F   F   F
 21.6435703351682953 18.1492764972401623 16.4051933948968447   F   F   F
 21.7006921087572842 12.5753884986572242 16.3948532529082982   F   F   F
 13.7635805956534920 12.5031609616519326 16.4824854508774763   F   F   F
 13.8748720976202193 18.1852104786127242 16.5147526766164354   F   F   F
 13.7971836109244741  6.9558168951370192 16.3650722936618074   F   F   F
 13.7428818929484056  1.4016441976668743 16.3837548148895706   F   F   F
  5.9991007244314192 18.1406356153900461 16.5435227161177245   F   F   F
  5.9736028900696674 12.4750171351422701 16.3200327814285124   F   F   F
  5.9055039732272174  7.0019722288377997 16.3782624275346187   F   F   F
  5.9518234065009761  1.4008601184790446 16.4141847524808924   F   F   F
 17.7249917135018045 18.0453502105077384 16.3745682961710877   F   F   F
 17.6692915803069255 12.4457866583124908 16.3370599519248749   F   F   F
  9.7974242779839464 18.1115426151925263 16.4441896838229056   F   F   F
 17.7695047747216925  1.3024990641375307 16.3379735499893357   F   F   F
 17.6999723591368010  6.9398749767356600 16.4329546214608655   F   F   F
  9.8463447538716746  7.1355019745450559 16.5759888039798611   F   F   F
  9.9475526622989303 12.6085175726745469 16.6631557269141908   F   F   F
  9.8542287549990508  1.4597889644609547 16.4167123358818721   F   F   F
  2.0165115580849178 18.1332635685680721 16.4221917698439057   F   F   F
  1.9521073685244008 12.5880243584731364 16.3891974447223490   F   F   F
  2.0417551495133042  6.9904372606416310 16.4070679241138428   F   F   F
  2.0004823630467392  1.3924713328962288 16.4142524065507516   F   F   F
 21.6046119668566341 20.9529440787589927 16.3955452059832041   F   F   F
 21.6162722941237249 15.3885170053858147 16.3504139839091209   F   F   F
 13.7721635151732240 20.9391390373725237 16.3564884587346704   F   F   F
 21.7009606294087725  4.1742907894934111 16.3858422973086206   F   F   F
 21.6708906240566925  9.7561806614877522 16.3731630240506973   F   F   F
 13.6464913352220467  9.7331509135859573 16.5490194610254484   F   F   F
 13.7180131839291519 15.3202401792360465 16.4132881433223865   F   F   F
  5.9624838238107110 20.9183814146945970 16.3519046933134540   F   F   F
 11.7809252427514384 11.2556736737013683 18.2696497641291309   F   F   F
 11.8004173524637341  5.6475473701713303 17.7081425684314127   F   F   F
 11.8000305602189286  0.0084494297321422 17.7237909091478016   F   F   F
 17.8404390595202287 15.4768019137376989 19.7222148521081024   F   F   F
 17.6764811642349322 20.9075799443584494 19.1773294142859854   F   F   F
  6.0008596412535260  4.1693856192705763 19.2416111473757105   F   F   F
 17.6528025641921005  4.3373413275936077 19.4023974538289323   F   F   F
 17.8972778058912070  9.7360543594615780 19.1762677169486686   F   F   F
  9.8751540655948578 20.8671847659846108 19.1958966953524452   F   F   F
  9.9796532476923474 15.0835598306705077 19.0089400087937399   F   F   F
 13.9615007864744900 18.0810857364997339 19.3757700202551035   F   F   F
 21.7330486464464663  1.3794799240717588 19.1873753534903351   F   F   F
 21.6124127818811687 12.5324572553626066 19.2795214369153989   F   F   F
 21.6652553821464657  6.9567498916101167 19.1846425771271356   F   F   F
 21.6254678957539213 18.1503225395515528 19.2345409575935449   F   F   F
 13.7584348008131805  1.4680599847335447 19.1866220678483330   F   F   F
 13.7982925035273105  7.1396268708255883 19.0238819729505408   F   F   F
 14.0089172278268066 12.5938753025008552 19.1890192120537151   F   F   F
  5.8582170919935139 12.8034706133851603 18.8687304535512013   F   F   F
  6.1978524773598727 17.8160670314163276 19.4081128487846826   F   F   F
  5.9108857493143052  7.0649242216456027 19.2420207787871185   F   F   F
  5.9457216625449076  1.3246839154073249 19.2727773736928683   F   F   F
 21.6982156369999721 12.5533272030000536 10.8156001569999933   F   F   F
 11.8251009325226235  8.3505039461530899 14.9918452392561470   F   F   F
 11.8281191240227042 19.4570086526807877 15.0044985893832603   F   F   F
 11.8452760265353891 13.8587970212858274 15.0033775022917197   F   F   F
 19.7007126761108431 13.9037424649905468 14.9993662571680471   F   F   F
 19.7055421180909214 19.5075824731917642 14.9265550257985655   F   F   F
 19.7092589141377452  8.3217009286163162 14.9839969047648687   F   F   F
 19.7167624006721773  2.7899286316686234 14.9823652506526681   F   F   F
  3.9470806788507318  8.3960743316146598 14.9327727434586635   F   F   F
  3.9706994398591853 13.9332077054395196 15.0009176474329511   F   F   F
 13.7667095301019149  9.7823286455113365 19.3775482401579744   F   F   F
 13.7420765296682674 15.2846144686540928 19.1566345461068970   F   F   F
 21.6936926758265152  4.1470739339071816 19.2141750340617250   F   F   F
 13.7390081071906973 20.8753010616711165 19.1595370487166008   F   F   F
 19.6559075025730827 16.7486006525658091 17.7866398148354747   F   F   F
 19.6830552335472788  5.5329000788739755 17.7390238787423549   F   F   F
 19.7251336628690694 11.2446742810089066 17.6801625755768868   F   F   F
 19.6891446880274188  0.0554446697814058 17.9813656446754919   F   F   F
 11.8606703821630255 16.8780186847024289 17.7823664145715767   F   F   F
  9.8813264695294709  1.4588622126871538 19.2045815001045099   F   F   F
 10.1063110729213079  6.8115214869091565 19.6516429220640134   F   F   F
  9.7477837545163233 18.1309313529949563 19.1927308573512754   F   F   F
  9.4238470388666062 12.2952960324093450 19.5655503575121585   F   F   F
 17.8011201665648997 12.7449203636792223 19.0281440414467653   F   F   F
 17.5406555583116699 18.0776682367492256 19.1961203812573018   F   F   F
 17.6766757203651927  6.9773912096465489 19.2022929283234127   F   F   F
 17.6642203360655934  1.4978788567589665 19.1583148432078865   F   F   F
  1.9782401687388802  6.9679351561865417 19.2120731285520776   F   F   F
 15.7789172809250253 19.5316533540590775 14.9905957248321648   F   F   F
  2.0539129278422803 12.5361301966301877 19.2597213323254017   F   F   F
  1.9988641676542953  1.3434904378140125 19.2606081496412287   F   F   F
  2.0585073799641602  9.7453440322333371 19.1850027715254683   F   F   F
  2.0232064929587499  4.1577796490089796 19.2510916573251123   F   F   F
  9.9030319872770338  4.2005552633235794 19.1953905357560224   F   F   F
  9.8241923520303374  9.3526994371415562 18.8961853370557193   F   F   F
  2.0365630152222791 20.8629627730679417 19.2400688909012345   F   F   F
  1.9638353024768367 15.3311695654176585 19.1946703280581907   F   F   F
 21.5999169009365275  9.7335579753840218 19.1919816275456867   F   F   F
 21.6951866731184353 15.3467086777840294 19.1963561798788085   F   F   F
 21.6694992554314716 20.9190246616820978 19.1875956022506351   F   F   F
  5.6961946797344165  9.8669579452859821 19.2480766776948009   F   F   F
  6.0123827285152123 15.0995313980477306 19.9119243134244641   F   F   F
 13.6891122097655558  4.2640939829945417 19.3275700821236356   F   F   F
  5.9758487274771737 20.7487646512653008 19.1231066266735574   F   F   F
  2.0121783193513014 18.1019675712068100 19.2645037498471687   F   F   F
 21.6982156369999721 18.1325837370000720 10.8156001569999933   F   F   F
  0.0564878412627348  2.7823418415504424 18.6238403764002314   F   F   F
 19.7256482699999580 13.9481413360000008 12.2103998060000407   F   F   F
 23.6564305066666947 11.1690558779396376 15.2148070336432522   F   F   F
  7.8392424886713981 11.1425608264004037 15.0319824695196722   F   F   F
  7.8139107191833199  5.5392742815950475 15.0830199069488060   F   F   F
  7.8853046197862557  0.0234942536275521 15.1680435946551544   F   F   F
  7.9006423932638761 16.7554039516328608 15.0486868336161468   F   F   F
 15.7400473674119414  0.0099261189654181 15.1516501283925979   F   F   F
 15.8266902020547882 11.1515114896123233 15.0226695967210517   F   F   F
 15.7903105177055973  5.5230274292504440 15.0923932511287049   F   F   F
 15.7537788514793125 16.7840061028049945 15.0636697341411718   F   F   F
  3.9468438913507593  0.0235888245815612 15.1932252301700323   F   F   F
  3.9386773254720180  5.5404079413923872 15.1875945330665143   F   F   F
  3.8669173189829102 11.1555352304921183 15.0655709653826033   F   F   F
 11.8252651473865473 22.3030560722050524 15.1581925103486412   F   F   F
  3.8894236279413796 16.7657939871993840 15.1002669685034689   F   F   F
 11.8565993592136021 16.7942145515215131 15.1150735126575757   F   F   F
 19.7422237117447992  0.0036432139973899 15.1849664187020874   F   F   F
 11.8668624380622258 11.1536077352468794 15.0107188248823427   F   F   F
 11.8607182674288296  5.5347305721049533 15.0575831285379262   F   F   F
 19.7780055454724604  5.5330096203680368 15.0972341019547933   F   F   F
 23.6610230806684818 16.7594086951344572 15.1991040027052229   F   F   F
  0.0199707655815283  5.5609909521352421 15.1829643766951836   F   F   F
  0.0397124983886287 -0.0075834981391252 15.1614601628796830   F   F   F
 19.7256482699999580 19.5273965409999306 12.2103998060000407   F   F   F
  0.0000000000000000 13.9481413360000008 12.2103998060000407   F   F   F
  0.0000000000000000 19.5273965409999306 12.2103998060000407   F   F   F
  7.8902602960000570  2.7896282670000101 12.2103998060000407   F   F   F
  7.8902602960000570  8.3688848019999824 12.2103998060000407   F   F   F
  7.8902602960000570 13.9481413360000008 12.2103998060000407   F   F   F
  7.8902602960000570 19.5273965409999306 12.2103998060000407   F   F   F
 15.7805205919999434  2.7896282670000101 12.2103998060000407   F   F   F
 15.7805205919999434  8.3688848019999824 12.2103998060000407   F   F   F
 15.7805205919999434 13.9481413360000008 12.2103998060000407   F   F   F
 19.7913941330946130 11.1556092565583693 15.0927120222906677   F   F   F
 15.7805205919999434 19.5273965409999306 12.2103998060000407   F   F   F
  3.9451301480000271  8.3688848019999824 12.2103998060000407   F   F   F
  3.9451301480000271 13.9481413360000008 12.2103998060000407   F   F   F
  3.9451301480000271 19.5273965409999306 12.2103998060000407   F   F   F
 11.8353900909999528  2.7896282670000101 12.2103998060000407   F   F   F
 11.8353900909999528  8.3688848019999824 12.2103998060000407   F   F   F
 11.8353900909999528 13.9481413360000008 12.2103998060000407   F   F   F
 11.8353900909999528 19.5273965409999306 12.2103998060000407   F   F   F
 19.7256482699999580  2.7896282670000101 12.2103998060000407   F   F   F
 19.7256482699999580  8.3688848019999824 12.2103998060000407   F   F   F
  3.9451301480000271  2.7896282670000101 12.2103998060000407   F   F   F
  0.0000000000000000  8.3688848019999824 12.2103998060000407   F   F   F
 19.7824907258075235 16.7762567140103833 15.0716884877155834   F   F   F
 19.8145315067241690  8.3119590000374188 18.1361686618558906   F   F   F
 19.6974020096110465 19.5391202219167397 18.4445732032601697   F   F   F
 19.8981877096926816 13.9889014315084079 18.0967424322190844   F   F   F
  0.0118609676784941 19.5009228428077321 18.7127896084545924   F   F   F
  7.8465937823332030  2.6820049568887523 18.4017072039344534   F   F   F
  7.9137776330557452 13.9235000805397746 17.8656810827442669   F   F   F
  7.7147851568973183  8.3433170362039313 17.7854648550664187   F   F   F
 15.8847107747411549  8.3025992951455834 17.8258268615839626   F   F   F
 15.7127757509243615  2.8232711169584843 18.3848153251150528   F   F   F
  7.9204341312908344 19.6034819140240906 18.0822162196379495   F   F   F
  3.7554186171460096 13.9896557459558988 18.0490224892752309   F   F   F
  3.9575596585922703 19.4579990666368516 18.5507247894057130   F   F   F
 11.8744986573248887  8.2908844597847189 17.8504210258318601   F   F   F
 11.8272069500196810  2.7343771751330315 18.1797798058382902   F   F   F
  3.9832987522195396  2.7362201132471426 18.6513185422265373   F   F   F
  3.8681888196620351  8.2947700621318070 18.2340963279641279   F   F   F
 15.7062503180427200 19.6313119885141631 18.2106169668056204   F   F   F
 15.7696831796684975 13.9844307699355426 17.8050972618988581   F   F   F
 -0.0033183092581481  8.3723936813078605 18.6762013415511241   F   F   F
 23.6601785907662716 13.8854685924268590 19.3061909160194496   F   F   F
 19.7343546394585729  2.7945825963293216 18.4812207841973688   F   F   F
 11.8263373751848064 19.5525820778235797 18.2880695532166300   F   F   F
  0.0000000000000000  2.7896282670000101 12.2103998060000407   F   F   F
 11.9293892270653341 13.9417683266390675 17.8172936798969701   F   F   F
 21.9001875304485694 -0.0134025079203258 18.0400432206541481   F   F   F
 13.8272828380540105 16.7324475972919338 17.9826233573656573   F   F   F
 13.9839159312272283 11.1777875298943634 17.8118355165738507   F   F   F
  5.7351153894292084 11.1159107607755914 17.8201600609668986   F   F   F
  5.9063716345366091 16.7888438370959854 17.7642618469539890   F   F   F
 13.8213627459340405  5.5312415274523339 17.9109004123613502   F   F   F
 13.7329153996090696  0.0270353977314205 18.1239068571012822   F   F   F
  5.9240710346777430 22.2586760529814249 18.1356118347595725   F   F   F
  5.9002436306436081  5.4922842727805783 18.1134396207774877   F   F   F
  9.8620613908873480  0.0070321168515047 18.1470809737354593   F   F   F
  9.8147302915093615  5.5545853433356847 17.7325045797997198   F   F   F
  9.8478900854853446 16.7358445715549031 17.8358831817889900   F   F   F
 17.9068371014934158 11.2186809911215608 17.8710799414102368   F   F   F
 17.7929899188013287 16.7947635743295081 17.7181701212610534   F   F   F
 17.8413465949603705  5.5389713698966379 17.8319136503098044   F   F   F
 17.5478970285399853  0.0406856491933553 18.1090387229248932   F   F   F
  1.9915856239728926  5.5405974027122058 18.1167817138552429   F   F   F
  1.9207537570564341 11.1678938562369776 18.1007911252592102   F   F   F
  1.9011261581924772 16.7480535370297012 18.0928791999579950   F   F   F
  2.0441982599043609 22.2706414787780673 18.1232807232505237   F   F   F