Au  C  H  O Sr Ti 
 1.0000000000000000
    23.6707801818999997    0.0000000000000000    0.0000000000000000
     0.0000000000000000   22.3170261383000010    0.0000000000000000
     0.0000000000000000    0.0000000000000000   30.0000000000000000
 Au  C   H   O   Sr  Ti 
  50   2   1 265  72  72
Selective dynamics
Cartesian
 16.9145224140613166 11.7096047690097294 22.5907131736472877   F   F   F
  8.7143899432907919 13.8282204458680056 24.6016708806018869   F   F   F
 13.4587149049440793 11.4127921765958114 25.7179928711519068   F   F   F
 16.0346194339270518  4.7589043481339939 22.8894275040523354   T   T   T
 11.0884738530530704 10.1194428051540015 26.4501733217188217   F   F   F
 12.2586761996994547  8.4134647619885303 22.0015788152232261   F   F   F
  6.6546435986025587  7.5994397664393887 21.0722142648466360   F   F   F
 15.8448962364359662 15.2021883352740623 22.4631435682342584   F   F   F
  9.3949596285216881  8.5376646386512984 20.7260994037470425   F   F   F
 10.7036990057227666 12.9416006870587008 21.0872037096950748   F   F   F
  8.8668005250476121 11.0251823185248146 24.9838828834667481   F   F   F
 14.6342317008410845  7.1118663094316048 20.9022124808410581   F   F   F
  7.6687138079783050  9.2785653194104487 23.0872864397298372   F   F   F
 16.5812483793904946  7.6491975030902406 22.7731067534541864   F   F   F
 18.2958927825826159  9.5645895393081091 23.8390719395155770   F   F   F
 15.3374437695744739  9.9282035907073780 20.8326890720140057   F   F   F
 13.3653355224293904 14.2966423498657029 25.8498416195119063   F   F   F
 12.7906589158225596 14.9004825356423023 21.0576675084140419   F   F   F
 10.4932146463324116 10.5699866609147897 22.6856759089032067   F   F   F
  8.8564769796800480 16.5131359030333300 23.3606201407692282   F   F   F
 10.9391682239548089 12.8340019670887031 25.9328715872131710   F   F   F
 15.4880714411681097  9.8368839827086934 24.3960344567977927   F   F   F
 16.7243248222249505 16.8913050022207365 20.6508778366967505   F   F   F
  9.8864843196182619 15.5491270333812821 20.9833145725620795   F   F   F
  6.8294779750515060 12.0233167548462578 23.3256538072262742   F   F   F
  6.0768436169043323 13.2448791365237568 20.8354689086447564   F   F   F
 18.0482842785433668  9.5981591676318452 21.1395283863136996   F   F   F
 11.4026452253728774  6.0403635735130328 23.2638384450562796   F   F   F
 14.6922336392892561 12.7393231580759423 21.1214140189838417   F   F   F
 17.2152068661969970  5.7973965080602063 20.7535835196185303   F   F   F
  6.9502855175096601 16.6672984176316490 20.9047326954240020   F   F   F
 12.1160286740973255 13.4681643289840345 23.3107546067683558   F   F   F
  5.6809518033861286 10.4803889452520185 21.2727507153645945   F   F   F
  6.7399466793969296 14.7935796876179300 22.9387843743283071   F   F   F
 14.0972441235588128  6.5803541718765972 23.5931843691286502   F   F   F
 12.1670980981059476 10.8062587460038451 20.3458433204036737   F   F   F
 13.3193359101819500 10.8506525563161809 22.8721873125234509   F   F   F
 13.0759908525324775  4.7975048771956947 21.3409789700106245   F   F   F
 13.6882133488380404 16.1976792710266402 23.8134888451688198   F   F   F
  9.2630266349370878 18.2487478633864235 21.1938081360183617   F   F   F
 11.4974173456250615 17.3416720013231753 22.6478474428235188   F   F   F
 12.8996265221273401  8.6766253553575510 24.9197058260853055   F   F   F
 17.3404592865425364 13.7142804603337378 20.8226200580777743   F   F   F
 14.1182202864792341 17.5094848800443899 21.3890090644424191   F   F   F
 10.1000298025995594  8.3411311572450426 24.5137533483284642   F   F   F
 15.0106824926905276 13.0434096046589030 24.0062137359225147   F   F   F
  8.2558132899942684 11.1740839777548171 20.9371209345452769   F   F   F
  8.7170830522283662  6.6974918717858278 22.6904984235199692   F   F   F
 10.3125758930117950  5.0806762095263966 20.9456841708215080   F   F   F
 10.9819052469856437 15.5290354549625143 24.8966749841170554   F   F   F
 17.7028215732462080  2.6861795562249382 23.9298957954633096   T   T   T
 16.9352867809082142  2.9538945910740741 22.8932966848893926   T   T   T
 16.8753869437967516  2.3035584363319601 22.0287179616782680   T   T   T
 13.6482021230190824  9.7258367905178318 16.5689453707468459   F   F   F
  2.0142661984387762 18.1349809315168784 16.4196758677971388   F   F   F
  9.8607215766250906  1.4605501594184929 16.4202487090356897   F   F   F
  1.9159762428874816 12.5977808180470365 16.3939420413633030   F   F   F
  9.8461918856782962  7.1315246422730265 16.5806772839354011   F   F   F
 13.7887064588203625  1.3780273045734996 16.3628687639444337   F   F   F
 13.7558212860721447 12.4978431748529992 16.4681889537841641   F   F   F
 17.6854164603331014  6.9326028246122240 16.4299344524219038   F   F   F
 13.8724598263665388 18.1720498230322924 16.5114306182602633   F   F   F
 11.8482308809196208 16.8899699940422998 17.7759527118141136   F   F   F
 13.7890898215363791 20.9156724329941746 13.6323667137520506   F   F   F
  5.9786766234842901 12.4784554368281384 16.3169920393933410   F   F   F
  1.9501275154141513  1.4087023744369527 16.4268104544387228   F   F   F
 17.7373421853492381 20.8414594825551589 16.4309321881550829   F   F   F
 13.8174417810496184 20.9241302525010902 16.3867626162672764   F   F   F
 21.7168343098480676  4.2200173672006560 16.3524137015964044   F   F   F
 21.6692171769058710  9.7613664208075175 16.3701803233919208   F   F   F
 13.7180738908435913 15.3122197866577618 16.4228988101660178   F   F   F
  5.9534254151014832 20.9175152004959415 16.3579675672074387   F   F   F
 11.7738933473602732 11.2573473242013229 18.2743411798408317   F   F   F
 21.7229804177039441 12.5807608726830331 16.4119257425573295   F   F   F
  9.9409241226770817 12.6047854946744238 16.6623914718910271   F   F   F
 21.6718254977493530 18.1368035346500740 16.4043540506163765   F   F   F
  1.9903199907826978 20.9419435988761968 16.3834615868722722   F   F   F
  5.8943416530630266 15.2500905242744178 16.5570971684425672   F   F   F
 17.7940832767731862 15.1758997020729467 16.6030610719461436   F   F   F
 21.6734721954127103 20.9449092992572403 16.3917597623244404   F   F   F
  5.9951667201603929 18.1344441777823420 16.5202651758639263   F   F   F
 21.6422289262856680 15.3708445773172961 16.3700087823391982   F   F   F
 13.8080017330156171  6.9451932282586970 16.3677579182774480   F   F   F
 23.6602446409840397 11.1299220374469900 17.8247061815846308   F   F   F
 10.0143506895540320  9.8995282206459319 16.3789090324895170   F   F   F
  9.8473218148849195  4.2716232417894924 16.4012186091551371   F   F   F
  2.0278625248309563 15.3832855950275356 16.3629892622309825   F   F   F
  1.9623963148631824  9.7966624272786724 16.3454904407019086   F   F   F
  1.9782514947831733  4.2151790534984883 16.3680518922272711   F   F   F
 11.8207106161432716  2.8053370538483349 14.9719248801644529   F   F   F
  9.8858004663973631  1.4539779975400378 19.2034498713415758   F   F   F
 13.7207895468956558  4.1252631233722736 16.5178313073643324   F   F   F
 23.6634689984013065 16.8172879662262531 17.7796332250976974   F   F   F
  7.9072933793649831 22.3139084237498437 17.7593062399549240   F   F   F
 23.6686057108001613 22.2910805972440826 17.7916023660070266   F   F   F
  0.0293427186075491  5.5842653324429818 17.7599147213773989   F   F   F
  7.8858229437403207 11.0757453175745155 17.7318060795353460   F   F   F
  7.9374409071334133 16.5395116346688695 17.7140305780294227   F   F   F
 15.7031758529995980  5.5012715626955906 17.7279663443951563   F   F   F
 15.7627908183434933  0.0149555854442727 17.7558995865189928   F   F   F
 15.7560424967521246 16.5419431263274426 17.7251247277972368   F   F   F
 15.7794825127180918 11.0358971659073486 17.7387948248905758   F   F   F
  3.9651359235598003 22.2795812004151017 17.7698804220964490   F   F   F
  3.9881297986765087  5.5407807464859973 17.7936607752331355   F   F   F
  4.0415880053032085 16.7445436614451850 17.8493707860505424   F   F   F
  5.8780934456509168  9.7290394740263864 16.4733138432008985   F   F   F
  3.9167089453754000 11.2338484830521743 17.6179079774819058   F   F   F
  7.9195721836965536  5.6821336024188529 17.7792311044897389   F   F   F
 11.8265348182127585  0.0041243744425168 17.7342406078881254   F   F   F
 19.7100153197478498 19.5095577905561584 14.9589267444432021   F   F   F
 17.7154523287862027 20.9217501006488078 19.2063919954948403   F   F   F
 19.6980274282875136  0.0470580050729506 17.7681247414402321   F   F   F
 17.7157923965357469  4.0855984225152335 16.5272694972850331   F   F   F
 10.0119508473459256 15.3516706905237132 16.4024798485196044   F   F   F
 17.8046693730087142  9.6945628325516502 16.4785155414018192   F   F   F
  1.9725650740000149  6.9740706679999214 10.8156001569999933   F   F   F
  3.9711546100895170 19.4884056192697770 14.9968013490153833   F   F   F
 21.6840423363877903  1.3939920323263792 19.2423135707530690   F   F   F
  9.8821987404614600 20.8644413273900859 19.1934918674792243   F   F   F
 17.5425625712063535 18.0733040573110486 19.1986294590731887   F   F   F
 17.6861124879643263  6.9624082623800909 19.1946758822391672   F   F   F
 17.6962477377239011  1.5210567863518187 19.1738151284933167   F   F   F
  1.9968269812504245  6.9461139550799231 19.2275186422583744   F   F   F
 15.7764265639171128 19.5162412679702513 14.9655146695015855   F   F   F
  2.0469624821262808 12.5613775977421849 19.2024218265189717   F   F   F
  2.0683890438397299  9.7445766909969649 19.1909102826943467   F   F   F
  1.9795319107949736  4.1376413206864626 19.2351691768635646   F   F   F
  9.8805826940058061  4.1878655745628492 19.1961801359911277   F   F   F
  9.8263723583509801  9.3446778327208779 18.9089983954310981   F   F   F
  1.9992537306459037 20.8797650105158610 19.2308699300040331   F   F   F
  1.9679622749363757 15.3332858019756291 19.1667828168489507   F   F   F
  1.9915285114414103  1.3445038422226496 19.2646762384774917   F   F   F
 19.7199688235225636 11.2095335989687648 17.6727572780244202   F   F   F
 21.5987507974252466  9.7327605206057193 19.1998527001909736   F   F   F
 19.6552097487577377 16.7558466756652855 17.7814264941417832   F   F   F
 19.6938037578906844  5.5516142083065638 17.7060888280166040   F   F   F
 17.6882928072340775  4.3540307211637117 19.3972677650987890   F   F   F
 21.6982156369999721 18.1325837370000720 10.8156001569999933   F   F   F
 13.7785504581443643 20.8913980459586242 19.1818620610808921   F   F   F
  1.9973448314962514 18.1351016134322940 19.2721851816236978   F   F   F
 13.7200595724953551  4.2971635563696040 19.3885301631296869   F   F   F
  6.0244701934909592 15.1301367357652925 19.8853178552162291   F   F   F
  5.6826993471080147  9.8711419169013279 19.2476391311310380   F   F   F
 21.6416947388726086 20.9118153595028531 19.2351685002097383   F   F   F
 21.6900008182895228 15.3464582398126872 19.1703522987860708   F   F   F
  5.9670630856909979 20.7599723939814211 19.1215395656853104   F   F   F
  6.0023560395105280  4.1622610461459510 19.2362216119178697   F   F   F
  9.4026351669433481 12.2892604144696147 19.5611586181524899   F   F   F
 17.8329632527367643 12.6780562790525799 19.0738813593851120   F   F   F
 17.8461118660710021  9.6637249883833292 19.1414063278677560   F   F   F
 11.8352544128490162 19.4831461595817110 15.0276762785397722   F   F   F
 21.6245276779935587 12.5608014789430378 19.2178149345756566   F   F   F
 21.6574219835199600  6.9582006588242677 19.1876505970467548   F   F   F
 21.6198018469632380 18.1512899832936512 19.2573701648613138   F   F   F
 13.7917720157335566  1.4900158992282162 19.1627510126247103   F   F   F
 13.8388058675347683  7.1592796525183271 19.0302829162367004   F   F   F
 13.9829992116662911 12.6312879728703393 19.1633768302500584   F   F   F
  5.8616232638251686 12.8102245676470563 18.8629535383374503   F   F   F
 17.8450760544880076 15.4406142200288485 19.7187839733429371   F   F   F
  6.2017228285888715 17.8505465321236585 19.3888637301773770   F   F   F
  5.9418250459278630  1.3258014108449234 19.2695210727531219   F   F   F
 21.6982156369999721 12.5533272030000536 10.8156001569999933   F   F   F
 11.8262929000523727  8.3471508836325459 15.0071169221202183   F   F   F
 11.8422395638743172 13.8606139528922583 15.0030271474180665   F   F   F
 19.7034040900687302 13.9052378711766131 15.0049856175716911   F   F   F
  9.7607792716364887 18.1404042292585750 19.1836984845383540   F   F   F
  5.9648013598317791  4.2018813666230654 16.4148040010635299   F   F   F
 19.7150011029747887  2.7799562237573414 15.0010230756259233   F   F   F
  3.9471420257618886  8.3968986329538708 14.9322164823728105   F   F   F
  3.9664604847912246 13.9320659878580262 15.0072008304635318   F   F   F
 13.7520446790704263  9.7902302221940296 19.3901977308174622   F   F   F
 13.6621077853150990 15.3145960378208468 19.1840504515165833   F   F   F
 21.7000728464832875  4.1554892991208945 19.1873160128287168   F   F   F
  5.8933799851521682  7.0652246559795113 19.2325237201601595   F   F   F
 11.7981443987401668  5.6601183707140992 17.7456049838329477   F   F   F
 21.6771728655767113  9.7517262346045186 13.6084139321182835   F   F   F
  3.9546224988186554  2.7742333624093143 14.9798648465015543   F   F   F
 17.7131844237455596  1.3312592232625415 16.3332752239097090   F   F   F
 10.0795859948403681  6.8041371178102681 19.7001389947195094   F   F   F
 13.9892923543422736 18.0848629715306259 19.3820279155057307   F   F   F
  9.9531892000695059 15.0900510159815067 19.0075392457053738   F   F   F
 19.7028005138636217  8.3225517402425027 14.9933119488882483   F   F   F
  9.8476859609033873 20.9146639550155449 16.3802636533694113   F   F   F
  2.0520043208568457  6.9973097520713461 16.4128383860867189   F   F   F
 19.7256482699999580  0.0000000000000000 12.2103998060000407   F   F   F
  5.9146272410470484  4.2065900093586359 13.6228728548478983   F   F   F
  5.9172568868009883 20.8909099300090304 13.6207207346804875   F   F   F
 15.7504066407104233 13.9670501400102705 15.0901501974519192   F   F   F
 13.8345878846968748 12.5593605060591784 13.6462418563668564   F   F   F
 13.8062015930605320  1.4212779369053286 13.6160083127398224   F   F   F
 21.6982156369999721 15.3429554700000619 10.8156001569999933   F   F   F
 21.6982156369999721  9.7636982699999884 10.8156001569999933   F   F   F
 21.6982156369999721  4.1844424010000720 10.8156001569999933   F   F   F
 13.8079546360000549 20.9222120050000342 10.8156001569999933   F   F   F
 13.8079546360000549 15.3429554700000619 10.8156001569999933   F   F   F
 13.8079546360000549  9.7636982699999884 10.8156001569999933   F   F   F
 13.8079546360000549  4.1844424010000720 10.8156001569999933   F   F   F
  5.9176950450000287 20.9222120050000342 10.8156001569999933   F   F   F
 21.6982156369999721 20.9222120050000342 10.8156001569999933   F   F   F
 17.7314726641181686 15.3685801965542357 13.7262918013379949   F   F   F
  5.9176950450000287 15.3429554700000619 10.8156001569999933   F   F   F
 17.7530837259999217 20.9222120050000342 10.8156001569999933   F   F   F
 17.7530837259999217 15.3429554700000619 10.8156001569999933   F   F   F
 17.7530837259999217  9.7636982699999884 10.8156001569999933   F   F   F
 17.7530837259999217  4.1844424010000720 10.8156001569999933   F   F   F
  9.8628241350000643 20.9222120050000342 10.8156001569999933   F   F   F
  9.8628241350000643 15.3429554700000619 10.8156001569999933   F   F   F
  9.8628241350000643  9.7636982699999884 10.8156001569999933   F   F   F
  5.9176950450000287  9.7636982699999884 10.8156001569999933   F   F   F
  1.9725650740000149  1.3948141340000613 10.8156001569999933   F   F   F
 21.6659477375676701 15.3288077990654461 13.5997399736765345   F   F   F
 15.7502553828384464  8.4500125693199024 15.0901825100766018   F   F   F
  7.9145317869662373  8.4463630198044335 15.0901304825512739   F   F   F
  7.9434711960294262 13.9660439951645490 15.1128628750225147   F   F   F
 21.7211668589349713  1.4145582087827659 16.4240797208766764   F   F   F
  5.9176950450000287  4.1844424010000720 10.8156001569999933   F   F   F
 17.7412900817601731 20.9431147957089685 13.6607934801158137   F   F   F
  5.9300533250383296  1.3844277249279393 13.6274833334684349   F   F   F
 17.7373879340292824 18.1479435653714027 13.5900124389137726   F   F   F
  5.9004272286708144  7.0023697552158204 16.3773609072463699   F   F   F
 21.6779690411039034  4.1691457282709061 13.5942528452730489   F   F   F
 17.7617360284762462  4.2327498222902742 13.6726079580544972   F   F   F
  9.8819954644873125 20.8830916363385732 13.6171599934087357   F   F   F
  9.8749359423021179 15.2815653387693509 13.6422227212638365   F   F   F
  9.8692915171231022  9.7197858120596781 13.6215986146316226   F   F   F
  1.9972431401919550 15.3310499635256203 13.5952118117221232   F   F   F
  1.9900326214698059 20.9078341343395131 13.6102865148228602   F   F   F
  1.9601073449836524  9.7483496019386351 13.5851013449178755   F   F   F
  1.9852011182531424  4.1640691114045802 13.5894657592784558   F   F   F
 21.6963376352272626 18.1246186117772119 13.6218904840912103   F   F   F
 17.6698736183387588 12.4432181343381885 16.3402372215360003   F   F   F
 21.6848718108861291 12.5471837185498725 13.6218060702356798   F   F   F
 21.6854395899943420  1.3883286878155299 13.6232163911159194   F   F   F
 17.7448776989009431  9.7823548773633036 13.6762287960589646   F   F   F
 21.6867868088807683  6.9676731978615161 13.6130229324584917   F   F   F
  5.9667613398274293 15.3456308685498310 13.6835949106988153   F   F   F
 21.6934776560644202 20.9136748932705245 13.6099360896566424   F   F   F
 13.7995732822528741  4.2459837338385515 13.6704448251369115   F   F   F
  0.0048472150576290  2.7899028273252493 14.9486761816601916   F   F   F
 13.8066493539408981 18.0878071908072826 13.6601145221633402   F   F   F
  0.0017209510392541  8.3407267955337563 14.9459726044849344   F   F   F
 23.6641383275602770 13.9954348172792518 14.9303213480562391   F   F   F
  7.8979172333708743  2.8050590614187789 14.9569333939601279   F   F   F
  0.0025347089504478 19.5316738327454296 14.9869298819341896   F   F   F
  7.8954749067652781 19.5117878751456892 14.9769947146315747   F   F   F
 15.7603819628950959  2.8183737710140124 14.9914457451006893   F   F   F
  5.9453569611509431  9.8034728075786610 13.6476756431261492   F   F   F
  1.9725650740000149 12.5533272030000536 10.8156001569999933   F   F   F
 21.6982156369999721  1.3948141340000613 10.8156001569999933   F   F   F
  9.8685916542740078  4.1795506988727222 13.6095975297072869   F   F   F
 13.7913305810278377  9.8050900269728842 13.6916292790696286   F   F   F
 18.3395319475335938  2.4781205605821581 24.8971324574758768   T   T   T
  5.9609982862170199 12.6004562160178590 13.6149982855818052   F   F   F
 19.7256482699999580  5.5792565349999723 12.2103998060000407   F   F   F
 13.8266570940448190  7.0325042305036272 13.6178714291337837   F   F   F
 17.7010586804066072 18.0245611891364206 16.3623836289598756   F   F   F
 11.8353900909999528 11.1585130689999925 12.2103998060000407   F   F   F
  1.9725650740000149  4.1844424010000720 10.8156001569999933   F   F   F
  0.0000000000000000  0.0000000000000000 12.2103998060000407   F   F   F
  0.0000000000000000  5.5792565349999723 12.2103998060000407   F   F   F
  0.0000000000000000 11.1585130689999925 12.2103998060000407   F   F   F
 17.7116165785132509 12.5932341349959334 13.6141205631243185   F   F   F
  7.8902602960000570  0.0000000000000000 12.2103998060000407   F   F   F
  7.8902602960000570 11.1585130689999925 12.2103998060000407   F   F   F
  7.8902602960000570 16.7377696039999648 12.2103998060000407   F   F   F
 15.7805205919999434  0.0000000000000000 12.2103998060000407   F   F   F
 15.7805205919999434  5.5792565349999723 12.2103998060000407   F   F   F
  5.9329380407971213 18.0956430230927126 13.6599353435807558   F   F   F
 15.7805205919999434 16.7377696039999648 12.2103998060000407   F   F   F
  3.9451301480000271  5.5792565349999723 12.2103998060000407   F   F   F
  3.9451301480000271 11.1585130689999925 12.2103998060000407   F   F   F
  3.9451301480000271 16.7377696039999648 12.2103998060000407   F   F   F
 11.8353900909999528  0.0000000000000000 12.2103998060000407   F   F   F
 11.8353900909999528  5.5792565349999723 12.2103998060000407   F   F   F
 11.8353900909999528 16.7377696039999648 12.2103998060000407   F   F   F
 21.6982156369999721  6.9740706679999214 10.8156001569999933   F   F   F
  7.8902602960000570  5.5792565349999723 12.2103998060000407   F   F   F
 17.6901150602854109  7.0104454513758272 13.6383843177731006   F   F   F
  0.0000000000000000 16.7377696039999648 12.2103998060000407   F   F   F
  9.8603989758438502 18.0763597159912344 13.6520664865317087   F   F   F
 13.7946125857387187 15.3119917919350925 13.6384420737154226   F   F   F
 17.7367010957368620  1.4336058678214028 13.6001937590273752   F   F   F
 21.6760876789994654  6.9770601478056768 16.3937505980954512   F   F   F
  3.9451301480000271  0.0000000000000000 12.2103998060000407   F   F   F
 13.8079546360000549 12.5533272030000536 10.8156001569999933   F   F   F
 15.7805205919999434 11.1585130689999925 12.2103998060000407   F   F   F
  5.9712947051388676  7.0106973626759421 13.6248422850371753   F   F   F
  5.9176950450000287 18.1325837370000720 10.8156001569999933   F   F   F
 13.8079546360000549 18.1325837370000720 10.8156001569999933   F   F   F
 13.8079546360000549  1.3948141340000613 10.8156001569999933   F   F   F
  5.9176950450000287 12.5533272030000536 10.8156001569999933   F   F   F
  5.9176950450000287  6.9740706679999214 10.8156001569999933   F   F   F
  5.9176950450000287  1.3948141340000613 10.8156001569999933   F   F   F
 17.7530837259999217 12.5533272030000536 10.8156001569999933   F   F   F
 17.7530837259999217  6.9740706679999214 10.8156001569999933   F   F   F
 17.7530837259999217  1.3948141340000613 10.8156001569999933   F   F   F
  9.8628241350000643 12.5533272030000536 10.8156001569999933   F   F   F
  9.8628241350000643  6.9740706679999214 10.8156001569999933   F   F   F
 17.7530837259999217 18.1325837370000720 10.8156001569999933   F   F   F
  1.9763476952461390  6.9620319996601872 13.6211878438465561   F   F   F
  9.8628241350000643  1.3948141340000613 10.8156001569999933   F   F   F
  9.8666135214525195  1.3732273674378463 13.6607203617928974   F   F   F
  9.8628241350000643 18.1325837370000720 10.8156001569999933   F   F   F
  5.9434749908728595  1.3967289082705163 16.4177633427711100   F   F   F
  9.8002601913910166 18.1162894652709348 16.4320204158842387   F   F   F
  1.9755543728994509 18.1252273937261883 13.6245174647506673   F   F   F
 19.7256482699999580 11.1585130689999925 12.2103998060000407   F   F   F
  1.9725650740000149 18.1325837370000720 10.8156001569999933   F   F   F
 13.8079546360000549  6.9740706679999214 10.8156001569999933   F   F   F
  1.9725650740000149 20.9222120050000342 10.8156001569999933   F   F   F
  1.9725650740000149 15.3429554700000619 10.8156001569999933   F   F   F
  9.8628241350000643  4.1844424010000720 10.8156001569999933   F   F   F
 19.7256482699999580 16.7377696039999648 12.2103998060000407   F   F   F
  9.8365323232290187  6.9499142061975547 13.7218232418513963   F   F   F
  1.9830084763993112  1.3810167158671094 13.6249780748803317   F   F   F
  9.8481946695071976 12.4868967842812779 13.7362199970369385   F   F   F
  1.9873997884173615 12.5534543134562302 13.6197563091976566   F   F   F
  1.9725650740000149  9.7636982699999884 10.8156001569999933   F   F   F
  3.9451301480000271 19.5273965409999306 12.2103998060000407   F   F   F
 19.7911808660914481 16.7764685556555122 15.0792614879338771   F   F   F
 19.8351926883553062  8.3228846007908395 18.0917976165554961   F   F   F
 19.6865434192611275 19.5630563110995688 18.5517131388753143   F   F   F
  3.8710911682235714 11.1559560956682446 15.0596548813093278   F   F   F
 11.8353900909999528  2.7896282670000101 12.2103998060000407   F   F   F
 11.8353900909999528 19.5273965409999306 12.2103998060000407   F   F   F
  7.8488500238802326  2.6741277498965395 18.3914930087037476   F   F   F
 19.8688283774439292 13.9970647331423308 18.1201205402141596   F   F   F
 11.8353900909999528 13.9481413360000008 12.2103998060000407   F   F   F
 15.7472096562317052  2.7924739387106374 18.3163563754489189   F   F   F
 19.7256482699999580  2.7896282670000101 12.2103998060000407   F   F   F
 19.7256482699999580  8.3688848019999824 12.2103998060000407   F   F   F
 23.6481935670686916 19.5254118165992985 18.7082377685036505   F   F   F
  0.0000000000000000  2.7896282670000101 12.2103998060000407   F   F   F
 23.6630266821424300 13.9134581084952345 18.7292525425608858   F   F   F
  3.9451301480000271 13.9481413360000008 12.2103998060000407   F   F   F
  7.9100088005325846 13.9386770195542322 17.8515689481549344   F   F   F
 11.8408316405384451  2.7368359885309173 18.2147024060120799   F   F   F
 19.7513290354325299  2.7699382048960803 18.4932972257055894   F   F   F
  0.0077953938113449  8.3685681322705125 18.7561179247020959   F   F   F
 15.7740955800155156 13.9718465978424913 17.8019525481455787   F   F   F
 15.7491246015230182 19.6702075260134954 18.2237253195475546   F   F   F
  3.8642209810913579  8.2866211324352150 18.2234625141447282   F   F   F
  3.9715208931797799  2.7396026650495360 18.6649363218061382   F   F   F
  3.7774582320953312 14.0029782091461517 18.0461224542089838   F   F   F
 11.8796684788112987  8.2837756929057207 17.8587653956611092   F   F   F
  3.9376634735554896 19.4954742483368726 18.5406483988998616   F   F   F
  7.9201138907055979 19.6105786083023155 18.0833075401088195   F   F   F
 15.8726610931623586  8.3060335118720765 17.7937032107964654   F   F   F
 15.7805205919999434 19.5273965409999306 12.2103998060000407   F   F   F
 11.8353900909999528  8.3688848019999824 12.2103998060000407   F   F   F
 11.9212040425493928 13.9476046972036887 17.8208081791997586   F   F   F
  0.0000000000000000  8.3688848019999824 12.2103998060000407   F   F   F
  3.9451301480000271  2.7896282670000101 12.2103998060000407   F   F   F
 11.8557437489881377 19.5709474397544447 18.2914729859027148   F   F   F
 19.7911036265275797 11.1597859529911929 15.0859597045189986   F   F   F
 23.6615162293716494 11.1590563089068588 15.2036251519898258   F   F   F
 11.8626873803965793 11.1507624366164428 15.0093295419762995   F   F   F
 15.7808355230774122  5.5300897860361893 15.0813755589018683   F   F   F
  7.8854012582445643  0.0250728567612469 15.1729278198286011   F   F   F
  7.8151608365032708  5.5362065774938332 15.0856433422420366   F   F   F
  7.8402127402891706 11.1410010840976526 15.0296288893575536   F   F   F
 19.7256482699999580 13.9481413360000008 12.2103998060000407   F   F   F
  3.8922717995256213 16.7695806854187701 15.1033067196186721   F   F   F
 15.7602771228598399 22.3152729970429924 15.1668347548531557   F   F   F
 11.8616301088704699 16.8003784785050847 15.1156800518989343   F   F   F
 15.7476617172092155 16.7793128613391715 15.0670991883736605   F   F   F
  3.9451301480000271  8.3688848019999824 12.2103998060000407   F   F   F
  7.7170026426070750  8.3353706936477661 17.7839122467650412   F   F   F
  0.0190163979507548  2.7345367430091825 18.5899359935883268   F   F   F
 19.7916285205585432  5.5448547284020631 15.0696898276729030   F   F   F
 15.7805205919999434  8.3688848019999824 12.2103998060000407   F   F   F
 15.8209058455812190 11.1550176065766937 15.0191540351123365   F   F   F
  0.0000000000000000 19.5273965409999306 12.2103998060000407   F   F   F
  3.9297723823982347  0.0253303399298547 15.1965314221601488   F   F   F
  7.9030490853445716 16.7635287342424952 15.0452888339909663   F   F   F
 11.8398795461149877 22.3016481718013004 15.1657238391935323   F   F   F
  3.9388973409465851  5.5394171172476518 15.1865298939819127   F   F   F
  0.0000000000000000 13.9481413360000008 12.2103998060000407   F   F   F
 15.7805205919999434  2.7896282670000101 12.2103998060000407   F   F   F
 19.7493076040620963  0.0023531816495550 15.1956103602746140   F   F   F
  7.8902602960000570  8.3688848019999824 12.2103998060000407   F   F   F
  7.8902602960000570 19.5273965409999306 12.2103998060000407   F   F   F
  7.8902602960000570 13.9481413360000008 12.2103998060000407   F   F   F
 19.7256482699999580 19.5273965409999306 12.2103998060000407   F   F   F
 15.7805205919999434 13.9481413360000008 12.2103998060000407   F   F   F
  0.0040565433884603 22.3140116259011165 15.2003891723040141   F   F   F
  0.0269555853515731  5.5773569711618824 15.1785577082569034   F   F   F
 23.6682361892392805 16.7618938707480289 15.2003913838098725   F   F   F
 11.8645482271102036  5.5328727304215972 15.0732170208721783   F   F   F
  7.8902602960000570  2.7896282670000101 12.2103998060000407   F   F   F
  1.9725650740000149  5.5792565349999723 12.2103998060000407   F   F   F
 17.7955647509672588 16.7943939783140372 17.7149369520465427   F   F   F
  5.9176950450000287  5.5792565349999723 12.2103998060000407   F   F   F
  1.9725650740000149 16.7377696039999648 12.2103998060000407   F   F   F
  1.9725650740000149 11.1585130689999925 12.2103998060000407   F   F   F
  1.9725650740000149  0.0000000000000000 12.2103998060000407   F   F   F
 21.7464876803367027  8.3545702147226404 15.1722692625786948   F   F   F
 21.6982156369999721 16.7377696039999648 12.2103998060000407   F   F   F
 13.8050286298650473  2.7554459729699401 15.1407288351628466   F   F   F
 17.8108930284470830 13.9410909135413394 15.0710899119925301   F   F   F
 13.8194495895775180 19.5447445965771323 15.1730136498669310   F   F   F
 21.7262338874361802  2.7869568029284393 15.1887576043129968   F   F   F
  9.8628241350000643 11.1585130689999925 12.2103998060000407   F   F   F
 21.6982156369999721 11.1585130689999925 12.2103998060000407   F   F   F
 21.7350768342105525 11.1555849453695028 18.1139538066357630   F   F   F
  5.8989374545986006 19.6107227289739505 15.0730452090150635   F   F   F