Au  O Sr Ti                             
   1.00000000000000     
    23.6707801818999997    0.0000000000000000    0.0000000000000000
     0.0000000000000000   22.3170261383000010    0.0000000000000000
     0.0000000000000000    0.0000000000000000   30.0000000000000000
   Au   O    Sr   Ti
    50   264    72    72
Selective dynamics
Direct
  0.7192534753586785  0.5252366374776494  0.7539417741787334   T   T   T
  0.6258271438847733  0.5655452259025017  0.7038498476115000   T   T   T
  0.7188078528563153  0.2589371455221223  0.6916862842572434   T   T   T
  0.2881486733026840  0.7448847172005979  0.6993499164048341   T   T   T
  0.5151716261319484  0.6040857970629585  0.7770721051886724   T   T   T
  0.5770263822446093  0.7258634327339977  0.7922466974165934   T   T   T
  0.5504486490629248  0.3843972096123474  0.8296574423076062   T   T   T
  0.2429620268100900  0.4670256339772378  0.7091151212353733   T   T   T
  0.2820527826064598  0.6600531835439550  0.7665913539464713   T   T   T
  0.6023765451839320  0.2886385647889004  0.7880741658252833   T   T   T
  0.5149460449547629  0.4828252207890148  0.6780624142787808   T   T   T
  0.5625746479747186  0.4856622956333528  0.7627896376129431   T   T   T
  0.4637630023058292  0.6949396338042356  0.8297479594153317   T   T   T
  0.7644823502083148  0.4301781845405512  0.7055400597339642   T   T   T
  0.7338663331821291  0.6156263946883921  0.6940742361821791   T   T   T
  0.6366797017818012  0.5829484822543802  0.8001944478557217   T   T   T
  0.5944639165073107  0.7853438070161018  0.7124411327319179   T   T   T
  0.4830282791682980  0.7800896942550002  0.7575472229434256   T   T   T
  0.3500693780769214  0.5022442586717122  0.6973142092987793   T   T   T
  0.4313216529614962  0.3719014060376278  0.8158313961418250   T   T   T
  0.3729453290757979  0.2986850793355298  0.7558763178529521   T   T   T
  0.4406708611158474  0.2285276306274053  0.6970897548259297   T   T   T
  0.3868067600473235  0.8136961001872165  0.7060540722742609   T   T   T
  0.2901388062618909  0.5357342453376571  0.7778280701109171   T   T   T
  0.5550883654354891  0.2071065041476488  0.7117462628399941   T   T   T
  0.4551073203528935  0.5799933823424045  0.7031756070737463   T   T   T
  0.6131145078096549  0.3181179773992246  0.6979357227411667   T   T   T
  0.7052381773914655  0.7576163037557692  0.6884629745371528   T   T   T
  0.6565318040747030  0.4412433563820571  0.8124881807049525   T   T   T
  0.3686689754048161  0.6176664176908020  0.8201529707387223   T   T   T
  0.5714073054075328  0.5101826760279621  0.8570633516854353   T   T   T
  0.6644139448271060  0.1939009746910648  0.7520932875624091   T   T   T
  0.4726633171102114  0.4510534867672213  0.8794804202092881   T   T   T
  0.5161431488738856  0.3770158493664104  0.7342267866577633   T   T   T
  0.2839569361222328  0.3372127080556752  0.7026906425341773   T   T   T
  0.6695691963426897  0.6808962551085549  0.7490864641269330   T   T   T
  0.3981024806497127  0.3825809695529435  0.6906056972379997   T   T   T
  0.3762914123603184  0.4921460902463179  0.8336190042350505   T   T   T
  0.4641057650839300  0.5735440860306175  0.8633306685657979   T   T   T
  0.3270089698552332  0.4136617191825290  0.7696334676165330   T   T   T
  0.4874077356619680  0.2680720902691531  0.7752452728548571   T   T   T
  0.4296094636301446  0.6990977384775268  0.6987971453815164   T   T   T
  0.6999491413714289  0.3455235956616150  0.7568218666488330   T   T   T
  0.7744770530566737  0.4280894336569675  0.7960067871545565   T   T   T
  0.2554191053707830  0.5918582213053881  0.6953747642055219   T   T   T
  0.6474316512038477  0.4395155572116134  0.6975783531429425   T   T   T
  0.5663429677283474  0.6406065024051399  0.8608709920336239   T   T   T
  0.5478872908016454  0.6639635890267723  0.7016586532223362   T   T   T
  0.4431409893239151  0.4746826311756707  0.7561688178518957   T   T   T
  0.3726953628146129  0.7354249284961976  0.7774762489895906   T   T   T
  0.2499808989874544  0.1886295007674740  0.4542485050001732   T   T   T
  0.7494165660124151  0.9384903686994771  0.4553192499835439   T   T   T
  0.7490175538808476  0.6886218115889960  0.4572545885771709   T   T   T
  0.7494965500117213  0.4382960607680654  0.4557690151390945   T   T   T
  0.7500694252699821  0.1897251812524982  0.4555944350660401   T   T   T
  0.4174663298552658  0.9357210160580561  0.4540753798447058   T   T   T
  0.4168647278336134  0.6846149473511468  0.4547878583847991   T   T   T
  0.4170022407953175  0.4354998028661787  0.4540077968417338   T   T   T
  0.0843662728818040  0.6868992450748693  0.4531015096322797   T   T   T
  0.0837807034801878  0.9365162834064390  0.4534673199067620   T   T   T
  0.0832390267129910  0.4371273006090727  0.4531791840008164   T   T   T
  0.0838477748031986  0.1866779054460923  0.4530073989295885   T   T   T
  0.9165218121230970  0.8120172145277250  0.4540735889079259   T   T   T
  0.9161229398060522  0.5624602487420287  0.4536958183082117   T   T   T
  0.2511590352631556  0.4393490596956989  0.4550453109863001   T   T   T
  0.9161429660337743  0.0621129890515295  0.4541002868988203   T   T   T
  0.9162972467935483  0.3122786927529549  0.4538124434003127   T   T   T
  0.4169918843413356  0.1871853313264772  0.4536527231835201   T   T   T
  0.2524293836126333  0.6872825355232154  0.4561695616533661   T   T   T
  0.9168079266255680  0.9367539007950548  0.4532684628218661   T   T   T
  0.5826242169168495  0.1890852252936508  0.4551040105708963   T   T   T
  0.0001433596119684  0.1250988320211962  0.4983089242262161   T   T   T
  0.5835919138323353  0.8099206646774291  0.4554470461235888   T   T   T
  0.0000149001050422  0.3738111278865547  0.4986176305245968   T   T   T
  0.9997672096940113  0.6269443319275980  0.4976730674310736   T   T   T
  0.3335026318511762  0.1250514565947018  0.4983868707419863   T   T   T
 -0.0000177363223968  0.8746606003394396  0.4996102472413556   T   T   T
  0.3335243152646712  0.8737449291337764  0.4987803475328786   T   T   T
  0.6659633022639738  0.1259020897851794  0.4991881111016742   T   T   T
  0.3357598560613176  0.6250988708316123  0.5044125094635274   T   T   T
  0.3343714539065822  0.3785003391874583  0.5029770971964163   T   T   T
  0.6655823814808898  0.3784670114686990  0.5032926147582230   T   T   T
  0.9153294419063532  0.6867301558696532  0.4529992819223025   T   T   T
  0.9161218129366763  0.4371961333837318  0.4537342507985989   T   T   T
  0.9158915315337118  0.1869539457033537  0.4532293119238869   T   T   T
  0.5825418704460485  0.9360602282623546  0.4538423007577893   T   T   T
  0.5828664354024318  0.6859456021618278  0.4545453182273941   T   T   T
  0.5824689052908597  0.4385800012087364  0.4559120533355547   T   T   T
  0.2499987226350982  0.9358360972555250  0.4539831975632976   T   T   T
  0.6654090051154009  0.6258805019281539  0.5029050764738359   T   T   T
  0.5845563702005241  0.5622662255150132  0.4550824122994169   T   T   T
  0.5829082020894429  0.0623635033483249  0.4547299965910829   T   T   T
  0.9166666865332829  0.6874999999963620  0.3605200052333331   F   F   F
  0.9166666865332829  0.4374999701794380  0.3605200052333331   F   F   F
  0.9166666865332829  0.1875000000030838  0.3605200052333331   F   F   F
  0.5833333134730552  0.9375000000154046  0.3605200052333331   F   F   F
  0.5833333134730552  0.6874999999963620  0.3605200052333331   F   F   F
  0.5833333134730552  0.4374999701794380  0.3605200052333331   F   F   F
  0.5833333134730552  0.1875000000030838  0.3605200052333331   F   F   F
  0.2499999999799343  0.9375000000154046  0.3605200052333331   F   F   F
  0.9166666865332829  0.9375000000154046  0.3605200052333331   F   F   F
  0.2499999999799343  0.6874999999963620  0.3605200052333331   F   F   F
  0.2499999999799343  0.1875000000030838  0.3605200052333331   F   F   F
  0.7499999404149307  0.9375000000154046  0.3605200052333331   F   F   F
  0.7499999404149307  0.6874999999963620  0.3605200052333331   F   F   F
  0.7499999404149307  0.4374999701794380  0.3605200052333331   F   F   F
  0.7499999404149307  0.1875000000030838  0.3605200052333331   F   F   F
  0.4166666269218169  0.9375000000154046  0.3605200052333331   F   F   F
  0.4166666269218169  0.6874999999963620  0.3605200052333331   F   F   F
  0.4166666269218169  0.4374999701794380  0.3605200052333331   F   F   F
  0.2499999999799343  0.4374999701794380  0.3605200052333331   F   F   F
  0.0833333358191695  0.0625000000159659  0.3605200052333331   F   F   F
  0.0833333358191695  0.3124999999901945  0.3605200052333331   F   F   F
  0.0833333358191695  0.5625000000092442  0.3605200052333331   F   F   F
  0.9166666865332829  0.3124999999901945  0.3605200052333331   F   F   F
  0.9166666865332829  0.0625000000159659  0.3605200052333331   F   F   F
  0.5833333134730552  0.8124999999834799  0.3605200052333331   F   F   F
  0.5833333134730552  0.5625000000092442  0.3605200052333331   F   F   F
  0.5833333134730552  0.3124999999901945  0.3605200052333331   F   F   F
  0.5833333134730552  0.0625000000159659  0.3605200052333331   F   F   F
  0.2499999999799343  0.8124999999834799  0.3605200052333331   F   F   F
  0.2499999999799343  0.5625000000092442  0.3605200052333331   F   F   F
  0.2499999999799343  0.3124999999901945  0.3605200052333331   F   F   F
  0.2499999999799343  0.0625000000159659  0.3605200052333331   F   F   F
  0.7499999404149307  0.8124999999834799  0.3605200052333331   F   F   F
  0.7499999404149307  0.5625000000092442  0.3605200052333331   F   F   F
  0.7499999404149307  0.3124999999901945  0.3605200052333331   F   F   F
  0.7499999404149307  0.0625000000159659  0.3605200052333331   F   F   F
  0.4166666269218169  0.8124999999834799  0.3605200052333331   F   F   F
  0.4166666269218169  0.5625000000092442  0.3605200052333331   F   F   F
  0.4166666269218169  0.3124999999901945  0.3605200052333331   F   F   F
  0.4166666269218169  0.0625000000159659  0.3605200052333331   F   F   F
  0.0833333358191695  0.8124999999834799  0.3605200052333331   F   F   F
  0.4166666269218169  0.1875000000030838  0.3605200052333331   F   F   F
  0.0833333358191695  0.9375000000154046  0.3605200052333331   F   F   F
  0.0833333358191695  0.6874999999963620  0.3605200052333331   F   F   F
  0.0833333358191695  0.4374999701794380  0.3605200052333331   F   F   F
  0.8333332538436267  0.4999999999932783  0.4070133268666680   F   F   F
  0.8333332538436267  0.7500000000123208  0.4070133268666680   F   F   F
  0.0836591662501778  0.0618801335767280  0.4541425976571180   T   T   T
  0.0834824509252624  0.3123226672063094  0.4537939260389262   T   T   T
  0.0839583590913959  0.5625371907277714  0.4538844904824256   T   T   T
  0.0835343915669463  0.8120699905652015  0.4541971762685739   T   T   T
  0.4169738104389467  0.0616751175405241  0.4551531323256576   T   T   T
  0.4156079454952650  0.3114954525998320  0.4571991878332120   T   T   T
  0.4159487987049579  0.5593963949521993  0.4578517632933512   T   T   T
  0.4166889734572913  0.8097659731729262  0.4551544124568029   T   T   T
  0.7496212756161670  0.0641635651917909  0.4532981138745031   T   T   T
  0.7473820356261586  0.3140551520109506  0.4545805316836602   T   T   T
  0.7481471550442443  0.5642227643808355  0.4536883001120506   T   T   T
  0.7495378858429422  0.8132080519255903  0.4530391023692090   T   T   T
  0.2502270699238980  0.0619460706541971  0.4541381887144184   T   T   T
  0.9155206740757020  0.3122861389360402  0.5466603858681728   T   T   T
  0.2522273597970458  0.3143175266459975  0.4540671614399283   T   T   T
  0.2519371205467518  0.5645447486885828  0.4538285710382234   T   T   T
  0.2501978847475389  0.8103960085823663  0.4555408581145962   T   T   T
  0.8333332538436267  0.2500000000190425  0.4070133268666680   F   F   F
  0.5842764182934582  0.3145141508020977  0.4541518713745635   T   T   T
  0.8333332538436267  0.0000000000000000  0.4070133268666680   F   F   F
  0.5000000000021103  0.4999999999932783  0.4070133268666680   F   F   F
  0.0833333358191695  0.1875000000030838  0.3605200052333331   F   F   F
  0.0000000000000000  0.0000000000000000  0.4070133268666680   F   F   F
  0.0000000000000000  0.2500000000190425  0.4070133268666680   F   F   F
  0.0000000000000000  0.4999999999932783  0.4070133268666680   F   F   F
  0.0000000000000000  0.7500000000123208  0.4070133268666680   F   F   F
  0.3333333432766779  0.0000000000000000  0.4070133268666680   F   F   F
  0.3333333432766779  0.2500000000190425  0.4070133268666680   F   F   F
  0.3333333432766779  0.4999999999932783  0.4070133268666680   F   F   F
  0.3333333432766779  0.7500000000123208  0.4070133268666680   F   F   F
  0.6666666865533486  0.0000000000000000  0.4070133268666680   F   F   F
  0.6666666865533486  0.2500000000190425  0.4070133268666680   F   F   F
  0.6666666865533486  0.4999999999932783  0.4070133268666680   F   F   F
  0.6666666865533486  0.7500000000123208  0.4070133268666680   F   F   F
  0.1666666716383389  0.0000000000000000  0.4070133268666680   F   F   F
  0.1666666716383389  0.2500000000190425  0.4070133268666680   F   F   F
  0.1666666716383389  0.4999999999932783  0.4070133268666680   F   F   F
  0.1666666716383389  0.7500000000123208  0.4070133268666680   F   F   F
  0.5000000000021103  0.0000000000000000  0.4070133268666680   F   F   F
  0.5000000000021103  0.2500000000190425  0.4070133268666680   F   F   F
  0.5000000000021103  0.7500000000123208  0.4070133268666680   F   F   F
  0.1670360308734160  0.1243045819406456  0.4993099175874864   T   T   T
  0.9177390164109687  0.0632223377153052  0.5474277176829115   T   T   T
  0.1677869266634103  0.8732737579453950  0.4998999181539229   T   T   T
  0.2519302127733932  0.1879499372563506  0.5472898554298734   T   T   T
  0.7490447907808043  0.9342065128094329  0.5475441449062506   T   T   T
  0.7518389914353212  0.6804494265623443  0.5530700265060233   T   T   T
  0.7531185876096991  0.4345038228218340  0.5493822100662035   T   T   T
  0.4232328760233839  0.4435119747163799  0.5458196345695218   T   T   T
  0.4228964107518629  0.6877776823236038  0.5467254327426810   T   T   T
  0.7484753526815663  0.1836064980326495  0.5506940934010524   T   T   T
  0.4157618924175285  0.9365193341230593  0.5461783470044818   T   T   T
  0.0835762757379336  0.9389635769309351  0.5456532060322187   T   T   T
  0.4155237107926621  0.1909938270897543  0.5465244448133011   T   T   T
  0.0865629973446782  0.6895827172739379  0.5451946842760391   T   T   T
  0.0832156311262536  0.4383476506370308  0.5454374041689573   T   T   T
  0.0837246445447188  0.1888108229828764  0.5456885359527855   T   T   T
  0.4994106829356533  0.1254910173181932  0.4995911942550178   T   T   T
  0.9996499988632556  0.4980719439293114  0.5943441578872483   T   T   T
  0.9992592803203119  0.7542507079217139  0.5919824237787424   T   T   T
  0.3346768213728260  0.2541338509430045  0.5926363220427744   T   T   T
  0.3340194229244537 -0.0001477249443952  0.5920137739536850   T   T   T
 -0.0003498306976915  0.9980762712636916  0.5928136371031163   T   T   T
  0.0011140054780106  0.2498581268135023  0.5919281883608614   T   T   T
  0.3336982967356614  0.4969281788112115  0.5909732815822201   T   T   T
  0.3352791936892117  0.7393609310226815  0.5916729791534190   T   T   T
  0.6634899994164969  0.2471126259399002  0.5907884412562173   T   T   T
  0.6658327121414273  0.0004473637198082  0.5918764802838724   T   T   T
  0.6658871987318091  0.7421159766693189  0.5899867347623758   T   T   T
  0.6671501003747428  0.4930750071184217  0.5909965470901978   T   T   T
  0.1674066084693537  0.9983080795158059  0.5922558727741195   T   T   T
  0.1685502226915937  0.2491619532744755  0.5930515181896211   T   T   T
  0.1706474436754694  0.7498799117899398  0.5949966966627096   T   T   T
  0.2481256280025837  0.4360041983719891  0.5493264391135454   T   T   T
  0.1654420438633237  0.5036084610447218  0.5882014986689522   T   T   T
  0.2490064123329387  0.6832320003122815  0.5520377195992279   T   T   T
  0.5806667814673291  0.1859847539618603  0.5491823473241579   T   T   T
  0.9143997020261567  0.8131053866019473  0.5469364565174261   T   T   T
  0.9166416723545346  0.5629871205783614  0.5462756100645624   T   T   T
  0.5815032961636278  0.5602809362559613  0.5495420174043781   T   T   T
  0.5861577839063460  0.8146248800162607  0.5503559763576531   T   T   T
  0.5832554027992387  0.3116852274424933  0.5457777145667022   T   T   T
  0.5826700819448030  0.0632043267911390  0.5469088685059649   T   T   T
  0.2538899052703864  0.8126460606067790  0.5513806240870698   T   T   T
  0.2523715221875157  0.5589860585474627  0.5440555640850296   T   T   T
  0.2495736547498924  0.3137481041832744  0.5459645488114684   T   T   T
  0.2510232756265799  0.0624258108661592  0.5471996529442066   T   T   T
  0.7486664663421022  0.8083252545246866  0.5456720806353104   T   T   T
  0.7464732269166661  0.5577207119515086  0.5445739746898181   T   T   T
  0.4134206245426202  0.8113595915511411  0.5481447317751930   T   T   T
  0.7482839824699898  0.0596269826342264  0.5444828569583957   T   T   T
  0.7480946840855233  0.3111870906989814  0.5479030597689906   T   T   T
  0.4159046721077407  0.3189959023840884  0.5522598996301313   T   T   T
  0.4208994613954456  0.5647129721389722  0.5554222857008324   T   T   T
  0.4166175854584365  0.0647315617958445  0.5470200901060956   T   T   T
  0.0850427477812484  0.8128007797419788  0.5473800965700548   T   T   T
  0.0826040500209357  0.5638114827159544  0.5464781547299208   T   T   T
  0.0862988253993135  0.3132686059663062  0.5468632620668683   T   T   T
  0.0822682295947869  0.0632551901997052  0.5475177050346890   T   T   T
  0.9157462281341679  0.9388148940630645  0.5459901694163002   T   T   T
  0.9130656722985626  0.6892816839735791  0.5449955944251099   T   T   T
  0.5836790699024065  0.9381026906813499  0.5457570992408645   T   T   T
  0.9170880781610106  0.1886788100085469  0.5455168559092667   T   T   T
  0.9152904283747977  0.4370955821050330  0.5459613326987475   T   T   T
  0.5766933251138223  0.4360954679462690  0.5515695015636191   T   T   T
  0.5795062395876823  0.6865119838641501  0.5469455707166554   T   T   T
  0.2517569012578029  0.9373639863942468  0.5450533881751707   T   T   T
  0.4984130282403633  0.5039243682233874  0.6089360789749814   T   T   T
  0.4985575181191467  0.2528714190731174  0.5903297955391699   T   T   T
  0.4996488765634182 -0.0000439172855968  0.5910018726199504   T   T   T
  0.7534314895316396  0.6934513042580963  0.6575114032387865   T   T   T
  0.7486212247035234  0.9367079053337546  0.6398123080518207   T   T   T
  0.2533850323327055  0.1864640052765241  0.6411462295388940   T   T   T
  0.7457025533637649  0.1941903590814119  0.6467339930492364   T   T   T
  0.7558964631604885  0.4360471842220237  0.6390702578012774   T   T   T
  0.4172948267754978  0.9350513303633144  0.6397525671995691   T   T   T
  0.4218825964680200  0.6757503687756413  0.6336265463635279   T   T   T
  0.5899496598766728  0.8105634041145083  0.6456342355479932   T   T   T
  0.9162094357492885  0.0623182114302520  0.6413494187844839   T   T   T
  0.9137908622742179  0.5614766504532311  0.6426164975614173   T   T   T
  0.9153740706818967  0.3119975798492419  0.6394838975421335   T   T   T
  0.9142516946821931  0.8124700440328522  0.6419002670595714   T   T   T
  0.5821808455619136  0.0655152388225193  0.6398436874700031   T   T   T
  0.5831302299306512  0.3192834189486216  0.6342881739429292   T   T   T
  0.5927672214282866  0.5642121869667267  0.6397306063153431   T   T   T
  0.2478574827243045  0.5739309041783703  0.6291118579933921   T   T   T
  0.2610703183057540  0.7980981078625581  0.6473633832362014   T   T   T
  0.2496440934866080  0.3164241651721852  0.6414330531988504   T   T   T
  0.2508223448240490  0.0594489682128035  0.6419962537669487   T   T   T
  0.9166666865332829  0.5625000000092442  0.3605200052333331   F   F   F
  0.4995375599807843  0.3735329355473769  0.5003980225988082   T   T   T
  0.4999496131975227  0.8726641722651696  0.5009869460207166   T   T   T
  0.5004098804215893  0.6210251939092932  0.4999989112676490   T   T   T
  0.8322448979831978  0.6230475829340641  0.4999306181676084   T   T   T
  0.8326703950760335  0.8751705882704414  0.4982835896434642   T   T   T
  0.8326934153613499  0.3729284248155710  0.4993385836725859   T   T   T
  0.8328970308801420  0.1244857247374178  0.4997317659044319   T   T   T
  0.1667526343625685  0.3759931922688080  0.4977367591222823   T   T   T
  0.1677254702576807  0.6242530168848117  0.5000258600883398   T   T   T
  0.5819827375724415  0.4380987503941223  0.6458132491168708   T   T   T
  0.5802688553519123  0.6848844818909650  0.6381565861699868   T   T   T
  0.9171680156691235  0.1865475210201942  0.6405817378402960   T   T   T
  0.5820139148488159  0.9355040730396071  0.6392570341150935   T   T   T
  0.8303567877412428  0.7503390312053939  0.5934034440378988   T   T   T
  0.8317355800860786  0.2478409481110171  0.5914836095895172   T   T   T
  0.8333134841511460  0.5037550715477075  0.5895136322081835   T   T   T
  0.8322050476686111  0.0020070722692731  0.5922143102232110   T   T   T
  0.5008724111123779  0.7563628610491858  0.5927460697486883   T   T   T
  0.4177475075138214  0.0652856907867156  0.6398861952613973   T   T   T
  0.4265281351188155  0.3049606900819797  0.6552040043033610   T   T   T
  0.4118741093677475  0.8124393070624857  0.6397595133516534   T   T   T
  0.3997414873621672  0.5512404191040881  0.6520569100224073   T   T   T
  0.7520951679823932  0.5710888899879044  0.6342847053394206   T   T   T
  0.7409490265526233  0.8099819331692201  0.6400711702519580   T   T   T
  0.7467516151149077  0.3126407106752511  0.6400760213029729   T   T   T
  0.7476633607021094  0.0669352030383724  0.6390753433748328   T   T   T
  0.0840563665129691  0.3118918102308338  0.6404048630583076   T   T   T
  0.6665629715109556  0.8743961988807073  0.4988700822614421   T   T   T
  0.0860884946967201  0.5617168905663924  0.6424796040297887   T   T   T
  0.0834912989429552  0.0604231855863568  0.6414510704143616   T   T   T
  0.0870973295194606  0.4365458580964982  0.6396707317578364   T   T   T
  0.0836514794626538  0.1856372976194358  0.6409706347736750   T   T   T
  0.4185115376786718  0.1879029297250205  0.6398610782487764   T   T   T
  0.4151875209883171  0.4189045665592887  0.6299600766737684   T   T   T
  0.0843915991191947  0.9351689027650701  0.6408926887569324   T   T   T
  0.0824645528978999  0.6872994068159237  0.6399436991426998   T   T   T
  0.9125152259201763  0.4361200810663284  0.6397131595836880   T   T   T
  0.9166976948019742  0.6873793230678887  0.6399000097843780   T   T   T
  0.9138906864432942  0.9366000577282666  0.6408475776953260   T   T   T
  0.2410331843999549  0.4422078715532771  0.6416200223662923   T   T   T
  0.2486988944439447  0.6767187893378009  0.6654461729191266   T   T   T
  0.5786668175246464  0.1903233624432271  0.6442241862763419   T   T   T
  0.2520361978447459  0.9300325397946370  0.6373503683787035   T   T   T
  0.0838003038633967  0.8115185881877688  0.6420890488682445   T   T   T
  0.9166666865332829  0.8124999999834799  0.3605200052333331   F   F   F
  0.0006599646912337  0.1228134125928308  0.6188976383716225   T   T   T
  0.8333332538436267  0.6249999999803961  0.4070133268666680   F   F   F
  0.9996066691982598  0.5003496619732113  0.5071747825281537   T   T   T
  0.3311834138378588  0.4992586079352838  0.5010222972454452   T   T   T
  0.3301702927373513  0.2479969170950082  0.5028181824078962   T   T   T
  0.3330950786397057  0.0009228859111980  0.5056598856562120   T   T   T
  0.3337544195661126  0.7507246722742758  0.5017309188560256   T   T   T
  0.6658619603563151  0.0001595040256030  0.5055774509386040   T   T   T
  0.6686120507271558  0.4996396713850734  0.5007836912967381   T   T   T
  0.6671092591578971  0.2477388719132816  0.5030718451438013   T   T   T
  0.6655805435357663  0.7519333636075284  0.5020852219781122   T   T   T
  0.1659630632795764  0.0010360747972636  0.5065052470863703   T   T   T
  0.1664221916522654  0.2482878636555257  0.5061945440966138   T   T   T
  0.1633944824540457  0.4998989854059322  0.5023251848693261   T   T   T
  0.5001656192852358  0.9990796239625770  0.5054939965417506   T   T   T
  0.1641906706842421  0.7512053286858860  0.5034954144781029   T   T   T
  0.5008822894399556  0.7526235246114596  0.5039131455401706   T   T   T
  0.8342048786642411  0.0003991925842197  0.5064059926885727   T   T   T
  0.5012575446864628  0.4997121172854603  0.5003823317635401   T   T   T
  0.5011247162791427  0.2478640864189993  0.5020417276475955   T   T   T
  0.8354063311139128  0.2482992143493229  0.5032841462367978   T   T   T
  0.9994985467674234  0.7505809947802490  0.5065707591860701   T   T   T
  0.0008924385657027  0.2497799868989570  0.5059080739744282   T   T   T
  0.0000438070768749  0.9998930776643438  0.5064802145665438   T   T   T
  0.8333332538436267  0.8749999404036828  0.4070133268666680   F   F   F
  0.0000000000000000  0.6249999999803961  0.4070133268666680   F   F   F
  0.0000000000000000  0.8749999404036828  0.4070133268666680   F   F   F
  0.3333333432766779  0.1249999999871179  0.4070133268666680   F   F   F
  0.3333333432766779  0.3750000000061604  0.4070133268666680   F   F   F
  0.3333333432766779  0.6249999999803961  0.4070133268666680   F   F   F
  0.3333333432766779  0.8749999404036828  0.4070133268666680   F   F   F
  0.6666666865533486  0.1249999999871179  0.4070133268666680   F   F   F
  0.6666666865533486  0.3750000000061604  0.4070133268666680   F   F   F
  0.6666666865533486  0.6249999999803961  0.4070133268666680   F   F   F
  0.8360197710395473  0.4998299585912062  0.5030973200777371   T   T   T
  0.6666666865533486  0.8749999404036828  0.4070133268666680   F   F   F
  0.1666666716383389  0.3750000000061604  0.4070133268666680   F   F   F
  0.1666666716383389  0.6249999999803961  0.4070133268666680   F   F   F
  0.1666666716383389  0.8749999404036828  0.4070133268666680   F   F   F
  0.5000000000021103  0.1249999999871179  0.4070133268666680   F   F   F
  0.5000000000021103  0.3750000000061604  0.4070133268666680   F   F   F
  0.5000000000021103  0.6249999999803961  0.4070133268666680   F   F   F
  0.5000000000021103  0.8749999404036828  0.4070133268666680   F   F   F
  0.8333332538436267  0.1249999999871179  0.4070133268666680   F   F   F
  0.8333332538436267  0.3750000000061604  0.4070133268666680   F   F   F
  0.1666666716383389  0.1249999999871179  0.4070133268666680   F   F   F
  0.0000000000000000  0.3750000000061604  0.4070133268666680   F   F   F
  0.8357427417258114  0.7515637630291382  0.5025753253913312   T   T   T
  0.8370696633204906  0.3725858795856238  0.6043010659847572   T   T   T
  0.8319868185625062  0.8753028110566231  0.6184244755042588   T   T   T
  0.8409523372565875  0.6264719459583508  0.6029704232500297   T   T   T
  0.9989546341417653  0.8748021700239413  0.6223395778205807   T   T   T
  0.3314793484833774  0.1198528649363402  0.6132704492833720   T   T   T
  0.3346986205942249  0.6235850253325036  0.5953879473253428   T   T   T
  0.3260231687686480  0.3737874429544995  0.5929040133258490   T   T   T
  0.6710792795827800  0.3718668499389835  0.5943384576681937   T   T   T
  0.6654392104480435  0.1244372856823618  0.6117386189964578   T   T   T
  0.3346014842581929  0.8788558089033962  0.6028608173803651   T   T   T
  0.1583503578002161  0.6271583656177693  0.6024095491987430   T   T   T
  0.1664032062105243  0.8721034267181553  0.6195767007172851   T   T   T
  0.5018344319129724  0.3710887589577512  0.5949630406756604   T   T   T
  0.5003007357103867  0.1218921854456825  0.6059900617952051   T   T   T
  0.1675156063300059  0.1225466670124099  0.6213045920754188   T   T   T
  0.1635609038629253  0.3717141227440103  0.6077768515270212   T   T   T
  0.6652205784816488  0.8809554149116602  0.6069078858956363   T   T   T
  0.6663453799988293  0.6266865910138872  0.5935243180748468   T   T   T
  0.0002137610383891  0.3749384005426067  0.6225306780478008   T   T   T
  0.9996025362499872  0.6226280564874876  0.6469739432009520   T   T   T
  0.8337336631532160  0.1247082138979415  0.6192669906585505   T   T   T
  0.5003610766521803  0.8766659360046780  0.6098753476233166   T   T   T
  0.0000000000000000  0.1249999999871179  0.4070133268666680   F   F   F
  0.5040391717567791  0.6247578920166148  0.5939339921510475   T   T   T
  0.9162212254612588  0.9997614388477365  0.6036824151969472   T   T   T
  0.5844672892227450  0.7502613898420627  0.5993408727307939   T   T   T
  0.5908952373951222  0.5006658248676613  0.5937683116739857   T   T   T
  0.2422281464340119  0.4984426694993871  0.5939761287944457   T   T   T
  0.2494484342791142  0.7524485054255660  0.5921774254364174   T   T   T
  0.5843498805530377  0.2471708329707028  0.5972203701812488   T   T   T
  0.5825429880165498  0.0009380080299949  0.6042752483309687   T   T   T
  0.2494358410178540  0.9974342998602992  0.6041285124855480   T   T   T
  0.2492567279714659  0.2459469643697564  0.6037160873839532   T   T   T
  0.4170677646209243  0.0000925602941490  0.6046224144195915   T   T   T
  0.4147882241130010  0.2485171852918978  0.5910175376991212   T   T   T
  0.4161661439188232  0.7498513681605933  0.5946824063696721   T   T   T
  0.7564967169815437  0.5026463966189306  0.5957332967898769   T   T   T
  0.7517655975390931  0.7525584801972237  0.5905945736749063   T   T   T
  0.7540848180123531  0.2479505706154276  0.5943881595080743   T   T   T
  0.7496363993039212  0.0016927012578917  0.6041401173383212   T   T   T
  0.0838433480885430  0.2480959830719792  0.6036807060700216   T   T   T
  0.0810735110995592  0.5004481616693028  0.6036957201009894   T   T   T
  0.0799685225262741  0.7507632531741704  0.6030712412153287   T   T   T
  0.0832475761712714  0.9980310127273569  0.6034810598367452   T   T   T