Au  C  H  O Sr Ti                       
   1.00000000000000     
    23.6707801818999997    0.0000000000000000    0.0000000000000000
     0.0000000000000000   22.3170261383000010    0.0000000000000000
     0.0000000000000000    0.0000000000000000   30.0000000000000000
   Au   C    H    O    Sr   Ti
    50     2     1   265    72    72
Selective dynamics
Direct
  0.7145739297175795  0.5246937784830540  0.7530237724549101   T   T   T
  0.3681496712961894  0.6196264842893346  0.8200556960200641   T   T   T
  0.5685792695263749  0.5113939512312274  0.8572664290383997   T   T   T
  0.6774013915345298  0.2132409721009769  0.7629809168017457   T   T   T
  0.4684456434406815  0.4534404692831018  0.8816724440572969   T   T   T
  0.5178822204209850  0.3769975761936109  0.7333859605074400   T   T   T
  0.2811332599713420  0.3405220623637369  0.7024071421615579   T   T   T
  0.6693863115061933  0.6811923883166654  0.7487714522744738   T   T   T
  0.3969011395621695  0.3825628282972320  0.6908699801249021   T   T   T
  0.4521903766360576  0.5798980835017499  0.7029067903231722   T   T   T
  0.3745884359074732  0.4940256040478270  0.8327960961155602   T   T   T
  0.6182403616772747  0.3186744625094309  0.6967404160280363   T   T   T
  0.3239738508425773  0.4157617265808919  0.7695762146576611   T   T   T
  0.7004943754270260  0.3427516487047925  0.7591035584484753   T   T   T
  0.7729315486006931  0.4285781394006447  0.7946357313171871   T   T   T
  0.6479483841137780  0.4448712623797457  0.6944229690671345   T   T   T
  0.5646343474833675  0.6406159253149800  0.8616613873170643   T   T   T
  0.5403564570973867  0.6676733021372594  0.7019222502804651   T   T   T
  0.4432982168604664  0.4736288157486528  0.7561891969634430   T   T   T
  0.3741523055692219  0.7399344249856793  0.7786873380256391   T   T   T
  0.4621380512130108  0.5750767099323866  0.8644290529071087   T   T   T
  0.6543118275844225  0.4407793368950204  0.8132011485599276   T   T   T
  0.7065388083411539  0.7568797427374157  0.6883625945565589   T   T   T
  0.4176661792997459  0.6967383080981450  0.6994438190854038   T   T   T
  0.2885193442112960  0.5387508479103361  0.7775217935742116   T   T   T
  0.2567234189243579  0.5934876382921435  0.6945156302881573   T   T   T
  0.7624710355911348  0.4300823554245758  0.7046509462104570   T   T   T
  0.4817181832516048  0.2706616704251062  0.7754612815018728   T   T   T
  0.6206907219105384  0.5708342625549437  0.7040471339661249   T   T   T
  0.7272766986937239  0.2597745986464952  0.6917861173206182   T   T   T
  0.2936230011896376  0.7468422680666956  0.6968244231808036   T   T   T
  0.5118559076207332  0.6034927882201251  0.7770251535589465   T   T   T
  0.2399985027840400  0.4696140462579724  0.7090916905121548   T   T   T
  0.2847369891318857  0.6628831097809024  0.7646261458109417   T   T   T
  0.5955546887439864  0.2948580214540125  0.7864394789709570   T   T   T
  0.5140133956129407  0.4842158932393932  0.6781947773467860   T   T   T
  0.5626910396627559  0.4862051282762348  0.7624062437507790   T   T   T
  0.5524106409695376  0.2149706169390677  0.7113659656670228   T   T   T
  0.5782747017060613  0.7257991799914817  0.7937829615056308   T   T   T
  0.3913274747919035  0.8177051794579500  0.7064602712006117   T   T   T
  0.4857219431413833  0.7770601644616858  0.7549282480941186   T   T   T
  0.5449599220219675  0.3887894964852370  0.8306568608695091   T   T   T
  0.7325681347758044  0.6145209659811062  0.6940873352692605   T   T   T
  0.5964408514627202  0.7845796644919020  0.7129669688147494   T   T   T
  0.4266876598483461  0.3737563914454642  0.8171251116109522   T   T   T
  0.6341439689498910  0.5844600227569789  0.8002071245307512   T   T   T
  0.3487765602380601  0.5006977143149961  0.6979040311515087   T   T   T
  0.3682634448565362  0.3001068256263677  0.7563499474506687   T   T   T
  0.4356669198802935  0.2276591951831372  0.6981894723607143   T   T   T
  0.4639435271078640  0.6958380278236082  0.8298891661372323   T   T   T
  0.7478765565480896  0.1203645835058147  0.7976631931821074   T   T   T
  0.7154511448616254  0.1323605830260959  0.7631098894963149   T   T   T
  0.7129206056630394  0.1032197758812805  0.7342905987226058   T   T   T
  0.5765843803262264  0.4358034412939329  0.5522981790248969   T   T   T
  0.0850950489574028  0.8126074154832881  0.5473225289265745   T   T   T
  0.4165778018658266  0.0654455549035682  0.5473416236345219   T   T   T
  0.0809426739703571  0.5644919148267253  0.5464647347121101   T   T   T
  0.4159639779514854  0.3195553295532558  0.5526892427978437   T   T   T
  0.5825201515480253  0.0617478017023329  0.5454289587981451   T   T   T
  0.5811308786767653  0.5600138252024747  0.5489396317928049   T   T   T
  0.7471412570446782  0.3106418741301148  0.5476644817473936   T   T   T
  0.5860584112463735  0.8142684294232996  0.5503810206086740   T   T   T
  0.5005424743025357  0.7568199225727533  0.5925317570604739   T   T   T
  0.5825363471576789  0.9372069693954059  0.4544122237917328   T   T   T
  0.2525762386174266  0.5591450831978401  0.5438997346464420   T   T   T
  0.0823854347185989  0.0631223159262839  0.5475603484812891   T   T   T
  0.7493349204819283  0.9338815733511855  0.5476977396051674   T   T   T
  0.5837341090943521  0.9375859544561576  0.5462254205422451   T   T   T
  0.9174532543060800  0.1890940728862774  0.5450804567198817   T   T   T
  0.9154416124178026  0.4373954827276594  0.5456726774463955   T   T   T
  0.5795361954876830  0.6861227697528801  0.5474299603388664   T   T   T
  0.2515094715658692  0.9372895416651272  0.5452655855735833   T   T   T
  0.4974019976056048  0.5044286480841477  0.6091447059946969   T   T   T
  0.9177129038743960  0.5637292708589081  0.5470641914185765   T   T   T
  0.4199660529262380  0.5648057862441801  0.5554130490630307   T   T   T
  0.9155518040052132  0.8126890842110972  0.5468118016872142   T   T   T
  0.0840834131992215  0.9383841498010369  0.5461153862290773   T   T   T
  0.2490134084203166  0.6833388297243854  0.5519032389480872   T   T   T
  0.7517320147470081  0.6800144252207688  0.5534353690648690   T   T   T
  0.9156213706882989  0.9385170393877876  0.5463919920774821   T   T   T
  0.2532728821817476  0.8125833641723632  0.5506755058621327   T   T   T
  0.9143014619701683  0.6887496784770171  0.5456669594113039   T   T   T
  0.5833353031419701  0.3112060354824555  0.5455919306092462   T   T   T
  0.9995549136600038  0.4987188691035348  0.5941568727194845   T   T   T
  0.4230680447622742  0.4435863523794757  0.5459636344163186   T   T   T
  0.4160117131422120  0.1914064721400562  0.5467072869718406   T   T   T
  0.0856694417863562  0.6893071460192018  0.5454329754077029   T   T   T
  0.0829037446076118  0.4389770557496362  0.5448496813567282   T   T   T
  0.0835735653654477  0.1888772736733279  0.5456017297409101   T   T   T
  0.4993798482900051  0.1257038924659373  0.4990641626721481   T   T   T
  0.4176372891146414  0.0651510639692605  0.6401149957113892   T   T   T
  0.5796509215774568  0.1848482453624291  0.5505943769121467   T   T   T
  0.9996911304383498  0.7535631253917289  0.5926544408365931   T   T   T
  0.3340529259534677  0.9998602988350278  0.5919768746651637   T   T   T
  0.9999081369062142  0.9988374104643175  0.5930534122002346   T   T   T
  0.0012396177220214  0.2502244384102502  0.5919971573792471   T   T   T
  0.3331458821019433  0.4962912732609336  0.5910602026511791   T   T   T
  0.3353265437867910  0.7411162908611758  0.5904676859343131   T   T   T
  0.6633991669191878  0.2465055840596287  0.5909322114798411   T   T   T
  0.6659176713742911  0.0006701423994208  0.5918633195506363   T   T   T
  0.6656325805771316  0.7412252431760362  0.5908374909265757   T   T   T
  0.6666228316709217  0.4945057239041282  0.5912931608296886   T   T   T
  0.1675118391996138  0.9983221358592858  0.5923293474032181   T   T   T
  0.1684832425475394  0.2482759446598915  0.5931220258411071   T   T   T
  0.1707416474761407  0.7503035376522902  0.5949790262016821   T   T   T
  0.2483269837529736  0.4359469498191586  0.5491104614400286   T   T   T
  0.1654659844448352  0.5033756923272505  0.5872635992493962   T   T   T
  0.3345716585105354  0.2546098018260308  0.5926410368163244   T   T   T
  0.4996258985690707  0.0001848084246038  0.5911413535962737   T   T   T
  0.8326728214399605  0.8742006067320170  0.4986308914814437   T   T   T
  0.7484101576986613  0.9374793026183410  0.6402130665164963   T   T   T
  0.8321663788399207  0.0021086145072077  0.5922708247146761   T   T   T
  0.7484245242614452  0.1830709162231811  0.5509089832428309   T   T   T
  0.4229666606004686  0.6878905188974722  0.5467493282839860   T   T   T
  0.7521792368560408  0.4344020915902421  0.5492838513800584   T   T   T
  0.0833333358191695  0.3124999999901945  0.3605200052333331   F   F   F
  0.1677661057038600  0.8732528025239061  0.4998933783005126   T   T   T
  0.9160679187485579  0.0624631625955749  0.6414104523584346   T   T   T
  0.4174851299585786  0.9349113631041982  0.6397830622493047   T   T   T
  0.7411062261741727  0.8098437464431697  0.6399543153024406   T   T   T
  0.7471706615520898  0.3119774211507246  0.6398225294079740   T   T   T
  0.7475988371205210  0.0681567865236910  0.6391271709497801   T   T   T
  0.0843583086787014  0.3112472921810670  0.6409172880752797   T   T   T
  0.6664937295130053  0.8745000855860869  0.4988504889833840   T   T   T
  0.0864763419877280  0.5628607288398809  0.6400807275506342   T   T   T
  0.0873815323341737  0.4366431544511922  0.6396970094231481   T   T   T
  0.0836276580485791  0.1854028979956951  0.6411723058954516   T   T   T
  0.4174168581718743  0.1876533884313424  0.6398726711997064   T   T   T
  0.4151266786662486  0.4187241514533060  0.6302999465143665   T   T   T
  0.0844608295663467  0.9355979995328512  0.6410289976668041   T   T   T
  0.0831388851492617  0.6870667134121828  0.6388927605616345   T   T   T
  0.0841344685784451  0.0602456543219834  0.6421558746159179   T   T   T
  0.8330933189351160  0.5022861706350357  0.5890919092674797   T   T   T
  0.9124646771863000  0.4361136855910452  0.6399950900063622   T   T   T
  0.8303574955162305  0.7508100125808984  0.5927142164713946   T   T   T
  0.8319879449072676  0.2487613794912825  0.5902029609338886   T   T   T
  0.7472627717087076  0.1950990555005654  0.6465755921699579   T   T   T
  0.9166666865332829  0.8124999999834799  0.3605200052333331   F   F   F
  0.5820910993326767  0.9361192623288330  0.6393954020360272   T   T   T
  0.0843801858725151  0.8126128230996374  0.6424061727207881   T   T   T
  0.5796200829487873  0.1925509039483920  0.6462843387709869   T   T   T
  0.2545108419408031  0.6779638398952861  0.6628439285072075   T   T   T
  0.2400723298277004  0.4423143951048500  0.6415879710376993   T   T   T
  0.9142788945934727  0.9370341384157134  0.6411722833403256   T   T   T
  0.9163196418373614  0.6876569550400511  0.6390117432928690   T   T   T
  0.2520856110291497  0.9302302316325907  0.6373846521895074   T   T   T
  0.2535766034488519  0.1865060792756242  0.6412073870639290   T   T   T
  0.3972254017268537  0.5506674741657935  0.6520386206050838   T   T   T
  0.7533745451437536  0.5680889649223843  0.6357960453128377   T   T   T
  0.7539300238070359  0.4330202836388967  0.6380468775955899   T   T   T
  0.4999942681187561  0.8730171322488652  0.5009225426179924   T   T   T
  0.9135536518787384  0.5628349136261717  0.6405938311525211   T   T   T
  0.9149433105749697  0.3117888833262908  0.6395883532348884   T   T   T
  0.9133540035784242  0.8133382051357996  0.6419123388287113   T   T   T
  0.5826496596119612  0.0667658804535351  0.6387583670874923   T   T   T
  0.5846366601011628  0.3207989992999856  0.6343427638745601   T   T   T
  0.5907282778266202  0.5659933314857200  0.6387792276750004   T   T   T
  0.2476311815149750  0.5740112723021973  0.6287651179445781   T   T   T
  0.7538862647262208  0.6918759750668546  0.6572927991114317   T   T   T
  0.2619990883668084  0.7998622406723335  0.6462954576725768   T   T   T
  0.2510194003014420  0.0594076201116038  0.6423173690917676   T   T   T
  0.9166666865332829  0.5625000000092442  0.3605200052333331   F   F   F
  0.4996156784513355  0.3740261283875687  0.5002372307373401   T   T   T
  0.5002893640544021  0.6210779996849602  0.5001009049139348   T   T   T
  0.8323935222521782  0.6230775455925466  0.5001661872523928   T   T   T
  0.4123556214298356  0.8128504271510617  0.6394566161512805   T   T   T
  0.2519900617552425  0.1882814197816368  0.5471601333687867   T   T   T
  0.8328834517271173  0.1245666069721735  0.5000341025208626   T   T   T
  0.1667516657849799  0.3762552672079984  0.4977405494124234   T   T   T
  0.1675677968495626  0.6242796823160995  0.5002400276821205   T   T   T
  0.5809713314640138  0.4386888361165734  0.6463399243605824   T   T   T
  0.5771718414149202  0.6862292468053437  0.6394683483838859   T   T   T
  0.9167451465362528  0.1862026451628960  0.6395772004276238   T   T   T
  0.2489727816262910  0.3165845042343866  0.6410841240053362   T   T   T
  0.4984265118460962  0.2536233248837935  0.5915201661277666   T   T   T
  0.9157777098598702  0.4369635171896349  0.4536137977372772   T   T   T
  0.1670676871834836  0.1243101722074078  0.4993288282167214   T   T   T
  0.7483143473779562  0.0596521783418943  0.5444425074636603   T   T   T
  0.4258239871006768  0.3048854751365418  0.6566712998239855   T   T   T
  0.5909941390541613  0.8103616879532960  0.6460675971835241   T   T   T
  0.4204842055725866  0.6761676453873179  0.6335846415235091   T   T   T
  0.8323680234641994  0.3729238693662467  0.4997770649629420   T   T   T
  0.4160270969198371  0.9371617806694368  0.5460087884456488   T   T   T
  0.0866893404056817  0.3135413163343773  0.5470946128695581   T   T   T
  0.8333332538436267  0.0000000000000000  0.4070133268666680   F   F   F
  0.2498703969871526  0.1884924085893052  0.4540957618282635   T   T   T
  0.2499814894705340  0.9360973904205130  0.4540240244893501   T   T   T
  0.6653944871979360  0.6258472815085468  0.5030050065817306   T   T   T
  0.5844584664461374  0.5627703453062266  0.4548747285455628   T   T   T
  0.5832592541084702  0.0636858122626922  0.4538669437579921   T   T   T
  0.9166666865332829  0.6874999999963620  0.3605200052333331   F   F   F
  0.9166666865332829  0.4374999701794380  0.3605200052333331   F   F   F
  0.9166666865332829  0.1875000000030838  0.3605200052333331   F   F   F
  0.5833333134730552  0.9375000000154046  0.3605200052333331   F   F   F
  0.5833333134730552  0.6874999999963620  0.3605200052333331   F   F   F
  0.5833333134730552  0.4374999701794380  0.3605200052333331   F   F   F
  0.5833333134730552  0.1875000000030838  0.3605200052333331   F   F   F
  0.2499999999799343  0.9375000000154046  0.3605200052333331   F   F   F
  0.9166666865332829  0.9375000000154046  0.3605200052333331   F   F   F
  0.7490869556414805  0.6886482142071327  0.4575430600445970   T   T   T
  0.2499999999799343  0.6874999999963620  0.3605200052333331   F   F   F
  0.7499999404149307  0.9375000000154046  0.3605200052333331   F   F   F
  0.7499999404149307  0.6874999999963620  0.3605200052333331   F   F   F
  0.7499999404149307  0.4374999701794380  0.3605200052333331   F   F   F
  0.7499999404149307  0.1875000000030838  0.3605200052333331   F   F   F
  0.4166666269218169  0.9375000000154046  0.3605200052333331   F   F   F
  0.4166666269218169  0.6874999999963620  0.3605200052333331   F   F   F
  0.4166666269218169  0.4374999701794380  0.3605200052333331   F   F   F
  0.2499999999799343  0.4374999701794380  0.3605200052333331   F   F   F
  0.0833333358191695  0.0625000000159659  0.3605200052333331   F   F   F
  0.9153034911005899  0.6868660593069984  0.4533246657892180   T   T   T
  0.6653880971309052  0.3786352409570461  0.5030060836692196   T   T   T
  0.3343587210115784  0.3784717088854868  0.5030043494183748   T   T   T
  0.3355813004466733  0.6258021973275510  0.5037620958340826   T   T   T
  0.9176362879472897  0.0633847090565132  0.5474693240292250   T   T   T
  0.2499999999799343  0.1875000000030838  0.3605200052333331   F   F   F
  0.7495017040176007  0.9384366297697210  0.4553597826705296   T   T   T
  0.2505220900818794  0.0620345970985827  0.4542494444489472   T   T   T
  0.7493368531888217  0.8131882560385754  0.4530004146304599   T   T   T
  0.2492705007324876  0.3137680491935463  0.5459120302415423   T   T   T
  0.9158113452331429  0.1868145738789087  0.4531417615091043   T   T   T
  0.7503654671280253  0.1896645993986669  0.4557535986018150   T   T   T
  0.4174765423255319  0.9357470617691033  0.4539053331136276   T   T   T
  0.4171783044926045  0.6847491795756568  0.4547407573754634   T   T   T
  0.4169398491001055  0.4355323039828677  0.4540532871543866   T   T   T
  0.0843758898035463  0.6869665280901771  0.4531737270574061   T   T   T
  0.0840712729439930  0.9368557443439058  0.4536762171607647   T   T   T
  0.0828070443779625  0.4368122142048642  0.4528367114972656   T   T   T
  0.0838671603976591  0.1865870965781742  0.4529821919759467   T   T   T
  0.9165873481355479  0.8121430919808863  0.4540630161363721   T   T   T
  0.7464846313705408  0.5575661406330220  0.5446745740512008   T   T   T
  0.9161029608761112  0.5622247176122065  0.4540602023411867   T   T   T
  0.9161269473735487  0.0622093947111018  0.4541072130371938   T   T   T
  0.7496532671309946  0.4383359510689961  0.4558742932019679   T   T   T
  0.9161838622228280  0.3122133367896932  0.4537674310819517   T   T   T
  0.2520728634196021  0.6876198814955018  0.4561198303566305   T   T   T
  0.9164665249459079  0.9371174619623200  0.4536645363218874   T   T   T
  0.5829792333082772  0.1902575955920779  0.4556814941712297   T   T   T
  0.0002047763115667  0.1250123027161436  0.4982892060553385   T   T   T
  0.5832781702944591  0.8104936149967322  0.4553371507387783   T   T   T
  0.0000727036044470  0.3737382724672093  0.4981990868161651   T   T   T
  0.9997194070373387  0.6271191659026922  0.4976773782685430   T   T   T
  0.3336568196180584  0.1256914359483077  0.4985644464653390   T   T   T
  0.0001070817662534  0.8751916008748871  0.4995643293978045   T   T   T
  0.3335536406528190  0.8743005342302324  0.4992331571543885   T   T   T
  0.6658159064375199  0.1262880526082809  0.4997148581700231   T   T   T
  0.2511686102216870  0.4392822209745116  0.4549225214375403   T   T   T
  0.0833333358191695  0.5625000000092442  0.3605200052333331   F   F   F
  0.9166666865332829  0.0625000000159659  0.3605200052333331   F   F   F
  0.4169102825693956  0.1872808085168567  0.4536532509902454   T   T   T
  0.5826310106826722  0.4393546866957145  0.4563876426356512   T   T   T
  0.7747751365439606  0.1110417017583365  0.8299044152491980   T   T   T
  0.2518293964292392  0.5646117962999245  0.4538332761860572   T   T   T
  0.8333332538436267  0.2500000000190425  0.4070133268666680   F   F   F
  0.5841234208502132  0.3151183400029567  0.4539290476377905   T   T   T
  0.7478020810628705  0.8076596351788553  0.5454127876319975   T   T   T
  0.5000000000021103  0.4999999999932783  0.4070133268666680   F   F   F
  0.0833333358191695  0.1875000000030838  0.3605200052333331   F   F   F
  0.0000000000000000  0.0000000000000000  0.4070133268666680   F   F   F
  0.0000000000000000  0.2500000000190425  0.4070133268666680   F   F   F
  0.0000000000000000  0.4999999999932783  0.4070133268666680   F   F   F
  0.7482481119087274  0.5642881832442603  0.4538040187708117   T   T   T
  0.3333333432766779  0.0000000000000000  0.4070133268666680   F   F   F
  0.3333333432766779  0.4999999999932783  0.4070133268666680   F   F   F
  0.3333333432766779  0.7500000000123208  0.4070133268666680   F   F   F
  0.6666666865533486  0.0000000000000000  0.4070133268666680   F   F   F
  0.6666666865533486  0.2500000000190425  0.4070133268666680   F   F   F
  0.2506439582981614  0.8108447295330892  0.4553311781193610   T   T   T
  0.6666666865533486  0.7500000000123208  0.4070133268666680   F   F   F
  0.1666666716383389  0.2500000000190425  0.4070133268666680   F   F   F
  0.1666666716383389  0.4999999999932783  0.4070133268666680   F   F   F
  0.1666666716383389  0.7500000000123208  0.4070133268666680   F   F   F
  0.5000000000021103  0.0000000000000000  0.4070133268666680   F   F   F
  0.5000000000021103  0.2500000000190425  0.4070133268666680   F   F   F
  0.5000000000021103  0.7500000000123208  0.4070133268666680   F   F   F
  0.9166666865332829  0.3124999999901945  0.3605200052333331   F   F   F
  0.3333333432766779  0.2500000000190425  0.4070133268666680   F   F   F
  0.7473397549360171  0.3141299117513071  0.4546128105924392   T   T   T
  0.0000000000000000  0.7500000000123208  0.4070133268666680   F   F   F
  0.4165641732157039  0.8099806669567425  0.4550688828843903   T   T   T
  0.5827696628388649  0.6861125535743769  0.4546147357905120   T   T   T
  0.7493078368958578  0.0642382125170798  0.4533397919675809   T   T   T
  0.9157318648742359  0.3126339551053239  0.5464583532698496   T   T   T
  0.1666666716383389  0.0000000000000000  0.4070133268666680   F   F   F
  0.5833333134730552  0.5625000000092442  0.3605200052333331   F   F   F
  0.6666666865533486  0.4999999999932783  0.4070133268666680   F   F   F
  0.2522643807788308  0.3141411996038477  0.4541614095012406   T   T   T
  0.2499999999799343  0.8124999999834799  0.3605200052333331   F   F   F
  0.5833333134730552  0.8124999999834799  0.3605200052333331   F   F   F
  0.5833333134730552  0.0625000000159659  0.3605200052333331   F   F   F
  0.2499999999799343  0.5625000000092442  0.3605200052333331   F   F   F
  0.2499999999799343  0.3124999999901945  0.3605200052333331   F   F   F
  0.2499999999799343  0.0625000000159659  0.3605200052333331   F   F   F
  0.7499999404149307  0.5625000000092442  0.3605200052333331   F   F   F
  0.7499999404149307  0.3124999999901945  0.3605200052333331   F   F   F
  0.7499999404149307  0.0625000000159659  0.3605200052333331   F   F   F
  0.4166666269218169  0.5625000000092442  0.3605200052333331   F   F   F
  0.4166666269218169  0.3124999999901945  0.3605200052333331   F   F   F
  0.7499999404149307  0.8124999999834799  0.3605200052333331   F   F   F
  0.0834931371107631  0.3119605612556084  0.4540395947948864   T   T   T
  0.4166666269218169  0.0625000000159659  0.3605200052333331   F   F   F
  0.4168267140175273  0.0615327220987176  0.4553573453930936   T   T   T
  0.4166666269218169  0.8124999999834799  0.3605200052333331   F   F   F
  0.2510891041697701  0.0625857988252965  0.5472587780923668   T   T   T
  0.4140235394051308  0.8117698726077223  0.5477340138628056   T   T   T
  0.0834596222734567  0.8121703707923754  0.4541505821583579   T   T   T
  0.8333332538436267  0.4999999999932783  0.4070133268666680   F   F   F
  0.0833333358191695  0.8124999999834799  0.3605200052333331   F   F   F
  0.5833333134730552  0.3124999999901945  0.3605200052333331   F   F   F
  0.0833333358191695  0.9375000000154046  0.3605200052333331   F   F   F
  0.0833333358191695  0.6874999999963620  0.3605200052333331   F   F   F
  0.4166666269218169  0.1875000000030838  0.3605200052333331   F   F   F
  0.8333332538436267  0.7500000000123208  0.4070133268666680   F   F   F
  0.4155558983539819  0.3114175770162467  0.4573941080617143   T   T   T
  0.0837745296589571  0.0618817537475173  0.4541659358293464   T   T   T
  0.4160485879142086  0.5595233301650110  0.4578739999012295   T   T   T
  0.0839600458094312  0.5625056956810324  0.4539918769732540   T   T   T
  0.0833333358191695  0.4374999701794380  0.3605200052333331   F   F   F
  0.1666666716383389  0.8749999404036828  0.4070133268666680   F   F   F
  0.8361017555823878  0.7517340550524354  0.5026420495977992   T   T   T
  0.8379610868729384  0.3729387844605046  0.6030599205518509   T   T   T
  0.8316812233470233  0.8765978132510193  0.6183904379625106   T   T   T
  0.1635388076977543  0.4998854249905018  0.5019884960436467   T   T   T
  0.5000000000021103  0.1249999999871179  0.4070133268666680   F   F   F
  0.5000000000021103  0.8749999404036828  0.4070133268666680   F   F   F
  0.3315839175373635  0.1198245560732298  0.6130497669567916   T   T   T
  0.8393820661913284  0.6271922005379088  0.6040040180071395   T   T   T
  0.5000000000021103  0.6249999999803961  0.4070133268666680   F   F   F
  0.6652594268216383  0.1251275112286669  0.6105452125149649   T   T   T
  0.8333332538436267  0.1249999999871179  0.4070133268666680   F   F   F
  0.8333332538436267  0.3750000000061604  0.4070133268666680   F   F   F
  0.9990458018427054  0.8749110072103286  0.6236079256167860   T   T   T
  0.0000000000000000  0.1249999999871179  0.4070133268666680   F   F   F
  0.9996724442668169  0.6234458848716077  0.6243084180853649   T   T   T
  0.1666666716383389  0.6249999999803961  0.4070133268666680   F   F   F
  0.3341676421202664  0.6245759149617593  0.5950522982718309   T   T   T
  0.5002298846741239  0.1226344393545342  0.6071567468670679   T   T   T
  0.8344181680389010  0.1241177111919179  0.6164432408568542   T   T   T
  0.0003293255968480  0.3749858104036781  0.6252039308234068   T   T   T
  0.6663952543514953  0.6260622052086166  0.5933984182715166   T   T   T
  0.6653403259418378  0.8813991346389989  0.6074575106515877   T   T   T
  0.1632485685472331  0.3713138605960543  0.6074487504714918   T   T   T
  0.1677815797645984  0.1227584109133539  0.6221645440602021   T   T   T
  0.1595831739835870  0.6274571765238249  0.6015374151403001   T   T   T
  0.5018705926683048  0.3711863597582667  0.5952921798553715   T   T   T
  0.1663512331784692  0.8735695395758449  0.6180216132966635   T   T   T
  0.3345945435614227  0.8787272321488721  0.6027769180036241   T   T   T
  0.6705592705938589  0.3721837067537168  0.5931234403598836   T   T   T
  0.6666666865533486  0.8749999404036828  0.4070133268666680   F   F   F
  0.5000000000021103  0.3750000000061604  0.4070133268666680   F   F   F
  0.5036253114996611  0.6249759538197185  0.5940269393066584   T   T   T
  0.0000000000000000  0.3750000000061604  0.4070133268666680   F   F   F
  0.1666666716383389  0.1249999999871179  0.4070133268666680   F   F   F
  0.5008598642664811  0.8769514055534128  0.6097157661967569   T   T   T
  0.8360984925060015  0.5000570364453257  0.5028653234839686   T   T   T
  0.9996086334097520  0.5000243419420464  0.5067875050663286   T   T   T
  0.5011532061569957  0.4996527031654869  0.5003109847325410   T   T   T
  0.6666799911877989  0.2477968951492820  0.5027125186300613   T   T   T
  0.3331280675013095  0.0011234855668418  0.5057642606609565   T   T   T
  0.3301606781207496  0.2480709814643586  0.5028547780747356   T   T   T
  0.3312190253147705  0.4992153083056960  0.5009876296452548   T   T   T
  0.8333332538436267  0.6249999999803961  0.4070133268666680   F   F   F
  0.1644336084241872  0.7514254175935728  0.5034435573206221   T   T   T
  0.6658114773467032  0.9999214437781183  0.5055611584951031   T   T   T
  0.5011085404755944  0.7528054309024929  0.5038560017299644   T   T   T
  0.6652785246702941  0.7518615050839078  0.5022366396124535   T   T   T
  0.1666666716383389  0.3750000000061604  0.4070133268666680   F   F   F
  0.3260138695600720  0.3734982717676159  0.5927970748921680   T   T   T
  0.0008033701384017  0.1225314128353457  0.6196645331196111   T   T   T
  0.8361206672728236  0.2484584950539654  0.5023229942557655   T   T   T
  0.6666666865533486  0.3750000000061604  0.4070133268666680   F   F   F
  0.6683728091767202  0.4998433723852069  0.5006384678370775   T   T   T
  0.0000000000000000  0.8749999404036828  0.4070133268666680   F   F   F
  0.1660178647344796  0.0011350230883332  0.5065510474053413   T   T   T
  0.3338736207515298  0.7511542366961361  0.5015096277997013   T   T   T
  0.5001896623233544  0.9993109311965046  0.5055241279731206   T   T   T
  0.1664033593602662  0.2482148420188023  0.5062176631327273   T   T   T
  0.0000000000000000  0.6249999999803961  0.4070133268666680   F   F   F
  0.6666666865533486  0.1249999999871179  0.4070133268666680   F   F   F
  0.8343327702888098  0.0001054433343849  0.5065203453424906   T   T   T
  0.3333333432766779  0.3750000000061604  0.4070133268666680   F   F   F
  0.3333333432766779  0.8749999404036828  0.4070133268666680   F   F   F
  0.3333333432766779  0.6249999999803961  0.4070133268666680   F   F   F
  0.8333332538436267  0.8749999404036828  0.4070133268666680   F   F   F
  0.6666666865533486  0.6249999999803961  0.4070133268666680   F   F   F
  0.0001713734552609  0.9998649232034695  0.5066796390768024   T   T   T
  0.0011387704648727  0.2499148827715083  0.5059519236085627   T   T   T
  0.9998925260324678  0.7510809803633101  0.5066797127936605   T   T   T
  0.5012318198190374  0.2479215956523085  0.5024405673624043   T   T   T
  0.3333333432766779  0.1249999999871179  0.4070133268666680   F   F   F
  0.0833333358191695  0.2500000000190425  0.4070133268666680   F   F   F
  0.7517946013699512  0.7525372724053002  0.5904978984015504   T   T   T
  0.2499999999799343  0.2500000000190425  0.4070133268666680   F   F   F
  0.0833333358191695  0.7500000000123208  0.4070133268666680   F   F   F
  0.0833333358191695  0.4999999999932783  0.4070133268666680   F   F   F
  0.0833333358191695  0.0000000000000000  0.4070133268666680   F   F   F
  0.9187059958828580  0.3743585799895038  0.5057423087526254   T   T   T
  0.9166666865332829  0.7500000000123208  0.4070133268666680   F   F   F
  0.5832097008961769  0.1234683311250450  0.5046909611720982   T   T   T
  0.7524421625133522  0.6246840787454211  0.5023696637330820   T   T   T
  0.5838189313314039  0.8757772866087592  0.5057671216622340   T   T   T
  0.9178503505367893  0.1248802947873718  0.5062919201437650   T   T   T
  0.4166666269218169  0.4999999999932783  0.4070133268666680   F   F   F
  0.9166666865332829  0.4999999999932783  0.4070133268666680   F   F   F
  0.9182239312428906  0.4998687941770409  0.6037984602211953   T   T   T