C  H                                    
   1.00000000000000     
    23.6707801818999997    0.0000000000000000    0.0000000000000000
     0.0000000000000000   27.8962826732999716    0.0000000000000000
     0.0000000000000000    0.0000000000000000   30.0000000000000000
   C    H 
     6    14
Direct
  0.4999532542049749  0.4846683466581894  0.4360927815646178
  0.5000388123874799  0.4846265980820377  0.6063324472301659
  0.5000249422400884  0.4854290855229095  0.5214385326963296
  0.5000537397821745  0.5155234308630909  0.5641530494584117
  0.4999808675090236  0.5151212040556601  0.4785899321603821
  0.4999450925353770  0.5146778426842360  0.3933882620425493
  0.4999377024281699  0.4920632516150221  0.3637003891904484
  0.5000134493037862  0.5063978612045972  0.6365999239281379
  0.5373519658293588  0.4615143916505531  0.6074218258306416
  0.4627300183411833  0.4615001254348030  0.6073764243871480
  0.4630350346202974  0.5392021250088064  0.5641825288506723
  0.5370846144253534  0.5391854884155336  0.5641755843888632
  0.5370960397067108  0.4617758375905225  0.5216263351107457
  0.4629802219898025  0.4617549015449285  0.5216677718095895
  0.4629112583978312  0.4610505463296874  0.4363475971548070
  0.5372328396912920  0.5377927416948580  0.3918344807387371
  0.4626482700501882  0.5377895855711330  0.3918476821470165
  0.4628703540244388  0.5387743826678673  0.4783826882892015
  0.5370617638451805  0.5388024651253716  0.4783447758886510
  0.5370117446528441  0.4610447322226748  0.4358259407340152
 
  0.00000000E+00  0.00000000E+00  0.00000000E+00
  0.00000000E+00  0.00000000E+00  0.00000000E+00
  0.00000000E+00  0.00000000E+00  0.00000000E+00
  0.00000000E+00  0.00000000E+00  0.00000000E+00
  0.00000000E+00  0.00000000E+00  0.00000000E+00
  0.00000000E+00  0.00000000E+00  0.00000000E+00
  0.00000000E+00  0.00000000E+00  0.00000000E+00
  0.00000000E+00  0.00000000E+00  0.00000000E+00
  0.00000000E+00  0.00000000E+00  0.00000000E+00
  0.00000000E+00  0.00000000E+00  0.00000000E+00
  0.00000000E+00  0.00000000E+00  0.00000000E+00
  0.00000000E+00  0.00000000E+00  0.00000000E+00
  0.00000000E+00  0.00000000E+00  0.00000000E+00
  0.00000000E+00  0.00000000E+00  0.00000000E+00
  0.00000000E+00  0.00000000E+00  0.00000000E+00
  0.00000000E+00  0.00000000E+00  0.00000000E+00
  0.00000000E+00  0.00000000E+00  0.00000000E+00
  0.00000000E+00  0.00000000E+00  0.00000000E+00
  0.00000000E+00  0.00000000E+00  0.00000000E+00
  0.00000000E+00  0.00000000E+00  0.00000000E+00
