C  H                                    
   1.00000000000000     
    23.6707801818999997    0.0000000000000000    0.0000000000000000
     0.0000000000000000   27.8962826732999716    0.0000000000000000
     0.0000000000000000    0.0000000000000000   30.0000000000000000
   C    H 
     6    14
Direct
  0.4999532542049753  0.4846683466581884  0.4360927815646156
  0.5000388123874816  0.4846265980820353  0.6063324472301634
  0.5000249422400890  0.4854290855229094  0.5214385326963298
  0.5000537397821768  0.5155234308630881  0.5641530494584098
  0.4999808675090250  0.5151212040556615  0.4785899321603823
  0.4999450925353748  0.5146778426842376  0.3933882620425473
  0.4999377024281697  0.4920632516150246  0.3637003891904455
  0.5000134493037861  0.5063978612045973  0.6365999239281362
  0.5373519658293591  0.4615143916505526  0.6074218258306445
  0.4627300183411861  0.4615001254348035  0.6073764243871513
  0.4630350346202957  0.5392021250088030  0.5641825288506743
  0.5370846144253499  0.5391854884155313  0.5641755843888613
  0.5370960397067098  0.4617758375905252  0.5216263351107464
  0.4629802219898025  0.4617549015449284  0.5216677718095863
  0.4629112583978323  0.4610505463296851  0.4363475971548050
  0.5372328396912911  0.5377927416948604  0.3918344807387366
  0.4626482700501875  0.5377895855711312  0.3918476821470170
  0.4628703540244391  0.5387743826678693  0.4783826882892032
  0.5370617638451808  0.5388024651253730  0.4783447758886487
  0.5370117446528428  0.4610447322226769  0.4363259407340124
 
  0.00000000E+00  0.00000000E+00  0.00000000E+00
  0.00000000E+00  0.00000000E+00  0.00000000E+00
  0.00000000E+00  0.00000000E+00  0.00000000E+00
  0.00000000E+00  0.00000000E+00  0.00000000E+00
  0.00000000E+00  0.00000000E+00  0.00000000E+00
  0.00000000E+00  0.00000000E+00  0.00000000E+00
  0.00000000E+00  0.00000000E+00  0.00000000E+00
  0.00000000E+00  0.00000000E+00  0.00000000E+00
  0.00000000E+00  0.00000000E+00  0.00000000E+00
  0.00000000E+00  0.00000000E+00  0.00000000E+00
  0.00000000E+00  0.00000000E+00  0.00000000E+00
  0.00000000E+00  0.00000000E+00  0.00000000E+00
  0.00000000E+00  0.00000000E+00  0.00000000E+00
  0.00000000E+00  0.00000000E+00  0.00000000E+00
  0.00000000E+00  0.00000000E+00  0.00000000E+00
  0.00000000E+00  0.00000000E+00  0.00000000E+00
  0.00000000E+00  0.00000000E+00  0.00000000E+00
  0.00000000E+00  0.00000000E+00  0.00000000E+00
  0.00000000E+00  0.00000000E+00  0.00000000E+00
  0.00000000E+00  0.00000000E+00  0.00000000E+00
