Au  C  H  O Sr Ti                       
   1.00000000000000     
    23.6707801818999997    0.0000000000000000    0.0000000000000000
     0.0000000000000000   22.3170261383000010    0.0000000000000000
     0.0000000000000000    0.0000000000000000   30.0000000000000000
   Au   C    H    O    Sr   Ti
    50     3     6   265    72    72
Selective dynamics
Direct
  0.7157759785592219  0.5240196891809106  0.7521800943177510   F   F   F
  0.6558106957601026  0.4404895612034920  0.8123904827141004   F   F   F
  0.3688981231709008  0.6183876693573964  0.8206117843135345   F   F   F
  0.5704606593489743  0.5089968223063934  0.8561265527178605   F   F   F
  0.6617070176410920  0.1850080941270065  0.7491057509988295   T   T   T
  0.4721131455334486  0.4491208478925444  0.8776855388700895   F   F   F
  0.5166013297147032  0.3773949362269065  0.7318561152542316   F   F   F
  0.2818254744912068  0.3404222812739519  0.7022127805379910   F   F   F
  0.4520370208308933  0.5796814343825432  0.7027654194360551   F   F   F
  0.3975938920009057  0.3815868413207184  0.6902527384865280   F   F   F
  0.6161046128166490  0.3211795080702942  0.6960869591980909   F   F   F
  0.4634444149328445  0.5723002686585659  0.8641537625644489   F   F   F
  0.6697898721203686  0.6813830045216775  0.7487036528298887   F   F   F
  0.3747374748457659  0.7397967484803516  0.7792909221212838   F   F   F
  0.3751746421934783  0.4924129282151668  0.8332237065300347   F   F   F
  0.5397218856569097  0.6681229263904100  0.7020212429705168   F   F   F
  0.5650276189990180  0.6389835418211050  0.8608143179771588   F   F   F
  0.4436147005799356  0.4742727298862093  0.7566460304087954   F   F   F
  0.2569329949831243  0.5930025639133802  0.6946159589125145   F   F   F
  0.7732920219310273  0.4271990540365778  0.7937535036237264   F   F   F
  0.6988587697507711  0.3426669720871374  0.7576595366640646   F   F   F
  0.4142488836024896  0.6947233376654012  0.6995175735459540   F   F   F
  0.6482570461850727  0.4458021419828171  0.6944127785373766   F   F   F
  0.3249030645990629  0.4148204130484672  0.7693155845081421   F   F   F
  0.6206452053914617  0.5713596822090636  0.7040358642141769   F   F   F
  0.7068467942990821  0.7569297022187627  0.6882290370453674   F   F   F
  0.7629083913180992  0.4290386608123313  0.7039483049669002   F   F   F
  0.5537005031469278  0.2128706567546601  0.7099060100973276   F   F   F
  0.7192579740898495  0.2566277474953154  0.6910817374951606   F   F   F
  0.2931908746297296  0.7463013688597044  0.6968539718502598   F   F   F
  0.5119730592873282  0.6030532238344932  0.7768013486330290   F   F   F
  0.5789875410864695  0.7257586847562507  0.7939974950621789   F   F   F
  0.2402818282350907  0.4693401338216674  0.7089504332896368   F   F   F
  0.2862675602870794  0.6621312021796157  0.7643925079513565   F   F   F
  0.6003593501263822  0.2822672422361023  0.7833705751715101   F   F   F
  0.5140681197364145  0.4847973651467257  0.6780793748795233   F   F   F
  0.4844006525132869  0.2703655793071178  0.7752386373010438   F   F   F
  0.2894836800241336  0.5380022622810969  0.7775859918992651   F   F   F
  0.5630122631908705  0.4856133398218958  0.7622140678984266   F   F   F
  0.3914584713393197  0.8166735044622939  0.7065109199653605   F   F   F
  0.4642873111669203  0.6947238657509089  0.8302892881297552   F   F   F
  0.4367268634295982  0.2270093009505700  0.6980937546406523   F   F   F
  0.3693819262212017  0.2987032707361053  0.7553647227159246   F   F   F
  0.3493465431405127  0.4993850195595257  0.6977839530065637   F   F   F
  0.4280243908938104  0.3713345227060216  0.8151430891762104   F   F   F
  0.5971594224354746  0.7846179960997546  0.7128854256673378   F   F   F
  0.6354005028266201  0.5838054440234330  0.7997065575561635   F   F   F
  0.7327634131251273  0.6146329353943258  0.6939210771540303   F   F   F
  0.4862762251883410  0.7739986134244603  0.7535631336226771   F   F   F
  0.5491760001726220  0.3819221826602544  0.8262778706218299   F   F   F
  0.6443810865663906  0.0340260848360856  0.7458610963632069   T   T   T
  0.7190827213857673  0.1173685153102895  0.7432033080836007   T   T   T
  0.7042137294138797  0.0548445980140642  0.7343850754580927   T   T   T
  0.7128811465456124  0.0522111531235012  0.6972657343819506   T   T   T
  0.7368260802067752  0.0254751979439121  0.7487371429972782   T   T   T
  0.7972197571033988  0.0988932754428689  0.7356755986352042   T   T   T
  0.6347478436634617  0.0420620827975142  0.7809871709362710   T   T   T
  0.6127730076151252  0.0558404780806399  0.7250085948230733   T   T   T
  0.6409872172354838  0.9859804518717183  0.7395949677642975   T   T   T
  0.9145257572146690  0.6885674914719857  0.5459221110136951   F   F   F
  0.9157171050598194  0.9385445203018321  0.5465874001029931   F   F   F
  0.0823073826744292  0.0632412549265950  0.5475833373754284   F   F   F
  0.0850721370177325  0.3132190274015514  0.5469770637483720   F   F   F
  0.0808422565696816  0.5643802012112928  0.5463172311938678   F   F   F
  0.4166074238384567  0.0654189307682671  0.5473883850689134   F   F   F
  0.5766349087987876  0.4358182749862394  0.5522526499781506   F   F   F
  0.2499850393987231  0.9360978722349174  0.4540390364791165   F   F   F
  0.4159409958481106  0.3197102077000622  0.5525884473279064   F   F   F
  0.2525410390469034  0.5591170331127060  0.5438653429378064   F   F   F
  0.5811574375230251  0.5600317566145492  0.5489245803915708   F   F   F
  0.7474752364957027  0.3125339075544815  0.5492783401681862   F   F   F
  0.4130086446465668  0.8126150240386210  0.6397365529223080   F   F   F
  0.5838578385696493  0.9376031182087559  0.5463360981062380   F   F   F
  0.9154282782785330  0.4372961970876830  0.5457270549625264   F   F   F
  0.5795230204489314  0.6861154131561022  0.5475077763603124   F   F   F
  0.2515012671733530  0.9373121515584941  0.5452894448678904   F   F   F
  0.4974115841843556  0.5043889294640707  0.6089738176149808   F   F   F
  0.9180125071672265  0.5637431526801109  0.5470707196748421   F   F   F
  0.4199291613295841  0.5649728216316703  0.5553712703538380   F   F   F
  0.9155641726723758  0.8126589517755960  0.5468261108421828   F   F   F
  0.0835831196866224  0.9389838242383632  0.5457605519263993   F   F   F
  0.2491416179302846  0.6832225217652237  0.5519741525452275   F   F   F
  0.7486442864318335  0.9334071700207289  0.5482367271785407   F   F   F
  0.7516774500876124  0.6797910660498445  0.5534462529956272   F   F   F
  0.7519883788717863  0.4355471704348020  0.5488884361345328   F   F   F
  0.4231129007875722  0.4438302949378539  0.5456420737523260   F   F   F
  0.4229786720797506  0.6878642883288535  0.5467906276957848   F   F   F
  0.5860195298196373  0.8143107775546525  0.5505243917367935   F   F   F
  0.7489828155621936  0.1842942369873626  0.5508770453199077   F   F   F
  0.4160915328546437  0.9370610262176271  0.5461858262490296   F   F   F
  0.4984034740328980  0.2533095022349912  0.5907735840547588   F   F   F
  0.0853866167592159  0.6892596272975098  0.5454079000141192   F   F   F
  0.0831774441494417  0.4385201914751349  0.5449676217750792   F   F   F
  0.0837050250884630  0.1889384459890806  0.5455315451330520   F   F   F
  0.4994560408916229  0.1255514373958206  0.4993927915965202   F   F   F
  0.9996199731333704  0.4981633751605301  0.5938945771042441   F   F   F
  0.5796390915263174  0.1849385360279996  0.5503626907693118   F   F   F
  0.9995619565636602  0.7537285410361605  0.5928406914654403   F   F   F
  0.3340765026575667  0.9998386163433111  0.5920364860706897   F   F   F
  0.9994384047644687  0.9996115650471609  0.5933940026152413   F   F   F
  0.0005419927133730  0.2479604713515897  0.5923353440260613   F   F   F
  0.3331835140090575  0.4962718523490324  0.5908653471683110   F   F   F
  0.3353811486970315  0.7412468355691146  0.5904636559756682   F   F   F
  0.6630334599208183  0.2475082992291249  0.5903072907020004   F   F   F
  0.6661707154685885  0.0004761084499663  0.5921022577629600   F   F   F
  0.9160647387375960  0.1886973594218802  0.5454859039609659   F   F   F
  0.6655754860347614  0.7407689856500070  0.5909920588270694   F   F   F
  0.1673797772455146  0.9984582201136902  0.5923200590912785   F   F   F
  0.1683101380523055  0.2487409429657745  0.5930796704107948   F   F   F
  0.1705892427493083  0.7502821998303162  0.5947539505118016   F   F   F
  0.2480212475696888  0.4359971803741445  0.5489294030766558   F   F   F
  0.1653631168808687  0.5035527293969224  0.5873269332090203   F   F   F
  0.3346105940467439  0.2545984126326957  0.5927057149171873   F   F   F
  0.4998747814072999  0.0000636749367686  0.5912237203332040   F   F   F
  0.8325259811178185  0.8740388742901786  0.4994426047400324   F   F   F
  0.7483313683836528  0.9387386194287828  0.6420125726294543   F   F   F
  0.8317444087287171  0.0016654182611973  0.5922273056578575   F   F   F
  0.5005955190642126  0.7564614284824387  0.5925310275480626   F   F   F
  0.4178262614318697  0.0650903268774599  0.6401478374468539   F   F   F
  0.4273755471253935  0.3043140267260682  0.6555584372951628   F   F   F
  0.4157399644165096  0.1915132474640515  0.5465384942247979   F   F   F
  0.6665826341707515  0.4946892616949441  0.5915132184095171   F   F   F
  0.3970680850160875  0.5503139980461782  0.6520123131291271   F   F   F
  0.7411420508244646  0.8099796743037331  0.6397665593179767   F   F   F
  0.5827698987008318  0.4396015974584770  0.4564222050033209   F   F   F
  0.9142669066969731  0.0630782505864289  0.6414552772884434   F   F   F
  0.0835850324800873  0.3112534796045168  0.6404924933663239   F   F   F
  0.6664209905562899  0.8742449284276574  0.4987272448327857   F   F   F
  0.0857137830463799  0.5628788192892742  0.6398880211033813   F   F   F
  0.0840567472423004  0.0603968416410154  0.6422756253875974   F   F   F
  0.0873640021430688  0.4365324445476659  0.6397275921629202   F   F   F
  0.0837522954228191  0.1852147067826095  0.6413497413350413   F   F   F
  0.4179358003243507  0.1872351274243442  0.6396057891296536   F   F   F
  0.0841813962809965  0.9356746151571826  0.6406487047782861   F   F   F
  0.0832164168868843  0.6871634188333999  0.6389012712955449   F   F   F
  0.9124282986212293  0.4360862130103058  0.6399645135057241   F   F   F
  0.9162099976837368  0.6877207763723732  0.6391308579055774   F   F   F
  0.9138306338771187  0.9376373367585273  0.6417723317277790   F   F   F
  0.4150248112805812  0.4187524676394290  0.6299784816713370   F   F   F
  0.7547923381052897  0.4324552229342657  0.6372896060661830   F   F   F
  0.4175416848714661  0.9348651068696441  0.6398761357331253   F   F   F
  0.2403689168325869  0.4419670268759219  0.6413158314929461   F   F   F
  0.7453110391561069  0.1937598360970583  0.6462834277511860   F   F   F
  0.2535168557368976  0.1864356601443262  0.6412287020179690   F   F   F
  0.8303202220347430  0.7507379672617560  0.5925938555360091   F   F   F
  0.8312108470011168  0.2495603778821263  0.5911632723832980   F   F   F
  0.5824982369940201  0.9362771632984277  0.6400729449886740   F   F   F
  0.9166666865332829  0.8124999999834799  0.3605200052333331   F   F   F
  0.0843446799696679  0.8127853339027880  0.6423780996812596   F   F   F
  0.2519754557555132  0.9301748204028613  0.6373769050946692   F   F   F
  0.5785414729228933  0.1913249455194617  0.6448257502922843   F   F   F
  0.2547863821571283  0.6772789912350561  0.6626471591612102   F   F   F
  0.8333791271540463  0.5029755420750135  0.5889080370043729   F   F   F
  0.4203033215668697  0.6755675570551745  0.6335726389659158   F   F   F
  0.7451296914593968  0.3113452796834864  0.6423645318060451   F   F   F
  0.7477530390855591  0.0683695131613433  0.6401524217597228   F   F   F
  0.5913041085706894  0.8105140898528802  0.6459710678018808   F   F   F
  0.2519617732410069  0.1881320355513196  0.5473489978305608   F   F   F
  0.9130098476237265  0.8135538429668330  0.6419968625731514   F   F   F
  0.5833951096994028  0.0664913889512206  0.6392165816362692   F   F   F
  0.5905058201381976  0.5662294660068099  0.6388056488048903   F   F   F
  0.2475502679572514  0.5736290451863724  0.6288816221886293   F   F   F
  0.7542624675312908  0.6918168190571521  0.6571288907584432   F   F   F
  0.2618344111690476  0.7995091216127435  0.6463581059353984   F   F   F
  0.2510249889859679  0.0593432564267360  0.6423291581914867   F   F   F
  0.9166666865332829  0.5625000000092442  0.3605200052333331   F   F   F
  0.4995093021083434  0.3742974554454008  0.4997641058433970   F   F   F
  0.5000026634074644  0.8732712593277228  0.5010640302214284   F   F   F
  0.5003038894143828  0.6211082571798556  0.5000967502613918   F   F   F
  0.8324473864086386  0.6230664898816798  0.5001940906739435   F   F   F
  0.8322744397845909  0.3729843019703409  0.4999438659911775   F   F   F
  0.8326684771467825  0.1243910825166878  0.5003596996022708   F   F   F
  0.9160980825433285  0.0622731115167099  0.4541570199381795   F   F   F
  0.1665125328553572  0.3757749254636806  0.4977066670215393   F   F   F
  0.5809879378960972  0.4391277439275711  0.6464426726016370   F   F   F
  0.5768236700200120  0.6864426439684124  0.6398137601665184   F   F   F
  0.9142339789320744  0.1854767906573755  0.6396954060882862   F   F   F
  0.2490663638702344  0.3162231389316474  0.6412219892388933   F   F   F
  0.1677564104350111  0.8732626185617391  0.4998920675362299   F   F   F
  0.5827689455865723  0.6861165875366169  0.4546524166818173   F   F   F
  0.5825557231691292  0.9372247903158026  0.4544921833962761   F   F   F
  0.9156807353596648  0.1866943156180696  0.4531961642413549   F   F   F
  0.9156340890944605  0.4368712729797508  0.4536284453282846   F   F   F
  0.1671055214240766  0.1243057907165692  0.4993141399894157   F   F   F
  0.7483046809004179  0.0607523358910242  0.5451458476237221   F   F   F
  0.7533186100816422  0.5679717931013002  0.6358187962187429   F   F   F
  0.9152295303390687  0.3116509572631898  0.6396179958168489   F   F   F
  0.9141666471735306  0.5627065807262284  0.6408130882002467   F   F   F
  0.1675312027327891  0.6243251524626530  0.5002679668200400   F   F   F
  0.0000000000000000  0.0000000000000000  0.4070133268666680   F   F   F
  0.5830595336871482  0.3208531340483916  0.6336150864927603   F   F   F
  0.1666666716383389  0.0000000000000000  0.4070133268666680   F   F   F
  0.7496562341962658  0.4382723360223650  0.4558311596650029   F   F   F
  0.5836986299398319  0.0636648157428965  0.4542587622728647   F   F   F
  0.9166666865332829  0.6874999999963620  0.3605200052333331   F   F   F
  0.9166666865332829  0.4374999701794380  0.3605200052333331   F   F   F
  0.9166666865332829  0.1875000000030838  0.3605200052333331   F   F   F
  0.5833333134730552  0.9375000000154046  0.3605200052333331   F   F   F
  0.5833333134730552  0.6874999999963620  0.3605200052333331   F   F   F
  0.5833333134730552  0.4374999701794380  0.3605200052333331   F   F   F
  0.5833333134730552  0.1875000000030838  0.3605200052333331   F   F   F
  0.2499999999799343  0.9375000000154046  0.3605200052333331   F   F   F
  0.9166666865332829  0.9375000000154046  0.3605200052333331   F   F   F
  0.2499999999799343  0.6874999999963620  0.3605200052333331   F   F   F
  0.2499999999799343  0.1875000000030838  0.3605200052333331   F   F   F
  0.7499999404149307  0.9375000000154046  0.3605200052333331   F   F   F
  0.4172619420088921  0.9359972772932679  0.4540910163478387   F   F   F
  0.7499999404149307  0.6874999999963620  0.3605200052333331   F   F   F
  0.7499999404149307  0.1875000000030838  0.3605200052333331   F   F   F
  0.4166666269218169  0.9375000000154046  0.3605200052333331   F   F   F
  0.4166666269218169  0.6874999999963620  0.3605200052333331   F   F   F
  0.4166666269218169  0.4374999701794380  0.3605200052333331   F   F   F
  0.2499999999799343  0.4374999701794380  0.3605200052333331   F   F   F
  0.0833333358191695  0.0625000000159659  0.3605200052333331   F   F   F
  0.9153001907960459  0.6868759500654633  0.4533523138155005   F   F   F
  0.6653522455809266  0.3786228527410316  0.5031884144839509   F   F   F
  0.3342305880526197  0.3784458870240428  0.5030189346451266   F   F   F
  0.3356290905449058  0.6258298680983074  0.5037559593839376   F   F   F
  0.9169967397365397  0.0634825257817511  0.5475482821267335   F   F   F
  0.2500005404250203  0.1887209456022845  0.4543438299345581   F   F   F
  0.7497981054877343  0.9384226633273514  0.4555126751628435   F   F   F
  0.7490218665014297  0.6886290398480526  0.4575714690175516   F   F   F
  0.7499999404149307  0.4374999701794380  0.3605200052333331   F   F   F
  0.7502415949150958  0.1895431819076805  0.4557261041370140   F   F   F
  0.2522134966114180  0.3143678547198263  0.4539423457792040   F   F   F
  0.9156280062526108  0.3124181990300627  0.5466309757949048   F   F   F
  0.6654148688796084  0.6258101357125270  0.5029785427543416   F   F   F
  0.5831279603164603  0.0622985569668728  0.5459723222858557   F   F   F
  0.4164423818088849  0.4354496949760929  0.4538313809856831   F   F   F
  0.0843867692527240  0.6869469469237401  0.4531576289625932   F   F   F
  0.0841027722928587  0.9367176639517680  0.4535599423049632   F   F   F
  0.0827803051358558  0.4368098250723094  0.4528509596494317   F   F   F
  0.0838573565359368  0.1865542581139508  0.4529841424692407   F   F   F
  0.9165468833804340  0.8123584893359492  0.4540491741056485   F   F   F
  0.0833333358191695  0.3124999999901945  0.3605200052333331   F   F   F
  0.9161209516646949  0.5621608475734448  0.4540827240477654   F   F   F
  0.5826140000536242  0.3110503902207071  0.5449560711696080   F   F   F
  0.9160186962992043  0.3121309229779570  0.4538624420613004   F   F   F
  0.4170396994276615  0.1871799949724249  0.4535941625690612   F   F   F
  0.2520098113534317  0.6876182338061056  0.4561175372766613   F   F   F
  0.4171601927611803  0.6850582852460363  0.4549623293538332   F   F   F
  0.9161462105029656  0.9372140890683198  0.4537833820220669   F   F   F
  0.9999882701200704  0.1251282907614737  0.4985190012635314   F   F   F
  0.5830574203288066  0.8104102119072465  0.4554260862919008   F   F   F
  0.9998559460045371  0.3738179854243668  0.4981116384170079   F   F   F
  0.9996948709886695  0.6271600142188092  0.4976103613897536   F   F   F
  0.3336002495759374  0.1256023878716448  0.4985774014573394   F   F   F
  0.0000251113732830  0.8751713621792305  0.4995205363933550   F   F   F
  0.3335495339647494  0.8742071245852330  0.4992036713584724   F   F   F
  0.6659349174758447  0.1270697454949925  0.5008940985576373   F   F   F
  0.2510982686116563  0.4392876094160911  0.4549074049807587   F   F   F
  0.0833333358191695  0.5625000000092442  0.3605200052333331   F   F   F
  0.7723199796547036  0.1327064337382993  0.7425440370779861   T   T   T
  0.9166666865332829  0.0625000000159659  0.3605200052333331   F   F   F
  0.7496671817093272  0.8132292144572943  0.4530133090761410   F   F   F
  0.2505031058711324  0.0620269545870613  0.4542793738517759   F   F   F
  0.5832818729954283  0.1902045521257492  0.4556648723061159   F   F   F
  0.2518166498252725  0.5647039590019958  0.4537263486541647   F   F   F
  0.0848655231098121  0.8129472739278683  0.5473084264122434   F   F   F
  0.8333332538436267  0.2500000000190425  0.4070133268666680   F   F   F
  0.5843190110273326  0.3154095706855458  0.4536261759289673   F   F   F
  0.8333332538436267  0.0000000000000000  0.4070133268666680   F   F   F
  0.5000000000021103  0.4999999999932783  0.4070133268666680   F   F   F
  0.0833333358191695  0.1875000000030838  0.3605200052333331   F   F   F
  0.2532331626351834  0.8125809213170285  0.5506586280117745   F   F   F
  0.0000000000000000  0.2500000000190425  0.4070133268666680   F   F   F
  0.0000000000000000  0.4999999999932783  0.4070133268666680   F   F   F
  0.7483212947681537  0.5641833553316076  0.4538578951533765   F   F   F
  0.3333333432766779  0.0000000000000000  0.4070133268666680   F   F   F
  0.3333333432766779  0.4999999999932783  0.4070133268666680   F   F   F
  0.3333333432766779  0.7500000000123208  0.4070133268666680   F   F   F
  0.6666666865533486  0.0000000000000000  0.4070133268666680   F   F   F
  0.6666666865533486  0.2500000000190425  0.4070133268666680   F   F   F
  0.6666666865533486  0.4999999999932783  0.4070133268666680   F   F   F
  0.5833333134730552  0.3124999999901945  0.3605200052333331   F   F   F
  0.6666666865533486  0.7500000000123208  0.4070133268666680   F   F   F
  0.1666666716383389  0.4999999999932783  0.4070133268666680   F   F   F
  0.1666666716383389  0.7500000000123208  0.4070133268666680   F   F   F
  0.5000000000021103  0.0000000000000000  0.4070133268666680   F   F   F
  0.5000000000021103  0.2500000000190425  0.4070133268666680   F   F   F
  0.5000000000021103  0.7500000000123208  0.4070133268666680   F   F   F
  0.9166666865332829  0.3124999999901945  0.3605200052333331   F   F   F
  0.3333333432766779  0.2500000000190425  0.4070133268666680   F   F   F
  0.7473101041664094  0.3139898997501405  0.4552450358652678   F   F   F
  0.0000000000000000  0.7500000000123208  0.4070133268666680   F   F   F
  0.4168839887878946  0.8103816519728042  0.4549848757274120   F   F   F
  0.5833333134730552  0.5625000000092442  0.3605200052333331   F   F   F
  0.7488773838854073  0.0642156160677843  0.4536469200335702   F   F   F
  0.5833333134730552  0.8124999999834799  0.3605200052333331   F   F   F
  0.2505606348356011  0.8108236149717172  0.4553113873016557   F   F   F
  0.1666666716383389  0.2500000000190425  0.4070133268666680   F   F   F
  0.5833333134730552  0.0625000000159659  0.3605200052333331   F   F   F
  0.5844243862987781  0.5627729833554085  0.4548883021499392   F   F   F
  0.2499999999799343  0.5625000000092442  0.3605200052333331   F   F   F
  0.2499999999799343  0.0625000000159659  0.3605200052333331   F   F   F
  0.2499999999799343  0.8124999999834799  0.3605200052333331   F   F   F
  0.2499999999799343  0.3124999999901945  0.3605200052333331   F   F   F
  0.7499999404149307  0.5625000000092442  0.3605200052333331   F   F   F
  0.7499999404149307  0.3124999999901945  0.3605200052333331   F   F   F
  0.7499999404149307  0.0625000000159659  0.3605200052333331   F   F   F
  0.4166666269218169  0.8124999999834799  0.3605200052333331   F   F   F
  0.4166666269218169  0.5625000000092442  0.3605200052333331   F   F   F
  0.4166666269218169  0.3124999999901945  0.3605200052333331   F   F   F
  0.0834778399742717  0.3119467950272110  0.4540273954740925   F   F   F
  0.4166666269218169  0.0625000000159659  0.3605200052333331   F   F   F
  0.4168782213195854  0.0616254149144737  0.4553673863660208   F   F   F
  0.0834416488178391  0.8121399831814458  0.4541788483882883   F   F   F
  0.0839646617757666  0.5625093274267599  0.4539490355919114   F   F   F
  0.4160387807347377  0.5595324320081119  0.4578647623796286   F   F   F
  0.7499999404149307  0.8124999999834799  0.3605200052333331   F   F   F
  0.8333332538436267  0.4999999999932783  0.4070133268666680   F   F   F
  0.4154886640058351  0.3113571543676841  0.4573992705881196   F   F   F
  0.8333332538436267  0.7500000000123208  0.4070133268666680   F   F   F
  0.0833333358191695  0.4374999701794380  0.3605200052333331   F   F   F
  0.0833333358191695  0.6874999999963620  0.3605200052333331   F   F   F
  0.0833333358191695  0.9375000000154046  0.3605200052333331   F   F   F
  0.4166666269218169  0.1875000000030838  0.3605200052333331   F   F   F
  0.0833333358191695  0.8124999999834799  0.3605200052333331   F   F   F
  0.4141609555591259  0.8117103246249116  0.5478932773687433   F   F   F
  0.2492618837439906  0.3137481526975847  0.5458653902781947   F   F   F
  0.7475743022161367  0.8072283633233752  0.5453313177957142   F   F   F
  0.7464651333020171  0.5576899428502600  0.5446759330128117   F   F   F
  0.0836705020009418  0.0618931342978541  0.4542371678939290   F   F   F
  0.2510631616733789  0.0624955313429965  0.5472704963084354   F   F   F
  0.8315026669500796  0.8771610195905808  0.6176319153372347   F   F   F
  0.8383510947294397  0.3726316375772214  0.6027325157629662   F   F   F
  0.8333332538436267  0.3750000000061604  0.4070133268666680   F   F   F
  0.1666666716383389  0.8749999404036828  0.4070133268666680   F   F   F
  0.3339192950307890  0.6244511183130754  0.5949581972245355   F   F   F
  0.8362106190251595  0.7517198950339719  0.5026756394026535   F   F   F
  0.5000000000021103  0.1249999999871179  0.4070133268666680   F   F   F
  0.6652399031995273  0.1241590725183741  0.6051521923224499   F   F   F
  0.3316224304670996  0.1196682494869492  0.6130906230114306   F   F   F
  0.1662254556850442  0.2482155456580770  0.5061846394664187   F   F   F
  0.8395757241453907  0.6269696990333884  0.6041518232724670   F   F   F
  0.5000000000021103  0.6249999999803961  0.4070133268666680   F   F   F
  0.8333332538436267  0.1249999999871179  0.4070133268666680   F   F   F
  0.0000000000000000  0.1249999999871179  0.4070133268666680   F   F   F
  0.9987300650359359  0.8751232543702940  0.6232246629519693   F   F   F
  0.3346948188021273  0.8786572935941379  0.6029987129511767   F   F   F
  0.0001481934746863  0.3751882423250379  0.6240896960714650   F   F   F
  0.1666666716383389  0.6249999999803961  0.4070133268666680   F   F   F
  0.5014512124134995  0.3715621094648611  0.5947816960097612   F   F   F
  0.5000000000021103  0.8749999404036828  0.4070133268666680   F   F   F
  0.9995888702563320  0.6238996610818077  0.6237151279219830   F   F   F
  0.8341631914521912  0.1235876592255281  0.6094545380547132   F   F   F
  0.6665971048871953  0.6257449304819929  0.5932430774336765   F   F   F
  0.6656199731462920  0.8815097705345778  0.6072434003996676   F   F   F
  0.1631071337980003  0.3709915081226711  0.6075786519898543   F   F   F
  0.1677413468686453  0.1225261711786132  0.6218312600734919   F   F   F
  0.5004344261726530  0.1220366693098569  0.6063045137408878   F   F   F
  0.6701675675190373  0.3726611471168937  0.5931804741475233   F   F   F
  0.1661613337951167  0.8737748804116734  0.6175771830445314   F   F   F
  0.1594449742263606  0.6273133353484539  0.6016947358115701   F   F   F
  0.5002938764184748  0.9991876941700042  0.5057041272066272   F   F   F
  0.6666666865533486  0.8749999404036828  0.4070133268666680   F   F   F
  0.5000000000021103  0.3750000000061604  0.4070133268666680   F   F   F
  0.5036549135103527  0.6249846244154611  0.5940327924264110   F   F   F
  0.0000000000000000  0.3750000000061604  0.4070133268666680   F   F   F
  0.1666666716383389  0.1249999999871179  0.4070133268666680   F   F   F
  0.5011810321232062  0.8769977590537223  0.6097895499970534   F   F   F
  0.5008762639129714  0.2479345005694000  0.5021065332004255   F   F   F
  0.8362420836622277  0.5000826206781284  0.5027698079962590   F   F   F
  0.9996186784062289  0.4999016014497926  0.5066970769786536   F   F   F
  0.5011510718224770  0.4998208084914637  0.5002210931956483   F   F   F
  0.6684616689548051  0.4999566688870871  0.5006027974753664   F   F   F
  0.3338564141604436  0.7511475853721379  0.5015098733839949   F   F   F
  0.3331530022039004  0.0010152950412134  0.5058509848189487   F   F   F
  0.3300620466182593  0.2480668932305505  0.5028383636150338   F   F   F
  0.0001544599128209  0.1227249271370923  0.6204966517235349   F   F   F
  0.1666666716383389  0.3750000000061604  0.4070133268666680   F   F   F
  0.1642498882129786  0.7514223236032080  0.5034356854876023   F   F   F
  0.5010874881412875  0.7528200903545752  0.5038273911839823   F   F   F
  0.8333332538436267  0.6249999999803961  0.4070133268666680   F   F   F
  0.6660211421625561  0.9996393261975598  0.5057409572970357   F   F   F
  0.3257505820287960  0.3735865568575107  0.5926538177888219   F   F   F
  0.6666666865533486  0.3750000000061604  0.4070133268666680   F   F   F
  0.6652248136253434  0.7517460985436486  0.5022153246434442   F   F   F
  0.6667154475906401  0.2482549872916806  0.5024099745940944   F   F   F
  0.8357774461651530  0.2486570557227523  0.5025444558280938   F   F   F
  0.0000000000000000  0.8749999404036828  0.4070133268666680   F   F   F
  0.1633985366178621  0.4997841095832385  0.5019959407443366   F   F   F
  0.3311145776783206  0.4992306417268608  0.5008783453474521   F   F   F
  0.1659875015870256  0.0011592032936534  0.5065648348380165   F   F   F
  0.0000000000000000  0.6249999999803961  0.4070133268666680   F   F   F
  0.3333333432766779  0.8749999404036828  0.4070133268666680   F   F   F
  0.8341359978703906  0.9998221894407351  0.5064638965094730   F   F   F
  0.6666666865533486  0.1249999999871179  0.4070133268666680   F   F   F
  0.3333333432766779  0.1249999999871179  0.4070133268666680   F   F   F
  0.3333333432766779  0.6249999999803961  0.4070133268666680   F   F   F
  0.8333332538436267  0.8749999404036828  0.4070133268666680   F   F   F
  0.6666666865533486  0.6249999999803961  0.4070133268666680   F   F   F
  0.9999331040381279  0.0000309361835775  0.5068740566075292   F   F   F
  0.0007150189282399  0.2496865245163136  0.5061552452561884   F   F   F
  0.9998782582519183  0.7511432736530281  0.5067682072045940   F   F   F
  0.3333333432766779  0.3750000000061604  0.4070133268666680   F   F   F
  0.0833333358191695  0.2500000000190425  0.4070133268666680   F   F   F
  0.4168253973361971  0.7503789245029182  0.5942249131371682   F   F   F
  0.7524690372858203  0.6247098630097341  0.5023555506182760   F   F   F
  0.0833333358191695  0.7500000000123208  0.4070133268666680   F   F   F
  0.0833333358191695  0.4999999999932783  0.4070133268666680   F   F   F
  0.0833333358191695  0.0000000000000000  0.4070133268666680   F   F   F
  0.5834771963176166  0.3735418416098426  0.5017706783523792   F   F   F
  0.9166666865332829  0.7500000000123208  0.4070133268666680   F   F   F
  0.5828918086424935  0.1231574566786264  0.5043327063180456   F   F   F