Au  C  H  O Sr Ti 
 1.0000000000000000
    23.6707801818999997    0.0000000000000000    0.0000000000000000
     0.0000000000000000   22.3170261383000010    0.0000000000000000
     0.0000000000000000    0.0000000000000000   30.0000000000000000
 Au  C   H   O   Sr  Ti 
  50   3   6 265  72  72
Selective dynamics
Cartesian
 16.9429758479597865 11.6945611004342016 22.5654028295325126   F   F   F
 15.5235508202762773  9.8304170510265720 24.3717144814230302   F   F   F
  8.7321063830937913 13.8005737806515043 24.6183535294059617   F   F   F
 13.5032488698713404 11.3592953877233906 25.6837965815358942   F   F   F
 15.6631213594029255  4.1288304724294891 22.4731725299647884   T   T   T
 11.1752864889076005 10.0230417016734190 26.3305661661026456   F   F   F
 12.2283565173539230  8.4223326562379945 21.9556834576269608   F   F   F
  6.6710288563410849  7.5972129492504701 21.0663834161398071   F   F   F
 10.7000689541690814 12.9367657230024875 21.0829625830816738   F   F   F
  9.4113576192195136  8.5158835117857379 20.7075821545957908   F   F   F
 14.5836768590374888  7.1677714766911649 20.8826087759426962   F   F   F
 10.9700908724046560 12.7720400546093753 25.9246128769334021   F   F   F
 15.8544488310241256 15.2064423221037277 22.4611095848966293   F   F   F
  8.8703283929943346 16.5100633728652930 23.3787276636384433   F   F   F
  8.8806764851848410 10.9891921898147800 24.9967111959010779   F   F   F
 12.7756381147453180 14.9105168118523110 21.0606372891155615   F   F   F
 13.3746445660281488 14.2602124047651699 25.8244295393147958   F   F   F
 10.5007060628870903 10.5843569095535006 22.6993809122639263   F   F   F
  6.0818044457227227 13.2340537189337866 20.8384787673754488   F   F   F
 18.3044254675463840  9.5338124551912866 23.8126051087118356   F   F   F
 16.5425323169636265  7.6473077728008025 22.7297860999220340   F   F   F
  9.8055942643520737 15.5041588855657988 20.9855272063785954   F   F   F
 15.3447500416145743  9.9489780551406852 20.8323833561213725   F   F   F
  7.6907090225500969  9.2575580007030904 23.0794675352441878   F   F   F
 14.6911562277714953 12.7510489622304579 21.1210759264252026   F   F   F
 16.7316150901342624 16.8924199492717975 20.6468711113610048   F   F   F
 18.0586368298176829  9.5748670076899565 21.1184491490069028   F   F   F
 13.1065228965984080  4.7506400108708844 21.2971803029197950   F   F   F
 17.0253973987594911  5.7271681486659682 20.7324521248548379   F   F   F
  6.9400567446993993 16.6552271558910796 20.9056191555078357   F   F   F
 12.1188017454451700 13.4583545591004139 23.3040404589909542   F   F   F
 13.7050868131166972 16.1967755378034504 23.8199248518653128   F   F   F
  5.6876583378578580 10.4742760342513659 21.2685129986891539   F   F   F
  6.7761764927642121 14.7767993460264258 22.9317752385406166   F   F   F
 14.2109742069899880  6.2993654229690241 23.5011172551453704   F   F   F
 12.1683934608032729 10.8192354697584072 20.3423812463856137   F   F   F
 11.4661413656109925  6.0337557002936011 23.2571591190314102   F   F   F
  6.8523045560987477 12.0066105497917910 23.3275797569780430   F   F   F
 13.3269395217050750 10.8374455979124509 22.8664220369528266   F   F   F
  9.2661274254156378 18.2257239455421143 21.1953275989607377   F   F   F
 10.9900428838775603 15.5041706708639246 24.9086786438926460   F   F   F
 10.3376655837727078  5.0661725029510638 20.9428126392195182   F   F   F
  8.7435583787487889  6.6661687006133699 22.6609416814776417   F   F   F
  8.2693052299857346 11.1447885345853717 20.9335185901968508   F   F   F
 10.1316712693389963  8.2870822492834257 24.4542926752862897   F   F   F
 14.1352294220204797 17.5103403275387528 21.3865627700200456   F   F   F
 15.0404256298776087 13.0288013539528471 23.9911967266848123   F   F   F
 17.3450816774236607 13.7167792846551482 20.8176323146208304   F   F   F
 11.5105376341172416 17.2733472868016911 22.6068940086803529   F   F   F
 12.9994243812612122  8.5233673332254831 24.7883361186548257   F   F   F
 15.2530030534869177  0.7593610246709357 22.3758328908962447   T   T   T
 17.0212490305248885  2.6193162239931547 22.2960992425080775   T   T   T
 16.6692883900318982  1.2239683274244182 22.0315522637428600   T   T   T
 16.8744529157020295  1.1651976689679311 20.9179720314585929   T   T   T
 17.4412481768656491  0.5685306583926729 22.4621142899183077   T   T   T
 18.8708136270622617  2.2070038129606249 22.0702679590560678   T   T   T
 15.0249766782928607  0.9387006012234007 23.4296151280882405   T   T   T
 14.5048151646593837  1.2461934089008313 21.7502578446922783   T   T   T
 15.1726675185889377 22.0041515162739465 22.1878490329288880   T   T   T
 21.6475381697140321 15.3667787051640126 16.3776633304108756   F   F   F
 21.6757383026768409 20.9455225915341501 16.3976220030897082   F   F   F
  1.9482799626339997  1.4113567392157633 16.4275001212627743   F   F   F
  2.0137238549512047  6.9901172215333673 16.4093119124512548   F   F   F
  1.9135992846697463 12.5952877023713690 16.3895169358159727   F   F   F
  9.8614227518276731  1.4599559878951309 16.4216515520675017   F   F   F
 13.6493981713860855  9.7261678344167617 16.5675794993444541   F   F   F
  5.9173409163707218 20.8909206826736487 13.6211710943734641   F   F   F
  9.8456478813612076  7.1349810619236260 16.5776534198373007   F   F   F
  5.9778434221878864 12.4778294423450138 16.3159602881341499   F   F   F
 13.7564499546838110 12.4982433506450086 16.4677374117471373   F   F   F
 17.6933220145034227  6.9748273839984263 16.4783502050455191   F   F   F
  9.7762368406532545 18.1351507318451652 19.1920965876691803   F   F   F
 13.8203705542613573 20.9245132964163822 16.3900829431872062   F   F   F
 21.6689015474263016  9.7591506605849965 16.3718116488758874   F   F   F
 13.7177620273974181 15.3120556092952711 16.4252332908094658   F   F   F
  5.9532312107297312 20.9180197860771351 16.3586833460367700   F   F   F
 11.7741202691584483 11.2564609227187553 18.2692145284493961   F   F   F
 21.7300722613903012 12.5810706736497124 16.4121215902452526   F   F   F
  9.9400508698022492 12.6085132277831313 16.6611381106151519   F   F   F
 21.6721182737508897 18.1361310682993881 16.4047833252653987   F   F   F
  1.9784776530194843 20.9553265489684755 16.3728165577919640   F   F   F
  5.8973764721907065 15.2474948765096840 16.5592245763568968   F   F   F
 17.7209943385633686 20.8308722110291917 16.4471018153561701   F   F   F
 17.7927916887149102 15.1709149896171365 16.6033875898687810   F   F   F
 17.8001516156173771  9.7201175870561443 16.4666530840359577   F   F   F
 10.0154124666687050  9.9049722930975239 16.3692622125697973   F   F   F
 10.0122351684317206 15.3510853022381522 16.4037188308736468   F   F   F
 13.8715394726610040 18.1729949073865171 16.5157317521037363   F   F   F
 17.7290075871932515  4.1128993039850377 16.5263113595973081   F   F   F
  9.8492112097520614 20.9124154152810604 16.3855747874708086   F   F   F
 11.7975990757280833  5.6531147824580970 17.7232075216427774   F   F   F
  2.0211678357836207 15.3822251184734942 16.3622370004234945   F   F   F
  1.9688749965536489  9.7864665753229581 16.3490286532522795   F   F   F
  1.9813632489894915  4.2165442376680478 16.3659463539914931   F   F   F
 11.8225141544676617  2.8019347100636849 14.9817837478956193   F   F   F
 23.6617846494767434 11.1175250646013222 17.8168373131274116   F   F   F
 13.7205095203556429  4.1272781425158662 16.5108807230794312   F   F   F
 23.6604113520082784 16.8209795514866478 17.7852207439631123   F   F   F
  7.9078514583452284 22.3134245350153790 17.7610945821206343   F   F   F
 23.6574867845284622 22.3083574253044929 17.8018200784572862   F   F   F
  0.0128293903784651  5.5337403204185653 17.7700603207818659   F   F   F
  7.8867137203413336 11.0753119005758442 17.7259604150493075   F   F   F
  7.9387334479606189 16.5424250043280203 17.7139096792700101   F   F   F
 15.6945192830303615  5.5236491833424912 17.7092187210600258   F   F   F
 15.7687805694760481  0.0106253247225523 17.7630677328887963   F   F   F
 21.6839670630472519  4.2111639024462901 16.3645771188289366   F   F   F
 15.7546910243900573 16.5317608151932482 17.7297617648121104   F   F   F
  3.9620099140740015 22.2826181962776921 17.7696017727383762   F   F   F
  3.9840322802212929  5.5511581258326466 17.7923901123238721   F   F   F
  4.0379804665155890 16.7440674647143268 17.8426185153540331   F   F   F
  5.8708564316626397  9.7301604706348730 16.4678820922995754   F   F   F
  3.9142739898809107 11.2377994239634447 17.6198079962705521   F   F   F
  7.9204938182154994  5.6818794294935886 17.7811714475156961   F   F   F
 11.8324260691675125  0.0014210352282708 17.7367116099960604   F   F   F
 19.7065394947605839 19.5059484034242026 14.9832781422008772   F   F   F
 17.7135873242298274 20.9498543068237488 19.2603771788837079   F   F   F
 19.6880390665418190  0.0371671828663981 17.7668191697357152   F   F   F
 11.8494864918131260 16.8819694720583620 17.7759308264419857   F   F   F
  9.8902735885788395  1.4526225262747170 19.2044351234057125   F   F   F
 10.1163126311244120  6.7913840886970425 19.6667531188549596   F   F   F
  9.8408893105341875  4.2740061494858850 16.3961548267438957   F   F   F
 15.7785310065277837 11.0399931835824727 17.7453965522854880   F   F   F
  9.3989113576637600 12.2813718786689652 19.5603693938738949   F   F   F
 17.5434105686283814 18.0763375629281846 19.1929967795393139   F   F   F
 13.7946181687755320  9.8106003409192404 13.6926661500996687   F   F   F
 21.6414109760097766  1.4077189670955801 19.2436583186534023   F   F   F
  1.9785229303331939  6.9462520399708767 19.2147748009896802   F   F   F
 15.7747047760620411 19.5105469189962335 14.9618173449836753   F   F   F
  2.0289121170499138 12.5617813227741149 19.1966406331014454   F   F   F
  1.9896887867780833  1.3478778935733156 19.2682687616278479   F   F   F
  2.0679740905395936  9.7421059751862575 19.1918277648876554   F   F   F
  1.9824821746830601  4.1334414524650240 19.2404922400512390   F   F   F
  9.8928664596241234  4.1785312327371011 19.1881736738896365   F   F   F
  1.9926393267728326 20.8814748434066111 19.2194611433485356   F   F   F
  1.9697975116548272 15.3354439793885131 19.1670381388662854   F   F   F
 21.5978896884081735  9.7321474143031956 19.1989354051717172   F   F   F
 21.6874054556307634 15.3478825421542027 19.1739257371673943   F   F   F
 21.6310840579916004 20.9252769526861080 19.2531699518333248   F   F   F
  9.8239610778571649  9.3453097657868032 18.8993544501401090   F   F   F
 17.8665235182726896  9.6511145138684142 19.1186881819855188   F   F   F
  9.8835374393725637 20.8634090257945033 19.1962840719938370   F   F   F
  5.6897197929055219  9.8633896910566818 19.2394749447884585   F   F   F
 17.6420937750077158  4.3241433267308391 19.3885028325355755   F   F   F
  6.0009417645545478  4.1606895005521567 19.2368610605391623   F   F   F
 19.6543274563707691 16.7542388383948975 17.7778156660802047   F   F   F
 19.6754092441743076  5.5694454762793670 17.7348981714989407   F   F   F
 13.7881877242297364 20.8949219260243879 19.2021883496602257   F   F   F
 21.6982156369999721 18.1325837370000720 10.8156001569999933   F   F   F
  1.9965043790747554 18.1389515415354730 19.2713429904378515   F   F   F
  5.9644556244228459 20.7587357801192169 19.1213071528399858   F   F   F
 13.6945280316704316  4.2698038100666302 19.3447725087685853   F   F   F
  6.0309924453828900 15.1148529503141305 19.8794147748363628   F   F   F
 19.7267341270470951 11.2249183194137103 17.6672411101311937   F   F   F
  9.9489075345318501 15.0766588289878722 19.0071791689774550   F   F   F
 17.6378011335422755  6.9483007447327099 19.2709359541813896   F   F   F
 17.6998978185420093  1.5258042122844708 19.2045726527916187   F   F   F
 13.9966295746311520 18.0882641287071166 19.3791320340564823   F   F   F
  5.9641317486295327  4.1985475548503262 16.4204699349168841   F   F   F
 21.6116554070113018 18.1561023784051763 19.2599058771946083   F   F   F
 13.8094174008899184  1.4838900651962821 19.1764974490881741   F   F   F
 13.9777334646238334 12.6365577931496134 19.1641694641466280   F   F   F
  5.8597079767865576 12.8016943951123192 18.8664486656588366   F   F   F
 17.8539810683906204 15.4392940338140754 19.7138667227533411   F   F   F
  6.1978247908397410 17.8426659648408190 19.3907431780619568   F   F   F
  5.9419573344506915  1.3243650048072713 19.2698747457445947   F   F   F
 21.6982156369999721 12.5533272030000536 10.8156001569999933   F   F   F
 11.8237748890208891  8.3532060966742616 14.9929231753018648   F   F   F
 11.8354531358826964 19.4888175202428862 15.0319209066428154   F   F   F
 11.8425833904774027 13.8612892101967855 15.0029025078417391   F   F   F
 19.7046790966759744 13.9049911405882529 15.0058227202182124   F   F   F
 19.7005853151550880  8.3239004162477404 14.9983159797352812   F   F   F
 19.7099124869388760  2.7760390398964208 15.0107909880681163   F   F   F
 21.6847563369432557  1.3897506574316545 13.6247105981453185   F   F   F
  3.9414815627505524  8.3861788336907566 14.9312000106462772   F   F   F
 13.7524377662738662  9.8000253392842431 19.3932801780490749   F   F   F
 13.6538662967604445 15.3193584278868453 19.1944128049956291   F   F   F
 21.6406315501249544  4.1392903851486782 19.1908621826486474   F   F   F
  5.8955951498775168  7.0571600570728563 19.2366596771668839   F   F   F
  3.9709251155117502 19.4886246840426089 14.9967620260869641   F   F   F
 13.7945956078173797 15.3120818179758640 13.6395725004545554   F   F   F
 13.7895484668443142 20.9160701429404696 13.6347655018881948   F   F   F
 21.6748774034991492  4.1664619215205674 13.5958849272405793   F   F   F
 21.6737732500092619  9.7496676181614195 13.6088533598484567   F   F   F
  3.9555180648110606  2.7741355805637982 14.9794241996824020   F   F   F
 17.7129556106805914  1.3558114680427773 16.3543754287117125   F   F   F
 17.8316392261769607 12.6754413524588969 19.0745638865623057   F   F   F
 21.6641970286397019  6.9551225592687880 19.1885398745053912   F   F   F
 21.6390377548691113 12.5579374702607396 19.2243926460074022   F   F   F
  3.9655942734972252 13.9330807463071196 15.0080390046011019   F   F   F
  0.0000000000000000  0.0000000000000000 12.2103998060000407   F   F   F
 13.8014740548696544  7.1604877791133577 19.0084525947828347   F   F   F
  3.9451301480000271  0.0000000000000000 12.2103998060000407   F   F   F
 17.7449479316507919  9.7809351787049525 13.6749347899500808   F   F   F
 13.8166019617819860  1.4208093570243281 13.6277628681858545   F   F   F
 21.6982156369999721 15.3429554700000619 10.8156001569999933   F   F   F
 21.6982156369999721  9.7636982699999884 10.8156001569999933   F   F   F
 21.6982156369999721  4.1844424010000720 10.8156001569999933   F   F   F
 13.8079546360000549 20.9222120050000342 10.8156001569999933   F   F   F
 13.8079546360000549 15.3429554700000619 10.8156001569999933   F   F   F
 13.8079546360000549  9.7636982699999884 10.8156001569999933   F   F   F
 13.8079546360000549  4.1844424010000720 10.8156001569999933   F   F   F
  5.9176950450000287 20.9222120050000342 10.8156001569999933   F   F   F
 21.6982156369999721 20.9222120050000342 10.8156001569999933   F   F   F
  5.9176950450000287 15.3429554700000619 10.8156001569999933   F   F   F
  5.9176950450000287  4.1844424010000720 10.8156001569999933   F   F   F
 17.7530837259999217 20.9222120050000342 10.8156001569999933   F   F   F
  9.8769157075652441 20.8886757027314651 13.6227304904350923   F   F   F
 17.7530837259999217 15.3429554700000619 10.8156001569999933   F   F   F
 17.7530837259999217  4.1844424010000720 10.8156001569999933   F   F   F
  9.8628241350000643 20.9222120050000342 10.8156001569999933   F   F   F
  9.8628241350000643 15.3429554700000619 10.8156001569999933   F   F   F
  9.8628241350000643  9.7636982699999884 10.8156001569999933   F   F   F
  5.9176950450000287  9.7636982699999884 10.8156001569999933   F   F   F
  1.9725650740000149  1.3948141340000613 10.8156001569999933   F   F   F
 21.6658696167842706 15.3290285313805388 13.6005694144650384   F   F   F
 15.7494067486796734  8.4497361011793686 15.0956524345184970   F   F   F
  7.9114987798606595  8.4457867526476598 15.0905680393537249   F   F   F
  7.9446024249395073 13.9666615244786918 15.1126787815181878   F   F   F
 21.7060282538225451  1.4167411871966205 16.4264484638021102   F   F   F
  5.9177078377569003  4.2116902758508310 13.6303148980368540   F   F   F
 17.7483061358051550 20.9428031062495954 13.6653802548852408   F   F   F
 17.7299319533917128 15.3681522818813825 13.7271440705266166   F   F   F
 17.7530837259999217  9.7636982699999884 10.8156001569999933   F   F   F
 17.7588038765532765  4.2300401449702312 13.6717831241105099   F   F   F
  5.9700902371971880  7.0157556308237208 13.6182703733760828   F   F   F
 21.6736292643969399  6.9722451138345098 16.3989292738471590   F   F   F
 15.7508890910170987 13.9662211563094889 15.0893562826301562   F   F   F
 13.8030937665707238  1.3903185242080831 16.3791696685756989   F   F   F
  9.8575160782249291  9.7179422246961735 13.6149414295705231   F   F   F
  1.9975006652420091 15.3306129701224378 13.5947288688777927   F   F   F
  1.9907782356325676 20.9047525906188838 13.6067982691489835   F   F   F
  1.9594744062615210  9.7482962836050291 13.5855287894828738   F   F   F
  1.9849690531973563  4.1633362545401784 13.5895242740771707   F   F   F
 21.6953798029037621 18.1294256401802194 13.6214752231694813   F   F   F
  1.9725650740000149  6.9740706679999214 10.8156001569999933   F   F   F
 21.6852976668880864 12.5457583292255137 13.6224817214329210   F   F   F
 13.7909279261668889  6.9417196888839232 16.3486821350882288   F   F   F
 21.6828772026091556  6.9658339666707603 13.6158732618390381   F   F   F
  9.8716550522778643  4.1773008403664580 13.6078248770717369   F   F   F
  5.9652688482291598 15.3455940970225537 13.6835261182997723   F   F   F
  9.8745072234888820 15.2884636580947930 13.6488698806149777   F   F   F
 21.6858955632963131 20.9158313229208019 13.6135014606619524   F   F   F
 -0.0002776554092932  2.7924913355645420 14.9555700379058756   F   F   F
 13.8014240300288584 18.0859458818792760 13.6627825887569490   F   F   F
 -0.0034098704608794  8.3425057516822267 14.9433491525101889   F   F   F
 23.6635575401456499 13.9963464302177183 14.9283108416925501   F   F   F
  7.8965781763389975  2.8030717731643162 14.9573220437202092   F   F   F
  0.0005944057971185 19.5312221652454880 14.9856160918006918   F   F   F
  7.8953776982548485 19.5097032496567380 14.9761101407542565   F   F   F
 15.7631990470224910  2.8358188315988406 15.0268229567291467   F   F   F
  5.9436919203622045  9.8035930615702167 13.6472221494227615   F   F   F
  1.9725650740000149 12.5533272030000536 10.8156001569999933   F   F   F
 18.2814164684958982  2.9616129504582180 22.2913211123395598   T   T   T
 21.6982156369999721  1.3948141340000613 10.8156001569999933   F   F   F
 17.7452070678259268 18.1488576354726412 13.5903992722841291   F   F   F
  5.9296039539587175  1.3842571667985384 13.6283812155531816   F   F   F
 13.8067369997616947  4.2447999614139782 13.6699461691835413   F   F   F
  5.9606965641565335 12.6025130134490464 13.6117904596249168   F   F   F
  2.0088331425542836 18.1425655613079222 16.4192527923673168   F   F   F
 19.7256482699999580  5.5792565349999723 12.2103998060000407   F   F   F
 13.8312868661331265  7.0390036332593668 13.6087852778690799   F   F   F
 19.7256482699999580  0.0000000000000000 12.2103998060000407   F   F   F
 11.8353900909999528 11.1585130689999925 12.2103998060000407   F   F   F
  1.9725650740000149  4.1844424010000720 10.8156001569999933   F   F   F
  5.9942265275048037 18.1343896605159784 16.5197588403532123   F   F   F
  0.0000000000000000  5.5792565349999723 12.2103998060000407   F   F   F
  0.0000000000000000 11.1585130689999925 12.2103998060000407   F   F   F
 17.7133488738917215 12.5908946877292109 13.6157368546012894   F   F   F
  7.8902602960000570  0.0000000000000000 12.2103998060000407   F   F   F
  7.8902602960000570 11.1585130689999925 12.2103998060000407   F   F   F
  7.8902602960000570 16.7377696039999648 12.2103998060000407   F   F   F
 15.7805205919999434  0.0000000000000000 12.2103998060000407   F   F   F
 15.7805205919999434  5.5792565349999723 12.2103998060000407   F   F   F
 15.7805205919999434 11.1585130689999925 12.2103998060000407   F   F   F
 13.8079546360000549  6.9740706679999214 10.8156001569999933   F   F   F
 15.7805205919999434 16.7377696039999648 12.2103998060000407   F   F   F
  3.9451301480000271 11.1585130689999925 12.2103998060000407   F   F   F
  3.9451301480000271 16.7377696039999648 12.2103998060000407   F   F   F
 11.8353900909999528  0.0000000000000000 12.2103998060000407   F   F   F
 11.8353900909999528  5.5792565349999723 12.2103998060000407   F   F   F
 11.8353900909999528 16.7377696039999648 12.2103998060000407   F   F   F
 21.6982156369999721  6.9740706679999214 10.8156001569999933   F   F   F
  7.8902602960000570  5.5792565349999723 12.2103998060000407   F   F   F
 17.6894132034358620  7.0073207998860951 13.6573510759580721   F   F   F
  0.0000000000000000 16.7377696039999648 12.2103998060000407   F   F   F
  9.8679692599519413 18.0853085090757979 13.6495462718222722   F   F   F
 13.8079546360000549 12.5533272030000536 10.8156001569999933   F   F   F
 17.7265119371477660  1.4331015822717106 13.6094076010070957   F   F   F
 13.8079546360000549 18.1325837370000720 10.8156001569999933   F   F   F
  5.9309657094308195 18.0951718088747739 13.6593416190497550   F   F   F
  3.9451301480000271  5.5792565349999723 12.2103998060000407   F   F   F
 13.8079546360000549  1.3948141340000613 10.8156001569999933   F   F   F
 13.8337811810202478 12.5594193794717643 13.6466490644981633   F   F   F
  5.9176950450000287 12.5533272030000536 10.8156001569999933   F   F   F
  5.9176950450000287  1.3948141340000613 10.8156001569999933   F   F   F
  5.9176950450000287 18.1325837370000720 10.8156001569999933   F   F   F
  5.9176950450000287  6.9740706679999214 10.8156001569999933   F   F   F
 17.7530837259999217 12.5533272030000536 10.8156001569999933   F   F   F
 17.7530837259999217  6.9740706679999214 10.8156001569999933   F   F   F
 17.7530837259999217  1.3948141340000613 10.8156001569999933   F   F   F
  9.8628241350000643 18.1325837370000720 10.8156001569999933   F   F   F
  9.8628241350000643 12.5533272030000536 10.8156001569999933   F   F   F
  9.8628241350000643  6.9740706679999214 10.8156001569999933   F   F   F
  1.9759856000908433  6.9617247783812433 13.6208218642228296   F   F   F
  9.8628241350000643  1.3948141340000613 10.8156001569999933   F   F   F
  9.8678327394773255  1.3752959954299391 13.6610215909806687   F   F   F
  1.9751289271824006 18.1245492326188966 13.6253654516485678   F   F   F
  1.9875090519417169 12.5535353632205773 13.6184710677572465   F   F   F
  9.8479625259176640 12.4870999103516347 13.7359428713888789   F   F   F
 17.7530837259999217 18.1325837370000720 10.8156001569999933   F   F   F
 19.7256482699999580 11.1585130689999925 12.2103998060000407   F   F   F
  9.8349408337535102  6.9485657523702793 13.7219781176435376   F   F   F
 19.7256482699999580 16.7377696039999648 12.2103998060000407   F   F   F
  1.9725650740000149  9.7636982699999884 10.8156001569999933   F   F   F
  1.9725650740000149 15.3429554700000619 10.8156001569999933   F   F   F
  1.9725650740000149 20.9222120050000342 10.8156001569999933   F   F   F
  9.8628241350000643  4.1844424010000720 10.8156001569999933   F   F   F
  1.9725650740000149 18.1325837370000720 10.8156001569999933   F   F   F
  9.8035129389657456 18.1149605313821880 16.4367983210622377   F   F   F
  5.9002232578303477  7.0019257245952993 16.3759617083458799   F   F   F
 17.6956669773954758 18.0149364838648722 16.3599395338714366   F   F   F
 17.6694120838447120 12.4459810316563342 16.3402779903843580   F   F   F
  1.9805460605735128  1.3812706959064887 13.6271150368179423   F   F   F
  5.9428609117434084  1.3947144065086221 16.4181148892530331   F   F   F
 19.6823168500388590 19.5756254017009077 18.5289574601169491   F   F   F
 19.8444244785957267  8.3160299957684440 18.0819754728889990   F   F   F
 19.7256482699999580  8.3688848019999824 12.2103998060000407   F   F   F
  3.9451301480000271 19.5273965409999306 12.2103998060000407   F   F   F
  7.9041302311687653 13.9358919294835957 17.8487459167360285   F   F   F
 19.7937577487151586 16.7761525461533161 15.0802691820795740   F   F   F
 11.8353900909999528  2.7896282670000101 12.2103998060000407   F   F   F
 15.7467475168644473  2.7708612666997001 18.1545657696735212   F   F   F
  7.8497616549740679  2.6706394517248935 18.3927186903429956   F   F   F
  3.9346862221567629  5.5394328203837446 15.1855391839925993   F   F   F
 19.8734124123050719 13.9920991612501933 18.1245546981740766   F   F   F
 11.8353900909999528 13.9481413360000008 12.2103998060000407   F   F   F
 19.7256482699999580  2.7896282670000101 12.2103998060000407   F   F   F
  0.0000000000000000  2.7896282670000101 12.2103998060000407   F   F   F
 23.6407198305203430 19.5301485420160539 18.6967398885591045   F   F   F
  7.9224874838859805 19.6090177877483853 18.0899613885353396   F   F   F
  0.0035078551637198  8.3730858107507551 18.7226908821439686   F   F   F
  3.9451301480000271 13.9481413360000008 12.2103998060000407   F   F   F
 11.8697414209872445  8.2921613089291224 17.8434508802929095   F   F   F
 11.8353900909999528 19.5273965409999306 12.2103998060000407   F   F   F
 23.6610484201113742 13.9235850440391378 18.7114538376594233   F   F   F
 19.7452935406969239  2.7581090213074129 18.2836361416414306   F   F   F
 15.7788735396757183 13.9647659694753887 17.7972923230103213   F   F   F
 15.7557440690280899 19.6726765901870593 18.2173020119900819   F   F   F
  3.8608731102322595  8.2794271838610669 18.2273595596957385   F   F   F
  3.9705685491434886  2.7344197648190045 18.6549378022048025   F   F   F
 11.8456732973881067  2.7234955388191300 18.1891354122267117   F   F   F
 15.8633891757817977  8.3166885609366208 17.7954142244256595   F   F   F
  3.9331684069954407 19.5000568451372622 18.5273154913359264   F   F   F
  3.7741869360209304 13.9997681018755866 18.0508420743471412   F   F   F
 11.8423463750523155 22.2988978878597237 15.1711238161988984   F   F   F
 15.7805205919999434 19.5273965409999306 12.2103998060000407   F   F   F
 11.8353900909999528  8.3688848019999824 12.2103998060000407   F   F   F
 11.9219047452374003 13.9477981991154216 17.8209837727922853   F   F   F
  0.0000000000000000  8.3688848019999824 12.2103998060000407   F   F   F
  3.9451301480000271  2.7896282670000101 12.2103998060000407   F   F   F
 11.8633460427262136 19.5719819120324132 18.2936864999115265   F   F   F
 11.8561319414153186  5.5331607297936118 15.0631959960128228   F   F   F
 19.7945025412225633 11.1603569169833730 15.0830942398878509   F   F   F
 23.6617540022752486 11.1563171061330380 15.2009123093595662   F   F   F
 11.8626368590333549 11.1545140475702347 15.0066327958694075   F   F   F
 15.8230092258552659 11.1575460475705590 15.0180839242609814   F   F   F
  7.9026417919091463 16.7633802964709773 15.0452962015197471   F   F   F
  7.8859914821084995  0.0226583659728235 15.1755295445684588   F   F   F
  7.8128261518888182  5.5361153402730130 15.0851509084510393   F   F   F
  0.0036561866432351  2.7388554067394990 18.6148995517060598   F   F   F
  3.9451301480000271  8.3688848019999824 12.2103998060000407   F   F   F
  3.8879229987910122 16.7695116367549062 15.1030705646280961   F   F   F
 11.8611317836928336 16.8007056338804617 15.1148217355195307   F   F   F
 19.7256482699999580 13.9481413360000008 12.2103998060000407   F   F   F
 15.7652400526278438 22.3089769716236184 15.1722287189110148   F   F   F
  7.7107704213296602  8.3373409543066401 17.7796145336646489   F   F   F
 15.7805205919999434  8.3688848019999824 12.2103998060000407   F   F   F
 15.7463903348708794 16.7767373305636696 15.0664597393033297   F   F   F
 15.7816748037951715  5.5403130403517391 15.0722992378228700   F   F   F
 19.7835042091650699  5.5492860120374612 15.0763336748428820   F   F   F
  0.0000000000000000 19.5273965409999306 12.2103998060000407   F   F   F
  3.8677708423255610 11.1536950370760763 15.0598782223301022   F   F   F
  7.8377403832461043 11.1413432804586510 15.0263503604236401   F   F   F
  3.9290536630092623  0.0258699702041110 15.1969450451405148   F   F   F
  0.0000000000000000 13.9481413360000008 12.2103998060000407   F   F   F
  7.8902602960000570 19.5273965409999306 12.2103998060000407   F   F   F
 19.7446498473998560 -0.0039682028987314 15.1939168952841790   F   F   F
 15.7805205919999434  2.7896282670000101 12.2103998060000407   F   F   F
  7.8902602960000570  2.7896282670000101 12.2103998060000407   F   F   F
  7.8902602960000570 13.9481413360000008 12.2103998060000407   F   F   F
 19.7256482699999580 19.5273965409999306 12.2103998060000407   F   F   F
 15.7805205919999434 13.9481413360000008 12.2103998060000407   F   F   F
 -0.0015834796084886  0.0006904036175116 15.2062216982258782   F   F   F
  0.0169250558762999  5.5722606940118053 15.1846573576856585   F   F   F
 23.6678984597422257 16.7632840717229286 15.2030462161379010   F   F   F
  7.8902602960000570  8.3688848019999824 12.2103998060000407   F   F   F
  1.9725650740000149  5.5792565349999723 12.2103998060000407   F   F   F
  9.8665823545782594 16.7462260717610825 17.8267473941149959   F   F   F
 17.8115291752785545 13.9416663416420139 15.0706665185481761   F   F   F
  1.9725650740000149 16.7377696039999648 12.2103998060000407   F   F   F
  1.9725650740000149 11.1585130689999925 12.2103998060000407   F   F   F
  1.9725650740000149  0.0000000000000000 12.2103998060000407   F   F   F
 13.8113604551856870  8.3363430429555851 15.0531203505714455   F   F   F
 21.6982156369999721 16.7377696039999648 12.2103998060000407   F   F   F
 13.7975038722066383  2.7485081798233928 15.1299811895413043   F   F   F
 13.8195970158693768 19.5458782764882386 15.1738815572180528   F   F   F