Au  O Sr Ti                             
   1.00000000000000     
    23.6707801818999997    0.0000000000000000    0.0000000000000000
     0.0000000000000000   22.3170261383000010    0.0000000000000000
     0.0000000000000000    0.0000000000000000   30.0000000000000000
   Au   O    Sr   Ti
    50   264    72    72
Selective dynamics
Direct
  0.7726838433937281  0.5832010302245237  0.7702508898691558   T   T   T
  0.5844341728354181  0.5677238046739717  0.6999170620552082   T   T   T
  0.7033893246878437  0.2469308299651534  0.7047208141508370   T   T   T
  0.3292013978869098  0.7800185798314347  0.6831329098523847   T   T   T
  0.5696119780055686  0.6322217654244741  0.7789195266322949   T   T   T
  0.6176309258281523  0.7648448433739076  0.7807869045488649   T   T   T
  0.5893562216490356  0.4018269870612133  0.8222590036061126   T   T   T
  0.2790592091002751  0.5513125723981751  0.7044865221647907   T   T   T
  0.3404802402052501  0.7377587430213999  0.7738160365831108   T   T   T
  0.6525475477434931  0.3127180020621778  0.7744692833982887   T   T   T
  0.5239762452869279  0.4198469970675341  0.7008910947905990   T   T   T
  0.5425835123560050  0.5046020114415086  0.7721646366677078   T   T   T
  0.5210010065724304  0.7250576306608066  0.8357018880321988   T   T   T
  0.7529207575167987  0.5050953865395756  0.7026216874967446   T   T   T
  0.7474475881741057  0.6655932321584669  0.7042445918885121   T   T   T
  0.7076104013502935  0.5804613708897279  0.8519140414619097   T   T   T
  0.5762121771996088  0.8186298996161431  0.7041044343989336   T   T   T
  0.5128772842873448  0.8238742444299249  0.7795736362271992   T   T   T
  0.4387838591340258  0.5078252303099607  0.6934975431531593   T   T   T
  0.4459353513471022  0.4296622867450580  0.7688125024997616   T   T   T
  0.3003587191716423  0.3103791089673099  0.6975022225365151   T   T   T
  0.3446540434647166  0.3623785792928945  0.7708764553669760   T   T   T
  0.4598416691064193  0.8070369283955333  0.7012575896822494   T   T   T
  0.3316956751108243  0.6129152111029590  0.7733056129382665   T   T   T
  0.5025878051491292  0.2476812087120691  0.6798254777195015   T   T   T
  0.5094899258676980  0.6759880583785679  0.7007586908214782   T   T   T
  0.5993478485721409  0.3129203028049966  0.6966495136429089   T   T   T
  0.6975396380178525  0.7887203531406742  0.7066417311799993   T   T   T
  0.6907883159776453  0.4543059003363744  0.8520090367939015   T   T   T
  0.4110320056027060  0.6708784641345301  0.8319809307539983   T   T   T
  0.5977578267070158  0.5291777023682657  0.8603752797483332   T   T   T
  0.7163758427437328  0.4212489754933847  0.7653883324097144   T   T   T
  0.4940142477312204  0.4708760818482833  0.8565111033222365   T   T   T
  0.5223895916258906  0.3281685663041722  0.7676208269987010   T   T   T
  0.2868106684778656  0.4313040572635369  0.7023283643367806   T   T   T
  0.6924738814688192  0.6723833504354696  0.7853807217766146   T   T   T
  0.3834530269582915  0.4232779005320019  0.8482395354429448   T   T   T
  0.3980262178133925  0.5473246289085786  0.8386002550310853   T   T   T
  0.5029777284370839  0.6019072029918672  0.8601582639821331   T   T   T
  0.3297472841038405  0.4890057824568188  0.7754397900201354   T   T   T
  0.4251695489656571  0.3347616472740104  0.7016137739829923   T   T   T
  0.3938204458521672  0.6782525214499983  0.7031260254831505   T   T   T
  0.7331302715709868  0.3592821160277482  0.6888375056067373   T   T   T
  0.6596818034380506  0.5362492938142190  0.7701454822325645   T   T   T
  0.2732024458210349  0.6775798905123345  0.7054767528807607   T   T   T
  0.6412600102072987  0.4530427979438472  0.6979540138498583   T   T   T
  0.6167588848925704  0.6608195571361004  0.8611358658189001   T   T   T
  0.6304727736852278  0.6882738528935474  0.7028679838032593   T   T   T
  0.4548689730011677  0.5928158611272770  0.7573653470104950   T   T   T
  0.4182062696788519  0.7949640875944063  0.8290085358648354   T   T   T
  0.2502872438309204  0.1873202467146194  0.4535320879692024   T   T   T
  0.7500055537711345  0.9366240539669706  0.4542504968119292   T   T   T
  0.7490184637497916  0.6853683681802430  0.4544525267358834   T   T   T
  0.7505734197378229  0.4372084128831490  0.4553696527370516   T   T   T
  0.7496524949932458  0.1900974629244388  0.4562468356990859   T   T   T
  0.4175041529321710  0.9358574847556668  0.4536723262697202   T   T   T
  0.4176895874633216  0.6858797863258854  0.4550060720762863   T   T   T
  0.4181182488929378  0.4385639537496062  0.4556859378539923   T   T   T
  0.0833999474344559  0.6874700570301109  0.4539905693996215   T   T   T
  0.0840153805216223  0.9373702303857262  0.4536325130996852   T   T   T
  0.0842785199339396  0.4371755031179015  0.4535223852158837   T   T   T
  0.0836359646067998  0.1871050585108517  0.4534011117569158   T   T   T
  0.9165353198031087  0.8125473781646579  0.4538292675377093   T   T   T
  0.9165246459617066  0.5625465700776653  0.4537818269858191   T   T   T
  0.2495676237518315  0.4378531476833404  0.4540301557074850   T   T   T
  0.9159636247054947  0.0625221807295489  0.4540633726339295   T   T   T
  0.9164538885944191  0.3126564980743585  0.4537590763096162   T   T   T
  0.4164135034987441  0.1896228454018574  0.4554319039588752   T   T   T
  0.2516638964030356  0.6868477636777781  0.4551588300206690   T   T   T
  0.9155318301635391  0.9372164294675588  0.4537132817666670   T   T   T
  0.5836113235946594  0.1902916364272542  0.4556973543950706   T   T   T
  0.0000185907064978  0.1247770860096012  0.4986287938732714   T   T   T
  0.5828330793492689  0.8128117339219282  0.4533374278691669   T   T   T
  0.0000700394967910  0.3739326226240492  0.4988044467985239   T   T   T
 -0.0001458162089308  0.6263350740363194  0.5006870288774198   T   T   T
  0.3338579136873989  0.1253800331634264  0.4994964506877707   T   T   T
  0.9997984800749236  0.8767828944441697  0.4986444733359225   T   T   T
  0.3337965556534714  0.8748085900489229  0.4992427334034981   T   T   T
  0.6659989371121360  0.1256768493239264  0.4995289231331812   T   T   T
  0.3344444441453570  0.6268336539155317  0.5033840693735747   T   T   T
  0.3339690433656714  0.3790820552844776  0.4993923060884354   T   T   T
  0.6666858379183366  0.3772255134215665  0.5001417220619033   T   T   T
  0.9164093348143865  0.6871411584751796  0.4539389131158345   T   T   T
  0.9157438265480443  0.4371043476954120  0.4536911886094948   T   T   T
  0.9163474141134280  0.1873530138981530  0.4536342001388965   T   T   T
  0.5823131768381413  0.9381754022763956  0.4553178505338021   T   T   T
  0.5830709886946795  0.6880154043932801  0.4565218761042574   T   T   T
  0.5822146772550076  0.4397921039672415  0.4561651236064934   T   T   T
  0.2500603548413053  0.9363233203790630  0.4537534416352904   T   T   T
  0.6663305272688785  0.6269570225658022  0.5029228619448566   T   T   T
  0.5847020155042114  0.5642352177468549  0.4536113748720629   T   T   T
  0.5829656494098596  0.0643248992798367  0.4526846428252756   T   T   T
  0.9166666865332829  0.6874999999963620  0.3605200052333331   F   F   F
  0.9166666865332829  0.4374999701794380  0.3605200052333331   F   F   F
  0.9166666865332829  0.1875000000030838  0.3605200052333331   F   F   F
  0.5833333134730552  0.9375000000154046  0.3605200052333331   F   F   F
  0.5833333134730552  0.6874999999963620  0.3605200052333331   F   F   F
  0.5833333134730552  0.4374999701794380  0.3605200052333331   F   F   F
  0.5833333134730552  0.1875000000030838  0.3605200052333331   F   F   F
  0.2499999999799343  0.9375000000154046  0.3605200052333331   F   F   F
  0.9166666865332829  0.9375000000154046  0.3605200052333331   F   F   F
  0.2499999999799343  0.6874999999963620  0.3605200052333331   F   F   F
  0.2499999999799343  0.1875000000030838  0.3605200052333331   F   F   F
  0.7499999404149307  0.9375000000154046  0.3605200052333331   F   F   F
  0.7499999404149307  0.6874999999963620  0.3605200052333331   F   F   F
  0.7499999404149307  0.4374999701794380  0.3605200052333331   F   F   F
  0.7499999404149307  0.1875000000030838  0.3605200052333331   F   F   F
  0.4166666269218169  0.9375000000154046  0.3605200052333331   F   F   F
  0.4166666269218169  0.6874999999963620  0.3605200052333331   F   F   F
  0.4166666269218169  0.4374999701794380  0.3605200052333331   F   F   F
  0.2499999999799343  0.4374999701794380  0.3605200052333331   F   F   F
  0.0833333358191695  0.0625000000159659  0.3605200052333331   F   F   F
  0.0833333358191695  0.3124999999901945  0.3605200052333331   F   F   F
  0.0833333358191695  0.5625000000092442  0.3605200052333331   F   F   F
  0.9166666865332829  0.3124999999901945  0.3605200052333331   F   F   F
  0.9166666865332829  0.0625000000159659  0.3605200052333331   F   F   F
  0.5833333134730552  0.8124999999834799  0.3605200052333331   F   F   F
  0.5833333134730552  0.5625000000092442  0.3605200052333331   F   F   F
  0.5833333134730552  0.3124999999901945  0.3605200052333331   F   F   F
  0.5833333134730552  0.0625000000159659  0.3605200052333331   F   F   F
  0.2499999999799343  0.8124999999834799  0.3605200052333331   F   F   F
  0.2499999999799343  0.5625000000092442  0.3605200052333331   F   F   F
  0.2499999999799343  0.3124999999901945  0.3605200052333331   F   F   F
  0.2499999999799343  0.0625000000159659  0.3605200052333331   F   F   F
  0.7499999404149307  0.8124999999834799  0.3605200052333331   F   F   F
  0.7499999404149307  0.5625000000092442  0.3605200052333331   F   F   F
  0.7499999404149307  0.3124999999901945  0.3605200052333331   F   F   F
  0.7499999404149307  0.0625000000159659  0.3605200052333331   F   F   F
  0.4166666269218169  0.8124999999834799  0.3605200052333331   F   F   F
  0.4166666269218169  0.5625000000092442  0.3605200052333331   F   F   F
  0.4166666269218169  0.3124999999901945  0.3605200052333331   F   F   F
  0.4166666269218169  0.0625000000159659  0.3605200052333331   F   F   F
  0.0833333358191695  0.8124999999834799  0.3605200052333331   F   F   F
  0.4166666269218169  0.1875000000030838  0.3605200052333331   F   F   F
  0.0833333358191695  0.9375000000154046  0.3605200052333331   F   F   F
  0.0833333358191695  0.6874999999963620  0.3605200052333331   F   F   F
  0.0833333358191695  0.4374999701794380  0.3605200052333331   F   F   F
  0.8333332538436267  0.4999999999932783  0.4070133268666680   F   F   F
  0.8333332538436267  0.7500000000123208  0.4070133268666680   F   F   F
  0.0837979265224240  0.0623809401782171  0.4539427830162270   T   T   T
  0.0834877900182731  0.3124595560710958  0.4539186117731966   T   T   T
  0.0827413583208631  0.5626162348336925  0.4537946603082499   T   T   T
  0.0832143625470269  0.8127271466612268  0.4537788064998606   T   T   T
  0.4165110707967170  0.0628723015108754  0.4538587550700744   T   T   T
  0.4170874454478245  0.3140979823532308  0.4544733124771119   T   T   T
  0.4155182527833015  0.5623477103749370  0.4559508103209041   T   T   T
  0.4167747226268751  0.8101432119642080  0.4555297700867934   T   T   T
  0.7496398222571450  0.0635781686657245  0.4541051192419375   T   T   T
  0.7489296087412058  0.3142112783864410  0.4534065326582572   T   T   T
  0.7476108071521661  0.5608668296417850  0.4563532779846053   T   T   T
  0.7495125958955980  0.8097635710234514  0.4554536919977125   T   T   T
  0.2506109673829963  0.0623868257771291  0.4542260494179874   T   T   T
  0.9128744740909344  0.3118963600145185  0.5465334959102868   T   T   T
  0.2519160697376702  0.3131800380920394  0.4542351399227502   T   T   T
  0.2520856868266375  0.5627963838197987  0.4552522265005796   T   T   T
  0.2503664458350819  0.8110578402474017  0.4548402262573543   T   T   T
  0.8333332538436267  0.2500000000190425  0.4070133268666680   F   F   F
  0.5834256954388523  0.3156132682835191  0.4526531433231186   T   T   T
  0.8333332538436267  0.0000000000000000  0.4070133268666680   F   F   F
  0.5000000000021103  0.4999999999932783  0.4070133268666680   F   F   F
  0.0833333358191695  0.1875000000030838  0.3605200052333331   F   F   F
  0.0000000000000000  0.0000000000000000  0.4070133268666680   F   F   F
  0.0000000000000000  0.2500000000190425  0.4070133268666680   F   F   F
  0.0000000000000000  0.4999999999932783  0.4070133268666680   F   F   F
  0.0000000000000000  0.7500000000123208  0.4070133268666680   F   F   F
  0.3333333432766779  0.0000000000000000  0.4070133268666680   F   F   F
  0.3333333432766779  0.2500000000190425  0.4070133268666680   F   F   F
  0.3333333432766779  0.4999999999932783  0.4070133268666680   F   F   F
  0.3333333432766779  0.7500000000123208  0.4070133268666680   F   F   F
  0.6666666865533486  0.0000000000000000  0.4070133268666680   F   F   F
  0.6666666865533486  0.2500000000190425  0.4070133268666680   F   F   F
  0.6666666865533486  0.4999999999932783  0.4070133268666680   F   F   F
  0.6666666865533486  0.7500000000123208  0.4070133268666680   F   F   F
  0.1666666716383389  0.0000000000000000  0.4070133268666680   F   F   F
  0.1666666716383389  0.2500000000190425  0.4070133268666680   F   F   F
  0.1666666716383389  0.4999999999932783  0.4070133268666680   F   F   F
  0.1666666716383389  0.7500000000123208  0.4070133268666680   F   F   F
  0.5000000000021103  0.0000000000000000  0.4070133268666680   F   F   F
  0.5000000000021103  0.2500000000190425  0.4070133268666680   F   F   F
  0.5000000000021103  0.7500000000123208  0.4070133268666680   F   F   F
  0.1669221020966718  0.1247353569443901  0.4994345798172595   T   T   T
  0.9176792802633630  0.0631516757035724  0.5473406327202083   T   T   T
  0.1672034918961263  0.8735631560401991  0.4997883788282567   T   T   T
  0.2518083515060484  0.1881496615364326  0.5465845706982468   T   T   T
  0.7489707042856053  0.9372599316669633  0.5463058426751418   T   T   T
  0.7515994816709177  0.6873896428534325  0.5473382520415335   T   T   T
  0.7514763758385582  0.4329963231868605  0.5504367738184253   T   T   T
  0.4188271021467980  0.4355612655858819  0.5501111790239728   T   T   T
  0.4219639458493538  0.6885599199074526  0.5473063848361716   T   T   T
  0.7464615587764808  0.1826586404067758  0.5534080898493565   T   T   T
  0.4172085546879705  0.9380495015087933  0.5447359130250912   T   T   T
  0.0834563693120642  0.9384871270076997  0.5461440459757224   T   T   T
  0.4186936290895443  0.1851878942773568  0.5505135343217569   T   T   T
  0.0882787752084243  0.6878187371833131  0.5467317380645336   T   T   T
  0.0845290820479662  0.4387829075416213  0.5454639687093588   T   T   T
  0.0826594262190396  0.1888879588341384  0.5458100043514572   T   T   T
  0.4996841976085947  0.1252084360930161  0.4985378345289411   T   T   T
  0.0001325409561963  0.4997292004306969  0.5926421908345103   T   T   T
  0.9992681632286625  0.7462923973356186  0.5931993991720518   T   T   T
  0.3374336983702919  0.2422221412725627  0.5953963896713862   T   T   T
  0.3342548172988172  0.0006111402490355  0.5910250686755045   T   T   T
  0.9993661142919611  0.9979885412499848  0.5928396821762245   T   T   T
  0.0009547415236841  0.2545634881813116  0.5936782666337024   T   T   T
  0.3344183628629596  0.4982053524606966  0.5894523593841825   T   T   T
  0.3348795371923554  0.7442175817972608  0.5900743964391061   T   T   T
  0.6621204345726841  0.2446024026736890  0.5931788263944389   T   T   T
  0.6666555750162536  0.0026394075891756  0.5910324564492807   T   T   T
  0.6629028163285716  0.7422532172727524  0.5928316149158726   T   T   T
  0.6695381752326649  0.4907043412839348  0.5950004589374321   T   T   T
  0.1671292912883285 -0.0014031251077572  0.5929920273736582   T   T   T
  0.1690027027151458  0.2490714060294597  0.5922729444553680   T   T   T
  0.1693960475035182  0.7590563027598571  0.5938478241625752   T   T   T
  0.2500278871526213  0.4378496995493951  0.5472250199835346   T   T   T
  0.1681075703366867  0.4994011167653751  0.5919528719896970   T   T   T
  0.2466202060782526  0.6869236467125186  0.5488913904402188   T   T   T
  0.5803142185145838  0.1824968010542923  0.5507083102475288   T   T   T
  0.9179669818944163  0.8121846525893355  0.5466936647846605   T   T   T
  0.9150429557632080  0.5621087497050727  0.5463329374819963   T   T   T
  0.5883353656935819  0.5572613395303199  0.5447975781192439   T   T   T
  0.5843565295313367  0.8084254718742940  0.5461106465440845   T   T   T
  0.5873516471423116  0.3096216828929723  0.5437017490898385   T   T   T
  0.5828914987467646  0.0592915046953207  0.5432593894326038   T   T   T
  0.2538083957298943  0.8131636789280179  0.5489014299465278   T   T   T
  0.2504976383422831  0.5635991445204176  0.5488517473046332   T   T   T
  0.2550734947887643  0.3136569631512623  0.5470645033056043   T   T   T
  0.2507945333960019  0.0626959078396090  0.5471125427766664   T   T   T
  0.7446309222886158  0.8133468250170516  0.5505858990781120   T   T   T
  0.7479917894479874  0.5623471972956637  0.5514998684002678   T   T   T
  0.4145869560971661  0.8148925920575687  0.5506831662485731   T   T   T
  0.7485112948516917  0.0604444266365405  0.5448932808846666   T   T   T
  0.7470546697409997  0.3066454111449005  0.5445029472492202   T   T   T
  0.4107133677671951  0.3126526152125597  0.5464349129579873   T   T   T
  0.4173481402286766  0.5648063301069516  0.5501833966681107   T   T   T
  0.4174671993383141  0.0614601704083389  0.5449971752443721   T   T   T
  0.0809790955994286  0.8120438625433716  0.5464890460137805   T   T   T
  0.0849401880371776  0.5624501096675510  0.5463238760479782   T   T   T
  0.0861150550525498  0.3129332020501341  0.5473066331335150   T   T   T
  0.0823447961897570  0.0631484119832146  0.5475722141033468   T   T   T
  0.9155321341768718  0.9382425840554234  0.5466159198737917   T   T   T
  0.9113530373882180  0.6874239010077774  0.5467585729775890   T   T   T
  0.5840414144596824  0.9334158816385846  0.5479156746279470   T   T   T
  0.9187914508570721  0.1887147785988504  0.5463560117595399   T   T   T
  0.9154927763298917  0.4372680009947717  0.5456544720244851   T   T   T
  0.5831316895477859  0.4330623958797120  0.5497018843548154   T   T   T
  0.5779954840959629  0.6824925383279770  0.5513969359136554   T   T   T
  0.2517121493627286  0.9379228729180894  0.5455864458269373   T   T   T
  0.5032939114568850  0.5007109270680595  0.5903735502381284   T   T   T
  0.4992070116275105  0.2592292006459905  0.5836364149161463   T   T   T
  0.5007652086427907  0.0020581353801816  0.5902358474142574   T   T   T
  0.7517218793253384  0.6788383398755785  0.6364653211141187   T   T   T
  0.7485347827458255  0.9384769717187814  0.6395784011016228   T   T   T
  0.2513083120832065  0.1847096550646629  0.6418166008201172   T   T   T
  0.7425648887244816  0.2025243759543174  0.6521921430404071   T   T   T
  0.7635762273624973  0.4354862259608749  0.6578271947383050   T   T   T
  0.4191959598104585  0.9335406447474865  0.6352844443889083   T   T   T
  0.4196475998940936  0.6796789880194788  0.6369148841645512   T   T   T
  0.5865293543560376  0.8193312715202347  0.6364889120243522   T   T   T
  0.9171279559420916  0.0633986217759084  0.6421365039266704   T   T   T
  0.9146420219079912  0.5621305026774048  0.6398897364524061   T   T   T
  0.9118311705514103  0.3121689913739527  0.6402606863166086   T   T   T
  0.9162178197647484  0.8130497227133637  0.6421875498338896   T   T   T
  0.5844189957644582  0.0716179627098964  0.6355225076243998   T   T   T
  0.5823498386728854  0.3221833301779777  0.6307919892433181   T   T   T
  0.5874053347059118  0.5706295775674767  0.6317364754119424   T   T   T
  0.2524990986928311  0.5626417601128152  0.6401586944066974   T   T   T
  0.2609069226084325  0.8082348503084213  0.6449861785403542   T   T   T
  0.2542365998195063  0.3120357578044879  0.6396386991048572   T   T   T
  0.2513668387421862  0.0599678349150668  0.6420221118169436   T   T   T
  0.9166666865332829  0.5625000000092442  0.3605200052333331   F   F   F
  0.5000739130525006  0.3735200475313523  0.5017664710178159   T   T   T
  0.5000299707015375  0.8726115934404388  0.5010101976040652   T   T   T
  0.5008180104308971  0.6208966437157885  0.5007996974432947   T   T   T
  0.8320135654733822  0.6226182904314349  0.4988800168562984   T   T   T
  0.8323383487854670  0.8730557067340846  0.4999764344901343   T   T   T
  0.8323967790630608  0.3733978634632787  0.4999799150935816   T   T   T
  0.8325220428215483  0.1265327316683260  0.5000460480162959   T   T   T
  0.1675277564769461  0.3734594741672363  0.4997667965051095   T   T   T
  0.1672563536020883  0.6234346651380888  0.4979824160015787   T   T   T
  0.5808177022153550  0.4413288385223861  0.6462695457486195   T   T   T
  0.5721776321181310  0.6936919690909746  0.6471696174125540   T   T   T
  0.9192914336225299  0.1877428133078989  0.6414586589584099   T   T   T
  0.5829010369072388  0.9400398568522849  0.6396922892235954   T   T   T
  0.8296368738144649  0.7572782850426411  0.5937643030808873   T   T   T
  0.8301786994733790  0.2435500532744042  0.5934833951470014   T   T   T
  0.8324015858885948  0.4956781063237564  0.5912893682585618   T   T   T
  0.8324512398969898  0.0033243020987129  0.5925162364800007   T   T   T
  0.4979242839589558  0.7567301305504934  0.5937174062059294   T   T   T
  0.4163422384377252  0.0675616023665526  0.6373743735284746   T   T   T
  0.4160308770335150  0.3248150428060340  0.6337446207479972   T   T   T
  0.4052700766442183  0.8077081444965744  0.6477512864981746   T   T   T
  0.4165988294173856  0.5619279156893353  0.6416519608566625   T   T   T
  0.7554810679189661  0.5551027322971575  0.6448651468191136   T   T   T
  0.7415614644795351  0.8081886503938773  0.6466359076784490   T   T   T
  0.7483710666362465  0.3274786856940076  0.6263091080918178   T   T   T
  0.7480383867982530  0.0687694971450091  0.6393839606958154   T   T   T
  0.0886435221193552  0.3103831764505871  0.6428742885572262   T   T   T
  0.6662256410583354  0.8742078701119059  0.4984516677225310   T   T   T
  0.0841744088373850  0.5625189043048857  0.6398603044935147   T   T   T
  0.0824282440694455  0.0599019462905644  0.6416680028192534   T   T   T
  0.0857703293649880  0.4359834611412278  0.6407829804133779   T   T   T
  0.0831251375668374  0.1853771240493557  0.6399976766407097   T   T   T
  0.4383856053781722  0.2032440743362884  0.6477748132516653   T   T   T
  0.4196400183031871  0.4449049669439784  0.6456744453214843   T   T   T
  0.0838737025835850  0.9354456973062547  0.6417402552709245   T   T   T
  0.0874081778223642  0.6876771378165861  0.6395382780732330   T   T   T
  0.9166962718520023  0.4361564119732484  0.6412132772534310   T   T   T
  0.9115840126450390  0.6871631184145183  0.6399934536923679   T   T   T
  0.9133619553717479  0.9378758696206487  0.6412852426550167   T   T   T
  0.2523180621805370  0.4344748039443097  0.6391992207603524   T   T   T
  0.2466048832917150  0.6837326068482099  0.6397830269371130   T   T   T
  0.5631674122448879  0.2001373738571084  0.6458496076502760   T   T   T
  0.2536367247835267  0.9329880183646068  0.6388887797441375   T   T   T
  0.0811737065064850  0.8126723684609781  0.6423180266060150   T   T   T
  0.9166666865332829  0.8124999999834799  0.3605200052333331   F   F   F
  0.0007940624709545  0.1227573785581967  0.6164937375830302   T   T   T
  0.8333332538436267  0.6249999999803961  0.4070133268666680   F   F   F
 -0.0000296559597055  0.4998514154802738  0.5066371732191438   T   T   T
  0.3302804774376609  0.5000386602031717  0.5014435647868279   T   T   T
  0.3317285591362461  0.2474904307610929  0.5036495076090373   T   T   T
  0.3329672106418761  0.0007995200259693  0.5046138244362738   T   T   T
  0.3318386559539208  0.7510673957983455  0.5026222522022447   T   T   T
  0.6673992465566921  0.9994932856809539  0.5046456531254788   T   T   T
  0.6672448120129927  0.4999794632074230  0.5009550261452068   T   T   T
  0.6677162798143865  0.2473539801695218  0.5019758999071333   T   T   T
  0.6679222989249470  0.7517418842508456  0.5037713537704804   T   T   T
  0.1660682794945581  0.0001215958124841  0.5068171242415875   T   T   T
  0.1662528810782020  0.2485663460874035  0.5059505441631653   T   T   T
  0.1645807049513379  0.4993238057803013  0.5039003638868381   T   T   T
  0.4999064593463852 -0.0002765112741105  0.5040330891156969   T   T   T
  0.1649130993443137  0.7518649442501852  0.5050455408133642   T   T   T
  0.5007676131984224  0.7514222098564168  0.5026650397194082   T   T   T
  0.8338318317365284 -0.0000808277911907  0.5065866963070708   T   T   T
  0.4999690902599510  0.5001557967626958  0.5017872443989045   T   T   T
  0.4995047478494486  0.2486669185728163  0.5005259958924841   T   T   T
  0.8351336396498538  0.2479895242435784  0.5046530506287015   T   T   T
  0.9995073164379176  0.7499442378813745  0.5066811029314177   T   T   T
  0.0007836635837087  0.2502767982594091  0.5065864785052573   T   T   T
 -0.0001900583244589  0.0000201046642448  0.5064470228703095   T   T   T
  0.8333332538436267  0.8749999404036828  0.4070133268666680   F   F   F
  0.0000000000000000  0.6249999999803961  0.4070133268666680   F   F   F
  0.0000000000000000  0.8749999404036828  0.4070133268666680   F   F   F
  0.3333333432766779  0.1249999999871179  0.4070133268666680   F   F   F
  0.3333333432766779  0.3750000000061604  0.4070133268666680   F   F   F
  0.3333333432766779  0.6249999999803961  0.4070133268666680   F   F   F
  0.3333333432766779  0.8749999404036828  0.4070133268666680   F   F   F
  0.6666666865533486  0.1249999999871179  0.4070133268666680   F   F   F
  0.6666666865533486  0.3750000000061604  0.4070133268666680   F   F   F
  0.6666666865533486  0.6249999999803961  0.4070133268666680   F   F   F
  0.8358966744823861  0.4998526354576826  0.5028337743014665   T   T   T
  0.6666666865533486  0.8749999404036828  0.4070133268666680   F   F   F
  0.1666666716383389  0.3750000000061604  0.4070133268666680   F   F   F
  0.1666666716383389  0.6249999999803961  0.4070133268666680   F   F   F
  0.1666666716383389  0.8749999404036828  0.4070133268666680   F   F   F
  0.5000000000021103  0.1249999999871179  0.4070133268666680   F   F   F
  0.5000000000021103  0.3750000000061604  0.4070133268666680   F   F   F
  0.5000000000021103  0.6249999999803961  0.4070133268666680   F   F   F
  0.5000000000021103  0.8749999404036828  0.4070133268666680   F   F   F
  0.8333332538436267  0.1249999999871179  0.4070133268666680   F   F   F
  0.8333332538436267  0.3750000000061604  0.4070133268666680   F   F   F
  0.1666666716383389  0.1249999999871179  0.4070133268666680   F   F   F
  0.0000000000000000  0.3750000000061604  0.4070133268666680   F   F   F
  0.8344335845214262  0.7521782348750601  0.5058786774210191   T   T   T
  0.8402730600202040  0.3766644174545804  0.6018238766172843   T   T   T
  0.8313461990954223  0.8746870864326561  0.6212980168693546   T   T   T
  0.8371080338482533  0.6228306114548631  0.6050426320515432   T   T   T
  0.9982707538852219  0.8767861360758152  0.6200356591493307   T   T   T
  0.3310684089824292  0.1204894136438617  0.6115707494330506   T   T   T
  0.3306044652346690  0.6245754623559542  0.5971771168736032   T   T   T
  0.3305330514036633  0.3746524117719393  0.5947824236030965   T   T   T
  0.6640668822537127  0.3739891933882316  0.5890778402356077   T   T   T
  0.6682295081874069  0.1253388084021448  0.6076628389358046   T   T   T
  0.3347743324947987  0.8806442676806419  0.6003094600532082   T   T   T
  0.1633615429547403  0.6231014060753406  0.6079362707109220   T   T   T
  0.1675329330444356  0.8731369656471070  0.6256174334872936   T   T   T
  0.4988586103754800  0.3767387828304530  0.5929236054967695   T   T   T
  0.4990037710527248  0.1225793830711960  0.6050878276997398   T   T   T
  0.1662054861033455  0.1210657921435666  0.6231090717398853   T   T   T
  0.1656584328010846  0.3721776852606697  0.6107667993126186   T   T   T
  0.6681644492703852  0.8823754654753736  0.6054986925359278   T   T   T
  0.6684392318897594  0.6258470296467723  0.5954833150532969   T   T   T
  0.0011534157456386  0.3706028538223640  0.6352491087426483   T   T   T
  0.9995073957645760  0.6267275975899153  0.6250340331777449   T   T   T
  0.8340808063403404  0.1278294066137384  0.6266508130509332   T   T   T
  0.5028589154406462  0.8814149654958360  0.6005944099456487   T   T   T
  0.0000000000000000  0.1249999999871179  0.4070133268666680   F   F   F
  0.4995003867576576  0.6224171493893301  0.5960846857293607   T   T   T
  0.9158179459050985  0.0011020635782997  0.6041389700981176   T   T   T
  0.5840889486842329  0.7523812856483210  0.5959937360360825   T   T   T
  0.5818089165330276  0.5017747395243060  0.5934379028319253   T   T   T
  0.2456048045401621  0.4987633123297563  0.5965999176682780   T   T   T
  0.2474143868551840  0.7505889588497805  0.5970722462662703   T   T   T
  0.5829414913817299  0.2493547571753447  0.5923903579886403   T   T   T
  0.5842580130424218  0.0041017707351250  0.6031761534660428   T   T   T
  0.2496827266450129  0.9981565503103389  0.6038222444150851   T   T   T
  0.2489246889836182  0.2423220120692509  0.6021884856550208   T   T   T
  0.4173288638801316  0.0017721262298885  0.6028891104065065   T   T   T
  0.4166539724001527  0.2506309289475155  0.5946143768747909   T   T   T
  0.4167434672946866  0.7478824873109646  0.5928434547959057   T   T   T
  0.7508044833354334  0.5013116278653780  0.5924873633531320   T   T   T
  0.7517456281040255  0.7516238720072957  0.6000952886656912   T   T   T
  0.7526882358201263  0.2476250438607610  0.5968315131038948   T   T   T
  0.7505938252542096  0.0036850906813883  0.6040872010768675   T   T   T
  0.0842626395588974  0.2492079384296219  0.6039291283404178   T   T   T
  0.0808721788286106  0.4984740970263171  0.6034304904980594   T   T   T
  0.0810074582337262  0.7517427982310916  0.6035570562770374   T   T   T
  0.0832559856315206  0.9975962022723862  0.6037072742607003   T   T   T