Au  O Sr Ti                             
   1.00000000000000     
    23.6707801818999997    0.0000000000000000    0.0000000000000000
     0.0000000000000000   22.3170261383000010    0.0000000000000000
     0.0000000000000000    0.0000000000000000   30.0000000000000000
   Au   O    Sr   Ti
    50   264    72    72
Selective dynamics
Direct
  0.7706176422812094  0.5838611989484828  0.7707896534569650   T   T   T
  0.5862921547362072  0.5679829181096849  0.7030663607654685   T   T   T
  0.7023213284287718  0.2471562583321595  0.7074390606897600   T   T   T
  0.3296324004717687  0.7777987655783236  0.6845196091562116   T   T   T
  0.5698877303199414  0.6280539465435176  0.7825589430077586   T   T   T
  0.6165928865973346  0.7642173791515805  0.7850905631118454   T   T   T
  0.5900198046724616  0.4008117618021738  0.8266384663187579   T   T   T
  0.2769401623245770  0.5521267094567559  0.7077852131233251   T   T   T
  0.3417684338415124  0.7363003489179661  0.7759151695030909   T   T   T
  0.6506198736869283  0.3124722999350268  0.7768911688571273   T   T   T
  0.5237869646916927  0.4177041972442229  0.7032095075518503   T   T   T
  0.5424417325662956  0.5022183881855486  0.7736988843126709   T   T   T
  0.5194839393035890  0.7229847027861487  0.8388185707215967   T   T   T
  0.7525863687961630  0.5025836017664336  0.7058421245187005   T   T   T
  0.7464371721381977  0.6677634239533522  0.7063058499878497   T   T   T
  0.7057364239907106  0.5820880920155815  0.8519085060796387   T   T   T
  0.5761476699751277  0.8168006608473856  0.7078022299730430   T   T   T
  0.5126181427215390  0.8215552988851346  0.7829402244173052   T   T   T
  0.4407528702450265  0.5058977938440135  0.6947922048910820   T   T   T
  0.4463029324066624  0.4278190505862539  0.7709538791808990   T   T   T
  0.2991214931179063  0.3142732706309719  0.7005858975425540   T   T   T
  0.3438651032985488  0.3652670316633298  0.7728604467239326   T   T   T
  0.4609727411970913  0.8070867445513719  0.7038962831878034   T   T   T
  0.3321475403708108  0.6125573608114052  0.7751961232951489   T   T   T
  0.5026326065483565  0.2471201921832679  0.6817687668630346   T   T   T
  0.5106541778868020  0.6729502092250896  0.7032524311062683   T   T   T
  0.5984783597591697  0.3114900804331029  0.6987350856999784   T   T   T
  0.6964009372693396  0.7881310522417085  0.7093158622636234   T   T   T
  0.6905319378439702  0.4562321538445074  0.8536376684489938   T   T   T
  0.4107903719891642  0.6692672194946955  0.8344383041821460   T   T   T
  0.5971516161843718  0.5301820334061852  0.8621061291581191   T   T   T
  0.7152959067064718  0.4187446935029339  0.7676994907024244   T   T   T
  0.4940220376256755  0.4708878409432202  0.8579528200393257   T   T   T
  0.5234948123356155  0.3290334476116329  0.7706342695836772   T   T   T
  0.2828482254270958  0.4336128073693414  0.7060451070562523   T   T   T
  0.6944127305305090  0.6754185417071664  0.7875404733026006   T   T   T
  0.3836584620976382  0.4240290979635562  0.8496839951806446   T   T   T
  0.3984522475292994  0.5468932191586885  0.8396231612439387   T   T   T
  0.5022959624823840  0.6012063140899480  0.8636239782195492   T   T   T
  0.3257117441419845  0.4898818630644006  0.7793696205243047   T   T   T
  0.4255901280893858  0.3327666501942607  0.7050657697634239   T   T   T
  0.3954051106375521  0.6794425597248838  0.7053167471661448   T   T   T
  0.7334065648671710  0.3581323910275572  0.6916469048087355   T   T   T
  0.6597484208046207  0.5325614390270887  0.7728703970282139   T   T   T
  0.2745611802126339  0.6767339443122851  0.7075692099014174   T   T   T
  0.6401990983632921  0.4530975036451215  0.7002948686002201   T   T   T
  0.6173660511782501  0.6639869106332693  0.8619654408465361   T   T   T
  0.6293145760533373  0.6888883104546056  0.7072815292591290   T   T   T
  0.4554838229793900  0.5912378741041758  0.7584803611826763   T   T   T
  0.4182366208340723  0.7926651797374334  0.8319155964584259   T   T   T
  0.2506763154938144  0.1883750934212164  0.4545719864680841   T   T   T
  0.7495970121386584  0.9365787019466261  0.4546694074970517   T   T   T
  0.7494710472975633  0.6853502808959875  0.4551058706849624   T   T   T
  0.7504273601480610  0.4371516182717170  0.4557639690269641   T   T   T
  0.7496873547865202  0.1899932991550827  0.4563309587805429   T   T   T
  0.4172407686574566  0.9358222458023081  0.4543040895396648   T   T   T
  0.4178246929148157  0.6856679492108780  0.4556452180759162   T   T   T
  0.4182610315906349  0.4382935588767702  0.4560880527857482   T   T   T
  0.0833169302747838  0.6873771510489969  0.4544952978819798   T   T   T
  0.0839679697174886  0.9373717750637856  0.4540638445106945   T   T   T
  0.0841154107580162  0.4373496840402656  0.4540633581620386   T   T   T
  0.0834193242372924  0.1873530454960028  0.4539028543763787   T   T   T
  0.9166522740820637  0.8125036148414411  0.4541538235592065   T   T   T
  0.9166324841047178  0.5626485827194568  0.4542756834475596   T   T   T
  0.2499268676408164  0.4386792066620357  0.4552361996733888   T   T   T
  0.9160277501248915  0.0626534264418337  0.4542265406766444   T   T   T
  0.9165881454471492  0.3128161979698603  0.4543065803456363   T   T   T
  0.4162493724936918  0.1894142639958550  0.4556693891014500   T   T   T
  0.2521269904434333  0.6872341390894459  0.4563151155694047   T   T   T
  0.9158116313883090  0.9372985802098457  0.4540438978543352   T   T   T
  0.5835440493688296  0.1901214280881132  0.4559333560322821   T   T   T
  0.0002147777465998  0.1247888765480430  0.4994573138580029   T   T   T
  0.5828920531968420  0.8120282511706084  0.4544834894551901   T   T   T
  0.0002753407247299  0.3743827992018843  0.5001948000338677   T   T   T
  0.0000608172369813  0.6266062028680411  0.5015786529314277   T   T   T
  0.3338387107279622  0.1250580004606760  0.5003719562261070   T   T   T
 -0.0002033212255277  0.8761610337649951  0.4996331109452926   T   T   T
  0.3338807111270768  0.8743394281749616  0.5005379957709644   T   T   T
  0.6660803276554297  0.1257322058822759  0.5004650122070550   T   T   T
  0.3345377472247322  0.6266381917485331  0.5047731327352490   T   T   T
  0.3340488927303273  0.3795646502022005  0.5008350505221780   T   T   T
  0.6670949430644181  0.3774127007406952  0.5013465403222301   T   T   T
  0.9165047467957932  0.6871232756360075  0.4543290671901880   T   T   T
  0.9158714942736899  0.4372870423698961  0.4540686267038749   T   T   T
  0.9165220009676183  0.1875138095136551  0.4540767572896021   T   T   T
  0.5823716969549484  0.9377558613968829  0.4556671637694303   T   T   T
  0.5829337742329765  0.6877958861902516  0.4572380456391658   T   T   T
  0.5824308010746742  0.4395952277233537  0.4568496658468406   T   T   T
  0.2504509984077808  0.9363321337967522  0.4542470045263229   T   T   T
  0.6663397387003848  0.6272494525417317  0.5033676813580069   T   T   T
  0.5844245017279280  0.5636959414162367  0.4550431703348228   T   T   T
  0.5834275970840394  0.0639960771602810  0.4535923665896957   T   T   T
  0.9166666865332829  0.6874999999963620  0.3605200052333331   F   F   F
  0.9166666865332829  0.4374999701794380  0.3605200052333331   F   F   F
  0.9166666865332829  0.1875000000030838  0.3605200052333331   F   F   F
  0.5833333134730552  0.9375000000154046  0.3605200052333331   F   F   F
  0.5833333134730552  0.6874999999963620  0.3605200052333331   F   F   F
  0.5833333134730552  0.4374999701794380  0.3605200052333331   F   F   F
  0.5833333134730552  0.1875000000030838  0.3605200052333331   F   F   F
  0.2499999999799343  0.9375000000154046  0.3605200052333331   F   F   F
  0.9166666865332829  0.9375000000154046  0.3605200052333331   F   F   F
  0.2499999999799343  0.6874999999963620  0.3605200052333331   F   F   F
  0.2499999999799343  0.1875000000030838  0.3605200052333331   F   F   F
  0.7499999404149307  0.9375000000154046  0.3605200052333331   F   F   F
  0.7499999404149307  0.6874999999963620  0.3605200052333331   F   F   F
  0.7499999404149307  0.4374999701794380  0.3605200052333331   F   F   F
  0.7499999404149307  0.1875000000030838  0.3605200052333331   F   F   F
  0.4166666269218169  0.9375000000154046  0.3605200052333331   F   F   F
  0.4166666269218169  0.6874999999963620  0.3605200052333331   F   F   F
  0.4166666269218169  0.4374999701794380  0.3605200052333331   F   F   F
  0.2499999999799343  0.4374999701794380  0.3605200052333331   F   F   F
  0.0833333358191695  0.0625000000159659  0.3605200052333331   F   F   F
  0.0833333358191695  0.3124999999901945  0.3605200052333331   F   F   F
  0.0833333358191695  0.5625000000092442  0.3605200052333331   F   F   F
  0.9166666865332829  0.3124999999901945  0.3605200052333331   F   F   F
  0.9166666865332829  0.0625000000159659  0.3605200052333331   F   F   F
  0.5833333134730552  0.8124999999834799  0.3605200052333331   F   F   F
  0.5833333134730552  0.5625000000092442  0.3605200052333331   F   F   F
  0.5833333134730552  0.3124999999901945  0.3605200052333331   F   F   F
  0.5833333134730552  0.0625000000159659  0.3605200052333331   F   F   F
  0.2499999999799343  0.8124999999834799  0.3605200052333331   F   F   F
  0.2499999999799343  0.5625000000092442  0.3605200052333331   F   F   F
  0.2499999999799343  0.3124999999901945  0.3605200052333331   F   F   F
  0.2499999999799343  0.0625000000159659  0.3605200052333331   F   F   F
  0.7499999404149307  0.8124999999834799  0.3605200052333331   F   F   F
  0.7499999404149307  0.5625000000092442  0.3605200052333331   F   F   F
  0.7499999404149307  0.3124999999901945  0.3605200052333331   F   F   F
  0.7499999404149307  0.0625000000159659  0.3605200052333331   F   F   F
  0.4166666269218169  0.8124999999834799  0.3605200052333331   F   F   F
  0.4166666269218169  0.5625000000092442  0.3605200052333331   F   F   F
  0.4166666269218169  0.3124999999901945  0.3605200052333331   F   F   F
  0.4166666269218169  0.0625000000159659  0.3605200052333331   F   F   F
  0.0833333358191695  0.8124999999834799  0.3605200052333331   F   F   F
  0.4166666269218169  0.1875000000030838  0.3605200052333331   F   F   F
  0.0833333358191695  0.9375000000154046  0.3605200052333331   F   F   F
  0.0833333358191695  0.6874999999963620  0.3605200052333331   F   F   F
  0.0833333358191695  0.4374999701794380  0.3605200052333331   F   F   F
  0.8333332538436267  0.4999999999932783  0.4070133268666680   F   F   F
  0.8333332538436267  0.7500000000123208  0.4070133268666680   F   F   F
  0.0838775998602422  0.0624237353651076  0.4542692686565647   T   T   T
  0.0832574264515605  0.3126219870407393  0.4543083480876656   T   T   T
  0.0828643859247045  0.5623336279444141  0.4544883083595156   T   T   T
  0.0832479092528400  0.8127043825173682  0.4541637674694647   T   T   T
  0.4167817667331489  0.0622871701284914  0.4550163358891149   T   T   T
  0.4169596076115117  0.3139609983152855  0.4557525854270298   T   T   T
  0.4157074208806152  0.5619057231769409  0.4570455439237412   T   T   T
  0.4166299931076007  0.8099262311518840  0.4562456458658405   T   T   T
  0.7494926931935176  0.0634915984457623  0.4545610202051251   T   T   T
  0.7490541961561187  0.3140838261870292  0.4542984169058937   T   T   T
  0.7479999628596542  0.5607508686713899  0.4572819463505583   T   T   T
  0.7494504541472405  0.8095366310515413  0.4559355658878558   T   T   T
  0.2504563524319752  0.0623943456473312  0.4548116178767033   T   T   T
  0.9125738153503070  0.3124131660207702  0.5481030910544324   T   T   T
  0.2523316341921220  0.3139611381549396  0.4546282444976397   T   T   T
  0.2520752108859181  0.5632278257639611  0.4557168258880253   T   T   T
  0.2506859693501626  0.8112233610168266  0.4552501103056041   T   T   T
  0.8333332538436267  0.2500000000190425  0.4070133268666680   F   F   F
  0.5837451575952828  0.3154486097337785  0.4535101156595226   T   T   T
  0.8333332538436267  0.0000000000000000  0.4070133268666680   F   F   F
  0.5000000000021103  0.4999999999932783  0.4070133268666680   F   F   F
  0.0833333358191695  0.1875000000030838  0.3605200052333331   F   F   F
  0.0000000000000000  0.0000000000000000  0.4070133268666680   F   F   F
  0.0000000000000000  0.2500000000190425  0.4070133268666680   F   F   F
  0.0000000000000000  0.4999999999932783  0.4070133268666680   F   F   F
  0.0000000000000000  0.7500000000123208  0.4070133268666680   F   F   F
  0.3333333432766779  0.0000000000000000  0.4070133268666680   F   F   F
  0.3333333432766779  0.2500000000190425  0.4070133268666680   F   F   F
  0.3333333432766779  0.4999999999932783  0.4070133268666680   F   F   F
  0.3333333432766779  0.7500000000123208  0.4070133268666680   F   F   F
  0.6666666865533486  0.0000000000000000  0.4070133268666680   F   F   F
  0.6666666865533486  0.2500000000190425  0.4070133268666680   F   F   F
  0.6666666865533486  0.4999999999932783  0.4070133268666680   F   F   F
  0.6666666865533486  0.7500000000123208  0.4070133268666680   F   F   F
  0.1666666716383389  0.0000000000000000  0.4070133268666680   F   F   F
  0.1666666716383389  0.2500000000190425  0.4070133268666680   F   F   F
  0.1666666716383389  0.4999999999932783  0.4070133268666680   F   F   F
  0.1666666716383389  0.7500000000123208  0.4070133268666680   F   F   F
  0.5000000000021103  0.0000000000000000  0.4070133268666680   F   F   F
  0.5000000000021103  0.2500000000190425  0.4070133268666680   F   F   F
  0.5000000000021103  0.7500000000123208  0.4070133268666680   F   F   F
  0.1669522189873522  0.1252594671444925  0.4999962576627050   T   T   T
  0.9178508713846566  0.0628871227143973  0.5478330514931591   T   T   T
  0.1672155040677445  0.8734641202213496  0.5001962572564895   T   T   T
  0.2517579458791778  0.1880592335507827  0.5483741101499342   T   T   T
  0.7487597378931967  0.9377763875267875  0.5471479588672645   T   T   T
  0.7515690229138822  0.6880087346744594  0.5485300593229064   T   T   T
  0.7513624225822614  0.4338972901025109  0.5515139689340111   T   T   T
  0.4193772662168745  0.4367827750751824  0.5507916814025205   T   T   T
  0.4218485838508125  0.6893658052567885  0.5488329564292429   T   T   T
  0.7464667131264916  0.1831770690778430  0.5539454692534393   T   T   T
  0.4172134300195603  0.9387258121850041  0.5454369064126455   T   T   T
  0.0834858321882316  0.9385057425428788  0.5474708543108771   T   T   T
  0.4185541562046359  0.1860006249790471  0.5513032273230852   T   T   T
  0.0887811931217956  0.6874332432170301  0.5487458011704349   T   T   T
  0.0855718787910133  0.4385796712098293  0.5471788178689670   T   T   T
  0.0828396701522125  0.1890272308970878  0.5474198544418771   T   T   T
  0.4997970050965554  0.1252117165408961  0.4992285493578985   T   T   T
  0.0004503222065542  0.5013422943619250  0.5943978525664613   T   T   T
 -0.0005193879268013  0.7479922294181930  0.5954877485408385   T   T   T
  0.3377461318488044  0.2413220652515077  0.5977768530592840   T   T   T
  0.3343571230764680  0.0006993862109785  0.5927632132211554   T   T   T
  0.9996493933240890  0.9979179648874811  0.5954859748786849   T   T   T
  0.0010438027428381  0.2537291862773525  0.5964448694388039   T   T   T
  0.3342794139478797  0.4987199172464678  0.5911413529510606   T   T   T
  0.3348035083448355  0.7452157361312319  0.5922464959481202   T   T   T
  0.6621611080871685  0.2438675765992193  0.5949719914227449   T   T   T
  0.6670983632431584  0.0033347627156154  0.5929917019080614   T   T   T
  0.6629757097220347  0.7422754575707345  0.5950782182087355   T   T   T
  0.6698196027183658  0.4897092243020173  0.5980390087858728   T   T   T
  0.1672628181858310  0.0000411179094375  0.5953688410234603   T   T   T
  0.1694702400852310  0.2497892450103989  0.5950275177122383   T   T   T
  0.1694104704656103  0.7596610274423857  0.5969151159287169   T   T   T
  0.2491807500228517  0.4369792911316695  0.5499161567864084   T   T   T
  0.1679159346252902  0.4999628193114245  0.5950567528605912   T   T   T
  0.2465276721941075  0.6870967038631679  0.5507485361797507   T   T   T
  0.5803210561128935  0.1829873989761655  0.5514161049446840   T   T   T
  0.9174477111828901  0.8120678244317934  0.5479294063584961   T   T   T
  0.9148354874961828  0.5619921647773707  0.5473595267958667   T   T   T
  0.5893225760650626  0.5581387911361483  0.5473671435735884   T   T   T
  0.5839879703450247  0.8093062767231095  0.5488483801695661   T   T   T
  0.5874084187463249  0.3096389030086513  0.5449579876941185   T   T   T
  0.5829405423779582  0.0599977790195383  0.5448138455297320   T   T   T
  0.2535471450915616  0.8129543776003508  0.5503194764223791   T   T   T
  0.2499860077100049  0.5633218323000786  0.5501893416006312   T   T   T
  0.2552668695623481  0.3134399754490232  0.5481214673352491   T   T   T
  0.2505929156669245  0.0628453465457235  0.5484829088640669   T   T   T
  0.7446343913250123  0.8135206243756599  0.5520877523119220   T   T   T
  0.7469437848932097  0.5630843857124704  0.5536703892904651   T   T   T
  0.4153872382503552  0.8151794882884145  0.5527680465503314   T   T   T
  0.7487277526114651  0.0606495150960077  0.5460524107190400   T   T   T
  0.7477709390364748  0.3070240433501689  0.5462339092941347   T   T   T
  0.4104585854228250  0.3137906769538779  0.5492213105497400   T   T   T
  0.4174522094751776  0.5659444512742540  0.5520003773884316   T   T   T
  0.4177822105334264  0.0629987141588505  0.5473981205446727   T   T   T
  0.0813222786620885  0.8117596967576576  0.5477601151153882   T   T   T
  0.0855626541060494  0.5622470820493142  0.5479117406605080   T   T   T
  0.0867747364091468  0.3129017714762454  0.5485097831765358   T   T   T
  0.0828229482983961  0.0630257116873381  0.5485841744261941   T   T   T
  0.9158426757436937  0.9383540931898910  0.5475980810123691   T   T   T
  0.9115587698222083  0.6875199888640101  0.5481326820738737   T   T   T
  0.5840936162341015  0.9341771211626302  0.5485980886253297   T   T   T
  0.9188813841333092  0.1889182274706249  0.5476930066939280   T   T   T
  0.9157194231432018  0.4378822775627391  0.5466821763677873   T   T   T
  0.5833677056426070  0.4331498254103072  0.5513557782476153   T   T   T
  0.5781611513591625  0.6831908716277280  0.5528526865402700   T   T   T
  0.2516449840559542  0.9384036916717621  0.5462180818836971   T   T   T
  0.5036509851545936  0.5013317351865241  0.5918366759347016   T   T   T
  0.4991275110346094  0.2588197091911271  0.5851251471496678   T   T   T
  0.5008695149980467  0.0023328736564601  0.5922403717533072   T   T   T
  0.7525310826983568  0.6783162133873032  0.6386667815557343   T   T   T
  0.7486293240012379  0.9389840607956619  0.6419398980273056   T   T   T
  0.2513110181365762  0.1849806335264099  0.6450080534399764   T   T   T
  0.7417902799475045  0.2028553352358768  0.6553640935611145   T   T   T
  0.7666213336159935  0.4331629892147537  0.6626880989304509   T   T   T
  0.4197552649338167  0.9333327210109629  0.6369880165336513   T   T   T
  0.4180657549358121  0.6789993981647652  0.6390282187078190   T   T   T
  0.5870223424213947  0.8184110543855261  0.6403786169487291   T   T   T
  0.9162560552501263  0.0631500548231648  0.6445572849223831   T   T   T
  0.9144851661881707  0.5613425317587833  0.6426078726768543   T   T   T
  0.9119654049725304  0.3114960870923044  0.6431307752237579   T   T   T
  0.9169160577614033  0.8126217170245631  0.6452714501945914   T   T   T
  0.5847319387716754  0.0710747654587909  0.6387553899859389   T   T   T
  0.5828754451932018  0.3216466539884933  0.6329191392410930   T   T   T
  0.5880430296496907  0.5693808346927872  0.6349572025367537   T   T   T
  0.2528268882852133  0.5627787985172379  0.6431965463616552   T   T   T
  0.2614084168766895  0.8076997848661117  0.6482480355906288   T   T   T
  0.2550002227603246  0.3116466699418425  0.6421883538909541   T   T   T
  0.2524116262777468  0.0592131719389904  0.6448805738661363   T   T   T
  0.9166666865332829  0.5625000000092442  0.3605200052333331   F   F   F
  0.5003019406270358  0.3735715252454207  0.5029125451665970   T   T   T
  0.5000691314911770  0.8727242754754800  0.5016765257302620   T   T   T
  0.5008889315426860  0.6210938200308309  0.5025001604963298   T   T   T
  0.8319384207180429  0.6226707206888425  0.5003657195650278   T   T   T
  0.8323430013854829  0.8731624243541429  0.5002599645487750   T   T   T
  0.8325826104004614  0.3744135630902696  0.5007113879258526   T   T   T
  0.8326709757314325  0.1265541424132019  0.5003909908548995   T   T   T
  0.1677001763846622  0.3733196667520640  0.4999611533455884   T   T   T
  0.1674297924753244  0.6237048507605661  0.4988559639494995   T   T   T
  0.5795986939101169  0.4405369698610651  0.6492430996380936   T   T   T
  0.5728804956719455  0.6925485982789423  0.6505159596634027   T   T   T
  0.9197036039966781  0.1884039316614854  0.6451435627206413   T   T   T
  0.5832113685087016  0.9402052482012830  0.6412889226092373   T   T   T
  0.8296227140323112  0.7577445329528890  0.5962641870174189   T   T   T
  0.8299267786432765  0.2422243664629363  0.5961751507262898   T   T   T
  0.8325203528133734  0.4953322714116893  0.5929860394201352   T   T   T
  0.8326292862379273  0.0031886921006307  0.5942360028357541   T   T   T
  0.4981516424235117  0.7558620779004419  0.5969423454530264   T   T   T
  0.4168745961312235  0.0667413619738722  0.6407191433443339   T   T   T
  0.4158787346771717  0.3230431244668169  0.6376380838379282   T   T   T
  0.4045435465188680  0.8080876331459352  0.6520773496764597   T   T   T
  0.4176283783508402  0.5605327645220631  0.6443208765230614   T   T   T
  0.7568097619371491  0.5520577972616879  0.6483143564950256   T   T   T
  0.7411959261173534  0.8071570750901921  0.6498581583070936   T   T   T
  0.7486873774445048  0.3270354744180132  0.6290419343375102   T   T   T
  0.7485904072692269  0.0683996442851102  0.6422575719469936   T   T   T
  0.0879517051166547  0.3098873489683980  0.6459613049547699   T   T   T
  0.6662050809356347  0.8741722003218633  0.4993202709133189   T   T   T
  0.0840067481009989  0.5612107773382490  0.6437125423900356   T   T   T
  0.0821453168989180  0.0598062838931262  0.6449906474771597   T   T   T
  0.0847991709014280  0.4356237695564951  0.6437245080818406   T   T   T
  0.0838570748073606  0.1861798311747861  0.6434210122635899   T   T   T
  0.4387516801971594  0.2024590002315212  0.6501870544239781   T   T   T
  0.4201599430282877  0.4449917888809184  0.6466401107461879   T   T   T
  0.0848126545701262  0.9366079626203186  0.6451787610186004   T   T   T
  0.0865850099758526  0.6882485391906070  0.6426215319509901   T   T   T
  0.9178695421608238  0.4362893695548952  0.6428795154102855   T   T   T
  0.9124511248516537  0.6875890664368496  0.6422860915308404   T   T   T
  0.9130042300210233  0.9386094274048322  0.6440704891253486   T   T   T
  0.2517131824952602  0.4350010820925512  0.6422150958411463   T   T   T
  0.2458625261741723  0.6835237090178353  0.6428085371635851   T   T   T
  0.5630071961599430  0.2001180134906867  0.6478592482584326   T   T   T
  0.2536272987805415  0.9333287798111940  0.6402400012650430   T   T   T
  0.0813165997642104  0.8124094934812234  0.6458947429526134   T   T   T
  0.9166666865332829  0.8124999999834799  0.3605200052333331   F   F   F
  0.0008202310244813  0.1228880788869490  0.6217089995755426   T   T   T
  0.8333332538436267  0.6249999999803961  0.4070133268666680   F   F   F
  0.0004723620710172  0.5000047071612779  0.5081787706257186   T   T   T
  0.3301435009533721  0.4999721890457480  0.5024379566756040   T   T   T
  0.3318987567578883  0.2471598011700860  0.5050405681009371   T   T   T
  0.3328383515288716  0.0011532038783837  0.5058757335710842   T   T   T
  0.3317893501196372  0.7512851352499572  0.5035235804542754   T   T   T
  0.6676192385379001  0.9997229722406319  0.5060030356412041   T   T   T
  0.6673024602929130  0.5000458881672893  0.5016653490350371   T   T   T
  0.6678648912906647  0.2469421688786366  0.5030142336277024   T   T   T
  0.6678246400662664  0.7523236457070226  0.5049544120560393   T   T   T
  0.1658558298880653  0.0002780653938156  0.5084455809123483   T   T   T
  0.1664361741702530  0.2485339465078401  0.5078611107733361   T   T   T
  0.1645194042435313  0.4993266289735063  0.5054403472789141   T   T   T
  0.4998593160285150  0.0000352298837388  0.5053771319918960   T   T   T
  0.1647021228284104  0.7520526327153911  0.5065588099724113   T   T   T
  0.5007821217998752  0.7518395337454939  0.5035679112425954   T   T   T
  0.8340713989936500 -0.0001070945929149  0.5080072188752472   T   T   T
  0.5001536722023867  0.4999743961732062  0.5026032990914620   T   T   T
  0.4995234420279679  0.2481331953786392  0.5014922357675596   T   T   T
  0.8352982092973448  0.2477713311499379  0.5061319530892260   T   T   T
 -0.0004105354286365  0.7499864359789541  0.5084227512697532   T   T   T
  0.0009296824914236  0.2505622212703705  0.5085219034903216   T   T   T
  0.0000290519519887  0.0000240108824471  0.5081944908289783   T   T   T
  0.8333332538436267  0.8749999404036828  0.4070133268666680   F   F   F
  0.0000000000000000  0.6249999999803961  0.4070133268666680   F   F   F
  0.0000000000000000  0.8749999404036828  0.4070133268666680   F   F   F
  0.3333333432766779  0.1249999999871179  0.4070133268666680   F   F   F
  0.3333333432766779  0.3750000000061604  0.4070133268666680   F   F   F
  0.3333333432766779  0.6249999999803961  0.4070133268666680   F   F   F
  0.3333333432766779  0.8749999404036828  0.4070133268666680   F   F   F
  0.6666666865533486  0.1249999999871179  0.4070133268666680   F   F   F
  0.6666666865533486  0.3750000000061604  0.4070133268666680   F   F   F
  0.6666666865533486  0.6249999999803961  0.4070133268666680   F   F   F
  0.8361164238913591  0.4998134450044516  0.5036625760789279   T   T   T
  0.6666666865533486  0.8749999404036828  0.4070133268666680   F   F   F
  0.1666666716383389  0.3750000000061604  0.4070133268666680   F   F   F
  0.1666666716383389  0.6249999999803961  0.4070133268666680   F   F   F
  0.1666666716383389  0.8749999404036828  0.4070133268666680   F   F   F
  0.5000000000021103  0.1249999999871179  0.4070133268666680   F   F   F
  0.5000000000021103  0.3750000000061604  0.4070133268666680   F   F   F
  0.5000000000021103  0.6249999999803961  0.4070133268666680   F   F   F
  0.5000000000021103  0.8749999404036828  0.4070133268666680   F   F   F
  0.8333332538436267  0.1249999999871179  0.4070133268666680   F   F   F
  0.8333332538436267  0.3750000000061604  0.4070133268666680   F   F   F
  0.1666666716383389  0.1249999999871179  0.4070133268666680   F   F   F
  0.0000000000000000  0.3750000000061604  0.4070133268666680   F   F   F
  0.8344896744246163  0.7523690555513616  0.5073024955119612   T   T   T
  0.8412978480623871  0.3763149435445792  0.6040862052280705   T   T   T
  0.8313234622907097  0.8739548635176566  0.6287401268393811   T   T   T
  0.8380923074961815  0.6228742223901533  0.6077618849843519   T   T   T
  0.9986287380232595  0.8777428499744327  0.6260870923692305   T   T   T
  0.3315419602103686  0.1203496825195763  0.6169568806585212   T   T   T
  0.3301640543433200  0.6246586452719036  0.5986861158296646   T   T   T
  0.3304413143808766  0.3745598413203384  0.5972450532682809   T   T   T
  0.6646022853510604  0.3732985293893678  0.5904422209762797   T   T   T
  0.6684694195341343  0.1248141994263530  0.6116563701790653   T   T   T
  0.3346054790145637  0.8811729523077495  0.6025803866601789   T   T   T
  0.1621055912021107  0.6231401031786616  0.6115884655020168   T   T   T
  0.1679733900880296  0.8723900267994222  0.6339342080012577   T   T   T
  0.4983575689543829  0.3762917977500286  0.5944183483289015   T   T   T
  0.4992448561357119  0.1213828817609201  0.6081307628358950   T   T   T
  0.1666231424060685  0.1206209206994240  0.6306732464717364   T   T   T
  0.1648314957398817  0.3721833529439320  0.6140808226376256   T   T   T
  0.6683426246940016  0.8829954927537996  0.6085316243253314   T   T   T
  0.6677555444855523  0.6261961721359961  0.5973588370869385   T   T   T
  0.0007929945307072  0.3695603563998069  0.6442443925579389   T   T   T
  0.9996355375434128  0.6262604765291756  0.6329746507107191   T   T   T
  0.8338115994193088  0.1290279312771010  0.6347043911451363   T   T   T
  0.5034614876445468  0.8823021049064729  0.6030257975367515   T   T   T
  0.0000000000000000  0.1249999999871179  0.4070133268666680   F   F   F
  0.4997913204887930  0.6224915819647988  0.5980863828428656   T   T   T
  0.9157396895023951  0.0010444614375200  0.6060214639230816   T   T   T
  0.5840112947634077  0.7532298303291894  0.5976645660875253   T   T   T
  0.5820712740234134  0.5016037147800801  0.5946767115821728   T   T   T
  0.2454897874922775  0.4989952466943826  0.5983488232479222   T   T   T
  0.2472548041441170  0.7505442058621016  0.5985128114629074   T   T   T
  0.5824311492746942  0.2489023750379099  0.5934771603842353   T   T   T
  0.5847381470316927  0.0045291493968083  0.6051520220350162   T   T   T
  0.2493633623110896 -0.0011963811984114  0.6052769126289360   T   T   T
  0.2489778408169004  0.2418151795030857  0.6044547820636306   T   T   T
  0.4171521883064870  0.0019428615929252  0.6049703595388440   T   T   T
  0.4168694797339279  0.2499399530276414  0.5964461208495335   T   T   T
  0.4168538873111653  0.7480354603253642  0.5939072556234943   T   T   T
  0.7509326293265574  0.5015357219594179  0.5938764538522404   T   T   T
  0.7517538933434715  0.7516215837303165  0.6018865498623345   T   T   T
  0.7523999622847420  0.2475882010594427  0.5985733606818776   T   T   T
  0.7511472421310808  0.0039792527091428  0.6060544654692257   T   T   T
  0.0841159613029090  0.2491477020897092  0.6063427572021417   T   T   T
  0.0807326516855718  0.4983123696365649  0.6060898943564229   T   T   T
  0.0807738270747561  0.7522482569385033  0.6062161993879317   T   T   T
  0.0834476118861875  0.9981166394479004  0.6061788111136078   T   T   T