Au  C  H  O Sr Ti                       
   1.00000000000000     
    23.6707801818999997    0.0000000000000000    0.0000000000000000
     0.0000000000000000   22.3170261383000010    0.0000000000000000
     0.0000000000000000    0.0000000000000000   30.0000000000000000
   Au   C    H    O    Sr   Ti
    50     2     5   265    72    72
Selective dynamics
Direct
  0.7156724354577619  0.5255454459318472  0.7533319319702940   F   F   F
  0.6631198349237053  0.1922229947515888  0.7493365142738995   T   T   T
  0.4710543905230367  0.4502517905059591  0.8781315964423371   F   F   F
  0.5170538873077462  0.3777358537793489  0.7324783011900990   F   F   F
  0.2827986227677428  0.3397860766899470  0.7022868737345362   F   F   F
  0.6695037010014886  0.6812419167700767  0.7488594479525830   F   F   F
  0.3980769137827522  0.3816134807677756  0.6901660200289328   F   F   F
  0.4625965806916668  0.5731915388457338  0.8639964580623243   F   F   F
  0.7011208223717205  0.3470451954244069  0.7567510786614449   F   F   F
  0.4521079581533272  0.5801006316303656  0.7028066780099067   F   F   F
  0.4176827808320951  0.6968325829471596  0.6994116382980593   F   F   F
  0.5697000967671428  0.5098224502438953  0.8564869193776374   F   F   F
  0.7749158459421395  0.4302526297556639  0.7946692303721079   F   F   F
  0.6500118250921290  0.4480687819739728  0.6933050453932097   F   F   F
  0.5643446830095584  0.6397238751891763  0.8613701381029699   F   F   F
  0.5404527593774446  0.6678208713122658  0.7018072078650661   F   F   F
  0.4438966037117495  0.4745795195170217  0.7568516699593317   F   F   F
  0.3741610383881948  0.7398501354462894  0.7787037621917250   F   F   F
  0.3749034650551337  0.4930422646624493  0.8329137507647033   F   F   F
  0.6174009224737205  0.3241244200836277  0.6960023889793305   F   F   F
  0.3258649326280434  0.4145033642719369  0.7691078768134290   F   F   F
  0.3683195716705825  0.6189769838965802  0.8202909690138753   F   F   F
  0.6560316369770263  0.4411000150901430  0.8128461714224500   F   F   F
  0.2568648651564089  0.5930170558303445  0.6944927801956666   F   F   F
  0.4858023080750016  0.7765426274374718  0.7548961995431043   F   F   F
  0.7065656292673097  0.7568997688846437  0.6883688138671147   F   F   F
  0.7205130112629590  0.2598588634465884  0.6912002289964008   F   F   F
  0.2935652636191364  0.7466435478788895  0.6970103199696354   F   F   F
  0.5783136751521951  0.7256648890280246  0.7939437255225101   F   F   F
  0.2406060089699906  0.4694707804793339  0.7090787240624437   F   F   F
  0.2851873425078821  0.6623167594198733  0.7645407546929235   F   F   F
  0.6016709775783582  0.2895388459518671  0.7847584867611843   F   F   F
  0.5140716723757706  0.4846408420032091  0.6782256567423133   F   F   F
  0.2893448685995992  0.5381197714608845  0.7773442762697087   F   F   F
  0.5487705202629343  0.3838354935290056  0.8281333535702657   F   F   F
  0.5118755323442841  0.6034227658061084  0.7768565609928260   F   F   F
  0.7330104268105941  0.6149350085511713  0.6939934273087047   F   F   F
  0.4866558191299006  0.2702430430059479  0.7751354515228215   F   F   F
  0.5635684219129615  0.4858576788198405  0.7622093918247685   F   F   F
  0.4285965508751772  0.3713150780419241  0.8154218893657088   F   F   F
  0.3496593243027206  0.4994388246189345  0.6977543014467500   F   F   F
  0.5964680112028589  0.7845805547001703  0.7130429672788807   F   F   F
  0.3713955881036171  0.2983249105768380  0.7549108139702980   F   F   F
  0.4412366412440747  0.2276832717435084  0.6974329607605085   F   F   F
  0.4636345222509490  0.6952913278919794  0.8301075784462313   F   F   F
  0.3912989143346479  0.8176879889444351  0.7064676233461356   F   F   F
  0.7649209281003806  0.4326543350832637  0.7044704744328172   F   F   F
  0.6209525316565561  0.5717846830038908  0.7040129510115207   F   F   F
  0.5587157374665637  0.2133857122347678  0.7110307587989126   F   F   F
  0.6345424851657597  0.5843028146287921  0.8001886358548589   F   F   F
  0.8153294194118530  0.1466982492709619  0.8207891235073816   T   T   T
  0.7544073578160777  0.1682551116597963  0.8147448804658239   T   T   T
  0.8448704878875972  0.1753649384252896  0.8027631899754368   T   T   T
  0.7261544222207519  0.1422131504853610  0.8363981147728765   T   T   T
  0.8201088419615559  0.1008664698141075  0.8086819334546647   T   T   T
  0.7514135851767705  0.2156597292505396  0.8246201196267435   T   T   T
  0.8258597056123378  0.1476151445788432  0.8562928801110701   T   T   T
  0.7507097376324694  0.1898745810908551  0.4556581353684450   F   F   F
  0.0849074382253789  0.8129095354865683  0.5473206712964753   F   F   F
  0.4165458957514900  0.0654080841687090  0.5473734576176525   F   F   F
  0.4161442399962212  0.3194713187811118  0.5525620760695418   F   F   F
  0.2531004827082128  0.8125570773751889  0.5506933118657500   F   F   F
  0.5811442835272302  0.5600414713640660  0.5489048259399993   F   F   F
  0.7483348436142023  0.3118471322660170  0.5484066285570250   F   F   F
  0.5859110892812254  0.8143226816137172  0.5503639684229000   F   F   F
  0.5828409030749242  0.0616615628754218  0.5453123544934044   F   F   F
  0.0822717212390458  0.0633052003343053  0.5475738649994639   F   F   F
  0.2490991733017580  0.6831390182491717  0.5520846167873898   F   F   F
  0.7492750311195451  0.9340374963596219  0.5475909785284543   F   F   F
  0.5828035389706869  0.4396108455475556  0.4564322884091041   F   F   F
  0.9140868870061922  0.6890985130048222  0.5453907451475786   F   F   F
  0.9157723145045082  0.4377121986051336  0.5457199898889158   F   F   F
  0.5795501676568264  0.6861123518955452  0.5474308928639715   F   F   F
  0.2515116860584996  0.9373296623987244  0.5452569106188463   F   F   F
  0.4974644999691620  0.5044108851590892  0.6090083710444461   F   F   F
  0.9178481458650438  0.5639629743111243  0.5471558230221021   F   F   F
  0.4200676780116481  0.5650605791788550  0.5554196839075303   F   F   F
  0.9155891683621675  0.8128777544033738  0.5468272260283698   F   F   F
  0.0835969669805365  0.9390059737593504  0.5457413920181153   F   F   F
  0.0866444297554310  0.3135376477330212  0.5470225062697054   F   F   F
  0.8321573610919302  0.0020724768566964  0.5922839428013944   F   F   F
  0.9158457550333665  0.1868812533381785  0.4531564937623784   F   F   F
  0.9156693580574924  0.9385585651195356  0.5464359212489285   F   F   F
  0.2495273206140638  0.3137032442677068  0.5459864797243696   F   F   F
  0.5837654167842103  0.9375967077682077  0.5461584940544242   F   F   F
  0.5766696112480503  0.4357667499136468  0.5522266877377859   F   F   F
  0.5906869928546357  0.5660788007661353  0.6387789941528865   F   F   F
  0.7483890420657247  0.9368350381401953  0.6398750460963285   F   F   F
  0.4995129277553971  0.1256718366569487  0.4995769980276989   F   F   F
  0.9997932335046684  0.4994516777866664  0.5941622284334613   F   F   F
  0.5806934728833753  0.1846696065228528  0.5504714593760980   F   F   F
  0.9998596884550750  0.7531624938957364  0.5923346538539320   F   F   F
  0.3340372744808278  0.9998833388359145  0.5919882664870073   F   F   F
  0.9997442001200838  0.9993750127007104  0.5931851947907205   F   F   F
  0.0010819427138387  0.2502061479060060  0.5918786506100346   F   F   F
  0.3332691981727578  0.4963928563162767  0.5908857940823040   F   F   F
  0.3354757237416024  0.7412593027864389  0.5904112681564726   F   F   F
  0.6634511861013550  0.2480265553426122  0.5903180317754959   F   F   F
  0.6658490503876777  0.0003835963513197  0.5917968947677466   F   F   F
  0.4158955637196939  0.1914145073074067  0.5465321641225884   F   F   F
  0.6657920165451969  0.7415169205326819  0.5904086797167949   F   F   F
  0.4990717987396067  0.2526178370833136  0.5905454818605520   F   F   F
  0.4300292500854113  0.3050993793230674  0.6554806590296423   F   F   F
  0.9173771157643245  0.1892367879601622  0.5452341652902817   F   F   F
  0.1706951580939702  0.7502934713160059  0.5949576342099405   F   F   F
  0.1656595020378120  0.5027400471144290  0.5873767896004054   F   F   F
  0.3350946214343011  0.2544486943035409  0.5930273687180048   F   F   F
  0.4996357066937733  0.9999974653256771  0.5909751479788881   F   F   F
  0.8327432056168504  0.8742979021961830  0.4986270840590876   F   F   F
  0.4231204394907948  0.4439143018335443  0.5455436337800208   F   F   F
  0.7520696768888513  0.4353845522120992  0.5489510225688576   F   F   F
  0.7518839249373741  0.6805053498699039  0.5531752677406629   F   F   F
  0.7482978179717392  0.8081328644092238  0.5456972000173792   F   F   F
  0.4178512664220904  0.0651797520237807  0.6400840660068283   F   F   F
  0.2492578095858491  0.3161997605668390  0.6413313169169612   F   F   F
  0.6666726460525680  0.4946287399462008  0.5913910644048457   F   F   F
  0.5911131110288608  0.8100272532670942  0.6460658348455866   F   F   F
  0.1674273144347396  0.9983860850045829  0.5923123552909999   F   F   F
  0.1685138709031904  0.2484478061085156  0.5931572418754882   F   F   F
  0.2484157411123391  0.4358651193840046  0.5490854624910995   F   F   F
  0.9161206279979268  0.5622361598956900  0.4540612922319553   F   F   F
  0.9161203890012288  0.0621765856802980  0.4540983088680548   F   F   F
  0.9142217635850756  0.8132821840490863  0.6415874249785247   F   F   F
  0.0828287098705189  0.4389343530849672  0.5448633105650558   F   F   F
  0.9160412344709314  0.0624790009494447  0.6420593623640940   F   F   F
  0.7472009804060349  0.0671170148532028  0.6390776612692548   F   F   F
  0.0842115113636552  0.3114835553981621  0.6406467842414472   F   F   F
  0.0868579793201292  0.5628018576411833  0.6402269259751705   F   F   F
  0.0842460054963823  0.0606591723325423  0.6420960403778295   F   F   F
  0.0871602386161854  0.4365642982573448  0.6397212181666987   F   F   F
  0.0834779144411328  0.1856132359212239  0.6409995445502048   F   F   F
  0.6665297447500151  0.8743818360935407  0.4989320038852156   F   F   F
  0.8317723514741786  0.2479961641224833  0.5914146356222432   F   F   F
  0.8305726357456322  0.7509304682332214  0.5928453466223900   F   F   F
  0.0842662630072795  0.9356814791006585  0.6406419625279653   F   F   F
  0.8333818672050626  0.5030784928014000  0.5887748069517542   F   F   F
  0.4187229213504935  0.1875461036300052  0.6398678550388510   F   F   F
  0.4149598737575104  0.4188620967208010  0.6298342890753901   F   F   F
  0.2535539915708469  0.1865024511960982  0.6412055913499586   F   F   F
  0.2520297330266814  0.9302799913736450  0.6373384697555764   F   F   F
  0.5801362793945017  0.1917241296350340  0.6455093245197006   F   F   F
  0.0842476918737702  0.8125805524171383  0.6423054693999930   F   F   F
  0.2407340760632550  0.4420373592200164  0.6415797408094477   F   F   F
  0.9143457787760525  0.9372308257405351  0.6409671356752824   F   F   F
  0.9163592360521378  0.6875740393127785  0.6390393999070483   F   F   F
  0.9124677796023022  0.4360673400778623  0.6398273100691014   F   F   F
  0.4126957387594601  0.8128887981980242  0.6395507121386714   F   F   F
  0.2548817308572708  0.6774837962201161  0.6629488681659836   F   F   F
  0.5820054408252489  0.9356108881738976  0.6392738999392478   F   F   F
  0.7454555558554361  0.1950609380742065  0.6466294318838521   F   F   F
  0.0831970679120815  0.6871297396686558  0.6389952995642787   F   F   F
  0.9166666865332829  0.8124999999834799  0.3605200052333331   F   F   F
  0.7411143714395720  0.8098886094328819  0.6400082969355836   F   F   F
  0.7468825114406243  0.3125530307041444  0.6407044484730022   F   F   F
  0.5814345073208997  0.4396236106163443  0.6465663525973682   F   F   F
  0.4996089071080760  0.3742802601845838  0.4997476882448169   F   F   F
  0.5824766583543237  0.0662799610246836  0.6387105876139927   F   F   F
  0.5832358750508959  0.3209295033240522  0.6334878523758718   F   F   F
  0.2476030556580113  0.5737345236782900  0.6287630566367284   F   F   F
  0.7539481757454425  0.6922368291038055  0.6569297093210267   F   F   F
  0.2509810314521630  0.0594728597505991  0.6423254985516635   F   F   F
  0.9166666865332829  0.5625000000092442  0.3605200052333331   F   F   F
  0.4173737565557119  0.9349963203129974  0.6397958441124203   F   F   F
  0.4999898450916120  0.8734110991024906  0.5008769439568326   F   F   F
  0.4204485690789710  0.6760520489404698  0.6335681048673649   F   F   F
  0.8324366324469352  0.6230517467866648  0.5000502354369729   F   F   F
  0.8326216245731430  0.3733306986448568  0.4995777729271822   F   F   F
  0.9151237309201150  0.3118887601481788  0.6395864778800018   F   F   F
  0.1667625832012831  0.3762511367773982  0.4977372965282996   F   F   F
  0.9133582733515979  0.5623158470028429  0.6412034903409278   F   F   F
  0.0833333358191695  0.3124999999901945  0.3605200052333331   F   F   F
  0.5783153024694627  0.6858849336245285  0.6395642953613034   F   F   F
  0.1670762016785545  0.1243074403164712  0.4993289086563379   F   F   F
  0.7481554393039360  0.0598350094361848  0.5444383815707354   F   F   F
  0.1677314480144929  0.8733168061872902  0.4998816184455350   F   F   F
  0.5008390457567913  0.7563413502345568  0.5927369156062667   F   F   F
  0.5003158196271400  0.6211382894608235  0.5000623621015450   F   F   F
  0.7552152695770005  0.4339696403687299  0.6378099317980954   F   F   F
  0.2520206928998974  0.1883155069561653  0.5471878013473486   F   F   F
  0.7482771804986683  0.1838744600749962  0.5506676741406693   F   F   F
  0.0819198068927562  0.5643886962815259  0.5463174532247095   F   F   F
  0.3972193282925573  0.5505995663806544  0.6519916995223625   F   F   F
  0.1677305031618843  0.6243188428720856  0.5000643338180168   F   F   F
  0.8329573748457051  0.1245565263624755  0.4996385374020562   F   F   F
  0.7533655648147572  0.5684957019070538  0.6356505555612060   F   F   F
  0.9172353487024481  0.1869344608047427  0.6407481103429689   F   F   F
  0.4159343544070992  0.9370744931219761  0.5460931847125607   F   F   F
  0.0836286563794388  0.1889626395699295  0.5455095285542981   F   F   F
  0.2619577501482553  0.7996274740335991  0.6463266835369055   F   F   F
  0.7482263851848359  0.5643146653120752  0.4538052161506201   F   F   F
  0.9166666865332829  0.1875000000030838  0.3605200052333331   F   F   F
  0.5833333134730552  0.9375000000154046  0.3605200052333331   F   F   F
  0.5833333134730552  0.6874999999963620  0.3605200052333331   F   F   F
  0.5833333134730552  0.4374999701794380  0.3605200052333331   F   F   F
  0.5833333134730552  0.1875000000030838  0.3605200052333331   F   F   F
  0.2499999999799343  0.9375000000154046  0.3605200052333331   F   F   F
  0.9166666865332829  0.9375000000154046  0.3605200052333331   F   F   F
  0.9177976439672477  0.0632650590646975  0.5475374192225786   F   F   F
  0.2499999999799343  0.6874999999963620  0.3605200052333331   F   F   F
  0.7499999404149307  0.9375000000154046  0.3605200052333331   F   F   F
  0.7395455810418383  0.1600856469025089  0.7685249309722573   T   T   T
  0.5845279183124603  0.5628378381628849  0.4548627660194455   F   F   F
  0.5827383585596735  0.1903213072655134  0.4556385400039815   F   F   F
  0.7499999404149307  0.6874999999963620  0.3605200052333331   F   F   F
  0.4166666269218169  0.6874999999963620  0.3605200052333331   F   F   F
  0.4166666269218169  0.4374999701794380  0.3605200052333331   F   F   F
  0.2499999999799343  0.4374999701794380  0.3605200052333331   F   F   F
  0.0833333358191695  0.0625000000159659  0.3605200052333331   F   F   F
  0.9153795465392491  0.6867598698814561  0.4531750231203588   F   F   F
  0.6655623218724429  0.3784876827548089  0.5031130853431023   F   F   F
  0.3343750955293743  0.3784845510125550  0.5030038249321507   F   F   F
  0.3356299869918544  0.6257933614597775  0.5037859780898941   F   F   F
  0.2498833563676968  0.1884869926533952  0.4541004756822105   F   F   F
  0.2499999999799343  0.1875000000030838  0.3605200052333331   F   F   F
  0.2505221112928950  0.0620252090661069  0.4542573051819758   F   F   F
  0.7495211852554959  0.9384037165653396  0.4553401310107503   F   F   F
  0.7499999404149307  0.4374999701794380  0.3605200052333331   F   F   F
  0.7499999404149307  0.1875000000030838  0.3605200052333331   F   F   F
  0.4166666269218169  0.9375000000154046  0.3605200052333331   F   F   F
  0.9166666865332829  0.4374999701794380  0.3605200052333331   F   F   F
  0.9166666865332829  0.6874999999963620  0.3605200052333331   F   F   F
  0.5833333134730552  0.0625000000159659  0.3605200052333331   F   F   F
  0.7490777921142566  0.6886638246316252  0.4573833352534180   F   F   F
  0.0860551587669107  0.6893005959409635  0.5453256411173939   F   F   F
  0.4171771159579976  0.9358582180552517  0.4539970006069396   F   F   F
  0.4171083104364257  0.6847932414602056  0.4546887684532166   F   F   F
  0.4164550579908379  0.4354404844980309  0.4538199505125604   F   F   F
  0.0845794507126953  0.6869130780509565  0.4530617875050496   F   F   F
  0.0838792975738514  0.9366816309341743  0.4534701203080260   F   F   F
  0.0828095996950893  0.4368144726657803  0.4528506644362906   F   F   F
  0.0838855695083112  0.1865906640254877  0.4529710128320588   F   F   F
  0.9165786988037610  0.8121264293871988  0.4540591431277079   F   F   F
  0.7494217502223535  0.8131699319091226  0.4530644735085048   F   F   F
  0.9162930357828856  0.3122450521426714  0.4538580364725320   F   F   F
  0.2520979293329404  0.6876472084329635  0.4561366345336495   F   F   F
  0.7465280552369933  0.5581839010843765  0.5446816330449664   F   F   F
  0.9164759676358258  0.9371194430982754  0.4536607246563236   F   F   F
  0.2510782136717253  0.0625814513128873  0.5472606863758998   F   F   F
  0.0001130222091206  0.1250016461583954  0.4982951432865264   F   F   F
  0.0000730569499936  0.3736636753507270  0.4982652892059889   F   F   F
  0.9999040083432220  0.6271681187892284  0.4977159344746340   F   F   F
  0.3336796454954154  0.1256897510443480  0.4985241173468040   F   F   F
  0.0000498180273922  0.8751541469676951  0.4995335104453460   F   F   F
  0.3334660477536175  0.8740039240579449  0.4993130124754472   F   F   F
  0.6660815403147353  0.1265328469610552  0.4990300191319861   F   F   F
  0.2511869203105874  0.4392821123420561  0.4549204033495542   F   F   F
  0.0833333358191695  0.5625000000092442  0.3605200052333331   F   F   F
  0.9166666865332829  0.0625000000159659  0.3605200052333331   F   F   F
  0.4171307223199960  0.1871272841643261  0.4535730896391925   F   F   F
  0.9153777842347637  0.3129360781720081  0.5467239711678431   F   F   F
  0.4230458807630129  0.6881007637764185  0.5465889674391349   F   F   F
  0.9159534538995970  0.4370156045432267  0.4535914563117842   F   F   F
  0.7496555439494443  0.4383724700467084  0.4557639307319761   F   F   F
  0.5832767376742041  0.8104927323150051  0.4553408614188683   F   F   F
  0.5828058714029822  0.3109164362176386  0.5448096366461073   F   F   F
  0.2525197744801631  0.5590501064648663  0.5438545613929122   F   F   F
  0.2499999999799343  0.5625000000092442  0.3605200052333331   F   F   F
  0.0000000000000000  0.4999999999932783  0.4070133268666680   F   F   F
  0.3333333432766779  0.0000000000000000  0.4070133268666680   F   F   F
  0.3333333432766779  0.4999999999932783  0.4070133268666680   F   F   F
  0.3333333432766779  0.7500000000123208  0.4070133268666680   F   F   F
  0.5827709439276916  0.6861301520900724  0.4546201910089209   F   F   F
  0.6666666865533486  0.0000000000000000  0.4070133268666680   F   F   F
  0.6666666865533486  0.4999999999932783  0.4070133268666680   F   F   F
  0.8333332538436267  0.2500000000190425  0.4070133268666680   F   F   F
  0.1666666716383389  0.0000000000000000  0.4070133268666680   F   F   F
  0.1666666716383389  0.4999999999932783  0.4070133268666680   F   F   F
  0.1666666716383389  0.7500000000123208  0.4070133268666680   F   F   F
  0.5000000000021103  0.4999999999932783  0.4070133268666680   F   F   F
  0.5832444933290972  0.0636977386300543  0.4538221361768038   F   F   F
  0.5000000000021103  0.2500000000190425  0.4070133268666680   F   F   F
  0.0000000000000000  0.2500000000190425  0.4070133268666680   F   F   F
  0.7474297598451258  0.3141755457880251  0.4547795940155481   F   F   F
  0.4167083375540130  0.8100498601802926  0.4550994661099637   F   F   F
  0.5843568383865900  0.3154845753406050  0.4535742534769938   F   F   F
  0.5827355656780782  0.9371574267822211  0.4543209762932037   F   F   F
  0.6666666865533486  0.2500000000190425  0.4070133268666680   F   F   F
  0.2522824969198112  0.3141144739495729  0.4541475384760574   F   F   F
  0.1666666716383389  0.2500000000190425  0.4070133268666680   F   F   F
  0.2505214045385955  0.8108098864145248  0.4553157867314894   F   F   F
  0.5833333134730552  0.5625000000092442  0.3605200052333331   F   F   F
  0.2500145753770084  0.9360612774732857  0.4540221468998169   F   F   F
  0.8333332538436267  0.0000000000000000  0.4070133268666680   F   F   F
  0.5000000000021103  0.7500000000123208  0.4070133268666680   F   F   F
  0.9166666865332829  0.3124999999901945  0.3605200052333331   F   F   F
  0.0000000000000000  0.0000000000000000  0.4070133268666680   F   F   F
  0.2499999999799343  0.8124999999834799  0.3605200052333331   F   F   F
  0.0000000000000000  0.7500000000123208  0.4070133268666680   F   F   F
  0.0833333358191695  0.1875000000030838  0.3605200052333331   F   F   F
  0.3333333432766779  0.2500000000190425  0.4070133268666680   F   F   F
  0.5000000000021103  0.0000000000000000  0.4070133268666680   F   F   F
  0.7499999404149307  0.5625000000092442  0.3605200052333331   F   F   F
  0.6666666865533486  0.7500000000123208  0.4070133268666680   F   F   F
  0.2499999999799343  0.3124999999901945  0.3605200052333331   F   F   F
  0.7499999404149307  0.3124999999901945  0.3605200052333331   F   F   F
  0.7499999404149307  0.0625000000159659  0.3605200052333331   F   F   F
  0.4166666269218169  0.8124999999834799  0.3605200052333331   F   F   F
  0.4166666269218169  0.3124999999901945  0.3605200052333331   F   F   F
  0.7499999404149307  0.8124999999834799  0.3605200052333331   F   F   F
  0.4166666269218169  0.0625000000159659  0.3605200052333331   F   F   F
  0.0834799851499426  0.8121183562935954  0.4541769063436831   F   F   F
  0.4166666269218169  0.5625000000092442  0.3605200052333331   F   F   F
  0.5833333134730552  0.3124999999901945  0.3605200052333331   F   F   F
  0.5833333134730552  0.8124999999834799  0.3605200052333331   F   F   F
  0.0835196160613236  0.3120286149894227  0.4539803742055000   F   F   F
  0.8333332538436267  0.7500000000123208  0.4070133268666680   F   F   F
  0.4169401735865534  0.0615759670408309  0.4553408044900991   F   F   F
  0.0837778468164245  0.0618590896698876  0.4541720336978372   F   F   F
  0.4144083512200822  0.8117923404158418  0.5478884803723503   F   F   F
  0.0833333358191695  0.6874999999963620  0.3605200052333331   F   F   F
  0.0839642883706233  0.5624862703870406  0.4538848529373212   F   F   F
  0.4160675844830024  0.5595300821766003  0.4578739493868298   F   F   F
  0.6654337888965856  0.6260567662823462  0.5029738165860067   F   F   F
  0.4155578904596666  0.3113484818967791  0.4573704253924902   F   F   F
  0.2499999999799343  0.0625000000159659  0.3605200052333331   F   F   F
  0.2518974572777566  0.5646638809178484  0.4537110791734449   F   F   F
  0.0833333358191695  0.8124999999834799  0.3605200052333331   F   F   F
  0.0833333358191695  0.9375000000154046  0.3605200052333331   F   F   F
  0.4166666269218169  0.1875000000030838  0.3605200052333331   F   F   F
  0.7495678356115292  0.0640903838141611  0.4533825763359687   F   F   F
  0.8333332538436267  0.4999999999932783  0.4070133268666680   F   F   F
  0.0833333358191695  0.4374999701794380  0.3605200052333331   F   F   F
  0.0000000000000000  0.1249999999871179  0.4070133268666680   F   F   F
  0.1666666716383389  0.8749999404036828  0.4070133268666680   F   F   F
  0.5000000000021103  0.3750000000061604  0.4070133268666680   F   F   F
  0.1666666716383389  0.1249999999871179  0.4070133268666680   F   F   F
  0.8333332538436267  0.1249999999871179  0.4070133268666680   F   F   F
  0.8361094090724421  0.7517619057468252  0.5026283194444616   F   F   F
  0.8360276915585416  0.2484030183117270  0.5028715940683526   F   F   F
  0.3317761908729508  0.1199367877404569  0.6135870390865534   F   F   F
  0.8333332538436267  0.3750000000061604  0.4070133268666680   F   F   F
  0.5000000000021103  0.6249999999803961  0.4070133268666680   F   F   F
  0.1636439051494847  0.4999020342548519  0.5020539610247283   F   F   F
  0.9990659938234359  0.8752111978883761  0.6223408299555828   F   F   F
  0.6666303381940608  0.6262001014886494  0.5933821436911373   F   F   F
  0.9997406220293570  0.6230520208139509  0.6262585320784453   F   F   F
  0.8378004926916489  0.3726577585609334  0.6032663671620853   F   F   F
  0.8333342547887810  0.1253312041140333  0.6233050647799061   F   F   F
  0.5000000000021103  0.8749999404036828  0.4070133268666680   F   F   F
  0.5000000000021103  0.1249999999871179  0.4070133268666680   F   F   F
  0.6710030065732440  0.3725408209571839  0.5930146455882408   F   F   F
  0.5037359294065880  0.6250929913568015  0.5940685547128339   F   F   F
  0.0002644527358555  0.3749529466508292  0.6243224008555757   F   F   F
  0.6653044386595823  0.8810301692148386  0.6072167839806895   F   F   F
  0.1666666716383389  0.6249999999803961  0.4070133268666680   F   F   F
  0.1633838680094897  0.3713420309913218  0.6077276988804883   F   F   F
  0.1596162654300670  0.6274285062045237  0.6014887048781645   F   F   F
  0.6666666865533486  0.8749999404036828  0.4070133268666680   F   F   F
  0.1662455596403376  0.8736127687460922  0.6180341283473041   F   F   F
  0.3344871002902394  0.8787210352626644  0.6028278331708705   F   F   F
  0.1677328746001976  0.1229445885841116  0.6219533114773057   F   F   F
  0.3340929782124036  0.6244960388741845  0.5951449662740629   F   F   F
  0.6652986007565431  0.1249565978555012  0.6112534919509613   F   F   F
  0.5005395428076227  0.1223677948503337  0.6062873321925650   F   F   F
  0.5015358634750839  0.3715056792365274  0.5949117357934739   F   F   F
  0.8320568030126694  0.8761376381724375  0.6183885819040995   F   F   F
  0.8396253052802507  0.6270238519896409  0.6038634423599447   F   F   F
  0.6666666865533486  0.3750000000061604  0.4070133268666680   F   F   F
  0.1659828784996620  0.0012001205511254  0.5065558315674323   F   F   F
  0.5012344562741475  0.4998638055421338  0.5002163772683232   F   F   F
  0.9999878724222313  0.0000019072847763  0.5066453299180012   F   F   F
  0.0006032870798975  0.1226101245813211  0.6195185036654536   F   F   F
  0.1666666716383389  0.3750000000061604  0.4070133268666680   F   F   F
  0.3331404134837541  0.0011685886607538  0.5058021497780345   F   F   F
  0.6659354511215838  0.0000118502965236  0.5054590296679820   F   F   F
  0.6654658816653196  0.7519200458981388  0.5022535606129637   F   F   F
  0.0000000000000000  0.3750000000061604  0.4070133268666680   F   F   F
  0.5011162749077727  0.2479718717275574  0.5021540986729391   F   F   F
  0.3338639047856375  0.7511717812290613  0.5015249965532931   F   F   F
  0.3302374111344477  0.2480399707356753  0.5028906189548294   F   F   F
  0.8333332538436267  0.6249999999803961  0.4070133268666680   F   F   F
  0.6671003208184842  0.2480092513934977  0.5025765043973820   F   F   F
  0.3259683792725170  0.3735603783702075  0.5927021582878140   F   F   F
  0.5011394339356343  0.7528630060569697  0.5038915080537478   F   F   F
  0.0009107332232858  0.2498986985091136  0.5058565154170367   F   F   F
  0.3312272191969470  0.4992325170880605  0.5009211049216660   F   F   F
  0.6666666865533486  0.1249999999871179  0.4070133268666680   F   F   F
  0.8362271332543756  0.5001160960129027  0.5027315927224905   F   F   F
  0.3333333432766779  0.3750000000061604  0.4070133268666680   F   F   F
  0.0000000000000000  0.8749999404036828  0.4070133268666680   F   F   F
  0.5002938949630433  0.9993276491932050  0.5054459802829996   F   F   F
  0.5007236803330954  0.8767961624474410  0.6094725029760752   F   F   F
  0.6686696333720050  0.4999300390042762  0.5006287630811670   F   F   F
  0.3333333432766779  0.8749999404036828  0.4070133268666680   F   F   F
  0.8342654247343546  0.0004819967990528  0.5066381931511614   F   F   F
  0.1663835926824291  0.2482394316594423  0.5062167394406032   F   F   F
  0.3333333432766779  0.1249999999871179  0.4070133268666680   F   F   F
  0.3333333432766779  0.6249999999803961  0.4070133268666680   F   F   F
  0.8333332538436267  0.8749999404036828  0.4070133268666680   F   F   F
  0.6666666865533486  0.6249999999803961  0.4070133268666680   F   F   F
  0.9999520848966839  0.7510770595657803  0.5065558823988141   F   F   F
  0.9998008742449827  0.5003371972305857  0.5068342133347272   F   F   F
  0.1644090474651634  0.7515554492751377  0.5034068532323630   F   F   F
  0.0000000000000000  0.6249999999803961  0.4070133268666680   F   F   F
  0.9183366103627506  0.5000108667601282  0.6038113112113592   F   F   F
  0.2499999999799343  0.2500000000190425  0.4070133268666680   F   F   F
  0.0811101166939707  0.7517829944988108  0.6035159225221278   F   F   F
  0.7519793890191551  0.7526599062828154  0.5905562996685703   F   F   F
  0.0833333358191695  0.2500000000190425  0.4070133268666680   F   F   F
  0.9180579910622484  0.7519912788682461  0.6032640886841989   F   F   F
  0.9166666865332829  0.7500000000123208  0.4070133268666680   F   F   F
  0.4166666269218169  0.4999999999932783  0.4070133268666680   F   F   F
  0.5838281757997734  0.8757855089152926  0.5057358655882638   F   F   F
  0.0833333358191695  0.7500000000123208  0.4070133268666680   F   F   F
  0.9188512094972836  0.3746116835991060  0.5058932700422858   F   F   F