Au  C  H  O Sr Ti                       
   1.00000000000000     
    23.6707801818999997    0.0000000000000000    0.0000000000000000
     0.0000000000000000   22.3170261383000010    0.0000000000000000
     0.0000000000000000    0.0000000000000000   30.0000000000000000
   Au   C    H    O    Sr   Ti
    50     3     7   264    72    72
Selective dynamics
Direct
  0.7160288761044438  0.5238128081519230  0.7526824635000161   T   T   T
  0.7200197619750907  0.2535603271259869  0.6918907869115397   T   T   T
  0.2936394624171101  0.7461850851370592  0.6968907867882701   T   T   T
  0.5118281794532991  0.6034394997942658  0.7768233181224039   T   T   T
  0.5783498737151006  0.7256259027622555  0.7939738350462590   T   T   T
  0.2404563335857089  0.4695788840266352  0.7091667537119487   T   T   T
  0.2854896973645583  0.6621510206831597  0.7646252539762823   T   T   T
  0.6012664284568930  0.2845744941143806  0.7838422384672660   T   T   T
  0.5144263355321987  0.4843322219867441  0.6780519326488064   T   T   T
  0.4849643065687105  0.2706829836491961  0.7748937873388407   T   T   T
  0.2894957490054583  0.5380569127438268  0.7775260074132235   T   T   T
  0.7629827760792284  0.4292069978808006  0.7038979261834097   T   T   T
  0.5630142479807003  0.4856959886110868  0.7623561447817603   T   T   T
  0.4639173353961525  0.6949817921709026  0.8308124367061268   T   T   T
  0.4367005633590763  0.2276224144955715  0.6977867080175552   T   T   T
  0.3694176632903013  0.2987121009435328  0.7555117499959454   T   T   T
  0.3495512946672271  0.4994880814770349  0.6977625330592007   T   T   T
  0.4279034777175218  0.3710308400451569  0.8155063852514689   T   T   T
  0.5964203578259789  0.7845320552836813  0.7130287302197885   T   T   T
  0.6353845179157196  0.5837410068957344  0.7997319582962699   T   T   T
  0.7326797821820797  0.6144652552764472  0.6941119531146709   T   T   T
  0.4858742745191766  0.7762176124611988  0.7550867173146610   T   T   T
  0.5487569957922103  0.3820030552438792  0.8267030352526628   T   T   T
  0.3915478662687982  0.8167890425868011  0.7066165744775822   T   T   T
  0.7065469479901427  0.7568480306030546  0.6883661737728243   T   T   T
  0.5527669818472745  0.2132612674013883  0.7095003163107834   T   T   T
  0.3252631241186942  0.4150047972244862  0.7693958754902207   T   T   T
  0.6559011780581764  0.4400067288991795  0.8122339867767091   T   T   T
  0.3687493670788285  0.6186395300375543  0.8205588506888881   T   T   T
  0.5706409350242295  0.5088973261097973  0.8561441203779067   T   T   T
  0.6622711628247383  0.1827990745513079  0.7469699623995499   T   T   T
  0.4721284137161012  0.4492699603095456  0.8776485264759254   T   T   T
  0.5179028277571227  0.3770257970158607  0.7318651563350547   T   T   T
  0.2818412976078359  0.3405922805460194  0.7022606746270923   T   T   T
  0.4522948179650432  0.5795473504670871  0.7027814177562813   T   T   T
  0.3977313935296489  0.3815703029535237  0.6904566739608803   T   T   T
  0.6211665137775516  0.5705891383432093  0.7041883525326734   T   T   T
  0.4633435611778712  0.5724145277478215  0.8642178738975865   T   T   T
  0.6169464006003985  0.3198560765761014  0.6957805316672054   T   T   T
  0.3746285809914635  0.7393297842053622  0.7790137986114617   T   T   T
  0.6481813280204610  0.4448750276235683  0.6944972218150176   T   T   T
  0.6694190291245484  0.6812259383333229  0.7487759178966398   T   T   T
  0.7001505094095190  0.3420277977849679  0.7571117918811144   T   T   T
  0.7735745358479443  0.4268022933566913  0.7938557442440853   T   T   T
  0.4170134326645605  0.6957918243899903  0.6996170561649980   T   T   T
  0.4439988431726000  0.4733030109999757  0.7563191012596410   T   T   T
  0.5649418162535500  0.6388935512100670  0.8607811339791017   T   T   T
  0.5405513332343352  0.6675301976889121  0.7016896947575230   T   T   T
  0.3757251980814424  0.4929048243403442  0.8328404815360709   T   T   T
  0.2568767533561118  0.5929758379658965  0.6945033030200011   T   T   T
  0.6410380359775399  0.0522264488236382  0.7984995762605533   T   T   T
  0.7200667499413953  0.1121701757828859  0.7588707540923496   T   T   T
  0.6896144130235694  0.0529001107798222  0.7646357564580232   T   T   T
  0.6037767117980951  0.0751782983969439  0.7851933602120786   T   T   T
  0.6283407839174173  0.0063237493154848  0.8062665165694675   T   T   T
  0.6529885063754389  0.0740382600714570  0.8298023641478055   T   T   T
  0.7411727480122848  0.1278104974936598  0.7891153503690634   T   T   T
  0.7227474507974023  0.0216927901199286  0.7760607293167139   T   T   T
  0.6753852518139416  0.0357073007416898  0.7324067195917868   T   T   T
  0.7486042266899134  0.1125609639655480  0.7303584675846569   T   T   T
  0.2522930816629760  0.3141061285893801  0.4541746689339753   T   T   T
  0.2521192397525177  0.6876150600038682  0.4560822940360991   T   T   T
  0.4172177255270897  0.1871149310741683  0.4535494499660571   T   T   T
  0.9161421445652288  0.3121639254568380  0.4538957488245819   T   T   T
  0.5827829017390925  0.3109563636014329  0.5448568938159246   T   T   T
  0.9161184154769282  0.5621741740592200  0.4540469567365295   T   T   T
  0.9165593257125321  0.8121176716598982  0.4540627859225265   T   T   T
  0.0838548603075222  0.1865424021626545  0.4529765864843956   T   T   T
  0.0827911687041757  0.4368004291181855  0.4528790278014535   T   T   T
  0.0838857517319353  0.9366490623377347  0.4534976904094088   T   T   T
  0.0845823597299112  0.6868452084407558  0.4530570913524857   T   T   T
  0.4164656832135886  0.4354534004393927  0.4538416813417526   T   T   T
  0.9164616508275378  0.9371141678354801  0.4536743506000420   T   T   T
  0.0000151122388106  0.1251704978722836  0.4984844397561434   T   T   T
  0.5832820567574837  0.8104821757629698  0.4553439210943350   T   T   T
 -0.0000034479993827  0.3733904567702769  0.4984309154775424   T   T   T
  0.9998328164977046  0.6271011916523630  0.4977014565476035   T   T   T
  0.3335748662554107  0.1255586696862282  0.4984925819793402   T   T   T
  0.0000406094649659  0.8751096033919280  0.4995320970105968   T   T   T
  0.3334432724971689  0.8738310815270901  0.4993304401124843   T   T   T
  0.6660774344172057  0.1265441182424750  0.4990948848152924   T   T   T
  0.2511493519804928  0.4392791096258159  0.4549273478513766   T   T   T
  0.0833333358191695  0.5625000000092442  0.3605200052333331   F   F   F
  0.9166666865332829  0.0625000000159659  0.3605200052333331   F   F   F
  0.7493912989025665  0.8131709949371583  0.4530418819766853   T   T   T
  0.2504779897115505  0.0619830845109744  0.4542208677638558   T   T   T
  0.9155329144662988  0.3126548466560673  0.5467337814474266   T   T   T
  0.5827027810042466  0.1902513244072638  0.4555314419210565   T   T   T
  0.5832168197377924  0.0624178475279633  0.5459848153160557   T   T   T
  0.0000000000000000  0.0000000000000000  0.4070133268666680   F   F   F
  0.4170878674558025  0.6848151745609620  0.4547712467201991   T   T   T
  0.4171702235523903  0.9358507566998396  0.4540391352767840   T   T   T
  0.9166666865332829  0.4374999701794380  0.3605200052333331   F   F   F
  0.9166666865332829  0.1875000000030838  0.3605200052333331   F   F   F
  0.5833333134730552  0.9375000000154046  0.3605200052333331   F   F   F
  0.5833333134730552  0.6874999999963620  0.3605200052333331   F   F   F
  0.5833333134730552  0.4374999701794380  0.3605200052333331   F   F   F
  0.5833333134730552  0.1875000000030838  0.3605200052333331   F   F   F
  0.2499999999799343  0.9375000000154046  0.3605200052333331   F   F   F
  0.9166666865332829  0.9375000000154046  0.3605200052333331   F   F   F
  0.2499999999799343  0.6874999999963620  0.3605200052333331   F   F   F
  0.2499999999799343  0.1875000000030838  0.3605200052333331   F   F   F
  0.7499999404149307  0.9375000000154046  0.3605200052333331   F   F   F
  0.7499999404149307  0.6874999999963620  0.3605200052333331   F   F   F
  0.7495665144172736  0.4381281232369090  0.4557300681722455   T   T   T
  0.7499999404149307  0.4374999701794380  0.3605200052333331   F   F   F
  0.2505024996102878  0.8108104884490251  0.4553210333868783   T   T   T
  0.4166666269218169  0.9375000000154046  0.3605200052333331   F   F   F
  0.4166666269218169  0.4374999701794380  0.3605200052333331   F   F   F
  0.2499999999799343  0.4374999701794380  0.3605200052333331   F   F   F
  0.0833333358191695  0.0625000000159659  0.3605200052333331   F   F   F
  0.9153544108747907  0.6867267865088700  0.4531565860275876   T   T   T
  0.6654254678562941  0.3784854784809005  0.5031169107783560   T   T   T
  0.3343315485227980  0.3784585278604427  0.5029554062825248   T   T   T
  0.3355437845499454  0.6256025351733934  0.5037773368957579   T   T   T
  0.9177377280967669  0.0633484183356571  0.5475803816564927   T   T   T
  0.2498711818185662  0.1885015028218006  0.4541112099005952   T   T   T
  0.7495240808512490  0.9383811884002624  0.4553370744036341   T   T   T
  0.7490629341848861  0.6886275772354173  0.4574533938342263   T   T   T
  0.7506521465304186  0.1892815745144976  0.4554733306515308   T   T   T
  0.7499999404149307  0.1875000000030838  0.3605200052333331   F   F   F
  0.2518898075671088  0.5646192950482961  0.4537434743596540   T   T   T
  0.4166666269218169  0.6874999999963620  0.3605200052333331   F   F   F
  0.0819586304715488  0.5643265207393963  0.5463148238065877   T   T   T
  0.2499999999799343  0.3124999999901945  0.3605200052333331   F   F   F
  0.8333332538436267  0.0000000000000000  0.4070133268666680   F   F   F
  0.5833333134730552  0.0625000000159659  0.3605200052333331   F   F   F
  0.2499999999799343  0.0625000000159659  0.3605200052333331   F   F   F
  0.7499999404149307  0.3124999999901945  0.3605200052333331   F   F   F
  0.7499999404149307  0.0625000000159659  0.3605200052333331   F   F   F
  0.4166666269218169  0.8124999999834799  0.3605200052333331   F   F   F
  0.4166666269218169  0.5625000000092442  0.3605200052333331   F   F   F
  0.4166666269218169  0.3124999999901945  0.3605200052333331   F   F   F
  0.7499999404149307  0.8124999999834799  0.3605200052333331   F   F   F
  0.4166666269218169  0.0625000000159659  0.3605200052333331   F   F   F
  0.4168404487645226  0.0615528742060830  0.4553482369397290   T   T   T
  0.0835546556586203  0.8120322071890280  0.4542042005530403   T   T   T
  0.0839509756127678  0.5624575335410248  0.4538993853454842   T   T   T
  0.4160431556262918  0.5594992474582681  0.4578693698349842   T   T   T
  0.0836710891801611  0.0618712204975674  0.4542316800550307   T   T   T
  0.0835064098982572  0.3119330750867734  0.4540637601583425   T   T   T
  0.2492798459549596  0.3137070309127195  0.5459033393249160   T   T   T
  0.8333332538436267  0.7500000000123208  0.4070133268666680   F   F   F
  0.0833333358191695  0.4374999701794380  0.3605200052333331   F   F   F
  0.0833333358191695  0.6874999999963620  0.3605200052333331   F   F   F
  0.0833333358191695  0.9375000000154046  0.3605200052333331   F   F   F
  0.4166666269218169  0.1875000000030838  0.3605200052333331   F   F   F
  0.0833333358191695  0.8124999999834799  0.3605200052333331   F   F   F
  0.8333332538436267  0.4999999999932783  0.4070133268666680   F   F   F
  0.2499999999799343  0.5625000000092442  0.3605200052333331   F   F   F
  0.7483263450319164  0.8080892288968053  0.5457173154603749   T   T   T
  0.7466311772789286  0.5579658277097782  0.5447852359948456   T   T   T
  0.2510613547149341  0.0624590527418820  0.5472776355054906   T   T   T
  0.4155107387230881  0.3113158470710536  0.4573460960787953   T   T   T
  0.4145033914452596  0.8116952490509382  0.5478818270960054   T   T   T
  0.7499999404149307  0.5625000000092442  0.3605200052333331   F   F   F
  0.9166666865332829  0.6874999999963620  0.3605200052333331   F   F   F
  0.2499999999799343  0.8124999999834799  0.3605200052333331   F   F   F
  0.5833333134730552  0.3124999999901945  0.3605200052333331   F   F   F
  0.5000000000021103  0.4999999999932783  0.4070133268666680   F   F   F
  0.0833333358191695  0.1875000000030838  0.3605200052333331   F   F   F
  0.0000000000000000  0.2500000000190425  0.4070133268666680   F   F   F
  0.0000000000000000  0.4999999999932783  0.4070133268666680   F   F   F
  0.7483059008569487  0.5641196113339437  0.4538738733216397   T   T   T
  0.3333333432766779  0.0000000000000000  0.4070133268666680   F   F   F
  0.3333333432766779  0.4999999999932783  0.4070133268666680   F   F   F
  0.3333333432766779  0.7500000000123208  0.4070133268666680   F   F   F
  0.6666666865533486  0.0000000000000000  0.4070133268666680   F   F   F
  0.6666666865533486  0.2500000000190425  0.4070133268666680   F   F   F
  0.6666666865533486  0.4999999999932783  0.4070133268666680   F   F   F
  0.5844406121426978  0.5627821191735319  0.4548610629005029   T   T   T
  0.5843243202640539  0.3154202963421959  0.4535563151899776   T   T   T
  0.1666666716383389  0.2500000000190425  0.4070133268666680   F   F   F
  0.1666666716383389  0.7500000000123208  0.4070133268666680   F   F   F
  0.5000000000021103  0.0000000000000000  0.4070133268666680   F   F   F
  0.5000000000021103  0.2500000000190425  0.4070133268666680   F   F   F
  0.5000000000021103  0.7500000000123208  0.4070133268666680   F   F   F
  0.9166666865332829  0.3124999999901945  0.3605200052333331   F   F   F
  0.3333333432766779  0.2500000000190425  0.4070133268666680   F   F   F
  0.7474195280284555  0.3136855742966569  0.4552876943023310   T   T   T
  0.0000000000000000  0.7500000000123208  0.4070133268666680   F   F   F
  0.4166348288746430  0.8099982140454964  0.4550828592073090   T   T   T
  0.5833333134730552  0.5625000000092442  0.3605200052333331   F   F   F
  0.7497544380392391  0.0636964480488891  0.4537354202677600   T   T   T
  0.5833333134730552  0.8124999999834799  0.3605200052333331   F   F   F
  0.1666666716383389  0.0000000000000000  0.4070133268666680   F   F   F
  0.8333332538436267  0.2500000000190425  0.4070133268666680   F   F   F
  0.1666666716383389  0.4999999999932783  0.4070133268666680   F   F   F
  0.6666666865533486  0.7500000000123208  0.4070133268666680   F   F   F
  0.5831283569930610  0.0636143908414726  0.4539850528341208   T   T   T
  0.2529582696611004  0.8125168527924579  0.5507398056113986   T   T   T
  0.5908645959615252  0.5651805191655743  0.6390246500620531   T   T   T
  0.0836209812313759  0.1889489461837753  0.5454706636733171   T   T   T
  0.4994732024043509  0.1255150763610761  0.4996198448684996   T   T   T
  0.9997518821770427  0.4999358842113223  0.5940065644646878   T   T   T
  0.5806265433333220  0.1853541592912783  0.5497195985732614   T   T   T
  0.9997025072007882  0.7530173305021653  0.5923534700633416   T   T   T
  0.3340189490978905  0.9998140053673992  0.5920159289097165   T   T   T
  0.9998466459197295  0.9991902258137897  0.5932747805522192   T   T   T
  0.0010320505620963  0.2498340047561201  0.5919929226279269   T   T   T
  0.3332304507048423  0.4962312862634037  0.5909883793348988   T   T   T
  0.3355390993748637  0.7411854981039794  0.5903845319121236   T   T   T
  0.6634989596932069  0.2475017620694218  0.5904813906869947   T   T   T
  0.6659598753524039  0.0004127975975419  0.5921361264984696   T   T   T
  0.6657677793198274  0.7415683939696189  0.5902144698546740   T   T   T
  0.3972300402716452  0.5504912704858249  0.6519647083603168   T   T   T
  0.0826033170033869  0.4385421363531873  0.5450543142310285   T   T   T
  0.6667020296270607  0.4943938218465522  0.5912574624322415   T   T   T
  0.1706275566484124  0.7500634995674285  0.5948823338593893   T   T   T
  0.2484751445205805  0.4358120106922179  0.5491069625178794   T   T   T
  0.1655601051508694  0.5026743769777529  0.5873934409133752   T   T   T
  0.3346490704971933  0.2545015322372655  0.5926961049961426   T   T   T
  0.4997118827361769  0.0000311692716735  0.5910387652521698   T   T   T
  0.8327191988704420  0.8742377739131449  0.4986019878753109   T   T   T
  0.7484703891790720  0.9368289786232614  0.6402231713920846   T   T   T
  0.8322165217611203  0.0020364156753756  0.5922571917787737   T   T   T
  0.5009294038766173  0.7561142524600469  0.5929221426051625   T   T   T
  0.4176507909140644  0.0651048533105692  0.6401136217123502   T   T   T
  0.4271475428659707  0.3046509000353566  0.6552859316616418   T   T   T
  0.4156452882585449  0.1912300380944363  0.5464581924144118   T   T   T
  0.4984796989405714  0.2528761483722299  0.5905366660805699   T   T   T
  0.1674685244169768  0.9983735115891027  0.5922973211237724   T   T   T
  0.1685195248162423  0.2481867433045923  0.5931183443901189   T   T   T
  0.9161037886909270  0.0622557439467803  0.4541433188051067   T   T   T
  0.4159096844893818  0.9370075243957053  0.5461078533617786   T   T   T
  0.5857114161356617  0.8142736880900755  0.5503272484889233   T   T   T
  0.6654424998053392  0.6257592594495992  0.5029796610374132   T   T   T
  0.4124383107736745  0.8127717749081887  0.6395598911683121   T   T   T
  0.9139528203609323  0.6890665382535595  0.5453133532570040   T   T   T
  0.9156420120136839  0.9385196313818456  0.5464275331504895   T   T   T
  0.0822658953015246  0.0632680208635135  0.5475969074096116   T   T   T
  0.0867274577788829  0.3134957780760271  0.5471424735542647   T   T   T
  0.0849104004683747  0.8128668336423940  0.5473383188818577   T   T   T
  0.4164542644729136  0.0652795758392942  0.5473201882269997   T   T   T
  0.5765754511535628  0.4356080377296928  0.5521813582145088   T   T   T
  0.2500951134316264  0.9360340073232132  0.4540716586689587   T   T   T
  0.4159817941655659  0.3193739099580911  0.5523695171878144   T   T   T
  0.2523962316778032  0.5590224580531865  0.5439005181566401   T   T   T
  0.5811529394089378  0.5599722840541389  0.5489404047769506   T   T   T
  0.5838205354984112  0.9377010671876361  0.5461449899821251   T   T   T
  0.7488228226679179  0.1842436996202178  0.5505623238167071   T   T   T
  0.9157039647062186  0.4375684964799732  0.5456270841432905   T   T   T
  0.2515039241423730  0.9372680863194809  0.5452634734546599   T   T   T
  0.4973975974947556  0.5043465610525621  0.6090368671242031   T   T   T
  0.9173744185430692  0.5637573232855883  0.5470136593758760   T   T   T
  0.4199612236984868  0.5648533439063439  0.5553834963296738   T   T   T
  0.9155108761499257  0.8128117869286784  0.5468223076937990   T   T   T
  0.0836870323386358  0.9387513818164726  0.5459026005933991   T   T   T
  0.2492060596923343  0.6831827656866151  0.5519915894760373   T   T   T
  0.7492897791012415  0.9340176554525501  0.5476058246594477   T   T   T
  0.7518076951837430  0.6801355316508373  0.5533337513733245   T   T   T
  0.7518378500762818  0.4355785175213081  0.5487500988939850   T   T   T
  0.4231676902157393  0.4436079726731996  0.5458196722372162   T   T   T
  0.4230080737763161  0.6878575894882422  0.5467574611689001   T   T   T
  0.9165094154438411  0.1889137944348155  0.5455077015901216   T   T   T
  0.7476595579202724  0.3124732579801413  0.5493328497756901   T   T   T
  0.5794906774310212  0.6860174289243489  0.5473638633401259   T   T   T
  0.7411600544364042  0.8097502637802044  0.6399941457879500   T   T   T
  0.0833333358191695  0.3124999999901945  0.3605200052333331   F   F   F
  0.9157327705911512  0.0624104719753203  0.6416638214355139   T   T   T
  0.5834502993367593  0.3204901466803315  0.6333290710924401   T   T   T
  0.2474811917252042  0.5736534995588387  0.6287454059874202   T   T   T
  0.7535654848694138  0.6918048782090597  0.6570240506388293   T   T   T
  0.2619987197301466  0.7992442054508048  0.6463585974636330   T   T   T
  0.2510595968415373  0.0593313779517137  0.6423357596124895   T   T   T
  0.9166666865332829  0.5625000000092442  0.3605200052333331   F   F   F
  0.4995665283542872  0.3742053450888275  0.4997255093424043   T   T   T
  0.4999763250347634  0.8733806029327758  0.5008284765630736   T   T   T
  0.5002778065923706  0.6210839722336686  0.5000596519152196   T   T   T
  0.8324120817165124  0.6230681846536680  0.5000277503779246   T   T   T
  0.8323184571564323  0.3730391502173563  0.4999138511670687   T   T   T
  0.8328339688311436  0.1243474743978618  0.5002875420500388   T   T   T
  0.1667182872760518  0.3762610984603602  0.4977672589935530   T   T   T
  0.1677429593728560  0.6243176113608871  0.5000190753717279   T   T   T
  0.5825794857092073  0.0656685145130801  0.6396187800517861   T   T   T
  0.5790073086503538  0.6855250818957099  0.6395757335704767   T   T   T
  0.2491052406690796  0.3162032786823395  0.6412187905129128   T   T   T
  0.1677371131539662  0.8732795944792614  0.4998904243951620   T   T   T
  0.5828079153010957  0.6860787061216640  0.4546077361767383   T   T   T
  0.5827510875158571  0.9371277468665082  0.4543384453697505   T   T   T
  0.9157808112621590  0.1868585220973639  0.4532563936932081   T   T   T
  0.9158002915516612  0.4369003512582481  0.4536033379354883   T   T   T
  0.1670756706413714  0.1243189212755740  0.4993231551993794   T   T   T
  0.7480280724862234  0.0602366876739611  0.5449859306451450   T   T   T
  0.7533287320347011  0.5680427692822797  0.6358157299527730   T   T   T
  0.9152002932788253  0.3118082319263379  0.6396623246790352   T   T   T
  0.9129352038831494  0.5619360932021071  0.6413926758674324   T   T   T
  0.5911020026565315  0.8099223240933091  0.6459693515365549   T   T   T
  0.5827778791561097  0.4396134659309688  0.4564008491943349   T   T   T
  0.9140505301061568  0.8132483204813520  0.6415420258887256   T   T   T
  0.9163905794336442  0.1861577170240415  0.6399180781804551   T   T   T
  0.2520127672728802  0.1881178305950565  0.5471931142030498   T   T   T
  0.5811578195724103  0.4383725842120438  0.6461099705899354   T   T   T
  0.0860652918779546  0.6892843857752051  0.5453248634592298   T   T   T
  0.6665317392140740  0.8742342193953635  0.4989217322374599   T   T   T
  0.7481532539936541  0.0671197077076291  0.6396994758479423   T   T   T
  0.0843292186813957  0.3112251658010025  0.6405636415892516   T   T   T
  0.0868803498529664  0.5626184267850203  0.6404630130604406   T   T   T
  0.0842087419759533  0.0603302829980002  0.6422552030440745   T   T   T
  0.0869703588364379  0.4365032819874283  0.6396074758784284   T   T   T
  0.0836286889626209  0.1852342620040856  0.6410588690860732   T   T   T
  0.4178362246138257  0.1872573550379933  0.6395614842711730   T   T   T
  0.0842960317276784  0.9354806692648540  0.6408066288060140   T   T   T
  0.9127041271629811  0.4357145860591644  0.6395885180696426   T   T   T
  0.9163188034943557  0.6874300052777883  0.6392050284887312   T   T   T
  0.9143327827606930  0.9369072998626958  0.6412226720653744   T   T   T
  0.4150425059585934  0.4186494507093165  0.6300939808624625   T   T   T
  0.7545847455376894  0.4325204616896713  0.6372754895581050   T   T   T
  0.4174915636793650  0.9348853473722141  0.6397908456236592   T   T   T
  0.0831107044595795  0.6869550823322315  0.6390854367423251   T   T   T
  0.2519530609663188  0.9301225468298570  0.6373789173437666   T   T   T
  0.7463253904326012  0.1924650356476337  0.6458403139592181   T   T   T
  0.2535809265522636  0.1863934630082625  0.6412707507556737   T   T   T
  0.8304906713951596  0.7506876649925229  0.5927987748491687   T   T   T
  0.8314689408783724  0.2492723603082787  0.5912444594678157   T   T   T
  0.5820904916730508  0.9354585378726892  0.6394620942330909   T   T   T
  0.9166666865332829  0.8124999999834799  0.3605200052333331   F   F   F
  0.0842342709130907  0.8123342201954477  0.6421890503261294   T   T   T
  0.7462077411525195  0.3095487254918485  0.6430559969971376   T   T   T
  0.5792404606532202  0.1911642476274936  0.6444907648896563   T   T   T
  0.2548201552873097  0.6773437347449728  0.6627340904283436   T   T   T
  0.8332283743814413  0.5022522626944470  0.5889721922624352   T   T   T
  0.2404932604610504  0.4419587652304524  0.6416314994801672   T   T   T
  0.4203737686983870  0.6756974803598949  0.6336367087772626   T   T   T
  0.5011039440929111  0.7527667625525398  0.5039768609109757   T   T   T
  0.8333332538436267  0.6249999999803961  0.4070133268666680   F   F   F
  0.9996904144569181  0.5002553943444388  0.5069010133918892   T   T   T
  0.3260489017447699  0.3733590855507405  0.5927060847366261   T   T   T
  0.6666666865533486  0.3750000000061604  0.4070133268666680   F   F   F
  0.6660252105840747  0.9998962859162466  0.5056599165965630   T   T   T
  0.1643648582294700  0.7514666550655882  0.5033514581046600   T   T   T
  0.6685972603641493  0.4998110108006502  0.5007005695358855   T   T   T
  0.0006409270981131  0.1223615725431462  0.6198397936338378   T   T   T
  0.3300942207542164  0.2479969809931150  0.5028055212059364   T   T   T
  0.3330975111283593  0.0009811799421219  0.5057881627812247   T   T   T
  0.3338503303917575  0.7511056428298776  0.5015351417503587   T   T   T
  0.8361022285822147  0.4999880477073386  0.5028041156134105   T   T   T
  0.6653791696372816  0.7518447212244525  0.5022137724236548   T   T   T
  0.1666666716383389  0.3750000000061604  0.4070133268666680   F   F   F
  0.6669660063325692  0.2479122588540664  0.5026823176930229   T   T   T
  0.0000210185864043  0.9999622048788958  0.5067443906932207   T   T   T
  0.0000000000000000  0.8749999404036828  0.4070133268666680   F   F   F
  0.3333333432766779  0.3750000000061604  0.4070133268666680   F   F   F
  0.5009721603906850  0.2478204838519697  0.5019819568390254   T   T   T
  0.9998931672728684  0.7509010765321374  0.5065990444445663   T   T   T
  0.0007908103916670  0.2497354052524560  0.5059932063498926   T   T   T
  0.6666666865533486  0.6249999999803961  0.4070133268666680   F   F   F
  0.8333332538436267  0.8749999404036828  0.4070133268666680   F   F   F
  0.3333333432766779  0.6249999999803961  0.4070133268666680   F   F   F
  0.3333333432766779  0.1249999999871179  0.4070133268666680   F   F   F
  0.6666666865533486  0.1249999999871179  0.4070133268666680   F   F   F
  0.8341451101604905  0.0001864707173797  0.5064979090174770   T   T   T
  0.3333333432766779  0.8749999404036828  0.4070133268666680   F   F   F
  0.0000000000000000  0.6249999999803961  0.4070133268666680   F   F   F
  0.1659861993054562  0.0011145989263851  0.5065744696625728   T   T   T
  0.3312037848585559  0.4992014670577123  0.5009422921855627   T   T   T
  0.1635294211709470  0.4997659616804959  0.5020879396047386   T   T   T
  0.8356130609624512  0.2484811629307542  0.5029058610881191   T   T   T
  0.5007105180607032  0.8765989880765188  0.6095022078153847   T   T   T
  0.5012285963109997  0.4997255888671982  0.5002809003486416   T   T   T
  0.0000000000000000  0.3750000000061604  0.4070133268666680   F   F   F
  0.9991466592312090  0.8749160182414135  0.6224171284553216   T   T   T
  0.0000000000000000  0.1249999999871179  0.4070133268666680   F   F   F
  0.8333332538436267  0.1249999999871179  0.4070133268666680   F   F   F
  0.5000000000021103  0.6249999999803961  0.4070133268666680   F   F   F
  0.8395760321406887  0.6268530148621970  0.6038996058064572   T   T   T
  0.1663880727576061  0.2481117790526639  0.5061921113297939   T   T   T
  0.3315643812053173  0.1196626032616195  0.6129807474155538   T   T   T
  0.6653084227947067  0.1238595973766219  0.6100247088178419   T   T   T
  0.8360694278441864  0.7516520178385043  0.5026042106105213   T   T   T
  0.3340396424627727  0.6243398351126194  0.5950636770261788   T   T   T
  0.1666666716383389  0.8749999404036828  0.4070133268666680   F   F   F
  0.8333332538436267  0.3750000000061604  0.4070133268666680   F   F   F
  0.8378458045887534  0.3723118762837073  0.6032500437915291   T   T   T
  0.8320299590029658  0.8761895338246481  0.6178247412693297   T   T   T
  0.1666666716383389  0.1249999999871179  0.4070133268666680   F   F   F
  0.3344767293395629  0.8786217843856918  0.6029828523987002   T   T   T
  0.0003602864379379  0.3745071405528996  0.6235776638290867   T   T   T
  0.5000000000021103  0.1249999999871179  0.4070133268666680   F   F   F
  0.5015869748584134  0.3712005335637897  0.5948344073942494   T   T   T
  0.1666666716383389  0.6249999999803961  0.4070133268666680   F   F   F
  0.5037460794660072  0.6249454450131283  0.5940897379977190   T   T   T
  0.5000000000021103  0.3750000000061604  0.4070133268666680   F   F   F
  0.6666666865533486  0.8749999404036828  0.4070133268666680   F   F   F
  0.5002663087566220  0.9992260606056500  0.5055631798294122   T   T   T
  0.1661783311057135  0.8733796316428759  0.6179603660726842   T   T   T
  0.6708338918995813  0.3722650678137381  0.5936099425372861   T   T   T
  0.1594423358636424  0.6271848112951582  0.6014423899548436   T   T   T
  0.1678143156591297  0.1226739940080795  0.6220219757495535   T   T   T
  0.1633076653121931  0.3712667166708332  0.6075233999330649   T   T   T
  0.6654007238327810  0.8809343577221080  0.6070351625756993   T   T   T
  0.6664934383685907  0.6260959287647544  0.5935679867126009   T   T   T
  0.8342256396437810  0.1238851587141656  0.6155644731632564   T   T   T
  0.9995802950101631  0.6224830179272318  0.6283731555543237   T   T   T
  0.5000000000021103  0.8749999404036828  0.4070133268666680   F   F   F
  0.5003520847697878  0.1219579756443927  0.6064163231123716   T   T   T
  0.5825257800219334  0.0008065677744853  0.6044054319654669   T   T   T
  0.5844044461241352  0.2475009954479096  0.5964391549224939   T   T   T
  0.5833333134730552  0.2500000000190425  0.4070133268666680   F   F   F
  0.0837688952672262  0.2476513847459814  0.6036657608652608   T   T   T
  0.7496779476749177  0.0017619574145332  0.6045358899897468   T   T   T
  0.9164697602370339  0.9999133065744951  0.6039608765760659   T   T   T
  0.0815770544583911  0.4999030224463639  0.6031634109015561   T   T   T
  0.2425419159120456  0.4976985223188684  0.5940227804593835   T   T   T
  0.0819889011775951  0.3745256367079352  0.5062057933968253   T   T   T