Au  C  H  O Sr Ti                       
   1.00000000000000     
    23.6707801818999997    0.0000000000000000    0.0000000000000000
     0.0000000000000000   22.3170261383000010    0.0000000000000000
     0.0000000000000000    0.0000000000000000   30.0000000000000000
   Au   C    H    O    Sr   Ti
    50     1     3   265    72    72
Selective dynamics
Direct
  0.7154480527232325  0.5245848997686537  0.7529773346556192   T   T   T
  0.6206300723789915  0.5712666826192101  0.7040721563073928   T   T   T
  0.7207709805696186  0.2587364380864371  0.6912471013457719   T   T   T
  0.2949024117598595  0.7463154257841874  0.6961173110745585   T   T   T
  0.5116634104872007  0.6034284543680329  0.7769274384776195   T   T   T
  0.5784763470497364  0.7256606541771417  0.7939801421274274   T   T   T
  0.2402360779717801  0.4693710264331228  0.7088854522756888   T   T   T
  0.2860174381175563  0.6623145647717065  0.7640709942694169   T   T   T
  0.6003066678680152  0.2878831238634467  0.7842069922565192   T   T   T
  0.5140990822392326  0.4843503024337044  0.6779522923752370   T   T   T
  0.5626968540752123  0.4860814827334655  0.7622369334444808   T   T   T
  0.5541957477981150  0.2139615325486811  0.7109218014476614   T   T   T
  0.5469381461968991  0.3843398939738902  0.8276210916498697   T   T   T
  0.3920775656633999  0.8173493035564759  0.7066835729326454   T   T   T
  0.4637949173288720  0.6952300650051288  0.8304730925769520   T   T   T
  0.4381191607988295  0.2283576893450416  0.6976314213840673   T   T   T
  0.3694441698138404  0.2990967420308796  0.7555144753377101   T   T   T
  0.3493786914385048  0.4995509375850298  0.6977654186221913   T   T   T
  0.4266500193961372  0.3716457716630863  0.8166929357770527   T   T   T
  0.5964893424088166  0.7846074019715874  0.7129333026493595   T   T   T
  0.6347834558658345  0.5839140557422501  0.8000756086720808   T   T   T
  0.7325582729812619  0.6145415648881387  0.6940019298207265   T   T   T
  0.4860396025495705  0.7757517191490747  0.7546178485867374   T   T   T
  0.7634659560518380  0.4307568513635389  0.7044844001113356   T   T   T
  0.4843190566700612  0.2711533049092511  0.7753628156761095   T   T   T
  0.2891566871176863  0.5383975130581515  0.7771706354347707   T   T   T
  0.6166898947729490  0.3215100021788863  0.6959272368646058   T   T   T
  0.3683568107403501  0.6191017356045084  0.8203197385106383   T   T   T
  0.5692292194679235  0.5095680040930176  0.8564749013742200   T   T   T
  0.6676807917348789  0.1900815093982405  0.7490870038585923   T   T   T
  0.4701364038083696  0.4509402905730271  0.8790569487384940   T   T   T
  0.5174926997148925  0.3773265216579608  0.7321031949271645   T   T   T
  0.2816902869770869  0.3406773067641080  0.7022919408905497   T   T   T
  0.6694125744061202  0.6811521242327535  0.7487779503136018   T   T   T
  0.3975837952279268  0.3817137761463036  0.6904241236401808   T   T   T
  0.4520906842424384  0.5794383770641456  0.7028847122506268   T   T   T
  0.3745874827717457  0.4934583479066497  0.8330061986556172   T   T   T
  0.3247632909778832  0.4151929381705602  0.7694803522972288   T   T   T
  0.4150938852919811  0.6951501814903360  0.6997464470229510   T   T   T
  0.6996804738529162  0.3448261737769193  0.7573447298360276   T   T   T
  0.7734113259571828  0.4286119252973522  0.7946389081184277   T   T   T
  0.2568656082952941  0.5927284674230411  0.6942847569356034   T   T   T
  0.6483894793718151  0.4458023800254034  0.6945746408051640   T   T   T
  0.5645493396831156  0.6393215988273508  0.8610437148060698   T   T   T
  0.5396518003926704  0.6681127182391130  0.7020500525342959   T   T   T
  0.4434280128556092  0.4730663913929236  0.7566223491436354   T   T   T
  0.3746034478059977  0.7399887671866912  0.7791429729152699   T   T   T
  0.4624029069102892  0.5733782932657178  0.8643351448933704   T   T   T
  0.6549264823524753  0.4406032951206561  0.8128218193577074   T   T   T
  0.7065030398587052  0.7569191747182286  0.6883906504944304   T   T   T
  0.7239708426039300  0.1139656169989029  0.7449904214587539   T   T   T
  0.7433416904175145  0.1180990722418416  0.7122123085569728   T   T   T
  0.7510957815805929  0.1221599674012444  0.7736583654365814   T   T   T
  0.6809243058996168  0.0471525466046182  0.7224922944410888   T   T   T
  0.2492836777964965  0.3137502531668265  0.5458720519568656   T   T   T
  0.7507130964879154  0.1899412153266880  0.4558311195258563   T   T   T
  0.4171014579589698  0.9360760477463523  0.4540078322823223   T   T   T
  0.4171716374268110  0.6851960203526158  0.4550054433362993   T   T   T
  0.4164372464573478  0.4354788292827254  0.4538457447440385   T   T   T
  0.0843796337334072  0.6869698016083949  0.4531656474514728   T   T   T
  0.0840969725414756  0.9367945205241884  0.4536087888555207   T   T   T
  0.0827333266593784  0.4368257544562137  0.4528145571673678   T   T   T
  0.0838605157228330  0.1865600830706024  0.4529846314588515   T   T   T
  0.9165896544640686  0.8121354290214975  0.4540607026084139   T   T   T
  0.0833333358191695  0.3124999999901945  0.3605200052333331   F   F   F
  0.7465383485764806  0.5581919963982481  0.5446697215572285   T   T   T
  0.9161200585418688  0.0623038912943163  0.4541060720868868   T   T   T
  0.9161117481017541  0.3121291341279367  0.4538835089720388   T   T   T
  0.4170555450056972  0.1871561949874991  0.4536006522725585   T   T   T
  0.2520792552726429  0.6875743414690919  0.4559928058725551   T   T   T
  0.9164328855561868  0.9371385113215662  0.4536536282542942   T   T   T
  0.5830149548325543  0.1903352220160652  0.4556564053931295   T   T   T
  0.0000779012248195  0.1251799808156989  0.4984917358992612   T   T   T
  0.5831468836623279  0.8105150125010280  0.4553167365402939   T   T   T
  0.9998960048686978  0.3737186992643675  0.4981690867762966   T   T   T
  0.9997768867902871  0.6272241345239310  0.4976446025850477   T   T   T
  0.3336006772277619  0.1255916708030403  0.4985801509651598   T   T   T
  0.0000584162283272  0.8751474441875925  0.4995257972200416   T   T   T
  0.3334588353699551  0.8741475834520932  0.4991227538666121   T   T   T
  0.6663197260528190  0.1266661135677921  0.4997886075553756   T   T   T
  0.2511513869269254  0.4393513569921074  0.4548756168293970   T   T   T
  0.0833333358191695  0.5625000000092442  0.3605200052333331   F   F   F
  0.9166666865332829  0.0625000000159659  0.3605200052333331   F   F   F
  0.7493597231146012  0.8131800727551491  0.4530159580341445   T   T   T
  0.7496481368966040  0.4383866260643635  0.4557202463044870   T   T   T
  0.2502717260693009  0.0621196284707937  0.4542352748662161   T   T   T
  0.7491003585890316  0.6886526802923295  0.4573815341105070   T   T   T
  0.2499836330543487  0.1887359125249169  0.4543436531036541   T   T   T
  0.2499983097092321  0.9361028788990604  0.4539966282619354   T   T   T
  0.6653352595773034  0.6260432507946360  0.5030038530817343   T   T   T
  0.5844904818338147  0.5628614242102105  0.4548422511741815   T   T   T
  0.5834396304455730  0.0639938386154509  0.4537845323525629   T   T   T
  0.9166666865332829  0.6874999999963620  0.3605200052333331   F   F   F
  0.9166666865332829  0.4374999701794380  0.3605200052333331   F   F   F
  0.9166666865332829  0.1875000000030838  0.3605200052333331   F   F   F
  0.5833333134730552  0.9375000000154046  0.3605200052333331   F   F   F
  0.5833333134730552  0.6874999999963620  0.3605200052333331   F   F   F
  0.5833333134730552  0.4374999701794380  0.3605200052333331   F   F   F
  0.5833333134730552  0.1875000000030838  0.3605200052333331   F   F   F
  0.2499999999799343  0.9375000000154046  0.3605200052333331   F   F   F
  0.9166666865332829  0.9375000000154046  0.3605200052333331   F   F   F
  0.2499999999799343  0.6874999999963620  0.3605200052333331   F   F   F
  0.2499999999799343  0.1875000000030838  0.3605200052333331   F   F   F
  0.7499999404149307  0.9375000000154046  0.3605200052333331   F   F   F
  0.7499999404149307  0.6874999999963620  0.3605200052333331   F   F   F
  0.7499999404149307  0.4374999701794380  0.3605200052333331   F   F   F
  0.7499999404149307  0.1875000000030838  0.3605200052333331   F   F   F
  0.4166666269218169  0.9375000000154046  0.3605200052333331   F   F   F
  0.4166666269218169  0.6874999999963620  0.3605200052333331   F   F   F
  0.4166666269218169  0.4374999701794380  0.3605200052333331   F   F   F
  0.2499999999799343  0.4374999701794380  0.3605200052333331   F   F   F
  0.0833333358191695  0.0625000000159659  0.3605200052333331   F   F   F
  0.9153048415665670  0.6868671037911087  0.4533252314652795   T   T   T
  0.6654332509426660  0.3785925012914551  0.5029988633013682   T   T   T
  0.3343525910977896  0.3784564834723337  0.5029496959214458   T   T   T
  0.3355574681989972  0.6257924179400927  0.5037347735881998   T   T   T
  0.9174579104625451  0.0634037108554804  0.5474389635853461   T   T   T
  0.7494875384878046  0.9384240301524358  0.4553587108556538   T   T   T
  0.9156810220960142  0.3125115421854783  0.5467290340547315   T   T   T
  0.2522236864476681  0.3143907675511858  0.4539460515159073   T   T   T
  0.2518480614086331  0.5647123886097316  0.4536302522531270   T   T   T
  0.2499999999799343  0.8124999999834799  0.3605200052333331   F   F   F
  0.2499999999799343  0.5625000000092442  0.3605200052333331   F   F   F
  0.2499999999799343  0.3124999999901945  0.3605200052333331   F   F   F
  0.2499999999799343  0.0625000000159659  0.3605200052333331   F   F   F
  0.7499999404149307  0.5625000000092442  0.3605200052333331   F   F   F
  0.7499999404149307  0.3124999999901945  0.3605200052333331   F   F   F
  0.7499999404149307  0.0625000000159659  0.3605200052333331   F   F   F
  0.4166666269218169  0.8124999999834799  0.3605200052333331   F   F   F
  0.4166666269218169  0.5625000000092442  0.3605200052333331   F   F   F
  0.4166666269218169  0.3124999999901945  0.3605200052333331   F   F   F
  0.7499999404149307  0.8124999999834799  0.3605200052333331   F   F   F
  0.0834856023264910  0.3119727166851409  0.4540289469544542   T   T   T
  0.4166666269218169  0.0625000000159659  0.3605200052333331   F   F   F
  0.4169373580055609  0.0616366432872620  0.4553424213340292   T   T   T
  0.0834467597171180  0.8121570818672328  0.4541648898566708   T   T   T
  0.0839656962802328  0.5625088898416249  0.4539760612554760   T   T   T
  0.4159933622252637  0.5596230320885532  0.4578239693139315   T   T   T
  0.0837062150459983  0.0619006837383933  0.4542337913509525   T   T   T
  0.4154966520116924  0.3113359761054829  0.4573561368917800   T   T   T
  0.8333332538436267  0.7500000000123208  0.4070133268666680   F   F   F
  0.0833333358191695  0.4374999701794380  0.3605200052333331   F   F   F
  0.0833333358191695  0.6874999999963620  0.3605200052333331   F   F   F
  0.0833333358191695  0.9375000000154046  0.3605200052333331   F   F   F
  0.4166666269218169  0.1875000000030838  0.3605200052333331   F   F   F
  0.0833333358191695  0.8124999999834799  0.3605200052333331   F   F   F
  0.8333332538436267  0.4999999999932783  0.4070133268666680   F   F   F
  0.6928773208217572  0.0630721640753234  0.7512360228056972   T   T   T
  0.2510692665840623  0.0624696123407565  0.5472710062477092   T   T   T
  0.4139142634178873  0.8117654301152557  0.5476727176366010   T   T   T
  0.5833333134730552  0.0625000000159659  0.3605200052333331   F   F   F
  0.5833333134730552  0.3124999999901945  0.3605200052333331   F   F   F
  0.5833333134730552  0.8124999999834799  0.3605200052333331   F   F   F
  0.7495337992796254  0.0641904468463440  0.4534372594955720   T   T   T
  0.2504670325811437  0.8108298248930688  0.4552973020081807   T   T   T
  0.8333332538436267  0.2500000000190425  0.4070133268666680   F   F   F
  0.5843465713164472  0.3154412661671888  0.4535644483149034   T   T   T
  0.8333332538436267  0.0000000000000000  0.4070133268666680   F   F   F
  0.7478579978715162  0.8079142695102371  0.5456200311351436   T   T   T
  0.0833333358191695  0.1875000000030838  0.3605200052333331   F   F   F
  0.0000000000000000  0.0000000000000000  0.4070133268666680   F   F   F
  0.0000000000000000  0.2500000000190425  0.4070133268666680   F   F   F
  0.0000000000000000  0.4999999999932783  0.4070133268666680   F   F   F
  0.7482576528007263  0.5642998065775001  0.4538042668475922   T   T   T
  0.3333333432766779  0.0000000000000000  0.4070133268666680   F   F   F
  0.3333333432766779  0.4999999999932783  0.4070133268666680   F   F   F
  0.3333333432766779  0.7500000000123208  0.4070133268666680   F   F   F
  0.6666666865533486  0.0000000000000000  0.4070133268666680   F   F   F
  0.5827338704405227  0.4396577470115738  0.4562946514654266   T   T   T
  0.6666666865533486  0.2500000000190425  0.4070133268666680   F   F   F
  0.6666666865533486  0.7500000000123208  0.4070133268666680   F   F   F
  0.1666666716383389  0.0000000000000000  0.4070133268666680   F   F   F
  0.1666666716383389  0.2500000000190425  0.4070133268666680   F   F   F
  0.1666666716383389  0.4999999999932783  0.4070133268666680   F   F   F
  0.1666666716383389  0.7500000000123208  0.4070133268666680   F   F   F
  0.5000000000021103  0.0000000000000000  0.4070133268666680   F   F   F
  0.5000000000021103  0.2500000000190425  0.4070133268666680   F   F   F
  0.5000000000021103  0.7500000000123208  0.4070133268666680   F   F   F
  0.9166666865332829  0.3124999999901945  0.3605200052333331   F   F   F
  0.3333333432766779  0.2500000000190425  0.4070133268666680   F   F   F
  0.7473907073554029  0.3141824553228756  0.4546296026929652   T   T   T
  0.0000000000000000  0.7500000000123208  0.4070133268666680   F   F   F
  0.4169123413090823  0.8104563326189919  0.4549103396276242   T   T   T
  0.5833333134730552  0.5625000000092442  0.3605200052333331   F   F   F
  0.6666666865533486  0.4999999999932783  0.4070133268666680   F   F   F
  0.5827655005586251  0.6861748292472671  0.4546471829598235   T   T   T
  0.5000000000021103  0.4999999999932783  0.4070133268666680   F   F   F
  0.9157862559619780  0.1868687066018415  0.4532403567537409   T   T   T
  0.4159908237086288  0.9371704067760858  0.5460973713393644   T   T   T
  0.4985961835960328  0.2529278203995693  0.5906295314520169   T   T   T
  0.4157073023932800  0.1913639418266380  0.5465095948356825   T   T   T
  0.0856815332606695  0.6893153816525220  0.5454305486815307   T   T   T
  0.0828665152099735  0.4387209602444976  0.5448315035891409   T   T   T
  0.0837203042200832  0.1888245094764540  0.5456855263432341   T   T   T
  0.4995807676848865  0.1256880524294267  0.4994908939718254   T   T   T
  0.9996334295435483  0.4983653732477314  0.5941104095867948   T   T   T
  0.5807326459020852  0.1852114694205410  0.5500840283637123   T   T   T
  0.9996743390798447  0.7535829887484508  0.5926725542507936   T   T   T
  0.3340878244553152  0.9998581120147833  0.5919981731537423   T   T   T
  0.9997727287226967  0.9993054591933960  0.5931920294696940   T   T   T
  0.0008460392818870  0.2483997442461887  0.5922401528711009   T   T   T
  0.3332085243926044  0.4963088258803918  0.5908610210322240   T   T   T
  0.3350911088783951  0.7412035621869787  0.5903230151957108   T   T   T
  0.6635308812871377  0.2478838576746698  0.5903443744375469   T   T   T
  0.6663017585356570  0.0010593832595484  0.5917541890785146   T   T   T
  0.6654485874725975  0.7412760120591263  0.5908438759296738   T   T   T
  0.6666695411881214  0.4947431777077922  0.5912021557232738   T   T   T
  0.1674831333591472  0.9983201219702209  0.5923130385574038   T   T   T
  0.1683731077649729  0.2486836252999202  0.5931013676342274   T   T   T
  0.1706836064058816  0.7502953680262957  0.5949579039922388   T   T   T
  0.2484780183644288  0.4359879896320964  0.5488934377884319   T   T   T
  0.1655025962491402  0.5029758172429448  0.5869359355441571   T   T   T
  0.3346604638478437  0.2545162044047088  0.5927006665971148   T   T   T
  0.5000052363585107  0.0001079218163855  0.5911620953496506   T   T   T
  0.8326761147839834  0.8742044657312432  0.4986355859919209   T   T   T
  0.7481115860312664  0.9380290264548504  0.6409830148629219   T   T   T
  0.8320929836451483  0.0021059815084913  0.5923033377589196   T   T   T
  0.7488382778512438  0.1837089262560207  0.5511472878408158   T   T   T
  0.4228928708614259  0.6878090608362890  0.5468838456865415   T   T   T
  0.4231693337247457  0.4437057743348368  0.5457656938433592   T   T   T
  0.7519642546271124  0.4353255344999762  0.5488816650044473   T   T   T
  0.5826503393576252  0.3111743453024141  0.5448874341991691   T   T   T
  0.2530422474542842  0.8126070776745805  0.5505658412346269   T   T   T
  0.5831166014609859  0.0621348062354770  0.5455279228092321   T   T   T
  0.5825986681490571  0.9372817715123256  0.4544348642370880   T   T   T
  0.5857770569504334  0.8142128511100177  0.5503869520806086   T   T   T
  0.7478688151390790  0.3116353966728526  0.5479672675064311   T   T   T
  0.5811217489311330  0.5600457444237960  0.5488392307299383   T   T   T
  0.2525825060438878  0.5591076521779138  0.5437145313323274   T   T   T
  0.4160266874696073  0.3194853826468722  0.5524647890510230   T   T   T
  0.5766696632193499  0.4358555002880011  0.5521050857843692   T   T   T
  0.4166184698642045  0.0653506626311382  0.5473348230203967   T   T   T
  0.0849853495560114  0.8127822716493476  0.5473242137092140   T   T   T
  0.0808976389121688  0.5644477178837860  0.5464195441066334   T   T   T
  0.0857202881834455  0.3133280368402107  0.5469811099270441   T   T   T
  0.5001382857133985  0.7570354404021328  0.5926290957968555   T   T   T
  0.0824271748850664  0.0631409296104100  0.5475600882402246   T   T   T
  0.9142942504372102  0.6887257896820094  0.5456908256420685   T   T   T
  0.5839392308685013  0.9376104324200711  0.5462846460363947   T   T   T
  0.9164296312791520  0.1888568700759533  0.5455474660281107   T   T   T
  0.9154794958017491  0.4373826917912501  0.5457298234598891   T   T   T
  0.5791534355122617  0.6860616172679244  0.5475914319258826   T   T   T
  0.2515157298651727  0.9372733015131625  0.5452410755039173   T   T   T
  0.4974384064610336  0.5043775192222592  0.6089432268317327   T   T   T
  0.9180295653570536  0.5637437717710572  0.5470469779118871   T   T   T
  0.4199342964454616  0.5649432241346135  0.5553423981264891   T   T   T
  0.9155411235091461  0.8127144865790016  0.5468207998457204   T   T   T
  0.0836892686748320  0.9387802072050750  0.5459226332358250   T   T   T
  0.2488897244114281  0.6833210138523985  0.5517786166897626   T   T   T
  0.7492899333872624  0.9338632356357146  0.5477632877962177   T   T   T
  0.7516934906935991  0.6804770576697189  0.5531876329412179   T   T   T
  0.9156456788804525  0.9385421049342616  0.5464414544637867   T   T   T
  0.4178780222914517  0.0651833546099573  0.6400766573759219   T   T   T
  0.9161039173368162  0.5622301004648378  0.4540569135823658   T   T   T
  0.4122946732086660  0.8128758541463437  0.6395862776446900   T   T   T
  0.9155333835020056  0.0629465948501551  0.6413467403931281   T   T   T
  0.9140393625536287  0.5627682734973474  0.6407525016706138   T   T   T
  0.9153124668237668  0.3118558831619175  0.6397034021840826   T   T   T
  0.9132117108318324  0.8134181371958856  0.6419492076480402   T   T   T
  0.5834318476704103  0.0667335657753797  0.6391407628628054   T   T   T
  0.5833638783374042  0.3209509325172921  0.6333568606827494   T   T   T
  0.5907190983537820  0.5661293812387157  0.6387348666473753   T   T   T
  0.2474618224703828  0.5736346418955932  0.6285162062463021   T   T   T
  0.7536379688782309  0.6919392029440796  0.6571112017058008   T   T   T
  0.2619742284918163  0.7997356550412227  0.6462794562312315   T   T   T
  0.2510452190888707  0.0593576025407705  0.6423041287076530   T   T   T
  0.9166666865332829  0.5625000000092442  0.3605200052333331   F   F   F
  0.4995418368242447  0.3742562163292276  0.4997164044916815   T   T   T
  0.5002194305990451  0.6211234234394635  0.5000038988995229   T   T   T
  0.8324792536179135  0.6231021783181905  0.5001916550900560   T   T   T
  0.2519298669820426  0.1881160087371058  0.5473588229294868   T   T   T
  0.8324481848636537  0.3730643923908491  0.4997450659012050   T   T   T
  0.8329176478872004  0.1245246941084956  0.5002352239399717   T   T   T
  0.1666384513881417  0.3761070458995993  0.4977657088701874   T   T   T
  0.1675607422222051  0.6242472071353441  0.5001909372640346   T   T   T
  0.5813995260744251  0.4391840347595837  0.6460992767081094   T   T   T
  0.5768670157771182  0.6865154360616155  0.6397470937343426   T   T   T
  0.9157908473501429  0.1861369890515281  0.6399317529693390   T   T   T
  0.2490965356824971  0.3162322891555399  0.6412303925321758   T   T   T
  0.9157646602377729  0.4369541897722172  0.4536277922494809   T   T   T
  0.1670702696628110  0.1244693649829395  0.4994874972151233   T   T   T
  0.7484347214104820  0.0602236844992275  0.5448240000847534   T   T   T
  0.1677065185767385  0.8733167917548482  0.4998629535513361   T   T   T
  0.4270809286621202  0.3047522149503477  0.6551835028676204   T   T   T
  0.5909506395906959  0.8106216697703543  0.6459593846089544   T   T   T
  0.4203264075670447  0.6761064527796007  0.6336764455427393   T   T   T
  0.4999888479906012  0.8734533826589913  0.5009198899643692   T   T   T
  0.7552960797383336  0.4342105425838793  0.6378637341945376   T   T   T
  0.7531845972357105  0.5684851943912330  0.6356075855430963   T   T   T
  0.3971813689263625  0.5505377887339251  0.6519329662035845   T   T   T
  0.4176748844774864  0.9349372361803966  0.6397678755439634   T   T   T
  0.7411099908212755  0.8098971110210719  0.6399858121410984   T   T   T
  0.7464683826744543  0.3128021549401200  0.6407358358262111   T   T   T
  0.7472066197746714  0.0682634134340764  0.6399134381345157   T   T   T
  0.0836636263016432  0.3113561265477914  0.6405007565943821   T   T   T
  0.6664504284996440  0.8743197029199558  0.4988021847332615   T   T   T
  0.0866169404539513  0.5627015159654958  0.6398657078348418   T   T   T
  0.0874041140366455  0.4365420938890164  0.6397027528197420   T   T   T
  0.0841267546051993  0.1854645141762641  0.6414376387843922   T   T   T
  0.4181268358910891  0.1874701884950870  0.6397776566569872   T   T   T
  0.4150546401015590  0.4187579582707526  0.6300517268459510   T   T   T
  0.0842282948888524  0.9357000700893113  0.6408519858605430   T   T   T
  0.0831375092984916  0.6870561006827894  0.6388928072007019   T   T   T
  0.0842567879945941  0.0604979271453530  0.6421368555461794   T   T   T
  0.8333622602855566  0.5031395060271582  0.5888177604640421   T   T   T
  0.9123843706647011  0.4361169789954817  0.6399621177384603   T   T   T
  0.8303914135832241  0.7508243108351597  0.5927171309433553   T   T   T
  0.8314755601203980  0.2493845823394751  0.5911437770733337   T   T   T
  0.7462150801643735  0.1946410316064543  0.6466952569293571   T   T   T
  0.9166666865332829  0.8124999999834799  0.3605200052333331   F   F   F
  0.5829677516695350  0.9364682678403345  0.6395725286059323   T   T   T
  0.0843675471546451  0.8126358207559879  0.6424168075434086   T   T   T
  0.5795839985235289  0.1923761330525427  0.6452429615487526   T   T   T
  0.2550090723356226  0.6773439486631850  0.6628313331636009   T   T   T
  0.2403552069247561  0.4420003955816270  0.6412611201610199   T   T   T
  0.9143887455289796  0.9375077970543585  0.6415019665327341   T   T   T
  0.9163227148219515  0.6876557071840964  0.6390082004788803   T   T   T
  0.2520457647889424  0.9302048134337908  0.6374016803375196   T   T   T
  0.2535401821550081  0.1864475493016959  0.6412716375825728   T   T   T
  0.0006465715996340  0.1229955044909727  0.6203555766224597   T   T   T
  0.1666666716383389  0.3750000000061604  0.4070133268666680   F   F   F
  0.6654298961778436  0.7518786626512961  0.5022462570561382   T   T   T
  0.5011010230919657  0.7528705378990267  0.5038679272548012   T   T   T
  0.6661405181271197 -0.0000276130557895  0.5055160709065676   T   T   T
  0.1643728444464611  0.7515102135742747  0.5034579570950689   T   T   T
  0.8333332538436267  0.6249999999803961  0.4070133268666680   F   F   F
  0.6686487522899829  0.4999001720789883  0.5006140189247114   T   T   T
  0.3311806981458151  0.4992428322023632  0.5008824076243575   T   T   T
  0.3300555221421541  0.2480381353203540  0.5028328950125412   T   T   T
  0.3339548283219594  0.7511880459420550  0.5015651910420650   T   T   T
  0.6669378775659632  0.2482457794661775  0.5026371267009498   T   T   T
  0.5011828029770504  0.4998556430239700  0.5002376897756623   T   T   T
  0.9995900524282054  0.4999557629367575  0.5067174312155400   T   T   T
  0.8361177379945124  0.4999985436074424  0.5027743877463891   T   T   T
  0.8356064350920339  0.2486369114632803  0.5028912769596592   T   T   T
  0.6666666865533486  0.3750000000061604  0.4070133268666680   F   F   F
  0.1659688905644180  0.0010878140359341  0.5065439819654364   T   T   T
  0.0000000000000000  0.8749999404036828  0.4070133268666680   F   F   F
  0.5010341971333078  0.2479680060184890  0.5021115057059595   T   T   T
  0.9998800549795324  0.7511166372028997  0.5066963012789018   T   T   T
  0.0008092611911047  0.2497550618874013  0.5060915677560891   T   T   T
  0.0000122416423448 -0.0000040947979325  0.5067503269149016   T   T   T
  0.6666666865533486  0.6249999999803961  0.4070133268666680   F   F   F
  0.8333332538436267  0.8749999404036828  0.4070133268666680   F   F   F
  0.3333333432766779  0.6249999999803961  0.4070133268666680   F   F   F
  0.3333333432766779  0.1249999999871179  0.4070133268666680   F   F   F
  0.3333333432766779  0.3750000000061604  0.4070133268666680   F   F   F
  0.8341354758766192  0.0001047248800104  0.5065441039228682   T   T   T
  0.3333333432766779  0.8749999404036828  0.4070133268666680   F   F   F
  0.6666666865533486  0.1249999999871179  0.4070133268666680   F   F   F
  0.0000000000000000  0.6249999999803961  0.4070133268666680   F   F   F
  0.1662699793575887  0.2481997799088837  0.5062154244799908   T   T   T
  0.3331600140725683  0.0010555139474656  0.5057862912353839   T   T   T
  0.5003330625164069  0.9993409652260281  0.5056094935240367   T   T   T
  0.5013691925551126  0.8772273290047110  0.6098769721259069   T   T   T
  0.3259065109343132  0.3735050609349541  0.5927157850414094   T   T   T
  0.0000000000000000  0.3750000000061604  0.4070133268666680   F   F   F
  0.3340676487324768  0.6246752629123307  0.5950238107095247   T   T   T
  0.5000000000021103  0.8749999404036828  0.4070133268666680   F   F   F
  0.8333332538436267  0.3750000000061604  0.4070133268666680   F   F   F
  0.1666666716383389  0.1249999999871179  0.4070133268666680   F   F   F
  0.6655697117518102  0.1252446201823945  0.6071959513982387   T   T   T
  0.5000000000021103  0.6249999999803961  0.4070133268666680   F   F   F
  0.8395417679162090  0.6270242575777297  0.6040133574662228   T   T   T
  0.3316840657164438  0.1197215158643989  0.6132739205938557   T   T   T
  0.9989236013536055  0.8749701615020913  0.6234932197910595   T   T   T
  0.1634602164852827  0.4998311300320507  0.5018629775334900   T   T   T
  0.5000000000021103  0.1249999999871179  0.4070133268666680   F   F   F
  0.8316355519558016  0.8771035927069841  0.6185871705787678   T   T   T
  0.8375970655269809  0.3724455986545388  0.6037241953960202   T   T   T
  0.8361155572853913  0.7517315222883288  0.5026452588143902   T   T   T
  0.1666666716383389  0.8749999404036828  0.4070133268666680   F   F   F
  0.8333332538436267  0.1249999999871179  0.4070133268666680   F   F   F
  0.0000000000000000  0.1249999999871179  0.4070133268666680   F   F   F
  0.5036470744611852  0.6248960742730626  0.5941539136539102   T   T   T
  0.6709129688063884  0.3726508157677862  0.5932696909569162   T   T   T
  0.5000000000021103  0.3750000000061604  0.4070133268666680   F   F   F
  0.6666666865533486  0.8749999404036828  0.4070133268666680   F   F   F
  0.3346884710491300  0.8787698078959978  0.6029139701565249   T   T   T
  0.1596004215470177  0.6275097834197648  0.6014635526653065   T   T   T
  0.1662437595409738  0.8736666103484317  0.6180409243764307   T   T   T
  0.5015083684938086  0.3714712932399001  0.5947077031632348   T   T   T
  0.1666666716383389  0.6249999999803961  0.4070133268666680   F   F   F
  0.1678760476783968  0.1225952212355938  0.6217125360459814   T   T   T
  0.5006213119563275  0.1224803997973704  0.6068139859250959   T   T   T
  0.9997955372456832  0.6234604610074012  0.6240694743479700   T   T   T
  0.0001462280291918  0.3754167882077096  0.6244131497307638   T   T   T
  0.8341237521833200  0.1241731907434785  0.6139121834255845   T   T   T
  0.6657048700926419  0.8813757019061397  0.6070518766393589   T   T   T
  0.1632136927748353  0.3710540918215825  0.6075126052513059   T   T   T
  0.6666214666506756  0.6260212845840591  0.5933469316352582   T   T   T
  0.0835795794170983  0.2475856972028789  0.6037450824992987   T   T   T
  0.7496518414525564  0.0023449553660110  0.6049371506520452   T   T   T
  0.5829626880667130  0.0014790296897408  0.6042570479265358   T   T   T
  0.9165331971518594  0.0001293114667305  0.6038952912049865   T   T   T
  0.5849622602552137  0.7500081419802009  0.5997525093934292   T   T   T
  0.5903057947623017  0.5015121952448283  0.5934698615153966   T   T   T
  0.2423073088629979  0.4978895991015307  0.5937839444235985   T   T   T
  0.5842635112981216  0.2478610274002264  0.5969807608047107   T   T   T
  0.2497562150041349  0.9976760504590589  0.6042032620712380   T   T   T
  0.7538963978358343  0.2486842621800940  0.5934144154738721   T   T   T
  0.2491319896334559  0.2456267492688484  0.6036761024803708   T   T   T
  0.4174509847730268  0.0000814530113158  0.6046649655106953   T   T   T
  0.2498081058501109  0.7530318657263454  0.5918665816486812   T   T   T
  0.0815958112171886  0.4995993338503849  0.6029839470801381   T   T   T