Au O  Sr Ti H                           
   1.00000000000000     
    23.6707801818999997    0.0000000000000000    0.0000000000000000
     0.0000000000000000   22.3170261383000010    0.0000000000000000
     0.0000000000000000    0.0000000000000000   30.0000000000000000
   Au   O    Sr   Ti   H 
    50   264    72    72     1
Selective dynamics
Direct
  0.7173967417577387  0.5261755736141822  0.7538708991620879   F   F   F
  0.6236705066890238  0.5686724211724297  0.7040475906599610   F   F   F
  0.7187245190566713  0.2594649638961428  0.6917619389261702   F   F   F
  0.2936030172378352  0.7462685186965388  0.6975322598170308   F   F   F
  0.5118195544837860  0.6034912855899250  0.7767489242639485   F   F   F
  0.5770660495096749  0.7243321217484606  0.7927660100540308   F   F   F
  0.5498595178088195  0.3844816276559087  0.8294352570780461   F   F   F
  0.2407283250023937  0.4686640479263815  0.7090945632561514   F   F   F
  0.2842409310837724  0.6615466100488945  0.7650746359402376   F   F   F
  0.6026325158098800  0.2894814735670579  0.7874429014959858   F   F   F
  0.5144414851318260  0.4839282966559892  0.6780197254140532   F   F   F
  0.5624989830280782  0.4861641034311930  0.7624593153250601   F   F   F
  0.4633975025614276  0.6952847132667230  0.8301888957107124   F   F   F
  0.7649834520539756  0.4322685362696745  0.7056861118390998   F   F   F
  0.7334091572869426  0.6157077293034803  0.6938848617255644   F   F   F
  0.6349121140985901  0.5839807563649728  0.8000788789499182   F   F   F
  0.5950150566555763  0.7844604212524473  0.7128634958666069   F   F   F
  0.4847300592679389  0.7790301735793577  0.7568651972768947   F   F   F
  0.3491298733985957  0.5004229809579428  0.6974442951640398   F   F   F
  0.4307154031494136  0.3722200781050589  0.8153609086696889   F   F   F
  0.3726508646070457  0.2987939309290581  0.7553213194115997   F   F   F
  0.4415812630982572  0.2284245035650301  0.6969100847560981   F   F   F
  0.3912724859229115  0.8172784379961087  0.7064407739640401   F   F   F
  0.2898390049788091  0.5371162411514021  0.7775550524503032   F   F   F
  0.5563639876462929  0.2096943457110356  0.7116287675972757   F   F   F
  0.4526607351388208  0.5799783055353913  0.7024595074002349   F   F   F
  0.6140907719347481  0.3206575494921751  0.6973262855188551   F   F   F
  0.7055852978777040  0.7574561866395797  0.6883194728267981   F   F   F
  0.6559490231629610  0.4413014991786142  0.8126414212967816   F   F   F
  0.3682858898562102  0.6187757820763267  0.8202111686341951   F   F   F
  0.5700900915517693  0.5099800679527533  0.8567730380361809   F   F   F
  0.6649029947740601  0.1942720393254120  0.7523707709049603   F   F   F
  0.4716686296191313  0.4504243670648478  0.8795039229174080   F   F   F
  0.5161759875680474  0.3773595732626163  0.7340422000562938   F   F   F
  0.2834325157116311  0.3379297410055244  0.7026414278321198   F   F   F
  0.6694825183430382  0.6811679789690146  0.7488267296821505   F   F   F
  0.3976941648302983  0.3820094626503661  0.6900641852613489   F   F   F
  0.3758348724138116  0.4927536131407777  0.8331749194792692   F   F   F
  0.4626253580053330  0.5733473530636033  0.8640066686448407   F   F   F
  0.3264403393003690  0.4141864573728498  0.7692233081757962   F   F   F
  0.4874111393734211  0.2685832647736035  0.7752308526481215   F   F   F
  0.4227054173589977  0.6979577378183990  0.6993279088424913   F   F   F
  0.7001407649803468  0.3471055401374059  0.7560782999468856   F   F   F
  0.7739938434968536  0.4300650154722021  0.7961730457248564   F   F   F
  0.2567356681543416  0.5925987507888522  0.6946094646307728   F   F   F
  0.6479224349495567  0.4428715365304470  0.6967655137689235   F   F   F
  0.5645111376564174  0.6394316097931565  0.8610178870329293   F   F   F
  0.5435629847265986  0.6654669535839730  0.7014144469824828   F   F   F
  0.4429197783320333  0.4746557566256726  0.7559519369832302   F   F   F
  0.3736909980777554  0.7385460059667537  0.7781064097189940   F   F   F
  0.2495638004018446  0.1884534266880564  0.4541233267345817   F   F   F
  0.7494475465839159  0.9384409186618043  0.4553295778967197   F   F   F
  0.7491058479872734  0.6888129984017297  0.4572513393725472   F   F   F
  0.7490627072441853  0.4386650645078660  0.4558137427212330   F   F   F
  0.7500129335388195  0.1896804079861738  0.4554930589765647   F   F   F
  0.4170928444540181  0.9358242998952946  0.4540476776004780   F   F   F
  0.4170656452773969  0.6846887375778863  0.4546836250696913   F   F   F
  0.4164576921339886  0.4354107071751727  0.4538157106792724   F   F   F
  0.0844267430274499  0.6870764172351755  0.4531652563734312   F   F   F
  0.0837537228826477  0.9360142449252464  0.4529973698992293   F   F   F
  0.0825677959835076  0.4366169887866604  0.4527385663762900   F   F   F
  0.0839849992762822  0.1863087206357577  0.4527046599009736   F   F   F
  0.9166951095320428  0.8121387930900710  0.4540578585913693   F   F   F
  0.9161705732063226  0.5624387759507314  0.4538354491768786   F   F   F
  0.2511693253537075  0.4392589401382949  0.4549044340289470   F   F   F
  0.9161508690119575  0.0624369224762020  0.4538056032517233   F   F   F
  0.9162882852998280  0.3122447185289516  0.4536979919002135   F   F   F
  0.4170771249319287  0.1871178011981982  0.4535398054541560   F   F   F
  0.2522390288808509  0.6875129352228342  0.4559882888472302   F   F   F
  0.9166389434467064  0.9371794288703867  0.4536093585148322   F   F   F
  0.5827382094785563  0.1894065087235788  0.4551747012595939   F   F   F
  0.0002559945975733  0.1248929818120814  0.4984793417743205   F   F   F
  0.5835814021872281  0.8102060111630180  0.4554999776855055   F   F   F
  0.9997626310139083  0.3731888183326220  0.4985593577485190   F   F   F
  0.9998586770483939  0.6270849204658830  0.4976862230652728   F   F   F
  0.3333128363573863  0.1252420290627754  0.4981315178142154   F   F   F
  0.0001321040547779  0.8751619880421018  0.4997894775012668   F   F   F
  0.3333158593063601  0.8739427516679754  0.4995820504234416   F   F   F
  0.6657637019756137  0.1256359702573349  0.4990278844725680   F   F   F
  0.3356955588525778  0.6255061519523508  0.5039654828059810   F   F   F
  0.3343614094861920  0.3784837942660033  0.5030049860757586   F   F   F
  0.6655201190577813  0.3784707937978879  0.5033109339603001   F   F   F
  0.9153711050117934  0.6867904513971936  0.4530572194847622   F   F   F
  0.9162245576927148  0.4372391182409174  0.4536715723377540   F   F   F
  0.9159010681993678  0.1868507517843980  0.4531976155461024   F   F   F
  0.5830534995470984  0.9364026021156562  0.4539025722553802   F   F   F
  0.5827840377448084  0.6860409060606756  0.4545246155953109   F   F   F
  0.5827488387265589  0.4392206713662361  0.4560221998035132   F   F   F
  0.2500581708597593  0.9360262440368672  0.4540620034609759   F   F   F
  0.6654447709735436  0.6260921311030714  0.5029492938350941   F   F   F
  0.5845965463972931  0.5626170629864546  0.4549635741593647   F   F   F
  0.5827861995309078  0.0626493376603037  0.4546330908908729   F   F   F
  0.9166666865332829  0.6874999999963620  0.3605200052333331   F   F   F
  0.9166666865332829  0.4374999701794380  0.3605200052333331   F   F   F
  0.9166666865332829  0.1875000000030838  0.3605200052333331   F   F   F
  0.5833333134730552  0.9375000000154046  0.3605200052333331   F   F   F
  0.5833333134730552  0.6874999999963620  0.3605200052333331   F   F   F
  0.5833333134730552  0.4374999701794380  0.3605200052333331   F   F   F
  0.5833333134730552  0.1875000000030838  0.3605200052333331   F   F   F
  0.2499999999799343  0.9375000000154046  0.3605200052333331   F   F   F
  0.9166666865332829  0.9375000000154046  0.3605200052333331   F   F   F
  0.2499999999799343  0.6874999999963620  0.3605200052333331   F   F   F
  0.2499999999799343  0.1875000000030838  0.3605200052333331   F   F   F
  0.7499999404149307  0.9375000000154046  0.3605200052333331   F   F   F
  0.7499999404149307  0.6874999999963620  0.3605200052333331   F   F   F
  0.7499999404149307  0.4374999701794380  0.3605200052333331   F   F   F
  0.7499999404149307  0.1875000000030838  0.3605200052333331   F   F   F
  0.4166666269218169  0.9375000000154046  0.3605200052333331   F   F   F
  0.4166666269218169  0.6874999999963620  0.3605200052333331   F   F   F
  0.4166666269218169  0.4374999701794380  0.3605200052333331   F   F   F
  0.2499999999799343  0.4374999701794380  0.3605200052333331   F   F   F
  0.0833333358191695  0.0625000000159659  0.3605200052333331   F   F   F
  0.0833333358191695  0.3124999999901945  0.3605200052333331   F   F   F
  0.0833333358191695  0.5625000000092442  0.3605200052333331   F   F   F
  0.9166666865332829  0.3124999999901945  0.3605200052333331   F   F   F
  0.9166666865332829  0.0625000000159659  0.3605200052333331   F   F   F
  0.5833333134730552  0.8124999999834799  0.3605200052333331   F   F   F
  0.5833333134730552  0.5625000000092442  0.3605200052333331   F   F   F
  0.5833333134730552  0.3124999999901945  0.3605200052333331   F   F   F
  0.5833333134730552  0.0625000000159659  0.3605200052333331   F   F   F
  0.2499999999799343  0.8124999999834799  0.3605200052333331   F   F   F
  0.2499999999799343  0.5625000000092442  0.3605200052333331   F   F   F
  0.2499999999799343  0.3124999999901945  0.3605200052333331   F   F   F
  0.2499999999799343  0.0625000000159659  0.3605200052333331   F   F   F
  0.7499999404149307  0.8124999999834799  0.3605200052333331   F   F   F
  0.7499999404149307  0.5625000000092442  0.3605200052333331   F   F   F
  0.7499999404149307  0.3124999999901945  0.3605200052333331   F   F   F
  0.7499999404149307  0.0625000000159659  0.3605200052333331   F   F   F
  0.4166666269218169  0.8124999999834799  0.3605200052333331   F   F   F
  0.4166666269218169  0.5625000000092442  0.3605200052333331   F   F   F
  0.4166666269218169  0.3124999999901945  0.3605200052333331   F   F   F
  0.4166666269218169  0.0625000000159659  0.3605200052333331   F   F   F
  0.0833333358191695  0.8124999999834799  0.3605200052333331   F   F   F
  0.4166666269218169  0.1875000000030838  0.3605200052333331   F   F   F
  0.0833333358191695  0.9375000000154046  0.3605200052333331   F   F   F
  0.0833333358191695  0.6874999999963620  0.3605200052333331   F   F   F
  0.0833333358191695  0.4374999701794380  0.3605200052333331   F   F   F
  0.8333332538436267  0.4999999999932783  0.4070133268666680   F   F   F
  0.8333332538436267  0.7500000000123208  0.4070133268666680   F   F   F
  0.0834120795636011  0.0607001701861236  0.4550568592268220   F   F   F
  0.0834301140461946  0.3119204210008064  0.4541069583841733   F   F   F
  0.0839273107986003  0.5625069187897509  0.4539029933090930   F   F   F
  0.0833713209309863  0.8124025095866614  0.4543432690143092   F   F   F
  0.4169730257386774  0.0615651488535747  0.4553262458270524   F   F   F
  0.4154933272875709  0.3113101217244605  0.4573625648744652   F   F   F
  0.4160588004714398  0.5595135599188268  0.4578672381254307   F   F   F
  0.4163147011866002  0.8099114705988200  0.4552249196312559   F   F   F
  0.7495302625982987  0.0640511813882583  0.4533695727034228   F   F   F
  0.7473359734171225  0.3140919158057329  0.4545899019941473   F   F   F
  0.7481690524214315  0.5644716061487713  0.4535997372220564   F   F   F
  0.7489490617304284  0.8133486016248668  0.4529534859113369   F   F   F
  0.2496310375683422  0.0619154458813682  0.4542662540393820   F   F   F
  0.9132956669671159  0.3127167730736460  0.5465699078786059   F   F   F
  0.2522773482735943  0.3141288288755462  0.4541625527159496   F   F   F
  0.2519233061983073  0.5645867139728580  0.4537761161176235   F   F   F
  0.2506504827916274  0.8107363970693413  0.4554330230142583   F   F   F
  0.8333332538436267  0.2500000000190425  0.4070133268666680   F   F   F
  0.5841862171722028  0.3147978711493451  0.4540260419552382   F   F   F
  0.8333332538436267  0.0000000000000000  0.4070133268666680   F   F   F
  0.5000000000021103  0.4999999999932783  0.4070133268666680   F   F   F
  0.0833333358191695  0.1875000000030838  0.3605200052333331   F   F   F
  0.0000000000000000  0.0000000000000000  0.4070133268666680   F   F   F
  0.0000000000000000  0.2500000000190425  0.4070133268666680   F   F   F
  0.0000000000000000  0.4999999999932783  0.4070133268666680   F   F   F
  0.0000000000000000  0.7500000000123208  0.4070133268666680   F   F   F
  0.3333333432766779  0.0000000000000000  0.4070133268666680   F   F   F
  0.3333333432766779  0.2500000000190425  0.4070133268666680   F   F   F
  0.3333333432766779  0.4999999999932783  0.4070133268666680   F   F   F
  0.3333333432766779  0.7500000000123208  0.4070133268666680   F   F   F
  0.6666666865533486  0.0000000000000000  0.4070133268666680   F   F   F
  0.6666666865533486  0.2500000000190425  0.4070133268666680   F   F   F
  0.6666666865533486  0.4999999999932783  0.4070133268666680   F   F   F
  0.6666666865533486  0.7500000000123208  0.4070133268666680   F   F   F
  0.1666666716383389  0.0000000000000000  0.4070133268666680   F   F   F
  0.1666666716383389  0.2500000000190425  0.4070133268666680   F   F   F
  0.1666666716383389  0.4999999999932783  0.4070133268666680   F   F   F
  0.1666666716383389  0.7500000000123208  0.4070133268666680   F   F   F
  0.5000000000021103  0.0000000000000000  0.4070133268666680   F   F   F
  0.5000000000021103  0.2500000000190425  0.4070133268666680   F   F   F
  0.5000000000021103  0.7500000000123208  0.4070133268666680   F   F   F
  0.1667138653881395  0.1247877457954942  0.4999196175007654   F   F   F
  0.9180723516235503  0.0627512588339343  0.5465128838055620   F   F   F
  0.1677178885761776  0.8730818808078382  0.4997262142857153   F   F   F
  0.2517569733434897  0.1882774838796948  0.5470828995592782   F   F   F
  0.7499662033472134  0.9343174189963577  0.5476118389009841   F   F   F
  0.7518740228956986  0.6805373117224178  0.5531051299758332   F   F   F
  0.7526658952985983  0.4346572425139357  0.5493560490422524   F   F   F
  0.4231490339742692  0.4438586401128859  0.5454977997034547   F   F   F
  0.4232358393264946  0.6880724143045711  0.5466093682307758   F   F   F
  0.7471202494221671  0.1839849896606012  0.5503808732513633   F   F   F
  0.4158977935732580  0.9371490182232236  0.5461055136748669   F   F   F
  0.0845594410779711  0.9398768040854719  0.5449233551951949   F   F   F
  0.4154079460294398  0.1913290406033283  0.5463901767525599   F   F   F
  0.0866066539102803  0.6897297899834172  0.5451022742457141   F   F   F
  0.0823273406760094  0.4393796784074411  0.5447941674417507   F   F   F
  0.0824929523582796  0.1907239650886723  0.5446882871060481   F   F   F
  0.4993583735258724  0.1255380983734966  0.4996562911591482   F   F   F
  0.9993673830887531  0.5014813124990880  0.5944530802740147   F   F   F
  0.9994086747101889  0.7532691093252666  0.5922432244225604   F   F   F
  0.3345942193912350  0.2543822513332543  0.5927938009095115   F   F   F
  0.3332693055400142  0.0000551877955175  0.5921226963598158   F   F   F
  0.0009339606035041  0.9969289128341998  0.5912368644219299   F   F   F
  0.0001301514509251  0.2527657474900806  0.5915791285099061   F   F   F
  0.3333363659166153  0.4965267943609959  0.5907058683028410   F   F   F
  0.3355710546118118  0.7402617699995204  0.5904926762204852   F   F   F
  0.6633373418086990  0.2479959992018621  0.5906282665776672   F   F   F
  0.6658957355084141  0.0003357328431619  0.5919436618661749   F   F   F
  0.6659338578713729  0.7420114843526804  0.5899918170172427   F   F   F
  0.6670094824929294  0.4939298718418073  0.5910859500444872   F   F   F
  0.1659556572443606  0.9999392646993783  0.5920890476322285   F   F   F
  0.1681764725828430  0.2493792957460599  0.5929447225424198   F   F   F
  0.1708982178831988  0.7495441729129837  0.5951961982194760   F   F   F
  0.2485091929318628  0.4359646181042649  0.5489924857291300   F   F   F
  0.1655177381143815  0.5026059048358107  0.5874886727654598   F   F   F
  0.2490153398218524  0.6832366277096185  0.5518107488270587   F   F   F
  0.5809500292098519  0.1860226608573825  0.5493451063391959   F   F   F
  0.9154867318340223  0.8129713756067076  0.5468781379279264   F   F   F
  0.9167319534439926  0.5635504369380229  0.5465427907875977   F   F   F
  0.5813428798976688  0.5603070443936389  0.5491904669840437   F   F   F
  0.5858953854938704  0.8149829870919092  0.5505641497901195   F   F   F
  0.5827658370260096  0.3117764924434425  0.5454621135468756   F   F   F
  0.5825429249779575  0.0633135207173012  0.5469524462372419   F   F   F
  0.2529915015234252  0.8128724576717090  0.5513613202104679   F   F   F
  0.2522771779132285  0.5590016968363187  0.5438285372531126   F   F   F
  0.2493707203357189  0.3137652801641622  0.5460018867780860   F   F   F
  0.2506617865119480  0.0626812930106837  0.5472543314480305   F   F   F
  0.7484730592987461  0.8083142593982089  0.5456668563961387   F   F   F
  0.7464475838625333  0.5579332822123320  0.5444268485348829   F   F   F
  0.4143880488299772  0.8117411632422247  0.5479438212763341   F   F   F
  0.7483266871290013  0.0598161537698871  0.5446522757290211   F   F   F
  0.7487526758906995  0.3113630487719377  0.5478420262719652   F   F   F
  0.4159768457513806  0.3196087306676603  0.5525862350944450   F   F   F
  0.4203871025904036  0.5650757709490293  0.5553556264882147   F   F   F
  0.4163267539124291  0.0652271328040612  0.5472345454507916   F   F   F
  0.0851814975953999  0.8134617884126172  0.5476893922487491   F   F   F
  0.0826580032100708  0.5643728809716109  0.5463524674654252   F   F   F
  0.0866649495755851  0.3144441469774506  0.5472467544329049   F   F   F
  0.0824974355978867  0.0667581706542109  0.5503771119503824   F   F   F
  0.9144033598647354  0.9383528272534249  0.5461151672103099   F   F   F
  0.9132160541578926  0.6893445147935893  0.5449824707926467   F   F   F
  0.5832014028840291  0.9387301983205205  0.5456260952542280   F   F   F
  0.9181118717624912  0.1885327157534391  0.5453297739222407   F   F   F
  0.9158377244409408  0.4375273773990997  0.5458328519725697   F   F   F
  0.5765918717316723  0.4362086649178920  0.5517005080600299   F   F   F
  0.5795462853408822  0.6864848490409585  0.5471368907386989   F   F   F
  0.2508349488619928  0.9376202492685266  0.5450556258700843   F   F   F
  0.4976500810513045  0.5044971992715901  0.6089894150851549   F   F   F
  0.4986107278508953  0.2527946424264016  0.5902606448611749   F   F   F
  0.4993265447436599  0.0000026368301249  0.5913109486459902   F   F   F
  0.7539359205076366  0.6933929622100692  0.6573460467056194   F   F   F
  0.7487350446954224  0.9366635946703070  0.6397932251582219   F   F   F
  0.2523847494958602  0.1858724852049036  0.6406951346471885   F   F   F
  0.7454540016169702  0.1942961255243816  0.6468828188376179   F   F   F
  0.7555730155366973  0.4365132277532098  0.6391188479270298   F   F   F
  0.4167059710134140  0.9352312707757306  0.6397633015680881   F   F   F
  0.4213878489246454  0.6761741453287300  0.6335671198861732   F   F   F
  0.5910525684653649  0.8101298182766357  0.6460712364136114   F   F   F
  0.9195727402608114  0.0632654547516722  0.6400751249507621   F   F   F
  0.9121898717998747  0.5616678759420211  0.6424722734644774   F   F   F
  0.9132107861959184  0.3118227921941283  0.6396695360256999   F   F   F
  0.9138499145200214  0.8129510081630684  0.6415379845799905   F   F   F
  0.5821563848777060  0.0655258217584773  0.6398508725290952   F   F   F
  0.5829503981533293  0.3201197049433659  0.6340120991414082   F   F   F
  0.5917454028999387  0.5648481527123721  0.6394145438725687   F   F   F
  0.2476261473841745  0.5737551525314757  0.6287117399584474   F   F   F
  0.2621899095158753  0.7988655931117279  0.6466529414948852   F   F   F
  0.2491577648790368  0.3160761129662149  0.6416450828090916   F   F   F
  0.2488412203995196  0.0595835063887336  0.6419944525493051   F   F   F
  0.9166666865332829  0.5625000000092442  0.3605200052333331   F   F   F
  0.4995080813322517  0.3741752257916247  0.4997390945311082   F   F   F
  0.4998995434593354  0.8733138525921191  0.5008106037348767   F   F   F
  0.5003983519968358  0.6211140163939817  0.4999944318674423   F   F   F
  0.8323200272463325  0.6230429167312650  0.4999613820915059   F   F   F
  0.8325449248744690  0.8738557209659632  0.4981249180613148   F   F   F
  0.8325855908400328  0.3739354261721175  0.4985026540191342   F   F   F
  0.8327744978376899  0.1249199381961148  0.4996472909767817   F   F   F
  0.1667204869926309  0.3763063039584367  0.4977586779992578   F   F   F
  0.1677417066944713  0.6243428683756989  0.4998743231081733   F   F   F
  0.5815619217792261  0.4390026501927338  0.6459818452708888   F   F   F
  0.5802271772290055  0.6853021652877587  0.6389726469877317   F   F   F
  0.9180240458410935  0.1860191361410699  0.6396223871750735   F   F   F
  0.5817372550166979  0.9353179413895489  0.6390728869754980   F   F   F
  0.8304825589116120  0.7508387681070161  0.5928660027068986   F   F   F
  0.8312344935202987  0.2459852484615226  0.5912191289054931   F   F   F
  0.8330574155595727  0.5037352085605065  0.5890215889455135   F   F   F
  0.8326853585614984  0.0033190933284999  0.5929511862298824   F   F   F
  0.5011693812630114  0.7564144853743500  0.5930907442478031   F   F   F
  0.4175165117804553  0.0652235966247545  0.6400281196966375   F   F   F
  0.4269583614746182  0.3049475807213256  0.6548062242762995   F   F   F
  0.4118209419049776  0.8130000161260895  0.6392882631757359   F   F   F
  0.3973559957661621  0.5508582312167150  0.6517899838603682   F   F   F
  0.7520008088508590  0.5710783460902960  0.6342708299570319   F   F   F
  0.7410588927355093  0.8100350996793537  0.6399508350092447   F   F   F
  0.7469311760126871  0.3125746360864099  0.6399286629333290   F   F   F
  0.7474377111021440  0.0667490292158419  0.6396807574595726   F   F   F
  0.0835975446246167  0.3127153410600840  0.6409494695352578   F   F   F
  0.6665401474267867  0.8748597485271077  0.4995245352227613   F   F   F
  0.0874417422952050  0.5615490764867275  0.6415856886652378   F   F   F
  0.0816454497148698  0.0598691108909151  0.6458854980522375   F   F   F
  0.0861410392003208  0.4365836791968718  0.6390252670410774   F   F   F
  0.0829309535922604  0.1858369478855906  0.6389897555429656   F   F   F
  0.4184427562678437  0.1878472119192480  0.6398520883294054   F   F   F
  0.4150211471922916  0.4192127558928931  0.6297985144229017   F   F   F
  0.0843185800308248  0.9350115153118921  0.6395498447978554   F   F   F
  0.0830455216021306  0.6859636445388091  0.6395615632933200   F   F   F
  0.9125738234726128  0.4363427883503022  0.6395325473648086   F   F   F
  0.9161206287380068  0.6873050186876668  0.6394172216193326   F   F   F
  0.9156418813894120  0.9372505578893922  0.6405615683157180   F   F   F
  0.2407899204331869  0.4419665275634443  0.6414851021008801   F   F   F
  0.2546530522997159  0.6774087455119400  0.6635575723226239   F   F   F
  0.5787038735222438  0.1908108855947077  0.6442399981902724   F   F   F
  0.2500849599016419  0.9300205608215606  0.6367397827321781   F   F   F
  0.0839614280973109  0.8108169918786672  0.6420972474769897   F   F   F
  0.9166666865332829  0.8124999999834799  0.3605200052333331   F   F   F
  0.0011013970862876  0.1239917801030188  0.6114205396171712   F   F   F
  0.8333332538436267  0.6249999999803961  0.4070133268666680   F   F   F
  0.9993171403630470  0.5008124399201463  0.5069495641767219   F   F   F
  0.3311925112402250  0.4991874760283039  0.5009547738849136   F   F   F
  0.3299690837249472  0.2481110351271525  0.5028010072164975   F   F   F
  0.3328354376595470  0.0011209368496097  0.5058770829705921   F   F   F
  0.3338643027970676  0.7511362158987467  0.5015798926023933   F   F   F
  0.6658365357363110  0.0002722550466672  0.5056280027591598   F   F   F
  0.6685347436137619  0.4997136072997819  0.5007509938637256   F   F   F
  0.6670000084628924  0.2478346853053282  0.5030858582245159   F   F   F
  0.6654719106784341  0.7520343845194333  0.5021854784373687   F   F   F
  0.1660109439190052  0.0012907972362655  0.5059658608947259   F   F   F
  0.1661499081009481  0.2486666130054118  0.5060139536880683   F   F   F
  0.1635690425472234  0.4999015765479200  0.5019995535484298   F   F   F
  0.4999740937604287  0.9995629075158234  0.5055660227697558   F   F   F
  0.1645716700297655  0.7513300598498773  0.5034461534528702   F   F   F
  0.5010814858231285  0.7529085243424944  0.5039384311893400   F   F   F
  0.8339876619896316  0.0005400516744629  0.5066531272656505   F   F   F
  0.5013303987285909  0.4998386599222755  0.5003196686907145   F   F   F
  0.5010311181214462  0.2479528844930385  0.5020175752903029   F   F   F
  0.8350373211469062  0.2482989113753291  0.5032556031463287   F   F   F
  0.9995010121929369  0.7506278923672411  0.5066202371433590   F   F   F
  0.0003410027262944  0.2504421655765370  0.5054381384554034   F   F   F
  0.9999812244412496  0.9995735425943124  0.5054086869831025   F   F   F
  0.8333332538436267  0.8749999404036828  0.4070133268666680   F   F   F
  0.0000000000000000  0.6249999999803961  0.4070133268666680   F   F   F
  0.0000000000000000  0.8749999404036828  0.4070133268666680   F   F   F
  0.3333333432766779  0.1249999999871179  0.4070133268666680   F   F   F
  0.3333333432766779  0.3750000000061604  0.4070133268666680   F   F   F
  0.3333333432766779  0.6249999999803961  0.4070133268666680   F   F   F
  0.3333333432766779  0.8749999404036828  0.4070133268666680   F   F   F
  0.6666666865533486  0.1249999999871179  0.4070133268666680   F   F   F
  0.6666666865533486  0.3750000000061604  0.4070133268666680   F   F   F
  0.6666666865533486  0.6249999999803961  0.4070133268666680   F   F   F
  0.8359172336001208  0.5000064286388763  0.5029190903949257   F   F   F
  0.6666666865533486  0.8749999404036828  0.4070133268666680   F   F   F
  0.1666666716383389  0.3750000000061604  0.4070133268666680   F   F   F
  0.1666666716383389  0.6249999999803961  0.4070133268666680   F   F   F
  0.1666666716383389  0.8749999404036828  0.4070133268666680   F   F   F
  0.5000000000021103  0.1249999999871179  0.4070133268666680   F   F   F
  0.5000000000021103  0.3750000000061604  0.4070133268666680   F   F   F
  0.5000000000021103  0.6249999999803961  0.4070133268666680   F   F   F
  0.5000000000021103  0.8749999404036828  0.4070133268666680   F   F   F
  0.8333332538436267  0.1249999999871179  0.4070133268666680   F   F   F
  0.8333332538436267  0.3750000000061604  0.4070133268666680   F   F   F
  0.1666666716383389  0.1249999999871179  0.4070133268666680   F   F   F
  0.0000000000000000  0.3750000000061604  0.4070133268666680   F   F   F
  0.8357976989748579  0.7516808163286157  0.5025218846794104   F   F   F
  0.8363612578181403  0.3730888916732269  0.6041432169954817   F   F   F
  0.8325489955490255  0.8763781648542590  0.6181004354097155   F   F   F
  0.8398958337074092  0.6269938956000800  0.6031154315048681   F   F   F
  0.9989483214045549  0.8733303409593418  0.6209023486557186   F   F   F
  0.3307715329421796  0.1194110424616568  0.6140916535713998   F   F   F
  0.3343880454262589  0.6241855115911576  0.5953329939378946   F   F   F
  0.3257976755542842  0.3736327147761358  0.5928742460812089   F   F   F
  0.6710660973987572  0.3720339578989069  0.5941489431518789   F   F   F
  0.6652468423511806  0.1244044803985602  0.6118340759219620   F   F   F
  0.3337178107552745  0.8790809958364321  0.6029612876922599   F   F   F
  0.1592885773387849  0.6269193328420570  0.6013028498201578   F   F   F
  0.1657953717306810  0.8710276999339683  0.6166097900386305   F   F   F
  0.5016047866979605  0.3714662077533291  0.5949964308735574   F   F   F
  0.5001232290095956  0.1218818208394339  0.6062730241000764   F   F   F
  0.1661295122060054  0.1221122146516294  0.6174540976957772   F   F   F
  0.1633647141275176  0.3717719781401883  0.6077990594839591   F   F   F
  0.6652982493875257  0.8810759521046876  0.6070375555379357   F   F   F
  0.6662345253538078  0.6266749527185738  0.5934854913810170   F   F   F
  0.9990351476655093  0.3741435491662628  0.6234505077305030   F   F   F
  0.9992882828951224  0.6214106394606702  0.6377705097262449   F   F   F
  0.8341380823483107  0.1240408388297425  0.6212328645978644   F   F   F
  0.5000384301416005  0.8770605328461514  0.6093926758489445   F   F   F
  0.0000000000000000  0.1249999999871179  0.4070133268666680   F   F   F
  0.5040067808557325  0.6251111964890441  0.5939319059675299   F   F   F
  0.9170264428959030  0.0000670836572070  0.6030836275880276   F   F   F
  0.5846411914552405  0.7501070331359543  0.5997074822298245   F   F   F
  0.5907177456726203  0.5011712154374450  0.5937296771350518   F   F   F
  0.2423509465112801  0.4979708107374563  0.5939509671907075   F   F   F
  0.2496027545922388  0.7523624000006066  0.5922018320829139   F   F   F
  0.5839136174278323  0.2474978375767307  0.5972107952028267   F   F   F
  0.5824652123108578  0.0009241674184466  0.6043531608249850   F   F   F
  0.2485834096622597  0.9978505872411390  0.6039763274844177   F   F   F
  0.2486764326835598  0.2458410984939476  0.6037324308617542   F   F   F
  0.4165362485300719  0.0002153684912329  0.6045469977351488   F   F   F
  0.4144304038733750  0.2486476640555324  0.5911282541179972   F   F   F
  0.4163146340585229  0.7503627227314666  0.5943590098085565   F   F   F
  0.7562749179989154  0.5027334560891958  0.5955941441301604   F   F   F
  0.7518599236999108  0.7527907054818357  0.5905884402409569   F   F   F
  0.7535700859226324  0.2475775027197287  0.5945046704837580   F   F   F
  0.7498791667711302  0.0018833678183938  0.6043009942715756   F   F   F
  0.0830971850501427  0.2495344220501110  0.6033453009634755   F   F   F
  0.0810874443021490  0.5004707521546692  0.6028121408714568   F   F   F
  0.0801079018005950  0.7500860390047279  0.6033535576772593   F   F   F
  0.0828881523455749  0.9933217541880239  0.6007967443057254   F   F   F