Au O  Sr Ti H 
 1.0000000000000000
    23.6707801818999997    0.0000000000000000    0.0000000000000000
     0.0000000000000000   22.3170261383000010    0.0000000000000000
     0.0000000000000000    0.0000000000000000   30.0000000000000000
 Au  O   Sr  Ti  H  
  50 264  72  72   1
Selective dynamics
Cartesian
 16.9813405773586830 11.7426740296827035 22.6161269748626772   F   F   F
 14.7627674697700364 12.6910772874355064 21.1214277197989162   F   F   F
 17.0127701019322295  5.7904863812432499 20.7528581677851847   F   F   F
  6.9498124817794480 16.6544940379411059 20.9259677945108749   F   F   F
 12.1151681669837004 13.4681307947466085 23.3024677279185006   F   F   F
 13.6596036083808912 16.1649388938707297 23.7829803016209773   F   F   F
 13.0156037769780628  8.5804865340929908 24.8830577123413264   F   F   F
  5.6982272646886765 10.4591878076546134 21.2728368976844884   F   F   F
  6.7282045983825070 14.7637529881649083 22.9522390782071284   F   F   F
 14.2647818122010506  6.4603656121496984 23.6232870448795325   F   F   F
 12.1772313110056558 10.7998404455347217 20.3405917624216492   F   F   F
 13.3147897798000194 10.8497370037770864 22.8737794597518409   F   F   F
 10.9689804199729437 15.5166871195339358 24.9056668713214755   F   F   F
 18.1077551363607689  9.6469482226949808 21.1705833551730151   F   F   F
 17.3603669455316805 13.7407654884190666 20.8165458517668966   F   F   F
 15.0288650876530578 13.0327138040612702 24.0023663684975723   F   F   F
 14.0844706110149449 17.5068237255526675 21.3859048759982286   F   F   F
 11.4739386804907220 17.3856367462949315 22.7059559183068878   F   F   F
  8.2641764881527919 11.1679527462443371 20.9233288549212162   F   F   F
 10.1953696289081428  8.3068452122706073 24.4608272600905678   F   F   F
  8.8209367007082982  6.6681919665092169 22.6596395823480208   F   F   F
 10.4525730112445512  5.0977556166889357 20.9073025426829879   F   F   F
  9.2617250055067331 18.2392242630282126 21.1932232189212826   F   F   F
  6.8607153749940508 11.9868371930812287 23.3266515735091495   F   F   F
 13.1695696527007033  4.6797541942868959 21.3488630279183162   F   F   F
 10.7148327584482974 12.9433910042802971 21.0737852220071247   F   F   F
 14.5360076742006274  7.1561229134600799 20.9197885655655860   F   F   F
 16.7017544856434910 16.9041695158525904 20.6495841848040094   F   F   F
 15.5268251378224935  9.8485370920401376 24.3792426389034205   F   F   F
  8.7176143428817205 13.8092353023444687 24.6063350590257954   F   F   F
 13.4944772410010980 11.3812385065136166 25.7031911410854867   F   F   F
 15.7387726315837995  4.3355741795660743 22.5711231271487378   F   F   F
 11.1647644504125303 10.0521323731134391 26.3851176875222819   F   F   F
 12.2182883368983841  8.4215434600395245 22.0212660016887156   F   F   F
  6.7090687758129226  7.5415868629292913 21.0792428349635763   F   F   F
 15.8471735273228695 15.2016435912244372 22.4648018904645390   F   F   F
  9.4137311553222425  8.5253151630461499 20.7019255578403900   F   F   F
  8.8963046495997045 10.9967952642045059 24.9952475843781095   F   F   F
 10.9507031559170169 12.7954078646455844 25.9202000593451665   F   F   F
  7.7270975140839644  9.2434099953197482 23.0766992452739217   F   F   F
 11.5374019383176609  5.9939797402624304 23.2569255794436387   F   F   F
 10.0057670160031424 15.5763410783220113 20.9798372652747709   F   F   F
 16.5728781442370874  7.7463634119952367 22.6823489984065318   F   F   F
 18.3210381315579660  9.5977721914615799 23.8851913717457194   F   F   F
  6.0771335657347052 13.2250418108787446 20.8382839389232082   F   F   F
 15.3368295326122848  9.8835756566590760 20.9029654130677827   F   F   F
 13.3624190496993389 14.2702119494091253 25.8305366109878562   F   F   F
 12.8665599264807557 14.8512433973083819 21.0424334094744374   F   F   F
 10.4842567111135079 10.5929049273097693 22.6785581094969650   F   F   F
  8.8455574714532847 16.4821505194970470 23.3431922915698848   F   F   F
  5.9073698606715999  4.2057200492496092 13.6236998020374003   F   F   F
 17.7400081330521679 20.9432105110257112 13.6598873369015568   F   F   F
 17.7319198606826163 15.3722576897322210 13.7175401811765099   F   F   F
 17.7308986856360491  9.7896997105811057 13.6744122816369895   F   F   F
 17.7533912833794361  4.2331026229509199 13.6647917692968690   F   F   F
  9.8729130365144115 20.8848153616195447 13.6214303280142914   F   F   F
  9.8722692107835019 15.2802164531253659 13.6405087520906552   F   F   F
  9.8578784855650134  9.7170721329239598 13.6144713203781720   F   F   F
  1.9984468756765297 15.3335023624468807 13.5949576912030210   F   F   F
  1.9825159637709073 20.8890543698178810 13.5899210969768642   F   F   F
  1.9544441488294984  9.7439927511777462 13.5821569912887785   F   F   F
  1.9879904564459396  4.1578565882215131 13.5811397970291292   F   F   F
 21.6988884315557797 18.1245226733184595 13.6217357577411420   F   F   F
 21.6864722474922367 12.5519608640859381 13.6150634753062896   F   F   F
  5.9453738888836858  9.8029532485482118 13.6471330208684680   F   F   F
 21.6860058338386992  1.3934064308964667 13.6141680975516870   F   F   F
 21.6892585845822872  6.9683735449567861 13.6109397570064043   F   F   F
  9.8725409431626012  4.1759128602813700 13.6061941636247710   F   F   F
  5.9706946059345070 15.3432441457873168 13.6796486654169964   F   F   F
 21.6975589364961117 20.9150578103774620 13.6082807554448699   F   F   F
 13.7938680601609054  4.2269900059482000 13.6552410377877749   F   F   F
  0.0060595918468476  2.7872399395904295 14.9543802532297203   F   F   F
 13.8138270894188988 18.0813887285328221 13.6649993305652089   F   F   F
 23.6651614728082542  8.3284646132504019 14.9567807324556181   F   F   F
 23.6674349573778109 13.9946705609708992 14.9305866919581440   F   F   F
  7.8897748812213520  2.7950296362076603 14.9439455344264740   F   F   F
  0.0031270060418564 19.5310129623822135 14.9936843250379557   F   F   F
  7.8898464367818768 19.5038032323520589 14.9874615127032147   F   F   F
 15.7591462425527666  2.8038212321436911 14.9708365341770246   F   F   F
  7.9461757816394556 13.9594371427881025 15.1189644841794326   F   F   F
  7.9145954252579651  8.4466327295574235 15.0901495822727547   F   F   F
 15.7533804448486681  8.4463425977706521 15.0993280188089365   F   F   F
 21.6675482115971008 15.3271204553660834 13.5917165845428727   F   F   F
 21.6877501024027666  9.7578768304698258 13.6101471701326382   F   F   F
 21.6800928537145623  4.1699531115334691 13.5959284663831497   F   F   F
 13.8013312220668478 20.8977213473873000 13.6170771676613480   F   F   F
 13.7949528509774257 15.3103928324991703 13.6357384678593103   F   F   F
 13.7941196627538361  9.8020992033618963 13.6806659941053113   F   F   F
  5.9190719951093262 20.8893221543054999 13.6218601038292775   F   F   F
 15.7515968969094668 13.9725144548111260 15.0884788150527633   F   F   F
 13.8378563448682321 12.5559397005222984 13.6489072247809737   F   F   F
 13.7950040221410113  1.3981469061122451 13.6389927267261815   F   F   F
 21.6982156369999721 15.3429554700000619 10.8156001569999933   F   F   F
 21.6982156369999721  9.7636982699999884 10.8156001569999933   F   F   F
 21.6982156369999721  4.1844424010000720 10.8156001569999933   F   F   F
 13.8079546360000549 20.9222120050000342 10.8156001569999933   F   F   F
 13.8079546360000549 15.3429554700000619 10.8156001569999933   F   F   F
 13.8079546360000549  9.7636982699999884 10.8156001569999933   F   F   F
 13.8079546360000549  4.1844424010000720 10.8156001569999933   F   F   F
  5.9176950450000287 20.9222120050000342 10.8156001569999933   F   F   F
 21.6982156369999721 20.9222120050000342 10.8156001569999933   F   F   F
  5.9176950450000287 15.3429554700000619 10.8156001569999933   F   F   F
  5.9176950450000287  4.1844424010000720 10.8156001569999933   F   F   F
 17.7530837259999217 20.9222120050000342 10.8156001569999933   F   F   F
 17.7530837259999217 15.3429554700000619 10.8156001569999933   F   F   F
 17.7530837259999217  9.7636982699999884 10.8156001569999933   F   F   F
 17.7530837259999217  4.1844424010000720 10.8156001569999933   F   F   F
  9.8628241350000643 20.9222120050000342 10.8156001569999933   F   F   F
  9.8628241350000643 15.3429554700000619 10.8156001569999933   F   F   F
  9.8628241350000643  9.7636982699999884 10.8156001569999933   F   F   F
  5.9176950450000287  9.7636982699999884 10.8156001569999933   F   F   F
  1.9725650740000149  1.3948141340000613 10.8156001569999933   F   F   F
  1.9725650740000149  6.9740706679999214 10.8156001569999933   F   F   F
  1.9725650740000149 12.5533272030000536 10.8156001569999933   F   F   F
 21.6982156369999721  6.9740706679999214 10.8156001569999933   F   F   F
 21.6982156369999721  1.3948141340000613 10.8156001569999933   F   F   F
 13.8079546360000549 18.1325837370000720 10.8156001569999933   F   F   F
 13.8079546360000549 12.5533272030000536 10.8156001569999933   F   F   F
 13.8079546360000549  6.9740706679999214 10.8156001569999933   F   F   F
 13.8079546360000549  1.3948141340000613 10.8156001569999933   F   F   F
  5.9176950450000287 18.1325837370000720 10.8156001569999933   F   F   F
  5.9176950450000287 12.5533272030000536 10.8156001569999933   F   F   F
  5.9176950450000287  6.9740706679999214 10.8156001569999933   F   F   F
  5.9176950450000287  1.3948141340000613 10.8156001569999933   F   F   F
 17.7530837259999217 18.1325837370000720 10.8156001569999933   F   F   F
 17.7530837259999217 12.5533272030000536 10.8156001569999933   F   F   F
 17.7530837259999217  6.9740706679999214 10.8156001569999933   F   F   F
 17.7530837259999217  1.3948141340000613 10.8156001569999933   F   F   F
  9.8628241350000643 18.1325837370000720 10.8156001569999933   F   F   F
  9.8628241350000643 12.5533272030000536 10.8156001569999933   F   F   F
  9.8628241350000643  6.9740706679999214 10.8156001569999933   F   F   F
  9.8628241350000643  1.3948141340000613 10.8156001569999933   F   F   F
  1.9725650740000149 18.1325837370000720 10.8156001569999933   F   F   F
  9.8628241350000643  4.1844424010000720 10.8156001569999933   F   F   F
  1.9725650740000149 20.9222120050000342 10.8156001569999933   F   F   F
  1.9725650740000149 15.3429554700000619 10.8156001569999933   F   F   F
  1.9725650740000149  9.7636982699999884 10.8156001569999933   F   F   F
 19.7256482699999580 11.1585130689999925 12.2103998060000407   F   F   F
 19.7256482699999580 16.7377696039999648 12.2103998060000407   F   F   F
  1.9744289998651006  1.3546472846430258 13.6517057768047145   F   F   F
  1.9748558901382465  6.9611361885445486 13.6232087515252402   F   F   F
  1.9866249251717099 12.5534816096055035 13.6170897992727387   F   F   F
  1.9734642112319538 18.1304080412660227 13.6302980704292960   F   F   F
  9.8700768340419369  1.3739510361734921 13.6597873748115237   F   F   F
  9.8350512172703670  6.9475161236421643 13.7208769462339681   F   F   F
  9.8484364087043801 12.4866787414416773 13.7360171437630054   F   F   F
  9.8544937782814479 18.0748154590629078 13.6567475889377512   F   F   F
 17.7419660856460268  1.4294318892307594 13.6010871811026401   F   F   F
 17.6900255487830229  7.0095974948653135 13.6376970598243261   F   F   F
 17.7097451787681557 12.5973275887502414 13.6079921166616469   F   F   F
 17.7282086076611982 18.1515220020118377 13.5886045773402095   F   F   F
  5.9089614168598894  1.3817686240989955 13.6279876211815285   F   F   F
 21.6184209738602675  6.9789083985694083 16.3970972363581886   F   F   F
  5.9716016558569631  7.0104212848090883 13.6248765814785759   F   F   F
  5.9632212037176897 12.5998964530692401 13.6132834835287291   F   F   F
  5.9330924806476997 18.0932253646676884 13.6629906904277227   F   F   F
 19.7256482699999580  5.5792565349999723 12.2103998060000407   F   F   F
 13.8281435319788883  7.0253523187210831 13.6207812586570682   F   F   F
 19.7256482699999580  0.0000000000000000 12.2103998060000407   F   F   F
 11.8353900909999528 11.1585130689999925 12.2103998060000407   F   F   F
  1.9725650740000149  4.1844424010000720 10.8156001569999933   F   F   F
  0.0000000000000000  0.0000000000000000 12.2103998060000407   F   F   F
  0.0000000000000000  5.5792565349999723 12.2103998060000407   F   F   F
  0.0000000000000000 11.1585130689999925 12.2103998060000407   F   F   F
  0.0000000000000000 16.7377696039999648 12.2103998060000407   F   F   F
  7.8902602960000570  0.0000000000000000 12.2103998060000407   F   F   F
  7.8902602960000570  5.5792565349999723 12.2103998060000407   F   F   F
  7.8902602960000570 11.1585130689999925 12.2103998060000407   F   F   F
  7.8902602960000570 16.7377696039999648 12.2103998060000407   F   F   F
 15.7805205919999434  0.0000000000000000 12.2103998060000407   F   F   F
 15.7805205919999434  5.5792565349999723 12.2103998060000407   F   F   F
 15.7805205919999434 11.1585130689999925 12.2103998060000407   F   F   F
 15.7805205919999434 16.7377696039999648 12.2103998060000407   F   F   F
  3.9451301480000271  0.0000000000000000 12.2103998060000407   F   F   F
  3.9451301480000271  5.5792565349999723 12.2103998060000407   F   F   F
  3.9451301480000271 11.1585130689999925 12.2103998060000407   F   F   F
  3.9451301480000271 16.7377696039999648 12.2103998060000407   F   F   F
 11.8353900909999528  0.0000000000000000 12.2103998060000407   F   F   F
 11.8353900909999528  5.5792565349999723 12.2103998060000407   F   F   F
 11.8353900909999528 16.7377696039999648 12.2103998060000407   F   F   F
  3.9462472608774433  2.7848913846575978 14.9975885250228931   F   F   F
 21.7314888263611223  1.4004214836082076 16.3953865141667592   F   F   F
  3.9700132730591204 19.4845911548646988 14.9917864285715510   F   F   F
  5.9592839752742313  4.2017935289965846 16.4124869867784433   F   F   F
 17.7522851432860378 20.8511862612106711 16.4283551670294834   F   F   F
 17.7974447204448758 15.1875689737975641 16.5931538992749879   F   F   F
 17.8161889580261175  9.7002570423848926 16.4806814712674914   F   F   F
 10.0162677673882072  9.9056048731095387 16.3649339911035590   F   F   F
 10.0183225177993567 15.3557300550782490 16.3982810469232767   F   F   F
 17.6849191935184145  4.1059978233104344 16.5114261975408532   F   F   F
  9.8446252498097415 20.9143791351698667 16.3831654102460362   F   F   F
  2.0015879420609672 20.9752552035572855 16.3477006558558635   F   F   F
  9.8330301762773917  4.2698952001602999 16.3917053025767991   F   F   F
  2.0500470670000737 15.3927177514240192 16.3530682273714483   F   F   F
  1.9487523841022438  9.8056477676567813 16.3438250232526059   F   F   F
  1.9526725418288686  4.2563917140841676 16.3406486131813899   F   F   F
 11.8202022917220280  2.8016370227537339 14.9896887347745231   F   F   F
 23.6558056460545671 11.1915715589111926 17.8335924082203441   F   F   F
 23.6567830509488672 16.8107264019859208 17.7672967326767939   F   F   F
  7.9201062173442871  5.6770553521238591 17.7838140272852563   F   F   F
  7.8887444728122214  0.0012316274750881 17.7636808907944754   F   F   F
  0.0221075761441689 22.2484886057478946 17.7371059326579434   F   F   F
  0.0030807863852460  5.6409797936030461 17.7473738552972655   F   F   F
  7.8903318442455959 11.0810014481205812 17.7211760490853223   F   F   F
  7.9432286691245721 16.5204412702635075 17.7147802866145838   F   F   F
 15.7017124043996095  5.5345331963817843 17.7188479973299202   F   F   F
 15.7622715792843415  0.0074925586362987 17.7583098559851642   F   F   F
 15.7631739653579590 16.5594896912176033 17.6997545105173586   F   F   F
 15.7886348393329623 11.0230458603807921 17.7325785013346007   F   F   F
  3.9282998825740618 -0.0013554312914808 17.7626714289667724   F   F   F
  3.9808683142757713  5.5654042615157167 17.7883416762726476   F   F   F
  4.0452941489915792 16.7275968987094537 17.8558859465842730   F   F   F
  5.8824064790714354  9.7294337776069337 16.4697745718739270   F   F   F
  3.9179339951108423 11.2166691154847555 17.6246601829638223   F   F   F
  5.8943873708441172 15.2478096792395732 16.5543224648118112   F   F   F
 13.7515404380947821  4.1514725846702527 16.4803531901757978   F   F   F
 21.6702851886892489 18.1431034391045891 16.4063441378377348   F   F   F
 21.6997605556964785 12.5767698313962484 16.3962837236278567   F   F   F
 13.7608395203704692 12.5043869552064226 16.4757140095213188   F   F   F
 13.8686008796149061 18.1879966252000322 16.5169244937036410   F   F   F
 13.7945220257636016  6.9579241311677587 16.3638634064063204   F   F   F
 13.7892455236742908  1.4129694967557873 16.4085733871173467   F   F   F
  5.9885062204498851 18.1408958849636868 16.5408396063140657   F   F   F
  5.9715976232941612 12.4752554796502384 16.3148561175932976   F   F   F
  5.9027995048689403  7.0023079587145762 16.3800566033425383   F   F   F
  5.9333600485266302  1.3988600545019294 16.4176299434409536   F   F   F
 17.7169412587347388 18.0391704549503871 16.3700056918842378   F   F   F
 17.6689966749204288 12.4514116425601902 16.3328054560464828   F   F   F
  9.8088884138608616 18.1156487576108276 16.4383146382900946   F   F   F
 17.7134765152800497  1.3349186671751359 16.3395682718707178   F   F   F
 17.7235600016181358  6.9486972979441699 16.4352607881590345   F   F   F
  9.8464964765409704  7.1327163963390383 16.5775870528334117   F   F   F
  9.9508906967232065 12.6108107503894384 16.6606687946464014   F   F   F
  9.8547790757050322  1.4556756277146639 16.4170363635237671   F   F   F
  2.0163125051458040 18.1540479945126947 16.4306817674624170   F   F   F
  1.9565794242603987 12.5951243363911640 16.3905740239626780   F   F   F
  2.0514269708790849  7.0174582471312767 16.4174026329870948   F   F   F
  1.9527786636080164  1.4898438394351905 16.5113133585114618   F   F   F
 21.6446409289489168 20.9412445727623364 16.3834550163092274   F   F   F
 21.6165364765536268 15.3841195549423357 16.3494741237793413   F   F   F
 13.8048322094435463 20.9496663727305794 16.3687828576268437   F   F   F
 21.7324242988827763  4.2074895453942158 16.3598932176672918   F   F   F
 21.6785934575329904  9.7643099176374832 16.3749855591770554   F   F   F
 13.6483794504306992  9.7348801767255271 16.5510152418009611   F   F   F
 13.7183127255407200 15.3203003195939527 16.4141067221610513   F   F   F
  5.9374589364504224 20.9248956107250095 16.3516687761024357   F   F   F
 11.7797656760702036 11.2588771828431700 18.2696824525546440   F   F   F
 11.8025049352957065  5.6416246426521601 17.7078193458352260   F   F   F
 11.8194488796147787  0.0000588462068286 17.7393284593796139   F   F   F
 17.8462514455746302 15.4744688617554331 19.7203814011686553   F   F   F
 17.7231426574703477 20.9035459250512083 19.1937967547465966   F   F   F
  5.9741439265803473  4.1481211107085763 19.2208540394157197   F   F   F
 17.6454778079929930  4.3361117118980603 19.4064845651286220   F   F   F
 17.8850027621444134  9.7416771134820994 19.1735654378108222   F   F   F
  9.8637554403437129 20.8715807152574584 19.1928990470425767   F   F   F
  9.9745791432189606 15.0901960753438917 19.0070135965852458   F   F   F
 13.9906754240911226 18.0796883298959550 19.3821370924082821   F   F   F
 21.7670041959810838  1.4118968073445379 19.2022537485227858   F   F   F
 21.5922459395303541 12.5347566684415135 19.2741682039342912   F   F   F
 21.6164117797837463  6.9589574039140620 19.1900860807710245   F   F   F
 21.6315404458514600 18.1426488983324781 19.2461395373998059   F   F   F
 13.7800958179298085  1.4623414769175183 19.1955261758729172   F   F   F
 13.7988907316385863  7.1441198226059637 19.0203629742422358   F   F   F
 14.0070753556943206 12.6057309882524287 19.1824363161770712   F   F   F
  5.8615041020215539 12.8045087360293071 18.8613521987533197   F   F   F
  6.2062397140624848 17.8283043224629694 19.3995882448465977   F   F   F
  5.8977586830652653  7.0538788747592598 19.2493524842727055   F   F   F
  5.8902658282727254  1.3297266694889665 19.2598335764791848   F   F   F
 21.6982156369999721 12.5533272030000536 10.8156001569999933   F   F   F
 11.8237459922983543  8.3504782942959750 14.9921728359332516   F   F   F
 11.8330122062580223 19.4897680752377802 15.0243181120463891   F   F   F
 11.8448193935020676 13.8614177387289530 14.9998329560233206   F   F   F
 19.7016644059409849 13.9044650579742477 14.9988414627452435   F   F   F
 19.7069879082599932 19.5018609659003843 14.9437475418394072   F   F   F
 19.7079505033918281  8.3451266799194546 14.9550796205741339   F   F   F
 19.7124220794081921  2.7878415259174925 14.9894187293034342   F   F   F
  3.9464039994218347  8.3980376214475090 14.9327603399777242   F   F   F
  3.9705770665015145 13.9334761128016709 14.9962296932451515   F   F   F
 13.7660244125994371  9.7972336191341807 19.3794553581266129   F   F   F
 13.7344299677521668 15.2939063353605356 19.1691794096319512   F   F   F
 21.7303453908030235  4.1513939234843233 19.1886716152522006   F   F   F
 13.7701746871222088 20.8735149456115039 19.1721866092650295   F   F   F
 19.6581700968986226 16.7564884134933294 17.7859800812069793   F   F   F
 19.6759689757319087  5.4896592195520801 17.7365738671648216   F   F   F
 19.7191189626124093 11.2418718162268796 17.6706476683654436   F   F   F
 19.7103120831958734  0.0740722925676251 17.7885355868964545   F   F   F
 11.8630702577755489 16.8809218414881208 17.7927223274340101   F   F   F
  9.8829415726688694  1.4555967107085663 19.2008435908990940   F   F   F
 10.1064375212899673  6.8055231297691927 19.6441867282890144   F   F   F
  9.7481229901357072 18.1437426103242103 19.1786478952719897   F   F   F
  9.4057264297408665 12.2935175445611673 19.5536995158109903   F   F   F
 17.8004458429197570 12.7447703767142073 19.0281248987108995   F   F   F
 17.5414421517844517 18.0775744924845263 19.1985250502774250   F   F   F
 17.6804436784044015  6.9757363237099472 19.1978598879997833   F   F   F
 17.6924337591613643  1.4896398297161519 19.1904227237872078   F   F   F
  1.9788191025558282  6.9788764402853012 19.2284840860577155   F   F   F
 15.7775253121506847 19.5242678752260446 14.9857360566828177   F   F   F
  2.0698142605920768 12.5321054178925628 19.2475706599572298   F   F   F
  1.9326114930529843  1.3361005126293559 19.3765649415672314   F   F   F
  2.0390256035512908  9.7432493801917737 19.1707580112322837   F   F   F
  1.9630403727578172  4.1473280234246346 19.1696926662889098   F   F   F
  9.9048665023244862  4.1921911384086012 19.1955626498822376   F   F   F
  9.8238743460286990  9.3555820307704387 18.8939554326869903   F   F   F
  1.9958865731596060 20.8666764268270377 19.1864953439357571   F   F   F
  1.9657522869352897 15.3086685850961786 19.1868468987996721   F   F   F
 21.6013343751762399  9.7378734128723661 19.1859764209441579   F   F   F
 21.6852900229613859 15.3386040670373731 19.1825166485799841   F   F   F
 21.6739576997102041 20.9166451985538515 19.2168470494714718   F   F   F
  5.6996852765912225  9.8633785478870006 19.2445530630264479   F   F   F
  6.0278364236364146 15.1177486799029079 19.9067271696786889   F   F   F
 13.6983721805590957  4.2583315212892723 19.3271999457082728   F   F   F
  5.9197061126310420 20.7552931650111425 19.1021934819653367   F   F   F
  1.9874325082498627 18.0950240011340249 19.2629174243097587   F   F   F
 21.6982156369999721 18.1325837370000720 10.8156001569999933   F   F   F
  0.0260709283225250  2.7671277974934680 18.3426161885150876   F   F   F
 19.7256482699999580 13.9481413360000008 12.2103998060000407   F   F   F
 23.6546163615386362 11.1766443120837415 15.2084869253017558   F   F   F
  7.8395851314588221 11.1403799504356869 15.0286432165474917   F   F   F
  7.8106256476762290  5.5371004561333947 15.0840302164949165   F   F   F
  7.8784744815855943  0.0250159769721925 15.1763124891176702   F   F   F
  7.9028285220927588 16.7631265636360496 15.0473967780718034   F   F   F
 15.7608702744920368  0.0060759229927761 15.1688400827747092   F   F   F
 15.8247389600442716 11.1521216357733444 15.0225298159118168   F   F   F
 15.7884105816505915  5.5309331499363443 15.0925757467353971   F   F   F
 15.7522393148982083 16.7831710162205283 15.0655643531211254   F   F   F
  3.9296085612964249  0.0288067556609469 15.1789758268417394   F   F   F
  3.9328979519003457  5.5494993021643104 15.1804186106419703   F   F   F
  3.8718068506991572 11.1563165503972481 15.0599866064528722   F   F   F
 11.8347768700477189 22.3072715339058405 15.1669806830925822   F   F   F
  3.8955398254427638 16.7674525841602922 15.1033846035861945   F   F   F
 11.8609897041391719 16.8026792175003550 15.1181529356801896   F   F   F
 19.7411386213732527  0.0120523473350569 15.1995938179694754   F   F   F
 11.8668816668087906 11.1549124384182612 15.0095900607215285   F   F   F
 11.8597974613443267  5.5335710042979676 15.0605272587091736   F   F   F
 19.7659848725510194  5.5412932952747287 15.0976680943899400   F   F   F
 23.6589687512055917 16.7517822940967918 15.1986071143007369   F   F   F
  0.0080718005755552  5.5891243553040990 15.1631441536620954   F   F   F
 -0.0004444321240015 22.3075088772303864 15.1622606094931776   F   F   F
 19.7256482699999580 19.5273965409999306 12.2103998060000407   F   F   F
  0.0000000000000000 13.9481413360000008 12.2103998060000407   F   F   F
  0.0000000000000000 19.5273965409999306 12.2103998060000407   F   F   F
  7.8902602960000570  2.7896282670000101 12.2103998060000407   F   F   F
  7.8902602960000570  8.3688848019999824 12.2103998060000407   F   F   F
  7.8902602960000570 13.9481413360000008 12.2103998060000407   F   F   F
  7.8902602960000570 19.5273965409999306 12.2103998060000407   F   F   F
 15.7805205919999434  2.7896282670000101 12.2103998060000407   F   F   F
 15.7805205919999434  8.3688848019999824 12.2103998060000407   F   F   F
 15.7805205919999434 13.9481413360000008 12.2103998060000407   F   F   F
 19.7868130868103798 11.1586565372517832 15.0875727118477361   F   F   F
 15.7805205919999434 19.5273965409999306 12.2103998060000407   F   F   F
  3.9451301480000271  8.3688848019999824 12.2103998060000407   F   F   F
  3.9451301480000271 13.9481413360000008 12.2103998060000407   F   F   F
  3.9451301480000271 19.5273965409999306 12.2103998060000407   F   F   F
 11.8353900909999528  2.7896282670000101 12.2103998060000407   F   F   F
 11.8353900909999528  8.3688848019999824 12.2103998060000407   F   F   F
 11.8353900909999528 13.9481413360000008 12.2103998060000407   F   F   F
 11.8353900909999528 19.5273965409999306 12.2103998060000407   F   F   F
 19.7256482699999580  2.7896282670000101 12.2103998060000407   F   F   F
 19.7256482699999580  8.3688848019999824 12.2103998060000407   F   F   F
  3.9451301480000271  2.7896282670000101 12.2103998060000407   F   F   F
  0.0000000000000000  8.3688848019999824 12.2103998060000407   F   F   F
 19.7839836089717060 16.7752804256644623 15.0756565403824219   F   F   F
 19.7973234864706420  8.3262345473807766 18.1242965098645179   F   F   F
 19.7070842643025514 19.5581544120879549 18.5430130622914859   F   F   F
 19.8809896553817147 13.9926391566614505 18.0934629451461255   F   F   F
 23.6458861290452553 19.4901360465601101 18.6270704596715539   F   F   F
  7.8296202467044154  2.6648993558184864 18.4227496071419807   F   F   F
  7.9152259187402088 13.9299643773280017 17.8599898181367749   F   F   F
  7.7118851618195148  8.3383710617830680 17.7862273824362056   F   F   F
 15.8846580790515510  8.3026915627651388 17.8244682945563184   F   F   F
 15.7469117719979099  2.7763380407763694 18.3550222776588363   F   F   F
  7.8993609411730512 19.6184735617643931 18.0888386307677038   F   F   F
  3.7704848996739670 13.9909751376417546 18.0390854946047270   F   F   F
  3.9245057994133168 19.4387479466097339 18.4982937011588611   F   F   F
 11.8733766441161919  8.2900210679262809 17.8498929262067527   F   F   F
 11.8383070177481660  2.7200397814572375 18.1881907230023145   F   F   F
  3.9324151651546626  2.7251814861861337 18.5236229308732376   F   F   F
  3.8669702375913433  8.2968449536420597 18.2339717845186939   F   F   F
 15.7481286166549967 19.6629950529479309 18.2111266661381599   F   F   F
 15.7702909992423894 13.9855213000383110 17.8045647414304540   F   F   F
 23.6479413743822597  8.3497713662198834 18.7035152319151230   F   F   F
 23.6539332827587714 13.8680374834614994 19.1331152917873553   F   F   F
 19.7446991886184975  2.7682226423800658 18.6369859379358722   F   F   F
 11.8362997623842272 19.5733828363989488 18.2817802754682752   F   F   F
  0.0000000000000000  2.7896282670000101 12.2103998060000407   F   F   F
 11.9302337198230379 13.9506229113900577 17.8179571790259743   F   F   F
 21.7067313507785435  0.0014971077313503 18.0925088276409056   F   F   F
 13.8389131282210691 16.7401582650177190 17.9912244668947920   F   F   F
 13.9827499073641857 11.1846511146811043 17.8118903140515314   F   F   F
  5.7366359817439729 11.1132275993382112 17.8185290157212854   F   F   F
  5.9082919367496487 16.7904913462876948 17.7660549624873916   F   F   F
 13.8216908833522556  5.5234157103726025 17.9163238560847873   F   F   F
 13.7874060042140627  0.0206246684336045 18.1305948247496005   F   F   F
  5.8841632469825740 -0.0479685007214965 18.1192898245325580   F   F   F
  5.8863651744716199  5.4864422209577821 18.1119729258526796   F   F   F
  9.8597379767485709  0.0048063842482622 18.1364099320545193   F   F   F
  9.8098909907826890  5.5490764179545993 17.7338476235399938   F   F   F
  9.8544921893074253 16.7458644964040246 17.8307702942566983   F   F   F
 17.9016173410368076 11.2195156801404430 17.8678243239047667   F   F   F
 17.7971109814806567 16.8000498509074383 17.7176532072288104   F   F   F
 17.8375918555301709  5.5251935994511649 17.8351401145126580   F   F   F
 17.7502249196258362  0.0420311688311119 18.1290298281473099   F   F   F
  1.9669752010566752  5.5688662192979068 18.1003590289043679   F   F   F
  1.9194030695882334 11.1690188572903732 18.0843642261436983   F   F   F
  1.8962165343550919 16.7396897384423617 18.1006067303178177   F   F   F
  1.9620272338558762 22.1679875519561271 18.0239023291716762   F   F   F