Au  C  H  O Sr Ti                       
   1.00000000000000     
    23.6707801818999997    0.0000000000000000    0.0000000000000000
     0.0000000000000000   22.3170261383000010    0.0000000000000000
     0.0000000000000000    0.0000000000000000   30.0000000000000000
   Au   C    H    O    Sr   Ti
    50     1     1   265    72    72
Selective dynamics
Direct
  0.7145539347228436  0.5251716751811486  0.7531876145737115   F   F   F
  0.5519837379243384  0.2154824208459303  0.7102285010908389   F   F   F
  0.6203573222423984  0.5717202385617597  0.7040921315784416   F   F   F
  0.7195186960618898  0.2589907315354267  0.6907570356470956   F   F   F
  0.2950341690536504  0.7467556611015169  0.6960238498327627   F   F   F
  0.5109959104663275  0.6043845807026500  0.7772045945425745   F   F   F
  0.5785296504672672  0.7257230980902349  0.7939850702933242   F   F   F
  0.2401777975666661  0.4698831631990075  0.7090769894369515   F   F   F
  0.2857771915768268  0.6632455093841472  0.7641889323360402   F   F   F
  0.5987004339235185  0.2904680307525496  0.7839251212836160   F   F   F
  0.5138261676238258  0.4850547183369969  0.6783022769566003   F   F   F
  0.2888203865145655  0.5391375280627244  0.7773204272608965   F   F   F
  0.5624854942292288  0.4866043501782897  0.7623796895784380   F   F   F
  0.7639726472156099  0.4319864825146240  0.7046140823603366   F   F   F
  0.3918947543496856  0.8181419343503293  0.7065918130175959   F   F   F
  0.4638136393104446  0.6966758071829915  0.8307838539875263   F   F   F
  0.4348195440944380  0.2275552088565149  0.6983849434377873   F   F   F
  0.3683506256319404  0.3000071008116336  0.7564680899720670   F   F   F
  0.3491387247174842  0.5001082380396582  0.6979465082082896   F   F   F
  0.4266440831180560  0.3726746187628720  0.8171643958921706   F   F   F
  0.5965291388672469  0.7845828148388279  0.7129960637141224   F   F   F
  0.6338401369732196  0.5846286254502857  0.8002028213046231   F   F   F
  0.7325944329375673  0.6145842254583727  0.6940016492084382   F   F   F
  0.5463691919487417  0.3863910924688270  0.8284767473440624   F   F   F
  0.4862735313677859  0.7768340899052788  0.7548901906279326   F   F   F
  0.4830930789535586  0.2713950538165406  0.7751389655502976   F   F   F
  0.4619863198163259  0.5746231710583274  0.8646647502494673   F   F   F
  0.7066151274080497  0.7569203561413005  0.6883998402880493   F   F   F
  0.6543575172542191  0.4419814745380819  0.8134818115958709   F   F   F
  0.3682421190775855  0.6202550642868800  0.8203618646002511   F   F   F
  0.5684592782415052  0.5110255220515683  0.8571055711935784   F   F   F
  0.6632013150649598  0.1916340271830066  0.7485572878462605   T   T   T
  0.4691642405576175  0.4522059014436479  0.8799596594504919   F   F   F
  0.5163999235821777  0.3781159116514132  0.7326928638690475   F   F   F
  0.2810519396905491  0.3413022719079422  0.7026948739415531   F   F   F
  0.6694571776932179  0.6812054841870676  0.7487839607124371   F   F   F
  0.3971343043641866  0.3821115527558732  0.6910797012150383   F   F   F
  0.4517225973408969  0.5800770877756136  0.7031682094507659   F   F   F
  0.6158302786836458  0.3228200142310982  0.6956147887953321   F   F   F
  0.3241820482064881  0.4161842228183090  0.7700648351013797   F   F   F
  0.4174544505429552  0.6969182155803963  0.6995938965825559   F   F   F
  0.6986173597327365  0.3464437963366294  0.7567068145315261   F   F   F
  0.7727985854334136  0.4292629891124236  0.7947813555012218   F   F   F
  0.2568917837337494  0.5936017614114633  0.6944036878342317   F   F   F
  0.6492521753230562  0.4474309389859314  0.6935145388246795   F   F   F
  0.5642474595570235  0.6403841632615865  0.8616901450157854   F   F   F
  0.5400699222070102  0.6678926158993548  0.7017476952832027   F   F   F
  0.4429388153572873  0.4740070264292058  0.7572562806711929   F   F   F
  0.3746677381033194  0.7409151931316487  0.7790068018302989   F   F   F
  0.3740596362868018  0.4946481960542641  0.8335247294363342   F   F   F
  0.7244379295720762  0.1256240082535598  0.7550060673560210   T   T   T
  0.7391650301069888  0.1061350859378010  0.7229193403198053   T   T   T
  0.7464343756557241  0.5578200425957931  0.5445905290045232   F   F   F
  0.7491020828524313  0.6886516002214407  0.4574447214700541   F   F   F
  0.7496399180492261  0.4383455568366159  0.4557351139511283   F   F   F
  0.7507468191057356  0.1898852644679749  0.4557492295277683   F   F   F
  0.4172188025319912  0.9360132768009208  0.4540358046930351   F   F   F
  0.4171738274026495  0.6851251968535337  0.4550222927213596   F   F   F
  0.4164118285361269  0.4355835979867066  0.4540086533795957   F   F   F
  0.0844013900752572  0.6869608479305995  0.4531529240748213   F   F   F
  0.0838880838658582  0.9366737549906503  0.4534712880377754   F   F   F
  0.0827053296933826  0.4368276688724464  0.4528109488696899   F   F   F
  0.0838584404977141  0.1865659620274016  0.4529861372412398   F   F   F
  0.9165770667849955  0.8121293960200688  0.4540740238254628   F   F   F
  0.7394070565350788  0.1106538952837539  0.7908362966047826   T   T   T
  0.9161001674562144  0.5621879658659807  0.4540801037540589   F   F   F
  0.9160992160116805  0.0622879938866632  0.4541146101729652   F   F   F
  0.9161641008946191  0.3121401660232337  0.4538763452075401   F   F   F
  0.4169500844589180  0.1872558062194827  0.4535928881853906   F   F   F
  0.2520473590037327  0.6876593734337462  0.4561201504639669   F   F   F
  0.9164370492362366  0.9371345233242323  0.4536448479233641   F   F   F
  0.5827383208739789  0.1904341509297822  0.4555992014141026   F   F   F
  0.0001072507319861  0.1251069566242435  0.4984208876265797   F   F   F
  0.5832784089292744  0.8104874395092452  0.4553337708470835   F   F   F
  0.0000068154062944  0.3734025400807539  0.4984355676333507   F   F   F
  0.9997251967280718  0.6272321458774002  0.4975816152272969   F   F   F
  0.3336829619534711  0.1257189319213623  0.4985139059914729   F   F   F
  0.0000388552826891  0.8751358282084354  0.4995061670066008   F   F   F
  0.3335098532395904  0.8741268361797694  0.4991865333762746   F   F   F
  0.6658549814994998  0.1271664250817892  0.4995497746902515   F   F   F
  0.2512719729902315  0.4395224500696671  0.4550039795317602   F   F   F
  0.0833333358191695  0.5625000000092442  0.3605200052333331   F   F   F
  0.7495053602966308  0.9384322229470712  0.4553481943079163   F   F   F
  0.9166666865332829  0.0625000000159659  0.3605200052333331   F   F   F
  0.2499754657429278  0.1887264821283310  0.4543304660093241   F   F   F
  0.3356109908002480  0.6257778345728298  0.5037654199118009   F   F   F
  0.5827608261285491  0.6861389056356444  0.4546185399689051   F   F   F
  0.5827664778333741  0.4396382207630580  0.4563911113559129   F   F   F
  0.2500499449125897  0.9360832748390209  0.4540290755026390   F   F   F
  0.6653883606136830  0.6260575296134832  0.5029850723965339   F   F   F
  0.5844826350871486  0.5628400356291223  0.4548444547059205   F   F   F
  0.5834538834494154  0.0640405540365379  0.4536993813451105   F   F   F
  0.9166666865332829  0.6874999999963620  0.3605200052333331   F   F   F
  0.9166666865332829  0.4374999701794380  0.3605200052333331   F   F   F
  0.9166666865332829  0.1875000000030838  0.3605200052333331   F   F   F
  0.5833333134730552  0.9375000000154046  0.3605200052333331   F   F   F
  0.5833333134730552  0.6874999999963620  0.3605200052333331   F   F   F
  0.5833333134730552  0.4374999701794380  0.3605200052333331   F   F   F
  0.5833333134730552  0.1875000000030838  0.3605200052333331   F   F   F
  0.2499999999799343  0.9375000000154046  0.3605200052333331   F   F   F
  0.9166666865332829  0.9375000000154046  0.3605200052333331   F   F   F
  0.2499999999799343  0.6874999999963620  0.3605200052333331   F   F   F
  0.2499999999799343  0.1875000000030838  0.3605200052333331   F   F   F
  0.7499999404149307  0.9375000000154046  0.3605200052333331   F   F   F
  0.7499999404149307  0.6874999999963620  0.3605200052333331   F   F   F
  0.7499999404149307  0.4374999701794380  0.3605200052333331   F   F   F
  0.7499999404149307  0.1875000000030838  0.3605200052333331   F   F   F
  0.4166666269218169  0.9375000000154046  0.3605200052333331   F   F   F
  0.4166666269218169  0.6874999999963620  0.3605200052333331   F   F   F
  0.4166666269218169  0.4374999701794380  0.3605200052333331   F   F   F
  0.2499999999799343  0.4374999701794380  0.3605200052333331   F   F   F
  0.0833333358191695  0.0625000000159659  0.3605200052333331   F   F   F
  0.9152945559750094  0.6868304036044606  0.4533185533159525   F   F   F
  0.6653990649371124  0.3785131129112287  0.5031350911098826   F   F   F
  0.3343028360047953  0.3784411953203204  0.5030586336626754   F   F   F
  0.9175484414891528  0.0633815781754379  0.5474319663354734   F   F   F
  0.7493666940221786  0.8131576122273572  0.4529982261992700   F   F   F
  0.2505245200911688  0.0620490259358775  0.4541866585613619   F   F   F
  0.9154383062260649  0.3123872167958837  0.5466831847137357   F   F   F
  0.5833333134730552  0.3124999999901945  0.3605200052333331   F   F   F
  0.5833333134730552  0.0625000000159659  0.3605200052333331   F   F   F
  0.2499999999799343  0.8124999999834799  0.3605200052333331   F   F   F
  0.2499999999799343  0.5625000000092442  0.3605200052333331   F   F   F
  0.2499999999799343  0.3124999999901945  0.3605200052333331   F   F   F
  0.2499999999799343  0.0625000000159659  0.3605200052333331   F   F   F
  0.7499999404149307  0.5625000000092442  0.3605200052333331   F   F   F
  0.7499999404149307  0.3124999999901945  0.3605200052333331   F   F   F
  0.7499999404149307  0.0625000000159659  0.3605200052333331   F   F   F
  0.4166666269218169  0.8124999999834799  0.3605200052333331   F   F   F
  0.4166666269218169  0.5625000000092442  0.3605200052333331   F   F   F
  0.4166666269218169  0.3124999999901945  0.3605200052333331   F   F   F
  0.7499999404149307  0.8124999999834799  0.3605200052333331   F   F   F
  0.0834529855221930  0.3119993838269295  0.4540342167528522   F   F   F
  0.4166666269218169  0.0625000000159659  0.3605200052333331   F   F   F
  0.4168275951914069  0.0615464251534661  0.4553286527804730   F   F   F
  0.0834671688956448  0.8121367217584918  0.4541820393785159   F   F   F
  0.0839729651878258  0.5625190943110496  0.4539803970355010   F   F   F
  0.4160290852854160  0.5595669641462138  0.4578690774234886   F   F   F
  0.0837132186052685  0.0618652180915547  0.4542030179610776   F   F   F
  0.4154500418719422  0.3113604513863351  0.4574067275924634   F   F   F
  0.8333332538436267  0.7500000000123208  0.4070133268666680   F   F   F
  0.0833333358191695  0.4374999701794380  0.3605200052333331   F   F   F
  0.0833333358191695  0.6874999999963620  0.3605200052333331   F   F   F
  0.0833333358191695  0.9375000000154046  0.3605200052333331   F   F   F
  0.4166666269218169  0.1875000000030838  0.3605200052333331   F   F   F
  0.0833333358191695  0.8124999999834799  0.3605200052333331   F   F   F
  0.8333332538436267  0.4999999999932783  0.4070133268666680   F   F   F
  0.4144705123222394  0.8116429365650575  0.5476625626718672   F   F   F
  0.5833333134730552  0.8124999999834799  0.3605200052333331   F   F   F
  0.7491455945749763  0.0642147147902250  0.4535177939644228   F   F   F
  0.5833333134730552  0.5625000000092442  0.3605200052333331   F   F   F
  0.4168747586015940  0.8104226590856669  0.4549141201200229   F   F   F
  0.2522493391466654  0.3144343037030310  0.4539393722222727   F   F   F
  0.2518230086394055  0.5648179316669015  0.4536467238206967   F   F   F
  0.2505187544987280  0.8108064263271615  0.4553236444534505   F   F   F
  0.8333332538436267  0.2500000000190425  0.4070133268666680   F   F   F
  0.2513991673570288  0.0623493223919098  0.5470666101696438   F   F   F
  0.8333332538436267  0.0000000000000000  0.4070133268666680   F   F   F
  0.5000000000021103  0.4999999999932783  0.4070133268666680   F   F   F
  0.0833333358191695  0.1875000000030838  0.3605200052333331   F   F   F
  0.0000000000000000  0.0000000000000000  0.4070133268666680   F   F   F
  0.0000000000000000  0.2500000000190425  0.4070133268666680   F   F   F
  0.0000000000000000  0.4999999999932783  0.4070133268666680   F   F   F
  0.7482421223897475  0.5642960964478334  0.4537946897189258   F   F   F
  0.3333333432766779  0.0000000000000000  0.4070133268666680   F   F   F
  0.3333333432766779  0.4999999999932783  0.4070133268666680   F   F   F
  0.5826588216644595  0.9372984220715068  0.4544029948561601   F   F   F
  0.3333333432766779  0.7500000000123208  0.4070133268666680   F   F   F
  0.6666666865533486  0.2500000000190425  0.4070133268666680   F   F   F
  0.6666666865533486  0.4999999999932783  0.4070133268666680   F   F   F
  0.6666666865533486  0.7500000000123208  0.4070133268666680   F   F   F
  0.1666666716383389  0.0000000000000000  0.4070133268666680   F   F   F
  0.1666666716383389  0.2500000000190425  0.4070133268666680   F   F   F
  0.1666666716383389  0.4999999999932783  0.4070133268666680   F   F   F
  0.1666666716383389  0.7500000000123208  0.4070133268666680   F   F   F
  0.5000000000021103  0.0000000000000000  0.4070133268666680   F   F   F
  0.5000000000021103  0.2500000000190425  0.4070133268666680   F   F   F
  0.5000000000021103  0.7500000000123208  0.4070133268666680   F   F   F
  0.9166666865332829  0.3124999999901945  0.3605200052333331   F   F   F
  0.3333333432766779  0.2500000000190425  0.4070133268666680   F   F   F
  0.7473345843078789  0.3141659195047808  0.4546668153570579   F   F   F
  0.0000000000000000  0.7500000000123208  0.4070133268666680   F   F   F
  0.6666666865533486  0.0000000000000000  0.4070133268666680   F   F   F
  0.9157370786058507  0.1867907578160413  0.4532107778369081   F   F   F
  0.5843572079622490  0.3154684865352806  0.4535828588400435   F   F   F
  0.1670852412769008  0.1242910176694636  0.4993174651633083   F   F   F
  0.4229536429486913  0.6877391959493266  0.5468317356856360   F   F   F
  0.7484952335953068  0.1837074293673382  0.5509507162137908   F   F   F
  0.4159546346627181  0.9371147991298514  0.5460831267602302   F   F   F
  0.4982250134547002  0.2535687840499250  0.5912472923221301   F   F   F
  0.4159961734010622  0.1913721137403712  0.5466317161165719   F   F   F
  0.0857085082386249  0.6893454286420280  0.5454362080986641   F   F   F
  0.0829041513962068  0.4389729855907518  0.5448367739751703   F   F   F
  0.0837325441164865  0.1888593599126338  0.5457041837351966   F   F   F
  0.4993515591199653  0.1256676210685868  0.4990527833728180   F   F   F
  0.9995359297438426  0.4986738316695565  0.5942064732438794   F   F   F
  0.5795292929146214  0.1848872258585246  0.5503938843013287   F   F   F
  0.9996512903804344  0.7537926833050292  0.5928276054760389   F   F   F
  0.3340602092364051  0.9998554330757514  0.5919849338141674   F   F   F
  0.9998591536832606  0.9991749291422707  0.5932777793308759   F   F   F
  0.0012116997895788  0.2498030187355198  0.5921801848550459   F   F   F
  0.3330479214306763  0.4961916858751820  0.5910655227881563   F   F   F
  0.3355670572699267  0.7411771197233747  0.5902977051245131   F   F   F
  0.6631644857762993  0.2475473595826188  0.5903677443439577   F   F   F
  0.6661386879445033  0.0010422064640494  0.5919523006968959   F   F   F
  0.6657540010908107  0.7413605811320920  0.5904661706288650   F   F   F
  0.6666107257520508  0.4944265574504740  0.5913747556328559   F   F   F
  0.1674807774762712  0.9983248104199376  0.5922722282001374   F   F   F
  0.1685367724702331  0.2484594227273220  0.5933143449983760   F   F   F
  0.1709150787927243  0.7504101602359299  0.5951109853185628   F   F   F
  0.2481806330231393  0.4358884705447181  0.5490745267849846   F   F   F
  0.1654801108900799  0.5034029857866926  0.5871833616871101   F   F   F
  0.3345392436285834  0.2545919691091356  0.5926541081812502   F   F   F
  0.4996696236549099  0.0000623663428811  0.5910138906860567   F   F   F
  0.8327224519121259  0.8742844862837487  0.4986308868139702   F   F   F
  0.4231979750908437  0.4434414124154245  0.5461520072222186   F   F   F
  0.7520143393327885  0.4351587110300201  0.5489148932609353   F   F   F
  0.7518317123888565  0.6801493278235355  0.5533739211545949   F   F   F
  0.7492850598974528  0.9339927539434711  0.5476349535911993   F   F   F
  0.7480586459644485  0.8080038579860656  0.5456076880932414   F   F   F
  0.9159318673072434  0.4368726781973749  0.4536136190700830   F   F   F
  0.2492220023275280  0.3137136412208790  0.5458542618560855   F   F   F
  0.5824780858429648  0.3110503543564533  0.5448328446391244   F   F   F
  0.2531810365360272  0.8125289963205589  0.5505885862118660   F   F   F
  0.5827643037748373  0.0618081792857836  0.5451994863367275   F   F   F
  0.5859100945941336  0.8143138262881422  0.5503748768229073   F   F   F
  0.7480156765761521  0.3114263187327282  0.5480611294535862   F   F   F
  0.5811484068017094  0.5599949525841410  0.5489037401107097   F   F   F
  0.2526114487182483  0.5590870232319816  0.5437919493367431   F   F   F
  0.4159297781285005  0.3194284375345546  0.5525694993885111   F   F   F
  0.5765275529053824  0.4358443823844951  0.5522478768382655   F   F   F
  0.4165598529583221  0.0654406053874368  0.5473183227923215   F   F   F
  0.0849937887376058  0.8128193487267836  0.5473318227705235   F   F   F
  0.7484554691786229  0.9373792189678909  0.6402722869821034   F   F   F
  0.0808541978815782  0.5644956238240582  0.5463896271986215   F   F   F
  0.0823125396028033  0.0632295558321232  0.5475818504702943   F   F   F
  0.9157380689455223  0.9386700490746946  0.5463710463572866   F   F   F
  0.9143954179833003  0.6889303645344285  0.5455256701859668   F   F   F
  0.5839215604035957  0.9376141460177010  0.5462596764519176   F   F   F
  0.9168734798450373  0.1888255137011683  0.5454223379441245   F   F   F
  0.9154678002515340  0.4373807165159960  0.5456963139726909   F   F   F
  0.5795214883536843  0.6861074383100316  0.5474131660578863   F   F   F
  0.2515022146126569  0.9372586054055958  0.5452696734865157   F   F   F
  0.4972439055883129  0.5042976267057213  0.6091446583290008   F   F   F
  0.9179853152198163  0.5638221337075606  0.5471109786459110   F   F   F
  0.4199086241372072  0.5647129048063135  0.5554563484571702   F   F   F
  0.9154935270564124  0.8128865169878594  0.5469147085311903   F   F   F
  0.0836137655718474  0.9389816056010147  0.5457631862875800   F   F   F
  0.2491046497981841  0.6832982511244055  0.5519435979877301   F   F   F
  0.0866983309581002  0.3135161148340799  0.5471302109657614   F   F   F
  0.8321039098286036  0.0021455955452296  0.5922542695700628   F   F   F
  0.0833333358191695  0.3124999999901945  0.3605200052333331   F   F   F
  0.4177071744588758  0.0651811956954376  0.6400510200585714   F   F   F
  0.4204054015583907  0.6761628054246600  0.6336827321594356   F   F   F
  0.5910915293614991  0.8101630915515230  0.6460363212085340   F   F   F
  0.9158465228129344  0.0626724247098878  0.6412935776552970   F   F   F
  0.9133944314008460  0.5624861245145212  0.6408395185630482   F   F   F
  0.9150695377225446  0.3117061535030103  0.6397733837856805   F   F   F
  0.9132210734922239  0.8131673952768210  0.6421931131702152   F   F   F
  0.5825444346826174  0.0669357520647864  0.6385625148857130   F   F   F
  0.5834251350840418  0.3217178860474519  0.6328392695077198   F   F   F
  0.5905655637526408  0.5661344431556898  0.6387268106484356   F   F   F
  0.2475553831847819  0.5739088451964989  0.6287193253373573   F   F   F
  0.7538915822691408  0.6919416044742093  0.6572664150905396   F   F   F
  0.2627698352370231  0.8004066005950321  0.6460645963053082   F   F   F
  0.2510345175215392  0.0594080160352917  0.6422763627382153   F   F   F
  0.9166666865332829  0.5625000000092442  0.3605200052333331   F   F   F
  0.5000122259138493  0.8734377418460681  0.5008847160937222   F   F   F
  0.5002817848497898  0.6210533827948197  0.5001085482682939   F   F   F
  0.8324661509661553  0.6230866610362469  0.5001869038272275   F   F   F
  0.2519131877062506  0.1880042835960012  0.5473745996707322   F   F   F
  0.8324495736123438  0.3730830241863359  0.4997178887914302   F   F   F
  0.8327108106985790  0.1244093957175210  0.5002707058713227   F   F   F
  0.1667113151374551  0.3761670904785746  0.4976114437027803   F   F   F
  0.1675580775367962  0.6242908475673516  0.5002487158380617   F   F   F
  0.5810608458729121  0.4396946621367945  0.6467013580358625   F   F   F
  0.5782610122896799  0.6859093147038422  0.6395764376638056   F   F   F
  0.9166803751296868  0.1860407618511104  0.6398270410623965   F   F   F
  0.2492203278054532  0.3163555853829081  0.6413939299635700   F   F   F
  0.7480001572922390  0.0602083025917537  0.5448659519827572   F   F   F
  0.1677077027118514  0.8733193021504206  0.4998636439023088   F   F   F
  0.5008183121178789  0.7563372940445134  0.5927226983803990   F   F   F
  0.4175480358096806  0.9349295641010542  0.6397796636683921   F   F   F
  0.7553587699805107  0.4341340308207222  0.6379258934871217   F   F   F
  0.4994685451199956  0.3742434333683207  0.4997536236915181   F   F   F
  0.2536596045979067  0.1864859352404196  0.6414506948687233   F   F   F
  0.4124231127814326  0.8128680593075615  0.6394000971995624   F   F   F
  0.4261882980116596  0.3045961641228203  0.6565161138414339   F   F   F
  0.7456369915994614  0.1945529860524502  0.6468953162181421   F   F   F
  0.3972009097162541  0.5506238423321079  0.6520841818171661   F   F   F
  0.7531688066395361  0.5684322008777372  0.6356122040851275   F   F   F
  0.7411189468153907  0.8098454958153027  0.6399719841462357   F   F   F
  0.7460940299310295  0.3125640603578503  0.6405172336878451   F   F   F
  0.7481778945655151  0.0681604168846306  0.6401846603307106   F   F   F
  0.0843413284908650  0.3112223787108874  0.6409737553826318   F   F   F
  0.0866112821302849  0.5626898319366163  0.6399085156140529   F   F   F
  0.0842235893722076  0.0603137281162986  0.6421744741380380   F   F   F
  0.0873779941782686  0.4365347758717704  0.6396904203780736   F   F   F
  0.0837453310351037  0.1853464631229471  0.6413507751883927   F   F   F
  0.4175264379604968  0.1873917855913660  0.6398098985842182   F   F   F
  0.4143958796011944  0.4184801875394726  0.6305106750048779   F   F   F
  0.6665067817254311  0.8743401148247258  0.4987806530521297   F   F   F
  0.0843861080217962  0.9355601189751539  0.6408708751782015   F   F   F
  0.8304103272003687  0.7508498871755620  0.5927504920799294   F   F   F
  0.8315000417050200  0.2485537275665379  0.5912088465240402   F   F   F
  0.8333134579440511  0.5030379401234555  0.5887439496637157   F   F   F
  0.9166666865332829  0.8124999999834799  0.3605200052333331   F   F   F
  0.2520827198382136  0.9303319450636494  0.6374670856926841   F   F   F
  0.5793352566167513  0.1927266170776321  0.6454991147870714   F   F   F
  0.0846035220131469  0.8125852712189712  0.6425003400143012   F   F   F
  0.2399617538630778  0.4422075727861525  0.6415743270076177   F   F   F
  0.9142597000328436  0.9370495068063107  0.6411876467116073   F   F   F
  0.9164552433404580  0.6873388393554976  0.6388268152487981   F   F   F
  0.9124064354152708  0.4360449424837682  0.6399847731289512   F   F   F
  0.0831420632018975  0.6870771896408030  0.6388839690192967   F   F   F
  0.2548700922121938  0.6780558046373528  0.6625975729596689   F   F   F
  0.5821161986464034  0.9361447610812661  0.6393563762107419   F   F   F
  0.5010782267887990  0.7528181605910049  0.5038709821731260   F   F   F
  0.9995420064029972  0.4999843294713529  0.5067595832288276   F   F   F
  0.1643318290631726  0.7515114289309892  0.5034235647781884   F   F   F
  0.1666666716383389  0.3750000000061604  0.4070133268666680   F   F   F
  0.0008512885100203  0.1225155515094372  0.6199077978986196   F   F   F
  0.8333332538436267  0.6249999999803961  0.4070133268666680   F   F   F
  0.6669286735457121  0.2482145597259375  0.5026011564818020   F   F   F
  0.3300850718562316  0.2480415662893023  0.5028771473740790   F   F   F
  0.3331434075087714  0.0010630260551352  0.5057222086942090   F   F   F
  0.3338806667029601  0.7511618015239918  0.5014795724037668   F   F   F
  0.1660110257866023  0.0011821230880926  0.5065514272054941   F   F   F
  0.6653506454108609  0.7518944808410524  0.5021848877252566   F   F   F
  0.6660209410937057  0.9999519140344475  0.5056071056987861   F   F   F
  0.3311588105580299  0.4992187967525012  0.5009617577126235   F   F   F
  0.5010586695946984  0.4997419349818060  0.5003037725024271   F   F   F
  0.8357306247164900  0.2485054966500186  0.5028324372353765   F   F   F
  0.6666666865533486  0.6249999999803961  0.4070133268666680   F   F   F
  0.1664052937655356  0.2481794311514989  0.5063301787430419   F   F   F
  0.0000000000000000  0.8749999404036828  0.4070133268666680   F   F   F
  0.5009495709845524  0.2480043643870289  0.5021478190202373   F   F   F
  0.9998390694074004  0.7511561638639037  0.5067540204735508   F   F   F
  0.0010145972832163  0.2498186900917148  0.5061030982760641   F   F   F
  0.0000481221402779  0.0000135966139112  0.5067140554774525   F   F   F
  0.8333332538436267  0.8749999404036828  0.4070133268666680   F   F   F
  0.0000000000000000  0.6249999999803961  0.4070133268666680   F   F   F
  0.3333333432766779  0.6249999999803961  0.4070133268666680   F   F   F
  0.3333333432766779  0.1249999999871179  0.4070133268666680   F   F   F
  0.3333333432766779  0.3750000000061604  0.4070133268666680   F   F   F
  0.8340832985657229  0.0001940111508532  0.5065525915991174   F   F   F
  0.3333333432766779  0.8749999404036828  0.4070133268666680   F   F   F
  0.6666666865533486  0.1249999999871179  0.4070133268666680   F   F   F
  0.6666666865533486  0.3750000000061604  0.4070133268666680   F   F   F
  0.8361374271660864  0.5000080984429900  0.5027688572082525   F   F   F
  0.1634761508176013  0.4998641440117240  0.5019543818319079   F   F   F
  0.6685182853416833  0.4998191430335339  0.5006390005711694   F   F   F
  0.6666666865533486  0.8749999404036828  0.4070133268666680   F   F   F
  0.3258432410448293  0.3734380461354831  0.5928251067951607   F   F   F
  0.0000000000000000  0.3750000000061604  0.4070133268666680   F   F   F
  0.3340671218261946  0.6245904809439935  0.5950657695334840   F   F   F
  0.5000000000021103  0.8749999404036828  0.4070133268666680   F   F   F
  0.8333332538436267  0.1249999999871179  0.4070133268666680   F   F   F
  0.8333332538436267  0.3750000000061604  0.4070133268666680   F   F   F
  0.5000000000021103  0.6249999999803961  0.4070133268666680   F   F   F
  0.8361002340456380  0.7517394116668470  0.5026490378376778   F   F   F
  0.8394315816687126  0.6270621333641273  0.6039607653452066   F   F   F
  0.3315464580600889  0.1196953537423440  0.6128401193783688   F   F   F
  0.9989717581163404  0.8747844660716595  0.6238486953282916   F   F   F
  0.5000000000021103  0.1249999999871179  0.4070133268666680   F   F   F
  0.8316968226281105  0.8765585110579153  0.6182357935134490   F   F   F
  0.5002460942766476  0.9992815148487750  0.5054725758121563   F   F   F
  0.8376504230573829  0.3723828572040304  0.6036079891212935   F   F   F
  0.5009128545334036  0.8769421164451146  0.6094582062450442   F   F   F
  0.6654312844454040  0.1248264506178600  0.6094669094575309   F   F   F
  0.1666666716383389  0.1249999999871179  0.4070133268666680   F   F   F
  0.5036584332350316  0.6250053279389789  0.5941126659927320   F   F   F
  0.1666666716383389  0.8749999404036828  0.4070133268666680   F   F   F
  0.1666666716383389  0.6249999999803961  0.4070133268666680   F   F   F
  0.5000000000021103  0.3750000000061604  0.4070133268666680   F   F   F
  0.6709086682374803  0.3725666455329062  0.5930093263839495   F   F   F
  0.3345930741061665  0.8788187189588186  0.6027850545233662   F   F   F
  0.1595320106985838  0.6273872073723652  0.6014134146117982   F   F   F
  0.5012357489919594  0.3717765742383605  0.5948302472129399   F   F   F
  0.5002430833848095  0.1226231655520920  0.6066593838444874   F   F   F
  0.1664014386092560  0.8736281232665206  0.6181487345911592   F   F   F
  0.1633315929292891  0.3711005353357848  0.6076034096552547   F   F   F
  0.6654453262156892  0.8814524890594626  0.6072916693931063   F   F   F
  0.6664875471447402  0.6260739215522548  0.5933836307594191   F   F   F
  0.0002944557239530  0.3749513380475449  0.6252386201990134   F   F   F
  0.9996894562112217  0.6231138003279142  0.6246563437586161   F   F   F
  0.8345644604372637  0.1242876813808849  0.6146105161434647   F   F   F
  0.0000000000000000  0.1249999999871179  0.4070133268666680   F   F   F
  0.1678391147902119  0.1227733154301376  0.6221903476170070   F   F   F
  0.5902146264092352  0.5014380539903698  0.5935000599321825   F   F   F
  0.7496580553584096  0.0024002598957509  0.6049532567137632   F   F   F
  0.5825508917414126  0.0013129668040150  0.6041425946129948   F   F   F
  0.9165301724055226  0.9998877369259489  0.6038211481893754   F   F   F
  0.5847679883116115  0.7498612353266552  0.5997461284887322   F   F   F
  0.2422558533053518  0.4979435785285347  0.5939837095717309   F   F   F
  0.4148364206780357  0.2483130344683531  0.5912863881190731   F   F   F
  0.5842060105251718  0.2479145981600936  0.5969276936323240   F   F   F
  0.2496127708077580  0.9977030090173145  0.6041884220098055   F   F   F
  0.7540030643474012  0.2482925764146700  0.5930876793980033   F   F   F
  0.2494362212092298  0.2457821588998925  0.6038921922310010   F   F   F
  0.4171427099256917  0.0000838754632682  0.6046639483721137   F   F   F
  0.0839551450434399  0.2477721028680122  0.6039578616472525   F   F   F
  0.2496652080574435  0.7529417803346874  0.5919579396247485   F   F   F
  0.0814700664307253  0.4995873271026028  0.6030044611485650   F   F   F
  0.0809730637017836  0.6259176333134491  0.5054387097807336   F   F   F