Au  C  H  O Sr Ti                       
   1.00000000000000     
    23.6707801818999997    0.0000000000000000    0.0000000000000000
     0.0000000000000000   22.3170261383000010    0.0000000000000000
     0.0000000000000000    0.0000000000000000   30.0000000000000000
   Au   C    H    O    Sr   Ti
    50     2     2   265    72    72
Selective dynamics
Direct
  0.7127917261360524  0.5235726732226381  0.7531966600523186   T   T   T
  0.2933486297884534  0.7470282280012192  0.6967349393015969   T   T   T
  0.5107678491843561  0.6049930343304980  0.7775171932931157   T   T   T
  0.5781600381633731  0.7265793829600107  0.7937790589983247   T   T   T
  0.2397873163177371  0.4700789934065686  0.7089246521182559   T   T   T
  0.2847617780593043  0.6634312349111514  0.7644336046261241   T   T   T
  0.5960673105158664  0.3029066545355691  0.7869150204879919   T   T   T
  0.5136062230830504  0.4843081132487569  0.6780556329405272   T   T   T
  0.5611819900335498  0.4873066432226748  0.7627828890607576   T   T   T
  0.4819651819725325  0.2719958738801243  0.7750989117195352   T   T   T
  0.5410121850865313  0.3908467286578016  0.8324748108546018   T   T   T
  0.5479926090617931  0.2157013184845747  0.7099643659107705   T   T   T
  0.3911753679518388  0.8178920071579124  0.7062823028017946   T   T   T
  0.4316095514993518  0.2277416112840010  0.6987816101707818   T   T   T
  0.3681448257534496  0.3013794217694125  0.7570850530111415   T   T   T
  0.4246543761242089  0.3744111678732284  0.8189217982022119   T   T   T
  0.5960517599395988  0.7850608242199191  0.7127598022704301   T   T   T
  0.6328838413302011  0.5848873528382137  0.7997959857891590   T   T   T
  0.7313067006553499  0.6144945642852089  0.6940681019093056   T   T   T
  0.4855852724227857  0.7773610307693700  0.7547965228570498   T   T   T
  0.7617054821616241  0.4286206179678020  0.7058081120740534   T   T   T
  0.7503684445869956  0.2550387509226014  0.6952520554407655   T   T   T
  0.6201058147101353  0.5701718308433383  0.7039738934746446   T   T   T
  0.4634950760196984  0.6979653750028825  0.8304272269104349   T   T   T
  0.6191345609398697  0.3159675708425128  0.6964391466382241   T   T   T
  0.3486209732345995  0.5008042277332636  0.6978392575002814   T   T   T
  0.7027570071963850  0.3403134752582008  0.7570970219548711   T   T   T
  0.2882837430148458  0.5395181396923335  0.7773120216278753   T   T   T
  0.5679452579635307  0.5118585378763397  0.8573410488558495   T   T   T
  0.6569386122330411  0.2086484639616704  0.7521958584010815   T   T   T
  0.4659348393695609  0.4562995164825061  0.8836021769832604   T   T   T
  0.2812661786601376  0.3407783405208415  0.7025625785873386   T   T   T
  0.6688960569162251  0.6813520334691663  0.7488707393641473   T   T   T
  0.3969222974830493  0.3827172469897282  0.6908758664008734   T   T   T
  0.4521192468263278  0.5798723305866834  0.7030911047732346   T   T   T
  0.3739143983971554  0.4957437492181324  0.8330475355511724   T   T   T
  0.3231502602488026  0.4166666201164468  0.7701152085021007   T   T   T
  0.3681308287906251  0.6208365091373859  0.8198695472909380   T   T   T
  0.5185325196109181  0.3779773925998207  0.7327444350573177   T   T   T
  0.7703428693662320  0.4281414635145909  0.7959791357741360   T   T   T
  0.2559977740201076  0.5939121792277480  0.6945194772722817   T   T   T
  0.6463156817081631  0.4430218390671838  0.6955453825327840   T   T   T
  0.5648260139582996  0.6418206187377075  0.8618740484093631   T   T   T
  0.5403554199154605  0.6676300108002753  0.7020048686623441   T   T   T
  0.4422278029379426  0.4728196824322795  0.7563341173126520   T   T   T
  0.7063132369141027  0.7570736390939827  0.6884787018624632   T   T   T
  0.3736970763086097  0.7410668316677148  0.7786018651378110   T   T   T
  0.4618805882558665  0.5772490741531622  0.8648632729345873   T   T   T
  0.6513084623219451  0.4362765464738700  0.8121251727128067   T   T   T
  0.4175146208279014  0.6967922406044987  0.6995266460072991   T   T   T
  0.7672119690937033  0.1958943980626517  0.7472148044832584   T   T   T
  0.7272171118861444  0.1468209325238763  0.7508365813705178   T   T   T
  0.7209430733907416  0.1213498563602461  0.7203270825065443   T   T   T
  0.7326081279479866  0.1200720228959073  0.7809072246400088   T   T   T
  0.0843596074356889  0.6869579939510497  0.4531619864322063   T   T   T
  0.2520911122220385  0.6875510386961542  0.4560757621140665   T   T   T
  0.0840889363423740  0.9368244003604047  0.4536416138149664   T   T   T
  0.0827428304956776  0.4367553034504990  0.4528219067880155   T   T   T
  0.0838422027318844  0.1865581947640535  0.4529734094910072   T   T   T
  0.9165872466756725  0.8121319066215453  0.4540548438103928   T   T   T
  0.7464078702776733  0.5576605175101783  0.5446250518815516   T   T   T
  0.9160927652086734  0.5621914869896478  0.4540811533099764   T   T   T
  0.9163048189339942  0.0622020390601742  0.4540377483514410   T   T   T
  0.9162863781739253  0.3122192932879578  0.4536885662587951   T   T   T
  0.4172512082019492  0.4355340963901980  0.4542035241985926   T   T   T
  0.5822480916551829  0.4395771927111318  0.4563886070496538   T   T   T
  0.5831573124836107  0.1902964995159614  0.4556535870276691   T   T   T
  0.9164266165113065  0.9371317084749433  0.4536447915581822   T   T   T
  0.5832939606474998  0.8104583856358164  0.4553398025449796   T   T   T
  0.0000278727842094  0.3734470604990743  0.4983945336534312   T   T   T
  0.9996662567008374  0.6271469395525394  0.4976301749218501   T   T   T
  0.3337557521821140  0.1257333939859469  0.4987871661232666   T   T   T
  0.0000715691133076  0.8751875268855698  0.4995486330862906   T   T   T
  0.3334842866429085  0.8741635876439774  0.4990921140201141   T   T   T
  0.6659881575328349  0.1261031943066655  0.4998263866378377   T   T   T
  0.2512130680952592  0.4392496587947674  0.4549534067725600   T   T   T
  0.0833333358191695  0.5625000000092442  0.3605200052333331   F   F   F
  0.9166666865332829  0.0625000000159659  0.3605200052333331   F   F   F
  0.7492849438712694  0.8131879584484599  0.4530244277135065   T   T   T
  0.7496667732773201  0.4386839339362393  0.4555575796205045   T   T   T
  0.9158084187119815  0.3127163276904001  0.5465139536837268   T   T   T
  0.4171946901039963  0.6847186945490296  0.4547467387857610   T   T   T
  0.0001070391845076  0.1250984620542258  0.4984227787876600   T   T   T
  0.4159585089562525  0.9370273844210897  0.5459949408896508   T   T   T
  0.5833333134730552  0.6874999999963620  0.3605200052333331   F   F   F
  0.2505275839012441  0.0620381687816708  0.4542613723332253   T   T   T
  0.5833124403578648  0.0637040993596781  0.4538270257617635   T   T   T
  0.9166666865332829  0.6874999999963620  0.3605200052333331   F   F   F
  0.9166666865332829  0.4374999701794380  0.3605200052333331   F   F   F
  0.9166666865332829  0.1875000000030838  0.3605200052333331   F   F   F
  0.5833333134730552  0.9375000000154046  0.3605200052333331   F   F   F
  0.0809093851776094  0.5644685859498413  0.5464339296718831   T   T   T
  0.5833333134730552  0.4374999701794380  0.3605200052333331   F   F   F
  0.5833333134730552  0.1875000000030838  0.3605200052333331   F   F   F
  0.2499999999799343  0.9375000000154046  0.3605200052333331   F   F   F
  0.9166666865332829  0.9375000000154046  0.3605200052333331   F   F   F
  0.2499999999799343  0.6874999999963620  0.3605200052333331   F   F   F
  0.2499999999799343  0.1875000000030838  0.3605200052333331   F   F   F
  0.7499999404149307  0.9375000000154046  0.3605200052333331   F   F   F
  0.7499999404149307  0.6874999999963620  0.3605200052333331   F   F   F
  0.4174791501005843  0.9357615403688365  0.4539111502076610   T   T   T
  0.7499999404149307  0.4374999701794380  0.3605200052333331   F   F   F
  0.4166666269218169  0.9375000000154046  0.3605200052333331   F   F   F
  0.4166666269218169  0.6874999999963620  0.3605200052333331   F   F   F
  0.4166666269218169  0.4374999701794380  0.3605200052333331   F   F   F
  0.2499999999799343  0.4374999701794380  0.3605200052333331   F   F   F
  0.0833333358191695  0.0625000000159659  0.3605200052333331   F   F   F
  0.9153053020125309  0.6868639617118253  0.4533192838206633   T   T   T
  0.6655520119898661  0.3795721662307304  0.5027939571414253   T   T   T
  0.3344992452698828  0.3782877537045545  0.5031279383739139   T   T   T
  0.3355921505104882  0.6257672159583905  0.5037681154136818   T   T   T
  0.9176109937829071  0.0633215254367664  0.5474372473918592   T   T   T
  0.7495357042979200  0.9383279702881447  0.4553122023979146   T   T   T
  0.2499979531919176  0.9360777739018394  0.4539823769369174   T   T   T
  0.2500992650841903  0.1884721888354549  0.4541123149967102   T   T   T
  0.7491096063973322  0.6886473187450273  0.4573780990657704   T   T   T
  0.7499999404149307  0.1875000000030838  0.3605200052333331   F   F   F
  0.5833333134730552  0.0625000000159659  0.3605200052333331   F   F   F
  0.4166010941883301  0.8099688165880422  0.4550516059536616   T   T   T
  0.7478343766153733  0.8077566812553283  0.5455051495521120   T   T   T
  0.2499999999799343  0.8124999999834799  0.3605200052333331   F   F   F
  0.2499999999799343  0.3124999999901945  0.3605200052333331   F   F   F
  0.2499999999799343  0.0625000000159659  0.3605200052333331   F   F   F
  0.7499999404149307  0.5625000000092442  0.3605200052333331   F   F   F
  0.7499999404149307  0.3124999999901945  0.3605200052333331   F   F   F
  0.7499999404149307  0.0625000000159659  0.3605200052333331   F   F   F
  0.4166666269218169  0.8124999999834799  0.3605200052333331   F   F   F
  0.4166666269218169  0.3124999999901945  0.3605200052333331   F   F   F
  0.7499999404149307  0.8124999999834799  0.3605200052333331   F   F   F
  0.0834991854766570  0.3119303381610700  0.4540432343835095   T   T   T
  0.4166666269218169  0.0625000000159659  0.3605200052333331   F   F   F
  0.4168786576844587  0.0615695798043104  0.4553743080774228   T   T   T
  0.0834925365385782  0.8121693333209297  0.4541330902044505   T   T   T
  0.4166666269218169  0.5625000000092442  0.3605200052333331   F   F   F
  0.4140889168362565  0.8116502373583037  0.5476680433665658   T   T   T
  0.5833333134730552  0.3124999999901945  0.3605200052333331   F   F   F
  0.0839642769312060  0.5625113340322673  0.4539881965558202   T   T   T
  0.2511166765544540  0.0626152766101535  0.5472579078369583   T   T   T
  0.8333332538436267  0.4999999999932783  0.4070133268666680   F   F   F
  0.4166666269218169  0.1875000000030838  0.3605200052333331   F   F   F
  0.0833333358191695  0.9375000000154046  0.3605200052333331   F   F   F
  0.0833333358191695  0.8124999999834799  0.3605200052333331   F   F   F
  0.0833333358191695  0.4374999701794380  0.3605200052333331   F   F   F
  0.8333332538436267  0.7500000000123208  0.4070133268666680   F   F   F
  0.4155874468166612  0.3114210276165852  0.4573696933798854   T   T   T
  0.0837602127194379  0.0618926654260836  0.4541760476156513   T   T   T
  0.4160363352197232  0.5595127404880214  0.4578581235185787   T   T   T
  0.0833333358191695  0.6874999999963620  0.3605200052333331   F   F   F
  0.2522783189875567  0.3141153717813303  0.4541684266289280   T   T   T
  0.5833333134730552  0.5625000000092442  0.3605200052333331   F   F   F
  0.2499999999799343  0.5625000000092442  0.3605200052333331   F   F   F
  0.5833333134730552  0.8124999999834799  0.3605200052333331   F   F   F
  0.6666666865533486  0.7500000000123208  0.4070133268666680   F   F   F
  0.5000000000021103  0.4999999999932783  0.4070133268666680   F   F   F
  0.0833333358191695  0.1875000000030838  0.3605200052333331   F   F   F
  0.0000000000000000  0.0000000000000000  0.4070133268666680   F   F   F
  0.0000000000000000  0.2500000000190425  0.4070133268666680   F   F   F
  0.0000000000000000  0.4999999999932783  0.4070133268666680   F   F   F
  0.7481953202992667  0.5643540629511564  0.4537778685145785   T   T   T
  0.3333333432766779  0.0000000000000000  0.4070133268666680   F   F   F
  0.3333333432766779  0.4999999999932783  0.4070133268666680   F   F   F
  0.3333333432766779  0.7500000000123208  0.4070133268666680   F   F   F
  0.6666666865533486  0.0000000000000000  0.4070133268666680   F   F   F
  0.6666666865533486  0.2500000000190425  0.4070133268666680   F   F   F
  0.6666666865533486  0.4999999999932783  0.4070133268666680   F   F   F
  0.8333332538436267  0.2500000000190425  0.4070133268666680   F   F   F
  0.1666666716383389  0.0000000000000000  0.4070133268666680   F   F   F
  0.5843737395934951  0.3154842883250802  0.4535824104894174   T   T   T
  0.1666666716383389  0.4999999999932783  0.4070133268666680   F   F   F
  0.5000000000021103  0.0000000000000000  0.4070133268666680   F   F   F
  0.5000000000021103  0.2500000000190425  0.4070133268666680   F   F   F
  0.5000000000021103  0.7500000000123208  0.4070133268666680   F   F   F
  0.9166666865332829  0.3124999999901945  0.3605200052333331   F   F   F
  0.3333333432766779  0.2500000000190425  0.4070133268666680   F   F   F
  0.7477457181826617  0.3144941348613945  0.4538089646747085   T   T   T
  0.0000000000000000  0.7500000000123208  0.4070133268666680   F   F   F
  0.5845329558295915  0.5628331395400401  0.4548043725510161   T   T   T
  0.7494185461576807  0.0639241617117916  0.4532583336830575   T   T   T
  0.8333332538436267  0.0000000000000000  0.4070133268666680   F   F   F
  0.5827596756265246  0.6860870253863922  0.4546077529044110   T   T   T
  0.2517766326590743  0.5645429330779635  0.4538194963518896   T   T   T
  0.1666666716383389  0.2500000000190425  0.4070133268666680   F   F   F
  0.2505038458220635  0.8108053539530329  0.4553195316448154   T   T   T
  0.1666666716383389  0.7500000000123208  0.4070133268666680   F   F   F
  0.6653621779704584  0.6260544235454304  0.5029708062583795   T   T   T
  0.4169142409855233  0.1872586791014733  0.4537233477357168   T   T   T
  0.5885884532474021  0.3209084578088414  0.6329633638904210   T   T   T
  0.0855840721932814  0.6892704916885386  0.5453961268900925   T   T   T
  0.0828843526797344  0.4389305054709351  0.5448449106271306   T   T   T
  0.0835562565696108  0.1889638054048770  0.5455024493393972   T   T   T
  0.4995002288308473  0.1257446403409290  0.4991601454730825   T   T   T
  0.9995153679672835  0.4986919379262814  0.5941725570187167   T   T   T
  0.5800961861332770  0.1846339201255510  0.5505106156936604   T   T   T
  0.9997003043419382  0.7535863194333891  0.5926788380234852   T   T   T
  0.3340340353619895  0.9998962048628832  0.5919265226112322   T   T   T
  0.9998582449623805  0.9987315086418156  0.5930570568946812   T   T   T
  0.0003962710557951  0.2499130314600490  0.5919977679643141   T   T   T
  0.3332023408967664  0.4958869104846179  0.5911780680422036   T   T   T
  0.3352573602187198  0.7410558179247190  0.5904315219983632   T   T   T
  0.6650205526629313  0.2444157526767911  0.5904962866953112   T   T   T
  0.6658133481643199  0.0006025673542330  0.5917257275553739   T   T   T
  0.6655258868150717  0.7412815567156031  0.5908240421189732   T   T   T
  0.6667991002632926  0.4937849066385331  0.5913810749239039   T   T   T
  0.1674612692893596  0.9983632700323013  0.5923001689209534   T   T   T
  0.1684170222853208  0.2484146462140491  0.5931565046770754   T   T   T
  0.1707047455087709  0.7502353184296631  0.5948761106045296   T   T   T
  0.2482991655213080  0.4358893267441884  0.5491243586140242   T   T   T
  0.1654670242025954  0.5033259840833464  0.5872718241251158   T   T   T
  0.3348688628465966  0.2545542327177807  0.5926413504531686   T   T   T
  0.4996065807849942  0.0000283138883997  0.5910013864297542   T   T   T
  0.8326723725163735  0.8741871870757233  0.4986108674763776   T   T   T
  0.7482861839054015  0.9366279648864402  0.6399985291445258   T   T   T
  0.8322462237650133  0.0016802042314753  0.5921976865066250   T   T   T
  0.7501357017294997  0.1837253880479483  0.5498076033203610   T   T   T
  0.4229181606729379  0.6878057230745954  0.5467502119453638   T   T   T
  0.4231846058605599  0.4435080883222768  0.5459985869618617   T   T   T
  0.7529575899688725  0.4341726442887374  0.5496450231725871   T   T   T
  0.5843147498122150  0.3103168448515303  0.5449501308802275   T   T   T
  0.2532183040723170  0.8125819765739618  0.5506311923985063   T   T   T
  0.5826485068000512  0.9371493190113662  0.4543360906932646   T   T   T
  0.9159281655279690  0.1867983635514215  0.4531130658376741   T   T   T
  0.7500666171025682  0.1896364436921871  0.4553790773419121   T   T   T
  0.5824363706543485  0.0615757132039791  0.5452961093161929   T   T   T
  0.5860185664609667  0.8142451839249326  0.5503613749026284   T   T   T
  0.7471151209564656  0.3104063356656498  0.5455507848290629   T   T   T
  0.5813250234665855  0.5597893757937927  0.5488584798329837   T   T   T
  0.2526332239930310  0.5590798759416959  0.5439397506489261   T   T   T
  0.4161994179766337  0.3193631542335682  0.5528001228881507   T   T   T
  0.5765149919373309  0.4355685531273780  0.5521936075828379   T   T   T
  0.4166441853541457  0.0653739022774562  0.5473252990992863   T   T   T
  0.0850725596098336  0.8126364894210903  0.5473111318923821   T   T   T
  0.0866391508082284  0.3134907999841399  0.5470938666614470   T   T   T
  0.5005086890483993  0.7565245307109438  0.5924997700390496   T   T   T
  0.0823941372318843  0.0631455907318421  0.5475419595655170   T   T   T
  0.0833333358191695  0.3124999999901945  0.3605200052333331   F   F   F
  0.9142846942035199  0.6887586921811295  0.5456585496928359   T   T   T
  0.9164778348492180  0.1887278230913300  0.5453712092900570   T   T   T
  0.9154147976434679  0.4376418084072510  0.5456116693470958   T   T   T
  0.5794121089368925  0.6860738455772339  0.5473773045362108   T   T   T
  0.2515348340551890  0.9372829646129356  0.5452254102025528   T   T   T
  0.4973926932838888  0.5044558060497621  0.6090423621627864   T   T   T
  0.9179084504038650  0.5637904080817310  0.5470891259617884   T   T   T
  0.4198511126913838  0.5647172887463090  0.5554199520114652   T   T   T
  0.9154512133108791  0.8126297093150336  0.5467975970620867   T   T   T
  0.0841065767965957  0.9384059505825977  0.5460786944628679   T   T   T
  0.2489605749035457  0.6833385574021094  0.5518194317912514   T   T   T
  0.7493080196921627  0.9337893417419132  0.5476295471086853   T   T   T
  0.7516730357652034  0.6801060305933770  0.5533552230589102   T   T   T
  0.9156197693681524  0.9384525818958687  0.5463611880111935   T   T   T
  0.4177228011731115  0.0652581714873817  0.6400078552333496   T   T   T
  0.5837453968354149  0.9375597135404893  0.5462274443608082   T   T   T
  0.4123915922448725  0.8128971084261604  0.6393305989586949   T   T   T
  0.8036994799305585  0.2152007723266612  0.7716328766341997   T   T   T
  0.9138430789743603  0.5627152014597949  0.6408124529922709   T   T   T
  0.9133680964847984  0.8132517630413121  0.6419369645040119   T   T   T
  0.5825107339055967  0.0669159613674988  0.6385425244870342   T   T   T
  0.2493350768059156  0.3137838131289039  0.5460196235539077   T   T   T
  0.5908208857613518  0.5656791409308731  0.6385518313992862   T   T   T
  0.2476067697612018  0.5740154680931910  0.6287424892975714   T   T   T
  0.7536888461276787  0.6920361984489832  0.6576678134043333   T   T   T
  0.2620565453209672  0.8000460203323843  0.6461699448602858   T   T   T
  0.2509728994069814  0.0594815889745686  0.6423296103123125   T   T   T
  0.9166666865332829  0.5625000000092442  0.3605200052333331   F   F   F
  0.4997969504312808  0.3730630057130762  0.5006758307907352   T   T   T
  0.5002853516035776  0.6209887567812878  0.5001216827608330   T   T   T
  0.8323581026406238  0.6230573842951022  0.5001576124814814   T   T   T
  0.2520167826261905  0.1883242858737184  0.5471641118183338   T   T   T
  0.8327951754826232  0.3731993599020427  0.4992356871279368   T   T   T
  0.9144325755842443  0.3117461148812573  0.6399543562038476   T   T   T
  0.1667398720833491  0.3762121578890751  0.4977500017627537   T   T   T
  0.5800755852661026  0.4381951547173453  0.6461763381385485   T   T   T
  0.5773078754133656  0.6862565936354560  0.6395562701818134   T   T   T
  0.9158342138011721  0.1862336515860197  0.6397930808773677   T   T   T
  0.2491330358639735  0.3164872111268013  0.6412368930549296   T   T   T
  0.1677713791995780  0.8732599108313704  0.4998853063272524   T   T   T
  0.9162536286415316  0.4369892696291621  0.4534587182169792   T   T   T
  0.1670859127024431  0.1244434763504397  0.4993843513669178   T   T   T
  0.7484078310208553  0.0597335080563478  0.5446807795187636   T   T   T
  0.4256354949380365  0.3047912690570933  0.6566484891709552   T   T   T
  0.5903612979262715  0.8107154955876241  0.6458906908458879   T   T   T
  0.4204047134161671  0.6761494662187980  0.6336217488038044   T   T   T
  0.7556097382656425  0.4368216112779190  0.6396248798489670   T   T   T
  0.4994699965540955  0.2539654324500807  0.5916681113368715   T   T   T
  0.9160266633071761  0.0624472970641787  0.6413353331052704   T   T   T
  0.1675548753770785  0.6242743383067261  0.5002419256807067   T   T   T
  0.5000048047740859  0.8730969585692647  0.5008883663367317   T   T   T
  0.8331012117850817  0.1238910865305965  0.4994898246595980   T   T   T
  0.4165900141264162  0.1913622609679051  0.5469607349863784   T   T   T
  0.7410903234417705  0.8098106135702103  0.6399710103111333   T   T   T
  0.7520707485456378  0.5701764136645182  0.6349558387825374   T   T   T
  0.4173684692931222  0.9350095225474814  0.6397869031142777   T   T   T
  0.7466267773537417  0.3135285496106727  0.6379850451688448   T   T   T
  0.7477174911542190  0.0662506364708512  0.6396320646040317   T   T   T
  0.0839038164508560  0.3115145410305131  0.6405610122872653   T   T   T
  0.6664922332254579  0.8744929750200082  0.4988516204877157   T   T   T
  0.0865460146799623  0.5627906417630780  0.6400279564754399   T   T   T
  0.0871501348321795  0.4365379937158190  0.6397247907048353   T   T   T
  0.4174962538010121  0.1874659359600644  0.6398915980507076   T   T   T
  0.4156576343182704  0.4182922139622239  0.6302398489452926   T   T   T
  0.0845207558762128  0.9357006413986847  0.6409915424340821   T   T   T
  0.0831425990145214  0.6870574976167555  0.6388873419549759   T   T   T
  0.0840598063070246  0.0604367341395346  0.6420926199186100   T   T   T
  0.8330619635510791  0.5036760273105433  0.5891305169412360   T   T   T
  0.0834480978762189  0.1857182228573507  0.6409974818978876   T   T   T
  0.2399781031429496  0.4421938148040410  0.6415822178344874   T   T   T
  0.9122701245226713  0.4361168998731539  0.6398973521922560   T   T   T
  0.2520722666416089  0.9303147946384913  0.6373186762708273   T   T   T
  0.9163146660670611  0.6876329646077163  0.6390283046467127   T   T   T
  0.9143084861664957  0.9369564089310687  0.6412718904380292   T   T   T
  0.3973383243064143  0.5506448363684656  0.6520430004750090   T   T   T
  0.2543003003493289  0.6781580633014187  0.6627168008275660   T   T   T
  0.2535709804707764  0.1865158833342120  0.6411901298693679   T   T   T
  0.5796389962452235  0.1927407159917364  0.6460626317934199   T   T   T
  0.5819343737725151  0.9362351833255506  0.6393462136596882   T   T   T
  0.9166666865332829  0.8124999999834799  0.3605200052333331   F   F   F
  0.7514690592921465  0.1907052599067466  0.6442510820574943   T   T   T
  0.8319469943905536  0.2501924019649054  0.5903048195046698   T   T   T
  0.8302917360348616  0.7507358611445815  0.5927417033142980   T   T   T
  0.0846102564806948  0.8126247995562140  0.6424165271437705   T   T   T
  0.1666666716383389  0.3750000000061604  0.4070133268666680   F   F   F
  0.3261505929058789  0.3734572146086872  0.5928116663301030   T   T   T
  0.6675739125347936  0.2475717010626840  0.5029693835875525   T   T   T
  0.8348479207993016  0.2485723086948257  0.5034120118684990   T   T   T
  0.6666666865533486  0.3750000000061604  0.4070133268666680   F   F   F
  0.0004095480598284  0.1228930513935228  0.6201918485411450   T   T   T
  0.6653149386147353  0.7518095112801541  0.5021917322762037   T   T   T
  0.3302499598006162  0.2481304139242949  0.5028445544923719   T   T   T
  0.6660867046798312  0.0002485427785120  0.5054546804620148   T   T   T
  0.1643753268295987  0.7513723722678938  0.5034047583168387   T   T   T
  0.8333332538436267  0.6249999999803961  0.4070133268666680   F   F   F
  0.6685704060954779  0.4997113835769766  0.5005981002534281   T   T   T
  0.3312561214299877  0.4991098829392675  0.5010454400901331   T   T   T
  0.5010489643722471  0.7527853349029421  0.5038574046230482   T   T   T
  0.0000000000000000  0.8749999404036828  0.4070133268666680   F   F   F
  0.9998646670323053  0.7510576178845986  0.5066832173100791   T   T   T
  0.3338574832507140  0.7510723457163496  0.5015042525368628   T   T   T
  0.5011691147943643  0.4995957290653591  0.5003961552650732   T   T   T
  0.3333333432766779  0.1249999999871179  0.4070133268666680   F   F   F
  0.5014239724103066  0.2480626664267429  0.5024139054878360   T   T   T
  0.0006444232297772  0.2498604932653589  0.5059546424015500   T   T   T
  0.0001289966559564  0.9998680106681040  0.5066891423343306   T   T   T
  0.6666666865533486  0.6249999999803961  0.4070133268666680   F   F   F
  0.8333332538436267  0.8749999404036828  0.4070133268666680   F   F   F
  0.3333333432766779  0.6249999999803961  0.4070133268666680   F   F   F
  0.3333333432766779  0.8749999404036828  0.4070133268666680   F   F   F
  0.3333333432766779  0.3750000000061604  0.4070133268666680   F   F   F
  0.8341857478482462  0.0002257864575264  0.5062797101830065   T   T   T
  0.6666666865533486  0.1249999999871179  0.4070133268666680   F   F   F
  0.0000000000000000  0.6249999999803961  0.4070133268666680   F   F   F
  0.1663423128607201  0.2482003070991997  0.5062470962710649   T   T   T
  0.5001490865189588  0.9992167364912263  0.5054425662052872   T   T   T
  0.1659988661084307  0.0011492058318140  0.5065304020956154   T   T   T
  0.9994765316251886  0.4999708101476110  0.5067443633692493   T   T   T
  0.3331027876469927  0.0011006555925096  0.5057322216118716   T   T   T
  0.5007200105847711  0.8769692507868138  0.6096117795230985   T   T   T
  0.0000000000000000  0.1249999999871179  0.4070133268666680   F   F   F
  0.9991334487860725  0.8748651648931071  0.6238608474433485   T   T   T
  0.8333332538436267  0.3750000000061604  0.4070133268666680   F   F   F
  0.8333332538436267  0.1249999999871179  0.4070133268666680   F   F   F
  0.6662709742389177  0.1251190490368619  0.6112055747086583   T   T   T
  0.5000000000021103  0.6249999999803961  0.4070133268666680   F   F   F
  0.8394038918865604  0.6271491119763396  0.6041007147606255   T   T   T
  0.5000000000021103  0.8749999404036828  0.4070133268666680   F   F   F
  0.1635160228304487  0.4998198825995562  0.5019825002942830   T   T   T
  0.8318835504538895  0.8764239816427777  0.6181525490015783   T   T   T
  0.8364196016967996  0.3728101781831415  0.6039623140412798   T   T   T
  0.8360744052317747  0.7515794940198782  0.5026163509999446   T   T   T
  0.5000000000021103  0.1249999999871179  0.4070133268666680   F   F   F
  0.1666666716383389  0.8749999404036828  0.4070133268666680   F   F   F
  0.8358786902619880  0.4998485430959015  0.5029554818499637   T   T   T
  0.9997017889937372  0.6233668750735969  0.6245354801344297   T   T   T
  0.1666666716383389  0.6249999999803961  0.4070133268666680   F   F   F
  0.3314890121114857  0.1197963502420926  0.6127128333353735   T   T   T
  0.5002378178156786  0.1226625106485304  0.6067965644916947   T   T   T
  0.1666666716383389  0.1249999999871179  0.4070133268666680   F   F   F
  0.0000000000000000  0.3750000000061604  0.4070133268666680   F   F   F
  0.5035399877419746  0.6248398609550601  0.5940919353222004   T   T   T
  0.5000000000021103  0.3750000000061604  0.4070133268666680   F   F   F
  0.6666666865533486  0.8749999404036828  0.4070133268666680   F   F   F
  0.3341600733949360  0.6245040641951010  0.5950857787384749   T   T   T
  0.3345408840822158  0.8787798393841195  0.6026753688965221   T   T   T
  0.1663201296323211  0.8736882563149985  0.6177582484801959   T   T   T
  0.6723979446518560  0.3728629777680454  0.5937062981228600   T   T   T
  0.1595103414993668  0.6273962191359579  0.6013407016006896   T   T   T
  0.1676149952198960  0.1229125231234960  0.6221035192658997   T   T   T
  0.1632228498509060  0.3711956139525325  0.6075107018673427   T   T   T
  0.6650696861555397  0.8811483053043516  0.6072562241229215   T   T   T
  0.6661797683168282  0.6261927210848867  0.5933076427215314   T   T   T
  0.9997362468367786  0.3750172699671740  0.6250380327477065   T   T   T
  0.8338574174411857  0.1237113707430387  0.6143233537053781   T   T   T
  0.5027640656213281  0.3708438779360434  0.5956330007872856   T   T   T
  0.0829998176230865  0.1247527350183939  0.5067325461493140   T   T   T
  0.0809489863663218  0.6258352024960404  0.5054332490179483   T   T   T
  0.5846782854281637  0.7499486981400126  0.5997453310181746   T   T   T
  0.0831627384495381  0.2480716043026750  0.6035422393678249   T   T   T
  0.7495041912576674  0.0016175943880310  0.6042349230927813   T   T   T
  0.5825842872750039  0.0012878039707504  0.6040151091121186   T   T   T
  0.2489953006829198  0.2458956389033599  0.6036955059140556   T   T   T
  0.5904246426708594  0.5011882062581610  0.5936324123904987   T   T   T
  0.4147772095871244  0.2486385400839631  0.5913351047522278   T   T   T
  0.2496816583183084  0.7528277303037181  0.5919390854210225   T   T   T
  0.5849422930555129  0.2474237578385192  0.5974109077725438   T   T   T
  0.2496508715852513  0.9978025367611770  0.6041991899068967   T   T   T
  0.7533626095559212  0.2496091724838662  0.5957896886306435   T   T   T
  0.9165120482398036  0.9997434521663680  0.6037989470027931   T   T   T