Au  C  H  O Sr Ti                       
   1.00000000000000     
    23.6707801818999997    0.0000000000000000    0.0000000000000000
     0.0000000000000000   22.3170261383000010    0.0000000000000000
     0.0000000000000000    0.0000000000000000   30.0000000000000000
   Au   C    H    O    Sr   Ti
    50     2     2   265    72    72
Selective dynamics
Direct
  0.7130596804027106  0.5233349495881298  0.7531983105746899   T   T   T
  0.2933387623372228  0.7468895943669265  0.6969868098009483   T   T   T
  0.5108732082873756  0.6048660113771276  0.7774795797936569   T   T   T
  0.5782619361546090  0.7268274100560953  0.7938330159953840   T   T   T
  0.2398503154864054  0.4698636247389871  0.7087817014541680   T   T   T
  0.2846609415667156  0.6632655887713542  0.7644720202671416   T   T   T
  0.5962608027744283  0.3027676331843576  0.7874149451592956   T   T   T
  0.5138377670759741  0.4844671033428692  0.6780780979541977   T   T   T
  0.5617478120776757  0.4874345386237132  0.7626544932115535   T   T   T
  0.4822496669603052  0.2719108230887076  0.7750351600374684   T   T   T
  0.5413031325128242  0.3909943346228414  0.8325104854902621   T   T   T
  0.5479954716128688  0.2157239981488503  0.7097574916531320   T   T   T
  0.3911822725605507  0.8177800836277633  0.7063959322896837   T   T   T
  0.4318015909549438  0.2277628673420181  0.6986526684518621   T   T   T
  0.3682609213233983  0.3009265020773419  0.7568518016631646   T   T   T
  0.4250777962531496  0.3749652703984526  0.8179064586844828   T   T   T
  0.5961925983773588  0.7848388187541062  0.7127308580859829   T   T   T
  0.6335744031039612  0.5842955534820292  0.8000913055331914   T   T   T
  0.7316303015442921  0.6143077186667112  0.6941675802479944   T   T   T
  0.4855125320946967  0.7772699434694192  0.7549248695906984   T   T   T
  0.7621195700346421  0.4286146010535923  0.7059147831201601   T   T   T
  0.7450720263706655  0.2557879301790550  0.6953560063385094   T   T   T
  0.6205064738924480  0.5702611037370851  0.7038445673079577   T   T   T
  0.4637323207388896  0.6976878801453307  0.8304026061423526   T   T   T
  0.6188549852138981  0.3164624239258814  0.6968114934889869   T   T   T
  0.3486946744883204  0.5007648814005836  0.6977615835573417   T   T   T
  0.7020840363911748  0.3414962388384611  0.7578878372572566   T   T   T
  0.2884233640356429  0.5390863073957661  0.7771846558330497   T   T   T
  0.5672951638650391  0.5121474027755605  0.8572685868532266   T   T   T
  0.6568888100162708  0.2080394936935404  0.7522270594279721   T   T   T
  0.4659597802031209  0.4561896750367316  0.8833504237996613   T   T   T
  0.2812897570301340  0.3404651111017671  0.7024631745517398   T   T   T
  0.6688335250382956  0.6812291247729986  0.7488953059334209   T   T   T
  0.3970864849845846  0.3826258652222480  0.6908426148861608   T   T   T
  0.4521236546371001  0.5800436170156852  0.7029982410552590   T   T   T
  0.3739933611790295  0.4958511555049592  0.8329607705745588   T   T   T
  0.3237750915281164  0.4163665589418849  0.7696804648865616   T   T   T
  0.3679121449349130  0.6209614227114956  0.8199293927590116   T   T   T
  0.5188167616284954  0.3781860665223656  0.7328082621770988   T   T   T
  0.7709681320280362  0.4284126869127762  0.7962158746863568   T   T   T
  0.2559340938008690  0.5937671605013211  0.6945091819628776   T   T   T
  0.6466330592836302  0.4432945444748820  0.6956529615385679   T   T   T
  0.5652470713629216  0.6417324399258647  0.8616886710070752   T   T   T
  0.5404514106387530  0.6675619415028268  0.7019720501170091   T   T   T
  0.4427316875894530  0.4736222020413260  0.7560415123386367   T   T   T
  0.7064775684557065  0.7569827064047303  0.6884994325647359   T   T   T
  0.3738217414566364  0.7407692838518023  0.7787733976250332   T   T   T
  0.4615922306484471  0.5774737803019756  0.8650853186391125   T   T   T
  0.6514826499110271  0.4367876346049792  0.8129607847474569   T   T   T
  0.4176302894876278  0.6968462439685016  0.6994813264110092   T   T   T
  0.7686993511665771  0.1958573420000672  0.7466846193282929   T   T   T
  0.7283158791302996  0.1479580221176807  0.7518196933201933   T   T   T
  0.7219073542144511  0.1208041703274399  0.7220286189256455   T   T   T
  0.7336606262725154  0.1227313522854161  0.7824574529446641   T   T   T
  0.0843665525699221  0.6869649742371360  0.4531586518315773   T   T   T
  0.2520984946125429  0.6875675403404056  0.4560573508257863   T   T   T
  0.0840666060098805  0.9368510675283525  0.4536878894429432   T   T   T
  0.0827506317096088  0.4367596926794726  0.4528536714541412   T   T   T
  0.0838627360270605  0.1865677863938367  0.4530008987706172   T   T   T
  0.9165619289501699  0.8121417422927909  0.4540662490213653   T   T   T
  0.7464235569400799  0.5576941902348115  0.5445948222348215   T   T   T
  0.9160866871153420  0.5621946866031174  0.4540664527729734   T   T   T
  0.9161565890820196  0.0622004122167154  0.4540669277102200   T   T   T
  0.9162647935301621  0.3121731234895828  0.4537953787685526   T   T   T
  0.4170023730453224  0.4355342306667441  0.4541275717339618   T   T   T
  0.5825639598235791  0.4396475713329370  0.4563464691933658   T   T   T
  0.5830840466191631  0.1903872068383631  0.4556992751212518   T   T   T
  0.9164613329202106  0.9370904972349471  0.4536610943580682   T   T   T
  0.5832985705698439  0.8104080206300288  0.4553482336120393   T   T   T
 -0.0000339139671777  0.3733814873493602  0.4984424100688413   T   T   T
  0.9996572071693519  0.6271745448183909  0.4976541175416039   T   T   T
  0.3337870694138505  0.1257520366526090  0.4988170783281553   T   T   T
  0.0001197575609404  0.8751478187236462  0.4996023747168062   T   T   T
  0.3335109496098851  0.8741456766030729  0.4991047187685846   T   T   T
  0.6660132734485926  0.1261109029878385  0.4999333204393808   T   T   T
  0.2511829276039295  0.4392492251584983  0.4549179508970243   T   T   T
  0.0833333358191695  0.5625000000092442  0.3605200052333331   F   F   F
  0.9166666865332829  0.0625000000159659  0.3605200052333331   F   F   F
  0.7492775976227911  0.8132089687661420  0.4530244566880847   T   T   T
  0.7498470744760442  0.4385335120070744  0.4556783577463442   T   T   T
  0.9157266370310607  0.3125496974285723  0.5467378148247194   T   T   T
  0.4172003234358143  0.6847246680153286  0.4547459245334582   T   T   T
  0.0001411917189584  0.1250901868448961  0.4984030279773237   T   T   T
  0.4159816657184875  0.9370656707526026  0.5460186414628116   T   T   T
  0.5833333134730552  0.6874999999963620  0.3605200052333331   F   F   F
  0.2505445977409518  0.0620640289885686  0.4542669133574990   T   T   T
  0.5833051903160426  0.0636896938956120  0.4538344198837989   T   T   T
  0.9166666865332829  0.6874999999963620  0.3605200052333331   F   F   F
  0.9166666865332829  0.4374999701794380  0.3605200052333331   F   F   F
  0.9166666865332829  0.1875000000030838  0.3605200052333331   F   F   F
  0.5833333134730552  0.9375000000154046  0.3605200052333331   F   F   F
  0.0808568650910917  0.5644587344138609  0.5464145451707992   T   T   T
  0.5833333134730552  0.4374999701794380  0.3605200052333331   F   F   F
  0.5833333134730552  0.1875000000030838  0.3605200052333331   F   F   F
  0.2499999999799343  0.9375000000154046  0.3605200052333331   F   F   F
  0.9166666865332829  0.9375000000154046  0.3605200052333331   F   F   F
  0.2499999999799343  0.6874999999963620  0.3605200052333331   F   F   F
  0.2499999999799343  0.1875000000030838  0.3605200052333331   F   F   F
  0.7499999404149307  0.9375000000154046  0.3605200052333331   F   F   F
  0.7499999404149307  0.6874999999963620  0.3605200052333331   F   F   F
  0.4174908390722533  0.9357711943991218  0.4539139411250078   T   T   T
  0.7499999404149307  0.4374999701794380  0.3605200052333331   F   F   F
  0.4166666269218169  0.9375000000154046  0.3605200052333331   F   F   F
  0.4166666269218169  0.6874999999963620  0.3605200052333331   F   F   F
  0.4166666269218169  0.4374999701794380  0.3605200052333331   F   F   F
  0.2499999999799343  0.4374999701794380  0.3605200052333331   F   F   F
  0.0833333358191695  0.0625000000159659  0.3605200052333331   F   F   F
  0.9152869225136203  0.6868727219293259  0.4533178805939083   T   T   T
  0.6655504457409515  0.3793794467997285  0.5028967452715555   T   T   T
  0.3344668049043367  0.3783413856208064  0.5031411598274128   T   T   T
  0.3356029239822432  0.6257968350314261  0.5037652516941312   T   T   T
  0.9176003464587623  0.0633015870330065  0.5473934612310946   T   T   T
  0.7495682012692716  0.9383589575469885  0.4553387804478904   T   T   T
  0.2500054995139401  0.9360648845391305  0.4540095705470836   T   T   T
  0.2500082437365223  0.1884463718645569  0.4541416833140541   T   T   T
  0.7491319499675734  0.6886668400016781  0.4573852281057028   T   T   T
  0.7499999404149307  0.1875000000030838  0.3605200052333331   F   F   F
  0.5833333134730552  0.0625000000159659  0.3605200052333331   F   F   F
  0.4166106159898285  0.8099791795379752  0.4550496332911891   T   T   T
  0.7478530661276819  0.8077557061552976  0.5454967319878531   T   T   T
  0.2499999999799343  0.8124999999834799  0.3605200052333331   F   F   F
  0.2499999999799343  0.3124999999901945  0.3605200052333331   F   F   F
  0.2499999999799343  0.0625000000159659  0.3605200052333331   F   F   F
  0.7499999404149307  0.5625000000092442  0.3605200052333331   F   F   F
  0.7499999404149307  0.3124999999901945  0.3605200052333331   F   F   F
  0.7499999404149307  0.0625000000159659  0.3605200052333331   F   F   F
  0.4166666269218169  0.8124999999834799  0.3605200052333331   F   F   F
  0.4166666269218169  0.3124999999901945  0.3605200052333331   F   F   F
  0.7499999404149307  0.8124999999834799  0.3605200052333331   F   F   F
  0.0834984161510815  0.3119604608588326  0.4540413117140850   T   T   T
  0.4166666269218169  0.0625000000159659  0.3605200052333331   F   F   F
  0.4168852421669902  0.0615187425996742  0.4553570490614666   T   T   T
  0.0834445632831363  0.8121247473428287  0.4541750852222965   T   T   T
  0.4166666269218169  0.5625000000092442  0.3605200052333331   F   F   F
  0.4140724971270448  0.8116980668311133  0.5476837831319833   T   T   T
  0.5833333134730552  0.3124999999901945  0.3605200052333331   F   F   F
  0.0839699225489737  0.5624982986791918  0.4539872980862499   T   T   T
  0.2511052449670491  0.0625518679021154  0.5472527871140381   T   T   T
  0.8333332538436267  0.4999999999932783  0.4070133268666680   F   F   F
  0.4166666269218169  0.1875000000030838  0.3605200052333331   F   F   F
  0.0833333358191695  0.9375000000154046  0.3605200052333331   F   F   F
  0.0833333358191695  0.8124999999834799  0.3605200052333331   F   F   F
  0.0833333358191695  0.4374999701794380  0.3605200052333331   F   F   F
  0.8333332538436267  0.7500000000123208  0.4070133268666680   F   F   F
  0.4155481328027608  0.3114381916743634  0.4574056260056286   T   T   T
  0.0837504827301850  0.0618655764658099  0.4541878103359843   T   T   T
  0.4160487949531994  0.5595267151811778  0.4578685458945395   T   T   T
  0.0833333358191695  0.6874999999963620  0.3605200052333331   F   F   F
  0.2522888811889468  0.3141306545930453  0.4541652714989052   T   T   T
  0.5833333134730552  0.5625000000092442  0.3605200052333331   F   F   F
  0.2499999999799343  0.5625000000092442  0.3605200052333331   F   F   F
  0.5833333134730552  0.8124999999834799  0.3605200052333331   F   F   F
  0.6666666865533486  0.7500000000123208  0.4070133268666680   F   F   F
  0.5000000000021103  0.4999999999932783  0.4070133268666680   F   F   F
  0.0833333358191695  0.1875000000030838  0.3605200052333331   F   F   F
  0.0000000000000000  0.0000000000000000  0.4070133268666680   F   F   F
  0.0000000000000000  0.2500000000190425  0.4070133268666680   F   F   F
  0.0000000000000000  0.4999999999932783  0.4070133268666680   F   F   F
  0.7481476145067770  0.5643786736199219  0.4537565072369782   T   T   T
  0.3333333432766779  0.0000000000000000  0.4070133268666680   F   F   F
  0.3333333432766779  0.4999999999932783  0.4070133268666680   F   F   F
  0.3333333432766779  0.7500000000123208  0.4070133268666680   F   F   F
  0.6666666865533486  0.0000000000000000  0.4070133268666680   F   F   F
  0.6666666865533486  0.2500000000190425  0.4070133268666680   F   F   F
  0.6666666865533486  0.4999999999932783  0.4070133268666680   F   F   F
  0.8333332538436267  0.2500000000190425  0.4070133268666680   F   F   F
  0.1666666716383389  0.0000000000000000  0.4070133268666680   F   F   F
  0.5843468762790393  0.3155817007220120  0.4536361234814071   T   T   T
  0.1666666716383389  0.4999999999932783  0.4070133268666680   F   F   F
  0.5000000000021103  0.0000000000000000  0.4070133268666680   F   F   F
  0.5000000000021103  0.2500000000190425  0.4070133268666680   F   F   F
  0.5000000000021103  0.7500000000123208  0.4070133268666680   F   F   F
  0.9166666865332829  0.3124999999901945  0.3605200052333331   F   F   F
  0.3333333432766779  0.2500000000190425  0.4070133268666680   F   F   F
  0.7475777933961976  0.3142137097631310  0.4543082630832865   T   T   T
  0.0000000000000000  0.7500000000123208  0.4070133268666680   F   F   F
  0.5844966866406195  0.5628296580246077  0.4547795212036112   T   T   T
  0.7492657359008966  0.0640308351309160  0.4533573098005133   T   T   T
  0.8333332538436267  0.0000000000000000  0.4070133268666680   F   F   F
  0.5827628225396262  0.6860855931447613  0.4546085508254403   T   T   T
  0.2518014682546718  0.5645896710860151  0.4538179492188835   T   T   T
  0.1666666716383389  0.2500000000190425  0.4070133268666680   F   F   F
  0.2505909404551796  0.8107755263263149  0.4553125546127299   T   T   T
  0.1666666716383389  0.7500000000123208  0.4070133268666680   F   F   F
  0.6653547174451711  0.6260608834282527  0.5029710323624598   T   T   T
  0.4169227075848569  0.1872708983337213  0.4537109549191171   T   T   T
  0.5885781716913935  0.3207791211161608  0.6331684243049267   T   T   T
  0.0855907229509935  0.6892875013753041  0.5454132019041581   T   T   T
  0.0828931394922005  0.4389353426093949  0.5448468687132362   T   T   T
  0.0835422125787367  0.1888692901677130  0.5455893055150270   T   T   T
  0.4994938865207360  0.1257149282016368  0.4991545203634876   T   T   T
  0.9994889620276980  0.4986359888432516  0.5942601426823384   T   T   T
  0.5799505568547797  0.1845408119911388  0.5505955423950095   T   T   T
  0.9996936814858061  0.7535677446136592  0.5926654192113869   T   T   T
  0.3340153468229482  0.9998912558371240  0.5919100674913180   T   T   T
  0.9998662502045566  0.9988284336026686  0.5930950078678312   T   T   T
  0.0006682633234750  0.2497299681522498  0.5920008217381129   T   T   T
  0.3331620766931325  0.4958813753333218  0.5911944068445177   T   T   T
  0.3353004835915264  0.7411526488542265  0.5904488055140131   T   T   T
  0.6649798199635747  0.2446019338888560  0.5905716270080931   T   T   T
  0.6658436548200437  0.0005820881762791  0.5917274228626729   T   T   T
  0.6655820765642716  0.7412615254405049  0.5908670594615714   T   T   T
  0.6667176104569966  0.4938715949509159  0.5913616833307179   T   T   T
  0.1674742154625390  0.9983446573886715  0.5923162466040575   T   T   T
  0.1684521288122951  0.2482301193442547  0.5931507766219707   T   T   T
  0.1707267411154182  0.7502925075249903  0.5949796618748521   T   T   T
  0.2482823258584857  0.4359345331094175  0.5491156135493935   T   T   T
  0.1654451805565667  0.5033504114599463  0.5872679007367100   T   T   T
  0.3349410942381040  0.2545158725997163  0.5926572933287584   T   T   T
  0.4996244723124306  0.0001121114399940  0.5911013697813559   T   T   T
  0.8326952166576707  0.8741719545551915  0.4986447616544274   T   T   T
  0.7483098592455577  0.9367223574205835  0.6400500697133056   T   T   T
  0.8322397129589194  0.0019307190016907  0.5922159161932794   T   T   T
  0.7501401059293427  0.1838491907093684  0.5498332833170432   T   T   T
  0.4229555911958194  0.6878286289538111  0.5467402501693700   T   T   T
  0.4231504866206190  0.4435143518625066  0.5459893123012933   T   T   T
  0.7527275516772945  0.4344295961591751  0.5495798580748985   T   T   T
  0.5842951366538343  0.3104726070391327  0.5449945547281060   T   T   T
  0.2533004368408442  0.8125939851718023  0.5506585527256719   T   T   T
  0.5826336844254006  0.9371430406824484  0.4543379161681128   T   T   T
  0.9158731822666315  0.1868192790766564  0.4531316721150933   T   T   T
  0.7500289145599816  0.1896166181427878  0.4554275405466879   T   T   T
  0.5824350429397890  0.0615935291134574  0.5453204663048355   T   T   T
  0.5860370898358368  0.8142462202464615  0.5503886863793623   T   T   T
  0.7475753055615256  0.3108778433485087  0.5464024660416336   T   T   T
  0.5813152389993186  0.5598801695459716  0.5488818238474794   T   T   T
  0.2526241337506491  0.5590930048927063  0.5439217644075159   T   T   T
  0.4163050491785447  0.3194486793189617  0.5528141542880322   T   T   T
  0.5764349086190170  0.4356649365183544  0.5521743966055025   T   T   T
  0.4166395601331099  0.0654355621998498  0.5473476195294595   T   T   T
  0.0851134009267037  0.8125977541282319  0.5473213589221378   T   T   T
  0.0866630825072813  0.3134977518539591  0.5471140229929181   T   T   T
  0.5005629202085805  0.7567488490721199  0.5924997389280932   T   T   T
  0.0823935533382463  0.0630943807586077  0.5475629247693146   T   T   T
  0.0833333358191695  0.3124999999901945  0.3605200052333331   F   F   F
  0.9142745895143422  0.6887189766648736  0.5456347612547475   T   T   T
  0.9165539194751412  0.1887415202570150  0.5453632647517883   T   T   T
  0.9154499648579798  0.4375902256507648  0.5455925115191924   T   T   T
  0.5794253914057671  0.6860949179957866  0.5473922619448875   T   T   T
  0.2515241394281258  0.9372682349769362  0.5452181415093094   T   T   T
  0.4974101710348471  0.5044592450973635  0.6090369937642847   T   T   T
  0.9178469168252863  0.5637564069517584  0.5470905332951904   T   T   T
  0.4198135714896539  0.5647175742684076  0.5554120123350277   T   T   T
  0.9154382731060243  0.8126485093029489  0.5468061872487647   T   T   T
  0.0841096469811771  0.9383969907270869  0.5461129048601252   T   T   T
  0.2489929324737861  0.6833197785823971  0.5518733410974251   T   T   T
  0.7493403754275251  0.9338002643652559  0.5476504649577232   T   T   T
  0.7516663410899308  0.6801224833114575  0.5533316470734080   T   T   T
  0.9156223238288115  0.9384648682469073  0.5463800585380206   T   T   T
  0.4176502184279490  0.0651850019889229  0.6400997709726873   T   T   T
  0.5837179717126810  0.9375389286891199  0.5462284482027380   T   T   T
  0.4123920450828948  0.8128674115984899  0.6393853336739379   T   T   T
  0.8083649365901554  0.2140224648039800  0.7679267470690101   T   T   T
  0.9135234697349370  0.5625403613695082  0.6407241082472701   T   T   T
  0.9133564590736650  0.8132429790645401  0.6419218990783958   T   T   T
  0.5826051230528120  0.0668164409604105  0.6386400739585356   T   T   T
  0.2492704518257220  0.3137590077281360  0.5459355764928460   T   T   T
  0.5907632595251289  0.5658133563598250  0.6385815596090865   T   T   T
  0.2475721027979038  0.5739531901058362  0.6287253710681285   T   T   T
  0.7537793412065387  0.6918441093915759  0.6576519339970441   T   T   T
  0.2621063365168219  0.7998565382261273  0.6463545779235416   T   T   T
  0.2510017321692874  0.0594433255967647  0.6423164317920360   T   T   T
  0.9166666865332829  0.5625000000092442  0.3605200052333331   F   F   F
  0.4997952145648087  0.3738292143038379  0.5003768422583001   T   T   T
  0.5003055613570072  0.6209964216843296  0.5001139315579447   T   T   T
  0.8323383953227476  0.6230615143878866  0.5001541173752703   T   T   T
  0.2520331882445961  0.1882702315802047  0.5471856770301229   T   T   T
  0.8327208810971265  0.3731701488836739  0.4994926938616341   T   T   T
  0.9147785975848949  0.3115577024386999  0.6399864489307592   T   T   T
  0.1667363690690297  0.3762286933287782  0.4977248745148757   T   T   T
  0.5804472242363837  0.4384430681739412  0.6462553722086914   T   T   T
  0.5771633215678991  0.6862083984155257  0.6394444249982144   T   T   T
  0.9159098162109366  0.1861409700967256  0.6398122707518877   T   T   T
  0.2490910047503802  0.3164427583375387  0.6411622547132738   T   T   T
  0.1677972785936691  0.8732371780517391  0.4999011403528903   T   T   T
  0.9160957455194971  0.4369693672190101  0.4535416502327059   T   T   T
  0.1670627554699833  0.1243371096269823  0.4993413807390503   T   T   T
  0.7485136151541127  0.0598833632106519  0.5448818072567637   T   T   T
  0.4260035749188221  0.3046271609788931  0.6564547125035101   T   T   T
  0.5906473208985449  0.8105469081229030  0.6459255583455867   T   T   T
  0.4204716883550847  0.6761695185389914  0.6335745217061981   T   T   T
  0.7555098393708605  0.4365863178496174  0.6396325090165018   T   T   T
  0.4995753964679694  0.2539850382766110  0.5915670979514956   T   T   T
  0.9160475728826800  0.0624710749899919  0.6414104171427818   T   T   T
  0.1675873249623621  0.6242917368756304  0.5002595453278824   T   T   T
  0.4999915982332936  0.8730457470632218  0.5009266600830250   T   T   T
  0.8330343443876682  0.1240128991072912  0.4994993102270256   T   T   T
  0.4165773150355339  0.1915294892379104  0.5468469914839922   T   T   T
  0.7411407170531428  0.8097570537278160  0.6400054279214793   T   T   T
  0.7520964198552393  0.5700474194419223  0.6348607083635136   T   T   T
  0.4173577613298082  0.9349889009701631  0.6398069448264609   T   T   T
  0.7465179878556150  0.3133487806918046  0.6381977330494506   T   T   T
  0.7477654857841270  0.0661815506840442  0.6400378275106383   T   T   T
  0.0840344004213811  0.3113575735129457  0.6407706196207617   T   T   T
  0.6665092884782839  0.8745170968424373  0.4988353686378767   T   T   T
  0.0864791151790760  0.5628242258295376  0.6400327891192795   T   T   T
  0.0871415772487662  0.4365134212345515  0.6397172751749959   T   T   T
  0.4176959397987459  0.1873935670790406  0.6397977270600150   T   T   T
  0.4156086973342197  0.4181623082720225  0.6302087669860893   T   T   T
  0.0845132888011728  0.9356717418995061  0.6409667152143413   T   T   T
  0.0831333598260472  0.6870180241234771  0.6388986842477421   T   T   T
  0.0840796706760181  0.0603557513848134  0.6421122388621591   T   T   T
  0.8329761875305318  0.5034114048018172  0.5889381973787146   T   T   T
  0.0834698676569667  0.1855532634399758  0.6411041850891717   T   T   T
  0.2399528994564485  0.4421027143696327  0.6414650114889927   T   T   T
  0.9120756066828880  0.4359055178679677  0.6398218484069345   T   T   T
  0.2520393041213476  0.9302656049476835  0.6373285061146222   T   T   T
  0.9163307596187069  0.6876333844242354  0.6390353312640279   T   T   T
  0.9142758715992386  0.9369619282062376  0.6412506395014588   T   T   T
  0.3973822870579845  0.5506379202834151  0.6519772621732566   T   T   T
  0.2545073842453738  0.6780587948604629  0.6627064511235599   T   T   T
  0.2535967599649382  0.1864949511794451  0.6411936955099972   T   T   T
  0.5799828324611942  0.1926946044567050  0.6460818864650691   T   T   T
  0.5820288713227254  0.9360739750789534  0.6394128898343281   T   T   T
  0.9166666865332829  0.8124999999834799  0.3605200052333331   F   F   F
  0.7508608956821429  0.1906229302655653  0.6445892294857668   T   T   T
  0.8320506228407586  0.2497250479053655  0.5905192554338259   T   T   T
  0.8303224639620559  0.7507264665165072  0.5927072074342906   T   T   T
  0.0844135117565566  0.8126061445735672  0.6424107845324282   T   T   T
  0.1666666716383389  0.3750000000061604  0.4070133268666680   F   F   F
  0.3260515438037598  0.3734735512166913  0.5927935435343442   T   T   T
  0.6675639944206010  0.2476558080100355  0.5029897201664578   T   T   T
  0.8349279450430975  0.2483668508631785  0.5034406712211184   T   T   T
  0.6666666865533486  0.3750000000061604  0.4070133268666680   F   F   F
  0.0005121458335000  0.1227263120909672  0.6200972657512166   T   T   T
  0.6653036944344076  0.7517957157568662  0.5021889063910877   T   T   T
  0.3301807104752673  0.2480476679995137  0.5028259240792781   T   T   T
  0.6660379053709159  0.0001623029705369  0.5055220519247473   T   T   T
  0.1643789802325796  0.7513596306135324  0.5034278852421474   T   T   T
  0.8333332538436267  0.6249999999803961  0.4070133268666680   F   F   F
  0.6685813100935669  0.4996399118102521  0.5005783309905889   T   T   T
  0.3311983268539005  0.4991903653246816  0.5010240414043061   T   T   T
  0.5010234989766817  0.7527854248301902  0.5038523470511439   T   T   T
  0.0000000000000000  0.8749999404036828  0.4070133268666680   F   F   F
  0.9998649007273896  0.7510237329324877  0.5066932627227494   T   T   T
  0.3338276000924648  0.7510888866505634  0.5015067381764686   T   T   T
  0.5011190633681241  0.4995273582113486  0.5003711510950570   T   T   T
  0.3333333432766779  0.1249999999871179  0.4070133268666680   F   F   F
  0.5013963199330411  0.2479894379655409  0.5024392289492957   T   T   T
  0.0007387011171139  0.2498232019259314  0.5059996988021923   T   T   T
  0.0001338169101141  0.9998814408953509  0.5066806966263101   T   T   T
  0.6666666865533486  0.6249999999803961  0.4070133268666680   F   F   F
  0.8333332538436267  0.8749999404036828  0.4070133268666680   F   F   F
  0.3333333432766779  0.6249999999803961  0.4070133268666680   F   F   F
  0.3333333432766779  0.8749999404036828  0.4070133268666680   F   F   F
  0.3333333432766779  0.3750000000061604  0.4070133268666680   F   F   F
  0.8342234911692376  0.0002311626180860  0.5063599970988530   T   T   T
  0.6666666865533486  0.1249999999871179  0.4070133268666680   F   F   F
  0.0000000000000000  0.6249999999803961  0.4070133268666680   F   F   F
  0.1662991291440203  0.2481774751459698  0.5062663628939987   T   T   T
  0.5001552641853099  0.9992293132367257  0.5055041646112383   T   T   T
  0.1660165946825345  0.0011427874612012  0.5065534888449164   T   T   T
  0.9994656966655925  0.4998401013104789  0.5067887922250908   T   T   T
  0.3331220810384690  0.0010738894575346  0.5057562009718295   T   T   T
  0.5007389169836757  0.8769270377370858  0.6096555512994988   T   T   T
  0.0000000000000000  0.1249999999871179  0.4070133268666680   F   F   F
  0.9990807315852563  0.8748682773993719  0.6237729732882550   T   T   T
  0.8333332538436267  0.3750000000061604  0.4070133268666680   F   F   F
  0.8333332538436267  0.1249999999871179  0.4070133268666680   F   F   F
  0.6660994197170069  0.1247708872123695  0.6108784029640995   T   T   T
  0.5000000000021103  0.6249999999803961  0.4070133268666680   F   F   F
  0.8394036030544900  0.6271439069059997  0.6040160827303857   T   T   T
  0.5000000000021103  0.8749999404036828  0.4070133268666680   F   F   F
  0.1634223147433546  0.4998259119950967  0.5019937624426414   T   T   T
  0.8319236059380188  0.8764421598014023  0.6180182358953591   T   T   T
  0.8363433577329564  0.3723727911114644  0.6041594764716476   T   T   T
  0.8360994243859924  0.7515766679589013  0.5026193578931925   T   T   T
  0.5000000000021103  0.1249999999871179  0.4070133268666680   F   F   F
  0.1666666716383389  0.8749999404036828  0.4070133268666680   F   F   F
  0.8359048701974702  0.4996688210147460  0.5029580052445485   T   T   T
  0.9995986524663398  0.6232633611193332  0.6245292696765011   T   T   T
  0.1666666716383389  0.6249999999803961  0.4070133268666680   F   F   F
  0.3315028626798872  0.1197448847777102  0.6127195233176611   T   T   T
  0.5003328863908858  0.1224650431589801  0.6068737285799212   T   T   T
  0.1666666716383389  0.1249999999871179  0.4070133268666680   F   F   F
  0.0000000000000000  0.3750000000061604  0.4070133268666680   F   F   F
  0.5035210668746135  0.6248507112487672  0.5940155640291064   T   T   T
  0.5000000000021103  0.3750000000061604  0.4070133268666680   F   F   F
  0.6666666865533486  0.8749999404036828  0.4070133268666680   F   F   F
  0.3341336264208932  0.6245504774756412  0.5950788423414065   T   T   T
  0.3345426186785188  0.8787155397814723  0.6027603791030722   T   T   T
  0.1662740160073571  0.8736579513113479  0.6177757813211839   T   T   T
  0.6722316408657505  0.3727931435675445  0.5937419195512571   T   T   T
  0.1594776016167685  0.6273730440378057  0.6013772539568968   T   T   T
  0.1676572487053646  0.1228458832689434  0.6221196874956735   T   T   T
  0.1631105890815510  0.3711404982802862  0.6074307102334524   T   T   T
  0.6651575224964664  0.8810976486299374  0.6072554982200237   T   T   T
  0.6662754566850727  0.6261613568665089  0.5933141605994068   T   T   T
 -0.0001605336342303  0.3749118976628424  0.6252533353300522   T   T   T
  0.8339769162429297  0.1235420015133170  0.6145889602404269   T   T   T
  0.5028441301388913  0.3708458752033086  0.5957271915582938   T   T   T
  0.0830092798224650  0.1247041601691955  0.5067711064776392   T   T   T
  0.0809399127935579  0.6258295365085585  0.5054218394282592   T   T   T
  0.5846793620047045  0.7499070871381663  0.5996781835483839   T   T   T
  0.0832861925596351  0.2479275213234774  0.6036398605120360   T   T   T
  0.7495203725248482  0.0016761812358688  0.6043432078589118   T   T   T
  0.5825797946398097  0.0011477963718907  0.6041469914704909   T   T   T
  0.2489721087760565  0.2458752651177622  0.6036390981944088   T   T   T
  0.5903286380197288  0.5012130974119082  0.5936056059244034   T   T   T
  0.4147821972739667  0.2486574632246543  0.5913109986617821   T   T   T
  0.2496857742682231  0.7528224665475677  0.5920147323863997   T   T   T
  0.5850280654930026  0.2474494058336805  0.5973714178130946   T   T   T
  0.2497044338966612  0.9977398073902606  0.6042057559882740   T   T   T
  0.7536641839989650  0.2485120130702193  0.5954660593163985   T   T   T
  0.9164792702049719  0.9997963162218303  0.6038236427281983   T   T   T