Au O  Sr Ti H                           
   1.00000000000000     
    23.6707801818999997    0.0000000000000000    0.0000000000000000
     0.0000000000000000   22.3170261383000010    0.0000000000000000
     0.0000000000000000    0.0000000000000000   30.0000000000000000
   Au   O    Sr   Ti   H 
    50   264    72    72     1
Selective dynamics
Direct
  0.7175216009842984  0.5264436931774696  0.7538886308653687   F   F   F
  0.6236062055537062  0.5692370397711528  0.7042092187442606   F   F   F
  0.7181164656136900  0.2591745728363293  0.6914052622549249   F   F   F
  0.3047203187482594  0.7496117831321527  0.6918140413266869   F   F   F
  0.5095283936330048  0.6068816570436155  0.7773212387615800   F   F   F
  0.5787219485635475  0.7253551144923094  0.7933252741519254   F   F   F
  0.5492713078558680  0.3834507038005412  0.8272188447082485   F   F   F
  0.2417477343953962  0.4674018111891343  0.7093838719993357   F   F   F
  0.2914208278947186  0.6664706987036411  0.7651387557407503   F   F   F
  0.6028889839037532  0.2880080454657090  0.7866461884355189   F   F   F
  0.5132437572687607  0.4856805272176032  0.6775901310023045   F   F   F
  0.5600427877206826  0.4883598530190554  0.7622740020717131   F   F   F
  0.4637452802350595  0.6973120990703308  0.8328328976232271   F   F   F
  0.7641623020077688  0.4324739628902066  0.7051301690975009   F   F   F
  0.7336102209034294  0.6155008396218520  0.6938143877008400   F   F   F
  0.6342444663150388  0.5841570310717472  0.7997091061921111   F   F   F
  0.5953213982308370  0.7842636493066166  0.7127895171494814   F   F   F
  0.4854751969788182  0.7807576411652875  0.7593321910584123   F   F   F
  0.3485865898625562  0.5006960744261306  0.6949116228800847   F   F   F
  0.4291386792799656  0.3719905095604403  0.8142990465778510   F   F   F
  0.3714376850034995  0.2984103599071233  0.7545057994985882   F   F   F
  0.4415802344424904  0.2284896944782631  0.6969820231286548   F   F   F
  0.3981724772005890  0.8251362074260697  0.7052374720024090   F   F   F
  0.2938398802495144  0.5399814463646280  0.7759681262055267   F   F   F
  0.5561600616724789  0.2098501629755845  0.7113046469198920   F   F   F
  0.4518458305148911  0.5822051692579606  0.7025341269945358   F   F   F
  0.6134811609429889  0.3207325094712630  0.6972013748694437   F   F   F
  0.7062752238348367  0.7578579899604776  0.6884574148607214   F   F   F
  0.6548937446082235  0.4423830250112246  0.8101412702402868   F   F   F
  0.3729949475256262  0.6170394681212770  0.8206275288506291   F   F   F
  0.5707787972590879  0.5092159610632052  0.8566664976363825   F   F   F
  0.6648462236142549  0.1930472166079724  0.7516861017605265   F   F   F
  0.4723781315831843  0.4482163510942740  0.8785368345423308   F   F   F
  0.5157308552109612  0.3788409399564259  0.7327177924778994   F   F   F
  0.2828828573116269  0.3388857227266371  0.7025129067411058   F   F   F
  0.6698660640263370  0.6810087618623797  0.7485510587509268   F   F   F
  0.3975074806655812  0.3824840187138747  0.6897293536054008   F   F   F
  0.3760154280480066  0.4914247563237097  0.8333330636372551   F   F   F
  0.4648250312490632  0.5712698295143213  0.8647982996950319   F   F   F
  0.3256954347083507  0.4150007053647400  0.7690507359010255   F   F   F
  0.4870892362572192  0.2701911377230317  0.7748332731205494   F   F   F
  0.4244121358864277  0.7028941348121336  0.7001641596990922   F   F   F
  0.6999557821588525  0.3468425198531406  0.7559055424931174   F   F   F
  0.7741339605941491  0.4296453663143538  0.7951847587894463   F   F   F
  0.2622674981506279  0.5969480496420587  0.6969528884609986   F   F   F
  0.6470327624310528  0.4432194727131034  0.6969074699067832   F   F   F
  0.5646459381314770  0.6396419736685885  0.8612465900156181   F   F   F
  0.5430120921441386  0.6657819697867424  0.7012583369114154   F   F   F
  0.4411806958929674  0.4755902975402719  0.7549991858007346   F   F   F
  0.3759952430820093  0.7515638865695280  0.7804977245045208   F   F   F
  0.2498468576718622  0.1884795599464795  0.4541167962808075   F   F   F
  0.7494574611250542  0.9384205667736154  0.4553519488735631   F   F   F
  0.7490264135565923  0.6887148630386903  0.4574301413359763   F   F   F
  0.7494408866795865  0.4383854729537333  0.4557875129392741   F   F   F
  0.7501249753729553  0.1896627377068043  0.4556176179111233   F   F   F
  0.4171346551127186  0.9359262021703572  0.4539773437927437   F   F   F
  0.4170988884827764  0.6849625021599266  0.4549160640632053   F   F   F
  0.4164808724039801  0.4354333705816416  0.4537591646547980   F   F   F
  0.0843002368848076  0.6869770133566888  0.4531265573300232   F   F   F
  0.0837952478819304  0.9366103404115833  0.4534424415772307   F   F   F
  0.0827955398349687  0.4368156225415447  0.4528896073533559   F   F   F
  0.0838413043386126  0.1865679943244629  0.4529804921225775   F   F   F
  0.9165465589248143  0.8120292204260338  0.4540489251599453   F   F   F
  0.9162426916124247  0.5624071712622936  0.4538376877464998   F   F   F
  0.2511698663326740  0.4394723312908368  0.4550426077329632   F   F   F
  0.9161270995493993  0.0621437523032498  0.4540721457558092   F   F   F
  0.9162992084587103  0.3122257888252022  0.4538439712116826   F   F   F
  0.4172124359068619  0.1871825298560879  0.4535996785794723   F   F   F
  0.2519939532633018  0.6879328493764376  0.4560068946902689   F   F   F
  0.9164428407968472  0.9370064198447281  0.4535481884144303   F   F   F
  0.5826353484753994  0.1891152189205698  0.4551107175578011   F   F   F
  0.0000233158785719  0.1251022679762457  0.4983832859285755   F   F   F
  0.5836384169353366  0.8100277677434207  0.4555216951607619   F   F   F
  0.9999867154819384  0.3734445795691599  0.4983943719616519   F   F   F
  0.0001215442230773  0.6269833219331673  0.4979590001640162   F   F   F
  0.3335628587258199  0.1256431675165928  0.4985511841093100   F   F   F
  0.0000471079910156  0.8750126366676554  0.4994754759431643   F   F   F
  0.3333985580809014  0.8738314901811037  0.4993587514279056   F   F   F
  0.6659102269024899  0.1257719771764059  0.4992515797636514   F   F   F
  0.3355571293274906  0.6257995371147302  0.5037750811155135   F   F   F
  0.3343184591142361  0.3785509213748597  0.5030302225731447   F   F   F
  0.6653907738156448  0.3785578918872545  0.5031829978394953   F   F   F
  0.9154569474873071  0.6866968802626801  0.4530787354045742   F   F   F
  0.9159364379848753  0.4369933406162403  0.4536242197564064   F   F   F
  0.9158424939487020  0.1869184790680620  0.4531905221078460   F   F   F
  0.5827559502971127  0.9360962058083189  0.4535972268958162   F   F   F
  0.5827906612161300  0.6860119205500936  0.4545672332575066   F   F   F
  0.5826377302314327  0.4392178187172462  0.4561898902429817   F   F   F
  0.2500187663384281  0.9360959791778498  0.4539717018904668   F   F   F
  0.6654057700606018  0.6257903712660280  0.5029586066990959   F   F   F
  0.5846232448376512  0.5625173218263413  0.4550306764340633   F   F   F
  0.5827845531500842  0.0623545389631559  0.4548464426370771   F   F   F
  0.9166666865332829  0.6874999999963620  0.3605200052333331   F   F   F
  0.9166666865332829  0.4374999701794380  0.3605200052333331   F   F   F
  0.9166666865332829  0.1875000000030838  0.3605200052333331   F   F   F
  0.5833333134730552  0.9375000000154046  0.3605200052333331   F   F   F
  0.5833333134730552  0.6874999999963620  0.3605200052333331   F   F   F
  0.5833333134730552  0.4374999701794380  0.3605200052333331   F   F   F
  0.5833333134730552  0.1875000000030838  0.3605200052333331   F   F   F
  0.2499999999799343  0.9375000000154046  0.3605200052333331   F   F   F
  0.9166666865332829  0.9375000000154046  0.3605200052333331   F   F   F
  0.2499999999799343  0.6874999999963620  0.3605200052333331   F   F   F
  0.2499999999799343  0.1875000000030838  0.3605200052333331   F   F   F
  0.7499999404149307  0.9375000000154046  0.3605200052333331   F   F   F
  0.7499999404149307  0.6874999999963620  0.3605200052333331   F   F   F
  0.7499999404149307  0.4374999701794380  0.3605200052333331   F   F   F
  0.7499999404149307  0.1875000000030838  0.3605200052333331   F   F   F
  0.4166666269218169  0.9375000000154046  0.3605200052333331   F   F   F
  0.4166666269218169  0.6874999999963620  0.3605200052333331   F   F   F
  0.4166666269218169  0.4374999701794380  0.3605200052333331   F   F   F
  0.2499999999799343  0.4374999701794380  0.3605200052333331   F   F   F
  0.0833333358191695  0.0625000000159659  0.3605200052333331   F   F   F
  0.0833333358191695  0.3124999999901945  0.3605200052333331   F   F   F
  0.0833333358191695  0.5625000000092442  0.3605200052333331   F   F   F
  0.9166666865332829  0.3124999999901945  0.3605200052333331   F   F   F
  0.9166666865332829  0.0625000000159659  0.3605200052333331   F   F   F
  0.5833333134730552  0.8124999999834799  0.3605200052333331   F   F   F
  0.5833333134730552  0.5625000000092442  0.3605200052333331   F   F   F
  0.5833333134730552  0.3124999999901945  0.3605200052333331   F   F   F
  0.5833333134730552  0.0625000000159659  0.3605200052333331   F   F   F
  0.2499999999799343  0.8124999999834799  0.3605200052333331   F   F   F
  0.2499999999799343  0.5625000000092442  0.3605200052333331   F   F   F
  0.2499999999799343  0.3124999999901945  0.3605200052333331   F   F   F
  0.2499999999799343  0.0625000000159659  0.3605200052333331   F   F   F
  0.7499999404149307  0.8124999999834799  0.3605200052333331   F   F   F
  0.7499999404149307  0.5625000000092442  0.3605200052333331   F   F   F
  0.7499999404149307  0.3124999999901945  0.3605200052333331   F   F   F
  0.7499999404149307  0.0625000000159659  0.3605200052333331   F   F   F
  0.4166666269218169  0.8124999999834799  0.3605200052333331   F   F   F
  0.4166666269218169  0.5625000000092442  0.3605200052333331   F   F   F
  0.4166666269218169  0.3124999999901945  0.3605200052333331   F   F   F
  0.4166666269218169  0.0625000000159659  0.3605200052333331   F   F   F
  0.0833333358191695  0.8124999999834799  0.3605200052333331   F   F   F
  0.4166666269218169  0.1875000000030838  0.3605200052333331   F   F   F
  0.0833333358191695  0.9375000000154046  0.3605200052333331   F   F   F
  0.0833333358191695  0.6874999999963620  0.3605200052333331   F   F   F
  0.0833333358191695  0.4374999701794380  0.3605200052333331   F   F   F
  0.8333332538436267  0.4999999999932783  0.4070133268666680   F   F   F
  0.8333332538436267  0.7500000000123208  0.4070133268666680   F   F   F
  0.0836806571118629  0.0618238325338751  0.4542388276717162   F   F   F
  0.0835272946081034  0.3119885445516033  0.4539909315347970   F   F   F
  0.0838443768749073  0.5624470212784303  0.4538449264276068   F   F   F
  0.0835709638534254  0.8120723526969655  0.4542398041282567   F   F   F
  0.4168933184772570  0.0616167631925748  0.4553489955159051   F   F   F
  0.4155023543461098  0.3114089901123336  0.4573646473337831   F   F   F
  0.4160646352683273  0.5595176618882078  0.4578417851185677   F   F   F
  0.4166584646764022  0.8101054897671816  0.4550364393312663   F   F   F
  0.7495976155927124  0.0640386954067793  0.4533649353693789   F   F   F
  0.7473447397300674  0.3140965750423703  0.4546042371435419   F   F   F
  0.7481724437081638  0.5642921199913289  0.4536761220866410   F   F   F
  0.7490401466464505  0.8134275970305254  0.4528839928618922   F   F   F
  0.2504500385759911  0.0620149104993573  0.4542394086466857   F   F   F
  0.9152912561409394  0.3127039304224795  0.5467127208866600   F   F   F
  0.2521914779930370  0.3142784551805136  0.4540751873387876   F   F   F
  0.2520270908583839  0.5650771798324570  0.4531036825916246   F   F   F
  0.2501610382229842  0.8111701213165858  0.4550144003603975   F   F   F
  0.8333332538436267  0.2500000000190425  0.4070133268666680   F   F   F
  0.5840874905518305  0.3146610152747797  0.4542413518717154   F   F   F
  0.8333332538436267  0.0000000000000000  0.4070133268666680   F   F   F
  0.5000000000021103  0.4999999999932783  0.4070133268666680   F   F   F
  0.0833333358191695  0.1875000000030838  0.3605200052333331   F   F   F
  0.0000000000000000  0.0000000000000000  0.4070133268666680   F   F   F
  0.0000000000000000  0.2500000000190425  0.4070133268666680   F   F   F
  0.0000000000000000  0.4999999999932783  0.4070133268666680   F   F   F
  0.0000000000000000  0.7500000000123208  0.4070133268666680   F   F   F
  0.3333333432766779  0.0000000000000000  0.4070133268666680   F   F   F
  0.3333333432766779  0.2500000000190425  0.4070133268666680   F   F   F
  0.3333333432766779  0.4999999999932783  0.4070133268666680   F   F   F
  0.3333333432766779  0.7500000000123208  0.4070133268666680   F   F   F
  0.6666666865533486  0.0000000000000000  0.4070133268666680   F   F   F
  0.6666666865533486  0.2500000000190425  0.4070133268666680   F   F   F
  0.6666666865533486  0.4999999999932783  0.4070133268666680   F   F   F
  0.6666666865533486  0.7500000000123208  0.4070133268666680   F   F   F
  0.1666666716383389  0.0000000000000000  0.4070133268666680   F   F   F
  0.1666666716383389  0.2500000000190425  0.4070133268666680   F   F   F
  0.1666666716383389  0.4999999999932783  0.4070133268666680   F   F   F
  0.1666666716383389  0.7500000000123208  0.4070133268666680   F   F   F
  0.5000000000021103  0.0000000000000000  0.4070133268666680   F   F   F
  0.5000000000021103  0.2500000000190425  0.4070133268666680   F   F   F
  0.5000000000021103  0.7500000000123208  0.4070133268666680   F   F   F
  0.1670164372475753  0.1243052908687403  0.4993279775715251   F   F   F
  0.9176917635444539  0.0632501961145238  0.5474455118498156   F   F   F
  0.1676264027054870  0.8734631287035768  0.4998346996072982   F   F   F
  0.2517303767534500  0.1883769743871326  0.5470804244967695   F   F   F
  0.7494064566809158  0.9340278709339529  0.5476516103535687   F   F   F
  0.7516705301545556  0.6800404923676595  0.5533458748844993   F   F   F
  0.7522805772299819  0.4345312393325855  0.5492916558826622   F   F   F
  0.4230847400151134  0.4442476419948065  0.5452947789021820   F   F   F
  0.4234643687998201  0.6876217849907746  0.5468009605004127   F   F   F
  0.7484286752469558  0.1835889539675719  0.5507384277838483   F   F   F
  0.4159172610009492  0.9368408467816707  0.5462319938525084   F   F   F
  0.0835687366788065  0.9389542902758308  0.5457244185058343   F   F   F
  0.4156910628734423  0.1915378223136770  0.5465276669517962   F   F   F
  0.0870271880570144  0.6896794234308956  0.5453257248514234   F   F   F
  0.0826699547305267  0.4386323191530863  0.5451844023237484   F   F   F
  0.0836570062508315  0.1889940568686370  0.5455007052738381   F   F   F
  0.4994031300890001  0.1255670011360053  0.4996444432633567   F   F   F
  0.9995875594818884  0.5014566280318675  0.5944796112923072   F   F   F
  0.9995595013933141  0.7528566454492278  0.5923172939839318   F   F   F
  0.3346394277321991  0.2545514432886335  0.5926814641233520   F   F   F
  0.3340083697789140  0.9998283636766914  0.5920729902586217   F   F   F
  0.9996057722700300  0.9994748473713244  0.5930691297956301   F   F   F
  0.0007291583303868  0.2498045812107961  0.5915492155694579   F   F   F
  0.3332572653156873  0.4968695194638428  0.5906862913503730   F   F   F
  0.3357052355065093  0.7410893103307288  0.5891807348315865   F   F   F
  0.6633807144092998  0.2475715997263990  0.5905716818994762   F   F   F
  0.6657082135834429  0.0004093577472162  0.5918458045769270   F   F   F
  0.6656896139983743  0.7419982831100285  0.5901123487893400   F   F   F
  0.6667712219636570  0.4936652807643185  0.5914247438944003   F   F   F
  0.1672231883362869  0.9986014464912927  0.5923163481153111   F   F   F
  0.1683199616631939  0.2492926091923025  0.5929992537949289   F   F   F
  0.1712644742388107  0.7501797573798044  0.5956487547182121   F   F   F
  0.2481255900979207  0.4361695591035044  0.5492079882241399   F   F   F
  0.1657255485974574  0.5038909872763853  0.5879809887604779   F   F   F
  0.2485114845810585  0.6829768540809127  0.5520526016909386   F   F   F
  0.5807366057701842  0.1862177913526395  0.5492184388273955   F   F   F
  0.9154783675548472  0.8128219980703122  0.5467784196285450   F   F   F
  0.9167692810080510  0.5635232269290142  0.5465222241105252   F   F   F
  0.5812150003815759  0.5604457101325337  0.5495433855361114   F   F   F
  0.5853637995506915  0.8151091343728183  0.5506401215790930   F   F   F
  0.5828795755097005  0.3120503260480945  0.5457579399852435   F   F   F
  0.5824020113866908  0.0634955203194139  0.5471140617153978   F   F   F
  0.2526971876460067  0.8124020938421097  0.5501201643943574   F   F   F
  0.2521238080740673  0.5590869957603815  0.5433720437568041   F   F   F
  0.2494752219918510  0.3137686942351365  0.5459939254949546   F   F   F
  0.2510794429860681  0.0625973302908278  0.5472553369854296   F   F   F
  0.7482439935304939  0.8080735300442825  0.5455329545130141   F   F   F
  0.7464714653108828  0.5575526966675000  0.5444245279627253   F   F   F
  0.4150860296950114  0.8117081105308941  0.5475138516072704   F   F   F
  0.7482799090689198  0.0596138805671274  0.5445543537004838   F   F   F
  0.7479837113652437  0.3112419226922469  0.5479513476620568   F   F   F
  0.4160014871765370  0.3198056347741129  0.5525590863394285   F   F   F
  0.4200770311276827  0.5652839525081959  0.5549255006139973   F   F   F
  0.4164995703944001  0.0654081002281544  0.5474096371654298   F   F   F
  0.0852367796007272  0.8129494876479484  0.5475051395457200   F   F   F
  0.0829116413441184  0.5641889006180207  0.5463969144894847   F   F   F
  0.0858034957116161  0.3134820715489539  0.5469868462644456   F   F   F
  0.0822474598957328  0.0633338798054268  0.5475900217149601   F   F   F
  0.9156005056937744  0.9383596548152155  0.5462902844698476   F   F   F
  0.9136960761670352  0.6892033795675090  0.5450353003152060   F   F   F
  0.5831422178378034  0.9387631549493705  0.5453754107050059   F   F   F
  0.9168664476848249  0.1888840144307622  0.5454594018736358   F   F   F
  0.9160960797684297  0.4376091871463501  0.5457605362668332   F   F   F
  0.5765183676750496  0.4363663669875635  0.5518177414194909   F   F   F
  0.5795843067176278  0.6864520856297247  0.5471424224752113   F   F   F
  0.2514456967703964  0.9372597339309721  0.5451949224648587   F   F   F
  0.4978155353298774  0.5050405512578351  0.6084310867584009   F   F   F
  0.4986032509944707  0.2530996027831094  0.5903704927360067   F   F   F
  0.4994216381301158  0.0000848709319712  0.5910860290858651   F   F   F
  0.7535048935466051  0.6936771356063502  0.6573305350727097   F   F   F
  0.7483311980945118  0.9367572817236152  0.6398447105258853   F   F   F
  0.2532178077198282  0.1864655470205605  0.6409411557173286   F   F   F
  0.7455608504440363  0.1945485819191575  0.6468522899976676   F   F   F
  0.7554863979053223  0.4355250771719028  0.6386668628472165   F   F   F
  0.4174603124190597  0.9348325438386880  0.6402561123465560   F   F   F
  0.4191837349909804  0.6775550281850045  0.6346852467148238   F   F   F
  0.5906009022393235  0.8100575932629042  0.6462191944406896   F   F   F
  0.9158651244427318  0.0626391259993895  0.6418050144984804   F   F   F
  0.9123361066132958  0.5617842507519768  0.6422247059854769   F   F   F
  0.9152615570377307  0.3120086543086984  0.6393938146406768   F   F   F
  0.9136061794770782  0.8130081198326664  0.6411965979395049   F   F   F
  0.5821435057557167  0.0655881081089262  0.6398526037996675   F   F   F
  0.5831257650553070  0.3203771107180557  0.6339275095718122   F   F   F
  0.5919609092165246  0.5648564979026673  0.6397526554937016   F   F   F
  0.2477436555671275  0.5729855493126834  0.6310934992397890   F   F   F
  0.2642541161602097  0.8013345291463025  0.6450037203007426   F   F   F
  0.2491342621667982  0.3158587383756171  0.6416297009698297   F   F   F
  0.2509650239436283  0.0595231743558600  0.6423563925666755   F   F   F
  0.9166666865332829  0.5625000000092442  0.3605200052333331   F   F   F
  0.4995216330419083  0.3742196625511838  0.4998570455496463   F   F   F
  0.4999683659230172  0.8734452268884070  0.5007734197238420   F   F   F
  0.5004158201844362  0.6210179466275605  0.5000134050637683   F   F   F
  0.8323308581790627  0.6230765664172253  0.4999977389183670   F   F   F
  0.8326417192454869  0.8742117884899656  0.4985787362359417   F   F   F
  0.8325677189508340  0.3732035421904669  0.4995441822784485   F   F   F
  0.8328887153677300  0.1244989910877337  0.4996711592820091   F   F   F
  0.1666393432448956  0.3761514918044639  0.4978507420357730   F   F   F
  0.1676267604059731  0.6241838758071765  0.4992923908578746   F   F   F
  0.5802672429947293  0.4393430773245086  0.6466184319074983   F   F   F
  0.5799139850181732  0.6850251618557976  0.6390257346437807   F   F   F
  0.9170627866032532  0.1868243003305992  0.6407007342963382   F   F   F
  0.5815102708539612  0.9351142600358457  0.6385774238736772   F   F   F
  0.8303490746616973  0.7503807413026209  0.5924554234353678   F   F   F
  0.8315300101402485  0.2479302803020289  0.5914362353458245   F   F   F
  0.8332569950025430  0.5030739950102969  0.5887804311320082   F   F   F
  0.8321785635293040  0.0020623829018689  0.5922838089263180   F   F   F
  0.5012113522418531  0.7552659632472611  0.5927116745123087   F   F   F
  0.4176885570977475  0.0652235474776361  0.6401721153923177   F   F   F
  0.4272980560067836  0.3054066024479312  0.6548896170598439   F   F   F
  0.4130363197231333  0.8139330695051115  0.6377438913464033   F   F   F
  0.3987183835282480  0.5517286077305386  0.6509227015334744   F   F   F
  0.7528123773276789  0.5700900628065355  0.6345631605824735   F   F   F
  0.7411548914218002  0.8100983593907216  0.6398429797425962   F   F   F
  0.7465157277247272  0.3126063404969344  0.6401640944242644   F   F   F
  0.7473771460264729  0.0670106677348272  0.6391978690108644   F   F   F
  0.0835665380173438  0.3120656699149364  0.6402492376364677   F   F   F
  0.6664159043910374  0.8747485808652726  0.4993810935008227   F   F   F
  0.0870724750185303  0.5621760129290010  0.6418788396778226   F   F   F
  0.0839392162146098  0.0606056659711101  0.6421331100170846   F   F   F
  0.0863920606145285  0.4367297194492537  0.6390611051109403   F   F   F
  0.0834329836275387  0.1858917869430670  0.6409563657370896   F   F   F
  0.4182784457498343  0.1881877444744902  0.6398589564695314   F   F   F
  0.4150497434485345  0.4195911069124278  0.6294944108720202   F   F   F
  0.0840090052847557  0.9354887102142087  0.6404551803776357   F   F   F
  0.0831592909448560  0.6871259783886359  0.6398202236546808   F   F   F
  0.9128140256078723  0.4361001494010210  0.6393797621014485   F   F   F
  0.9156092602162573  0.6875583329656223  0.6395330288772598   F   F   F
  0.9144921035746520  0.9370920092899340  0.6408190726291991   F   F   F
  0.2407844059010102  0.4418114000027842  0.6412667855288419   F   F   F
  0.2623675708241038  0.6796469222092796  0.6623362210796060   F   F   F
  0.5786703092343473  0.1909847035477128  0.6440664336761230   F   F   F
  0.2515289376982466  0.9302957863833399  0.6371654823526782   F   F   F
  0.0840267880371641  0.8120097435019318  0.6418488410074161   F   F   F
  0.9166666865332829  0.8124999999834799  0.3605200052333331   F   F   F
  0.0005464717448191  0.1228050459613783  0.6197208817337838   F   F   F
  0.8333332538436267  0.6249999999803961  0.4070133268666680   F   F   F
  0.9998168449439291  0.5007850395919107  0.5070455324102880   F   F   F
  0.3308686128360421  0.4993623005035062  0.5009745388935656   F   F   F
  0.3299845472767515  0.2483958252749900  0.5028095733019953   F   F   F
  0.3331355237275062  0.0011490031557813  0.5057994915869131   F   F   F
  0.3337947034577411  0.7511008167656215  0.5012125022356599   F   F   F
  0.6658338470349605  0.0001855562471960  0.5056000514056365   F   F   F
  0.6685511393791970  0.4997557780942827  0.5007449557318253   F   F   F
  0.6669741722243288  0.2478426848820803  0.5029684464146129   F   F   F
  0.6653209405801093  0.7518246222945209  0.5022517423107615   F   F   F
  0.1658672523759392  0.0011577885628213  0.5064972352468899   F   F   F
  0.1663391635832312  0.2485904345218586  0.5061321751931089   F   F   F
  0.1637481571061912  0.4998774442904050  0.5025271516355900   F   F   F
  0.4999512377908104  0.9996009453822552  0.5054644971329836   F   F   F
  0.1644792747498869  0.7514603788751089  0.5032762529654491   F   F   F
  0.5010361303807827  0.7526669960030006  0.5038107971132391   F   F   F
  0.8342190392905806  0.0003608681910450  0.5065005530727547   F   F   F
  0.5013694353561249  0.4999370734310844  0.5002391248414497   F   F   F
  0.5009592366830304  0.2480048827968133  0.5019805031971742   F   F   F
  0.8354113340295655  0.2484779338238852  0.5032345279729782   F   F   F
  0.9999140898682057  0.7506960066460877  0.5065614349044552   F   F   F
  0.0006948948419350  0.2498544050200806  0.5057418160991745   F   F   F
  0.9999313568806656  0.9999532591400637  0.5065574677947282   F   F   F
  0.8333332538436267  0.8749999404036828  0.4070133268666680   F   F   F
  0.0000000000000000  0.6249999999803961  0.4070133268666680   F   F   F
  0.0000000000000000  0.8749999404036828  0.4070133268666680   F   F   F
  0.3333333432766779  0.1249999999871179  0.4070133268666680   F   F   F
  0.3333333432766779  0.3750000000061604  0.4070133268666680   F   F   F
  0.3333333432766779  0.6249999999803961  0.4070133268666680   F   F   F
  0.3333333432766779  0.8749999404036828  0.4070133268666680   F   F   F
  0.6666666865533486  0.1249999999871179  0.4070133268666680   F   F   F
  0.6666666865533486  0.3750000000061604  0.4070133268666680   F   F   F
  0.6666666865533486  0.6249999999803961  0.4070133268666680   F   F   F
  0.8361007254048332  0.4999069365880189  0.5028407464251572   F   F   F
  0.6666666865533486  0.8749999404036828  0.4070133268666680   F   F   F
  0.1666666716383389  0.3750000000061604  0.4070133268666680   F   F   F
  0.1666666716383389  0.6249999999803961  0.4070133268666680   F   F   F
  0.1666666716383389  0.8749999404036828  0.4070133268666680   F   F   F
  0.5000000000021103  0.1249999999871179  0.4070133268666680   F   F   F
  0.5000000000021103  0.3750000000061604  0.4070133268666680   F   F   F
  0.5000000000021103  0.6249999999803961  0.4070133268666680   F   F   F
  0.5000000000021103  0.8749999404036828  0.4070133268666680   F   F   F
  0.8333332538436267  0.1249999999871179  0.4070133268666680   F   F   F
  0.8333332538436267  0.3750000000061604  0.4070133268666680   F   F   F
  0.1666666716383389  0.1249999999871179  0.4070133268666680   F   F   F
  0.0000000000000000  0.3750000000061604  0.4070133268666680   F   F   F
  0.8359383696570575  0.7515732077763602  0.5025385263412403   F   F   F
  0.8370540104772104  0.3726553725389792  0.6042882920863804   F   F   F
  0.8321111127741290  0.8763461665512935  0.6175345693863079   F   F   F
  0.8399789863339606  0.6267563668268394  0.6028150194374362   F   F   F
  0.9988382188497695  0.8748096113709281  0.6218932533479062   F   F   F
  0.3317413456432590  0.1199883943796749  0.6135541953547303   F   F   F
  0.3334465103812221  0.6246070250429270  0.5958488464594254   F   F   F
  0.3253299553852145  0.3742405915250018  0.5929047251924118   F   F   F
  0.6711012096134397  0.3722549974557268  0.5940345992287135   F   F   F
  0.6650977424080722  0.1245696663538993  0.6116088181485750   F   F   F
  0.3342059436699927  0.8790181223566904  0.6016557176310187   F   F   F
  0.1598474718865006  0.6269707163917815  0.6030731106631748   F   F   F
  0.1655935901507135  0.8736388302281810  0.6171090128508823   F   F   F
  0.5016515770880758  0.3716066993724283  0.5949742783584426   F   F   F
  0.5000277222904970  0.1220335222474702  0.6062879024260681   F   F   F
  0.1674839155623360  0.1227130008815607  0.6218692861719148   F   F   F
  0.1633539225425835  0.3720745222923298  0.6077311352357242   F   F   F
  0.6651401643387587  0.8808390431993800  0.6068455071092700   F   F   F
  0.6661277545149886  0.6264464758649382  0.5935193985127754   F   F   F
  0.9999759393292038  0.3749633651989228  0.6219430976991305   F   F   F
  0.9994016339950562  0.6222139995627103  0.6363548397419336   F   F   F
  0.8334062049275630  0.1250426974738161  0.6200673245005319   F   F   F
  0.5004509657177181  0.8768500439352138  0.6073847058646891   F   F   F
  0.0000000000000000  0.1249999999871179  0.4070133268666680   F   F   F
  0.5031873409933993  0.6256497905131582  0.5940693276516882   F   F   F
  0.9161852626158051  0.0005000855383130  0.6038085436555605   F   F   F
  0.5842407685866391  0.7499453658342432  0.5996087745182521   F   F   F
  0.5904508207225092  0.5011267441532183  0.5937142434413687   F   F   F
  0.2426263599321956  0.5000574697860145  0.5950242456694070   F   F   F
  0.2493851602306592  0.7529099238816173  0.5916609835633366   F   F   F
  0.5839948949023039  0.2475314637997812  0.5966816009699656   F   F   F
  0.5824211962159396  0.0010706708887369  0.6042619417467705   F   F   F
  0.2495027970294927  0.9978194282178023  0.6041915613078572   F   F   F
  0.2489210372791248  0.2459643953528499  0.6035104817858041   F   F   F
  0.4170106807433385  0.0000620884660947  0.6051468273839049   F   F   F
  0.4146205668456204  0.2489916496188442  0.5911674340534745   F   F   F
  0.4162835991866771  0.7496513524996047  0.5939385879775543   F   F   F
  0.7564770517457760  0.5027204997822636  0.5952557771722624   F   F   F
  0.7518043909486778  0.7524943178647021  0.5904703034965237   F   F   F
  0.7537685138285894  0.2481143981099265  0.5941025585939457   F   F   F
  0.7494963896785549  0.0017664159231643  0.6041767638496225   F   F   F
  0.0834262194278779  0.2482642548353979  0.6035153302117493   F   F   F
  0.0813951974334444  0.5010835021897719  0.6033248067095016   F   F   F
  0.0803555895323171  0.7508311001046479  0.6033157937219826   F   F   F
  0.0831664268577299  0.9989350032323401  0.6036451302518486   F   F   F