Au O  Sr Ti H 
 1.0000000000000000
    23.6707801818999997    0.0000000000000000    0.0000000000000000
     0.0000000000000000   22.3170261383000010    0.0000000000000000
     0.0000000000000000    0.0000000000000000   30.0000000000000000
 Au  O   Sr  Ti  H  
  50 264  72  72   1
Selective dynamics
Cartesian
 16.9842960926642661 11.7486576609847564 22.6166589259610262   F   F   F
 14.7612454117305276 12.7036778954613041 21.1262765623277637   F   F   F
 16.9983770025445686  5.7840057163711780 20.7421578676477090   F   F   F
  7.2129676820485491 16.7291057577378908 20.7544212398006600   F   F   F
 12.0609346021234920 13.5437938030971150 23.3196371628474495   F   F   F
 13.6988000308885898 16.1877690496744258 23.7997582245576638   F   F   F
 13.0016803884808976  8.5574793794662369 24.8165653412475393   F   F   F
  5.7223574803457815 10.4310184373967374 21.2815161599800504   F   F   F
  6.8981583575231316 14.8736440033801660 22.9541626722225942   F   F   F
 14.2708526120747425  6.4274830786988764 23.5993856530656281   F   F   F
 12.1488801580412140 10.8389450207786382 20.3277039300691200   F   F   F
 13.2566497205947815 10.8987396047226639 22.8682200621514866   F   F   F
 10.9772125888376735 15.5619323415053525 24.9849869286967632   F   F   F
 18.0883178741205697  9.6515327339548627 21.1539050729250206   F   F   F
 17.3651262782001190 13.7361483259865373 20.8144316310251227   F   F   F
 15.0130613437297242 13.0366477312998956 23.9912731857634363   F   F   F
 14.0917219551035675 17.5024323608943426 21.3836855144843874   F   F   F
 11.4915766714501366 17.4241886855631591 22.7799657317523625   F   F   F
  8.2513165429946920 11.1740473803121549 20.8473486864026185   F   F   F
 10.1580473447870130  8.3017219250599261 24.4289713973354559   F   F   F
  8.7922197929916805  6.6596318019867660 22.6351739849576283   F   F   F
 10.4525486621601047  5.0992104840035841 20.9094606938597458   F   F   F
  9.4250531822977948 18.4145863087852639 21.1571241600723354   F   F   F
  6.9554192140621014 12.0507800527164282 23.2790437861657189   F   F   F
 13.1647425658012711  4.6832315722526410 21.3391394075967966   F   F   F
 10.6955433302260872 12.9930879801832706 21.0760238098360979   F   F   F
 14.5215777064183786  7.1577957972726578 20.9160412460833847   F   F   F
 16.7180855713165535 16.9131365710675468 20.6537224458215896   F   F   F
 15.5018458711226916  9.8726735323157335 24.3042381072086755   F   F   F
  8.8290814118384837 13.7704859384253009 24.6188258655189252   F   F   F
 13.5107794424091239 11.3641859130871161 25.6999949290914955   F   F   F
 15.7374288139394327  4.3082397789661506 22.5505830528157780   F   F   F
 11.1815589154422259 10.0028560229844370 26.3561050362698381   F   F   F
 12.2077517067218739  8.4546031592656661 21.9815337743369383   F   F   F
  6.6960579326513843  7.5629215319869738 21.0753872022332693   F   F   F
 15.8562523528819810 15.1980903388940263 22.4565317625278524   F   F   F
  9.4093121954958825  8.5359058431195365 20.6918806081619344   F   F   F
  8.9005785423274020 10.9671391318838687 24.9999919091176608   F   F   F
 11.0027711377413144 12.7490437172932438 25.9439489908510268   F   F   F
  7.7094650412296835  9.2615815890377977 23.0715220770308456   F   F   F
 11.5297822404141357  6.0298626829018449 23.2449981936164036   F   F   F
 10.0461663750982240 15.6865067790601973 21.0049247909727548   F   F   F
 16.5684994565320167  7.7404935814364446 22.6771662747935565   F   F   F
 18.3243548125677584  9.5884068702369660 23.8555427636832960   F   F   F
  6.2080762975804324 13.3221052270690237 20.9085866538299854   F   F   F
 15.3157702899929067  9.8913405575418771 20.9072240972035672   F   F   F
 13.3656098821129099 14.2749066455157561 25.8373977004685464   F   F   F
 12.8535198692575658 14.8582736221395457 21.0377501073423936   F   F   F
 10.4430912729801051 10.6137611013281461 22.6499755740221325   F   F   F
  8.9001007484343351 16.7726709011745356 23.4149317351357027   F   F   F
  5.9140700470891128  4.2063032658609121 13.6235038884242545   F   F   F
 17.7402428179760996 20.9427563174050739 13.6605584662068189   F   F   F
 17.7300395857349642 15.3700676002701133 13.7229042400793126   F   F   F
 17.7398504879207906  9.7834600585595215 13.6736253881781451   F   F   F
 17.7560434010063126  4.2327082748643559 13.6685285373336409   F   F   F
  9.8739027274259037 20.8870895173557329 13.6193203137822803   F   F   F
  9.8730561033907005 15.2863260644584606 13.6474819218962189   F   F   F
  9.8584271806405592  9.7175779127586281 13.6127749396440301   F   F   F
  1.9954523765823173 15.3312839634924245 13.5937967199007321   F   F   F
  1.9834988929009654 20.9023574483673080 13.6032732473169453   F   F   F
  1.9598350234753270  9.7484256658774182 13.5866882206005819   F   F   F
  1.9845890851630845  4.1636428059092649 13.5894147636774196   F   F   F
 21.6953721227860967 18.1220773373111328 13.6214677547982976   F   F   F
 21.6881793464301467 12.5512555414280325 13.6151306323950791   F   F   F
  5.9453866942780147  9.8077155044771835 13.6512782319888899   F   F   F
 21.6854431921154500  1.3868637444837046 13.6221643726742556   F   F   F
 21.6895171442750545  6.9679510902633286 13.6153191363505766   F   F   F
  9.8757438595063594  4.1773574114314425 13.6079903573840983   F   F   F
  5.9648934748635911 15.3526153809292172 13.6802068407080668   F   F   F
 21.6929170337780697 20.9111967634297358 13.6064456524328303   F   F   F
 13.7914332599659328  4.2204892838007302 13.6533215267339862   F   F   F
  0.0005519050364091  2.7919105843864371 14.9514985778571656   F   F   F
 13.8151766729883914 18.0774108654787149 13.6656508548229176   F   F   F
 -0.0003144549068302  8.3341724434514308 14.9518311588496182   F   F   F
  0.0028770465867763 13.9924031838605902 14.9387700049204408   F   F   F
  7.8956931057450594  2.8039818535665377 14.9565355232792463   F   F   F
  0.0011150829001128 19.5276798838548267 14.9842642782949973   F   F   F
  7.8918039812954985 19.5013202068412959 14.9807625428371640   F   F   F
 15.7626146018880107  2.8068565021115259 14.9775473929094467   F   F   F
  7.9428990467803962 13.9659846271255557 15.1132524334653890   F   F   F
  7.9135787564446600  8.4481308070002594 15.0909066771943099   F   F   F
 15.7503187420544357  8.4482863681075280 15.0954899351847747   F   F   F
 21.6695801699651831 15.3250322259112597 13.5923620621372567   F   F   F
 21.6809300841324770  9.7523918047957370 13.6087265926922800   F   F   F
 21.6787063555028787  4.1714645830932682 13.5957156632353904   F   F   F
 13.7942879991772234 20.8908834929877791 13.6079168068744139   F   F   F
 13.7951096337112116 15.3097459621018324 13.6370169977251781   F   F   F
 13.7914896379894572  9.8020355407198796 13.6856967072894093   F   F   F
  5.9181392593467788 20.8908784352696841 13.6191510567140313   F   F   F
 15.7506737148723239 13.9657800726404044 15.0887582009728902   F   F   F
 13.8384883177810654 12.5537137744450060 13.6509202930219526   F   F   F
 13.7949650510224693  1.3915678758823202 13.6453932791123815   F   F   F
 21.6982156369999721 15.3429554700000619 10.8156001569999933   F   F   F
 21.6982156369999721  9.7636982699999884 10.8156001569999933   F   F   F
 21.6982156369999721  4.1844424010000720 10.8156001569999933   F   F   F
 13.8079546360000549 20.9222120050000342 10.8156001569999933   F   F   F
 13.8079546360000549 15.3429554700000619 10.8156001569999933   F   F   F
 13.8079546360000549  9.7636982699999884 10.8156001569999933   F   F   F
 13.8079546360000549  4.1844424010000720 10.8156001569999933   F   F   F
  5.9176950450000287 20.9222120050000342 10.8156001569999933   F   F   F
 21.6982156369999721 20.9222120050000342 10.8156001569999933   F   F   F
  5.9176950450000287 15.3429554700000619 10.8156001569999933   F   F   F
  5.9176950450000287  4.1844424010000720 10.8156001569999933   F   F   F
 17.7530837259999217 20.9222120050000342 10.8156001569999933   F   F   F
 17.7530837259999217 15.3429554700000619 10.8156001569999933   F   F   F
 17.7530837259999217  9.7636982699999884 10.8156001569999933   F   F   F
 17.7530837259999217  4.1844424010000720 10.8156001569999933   F   F   F
  9.8628241350000643 20.9222120050000342 10.8156001569999933   F   F   F
  9.8628241350000643 15.3429554700000619 10.8156001569999933   F   F   F
  9.8628241350000643  9.7636982699999884 10.8156001569999933   F   F   F
  5.9176950450000287  9.7636982699999884 10.8156001569999933   F   F   F
  1.9725650740000149  1.3948141340000613 10.8156001569999933   F   F   F
  1.9725650740000149  6.9740706679999214 10.8156001569999933   F   F   F
  1.9725650740000149 12.5533272030000536 10.8156001569999933   F   F   F
 21.6982156369999721  6.9740706679999214 10.8156001569999933   F   F   F
 21.6982156369999721  1.3948141340000613 10.8156001569999933   F   F   F
 13.8079546360000549 18.1325837370000720 10.8156001569999933   F   F   F
 13.8079546360000549 12.5533272030000536 10.8156001569999933   F   F   F
 13.8079546360000549  6.9740706679999214 10.8156001569999933   F   F   F
 13.8079546360000549  1.3948141340000613 10.8156001569999933   F   F   F
  5.9176950450000287 18.1325837370000720 10.8156001569999933   F   F   F
  5.9176950450000287 12.5533272030000536 10.8156001569999933   F   F   F
  5.9176950450000287  6.9740706679999214 10.8156001569999933   F   F   F
  5.9176950450000287  1.3948141340000613 10.8156001569999933   F   F   F
 17.7530837259999217 18.1325837370000720 10.8156001569999933   F   F   F
 17.7530837259999217 12.5533272030000536 10.8156001569999933   F   F   F
 17.7530837259999217  6.9740706679999214 10.8156001569999933   F   F   F
 17.7530837259999217  1.3948141340000613 10.8156001569999933   F   F   F
  9.8628241350000643 18.1325837370000720 10.8156001569999933   F   F   F
  9.8628241350000643 12.5533272030000536 10.8156001569999933   F   F   F
  9.8628241350000643  6.9740706679999214 10.8156001569999933   F   F   F
  9.8628241350000643  1.3948141340000613 10.8156001569999933   F   F   F
  1.9725650740000149 18.1325837370000720 10.8156001569999933   F   F   F
  9.8628241350000643  4.1844424010000720 10.8156001569999933   F   F   F
  1.9725650740000149 20.9222120050000342 10.8156001569999933   F   F   F
  1.9725650740000149 15.3429554700000619 10.8156001569999933   F   F   F
  1.9725650740000149  9.7636982699999884 10.8156001569999933   F   F   F
 19.7256482699999580 11.1585130689999925 12.2103998060000407   F   F   F
 19.7256482699999580 16.7377696039999648 12.2103998060000407   F   F   F
  1.9807864399718440  1.3797240866284328 13.6271648301515409   F   F   F
  1.9771562298571763  6.9626565036083115 13.6197279460438772   F   F   F
  1.9846618144942820 12.5521448752797244 13.6153477928282509   F   F   F
  1.9781899149639954 18.1230399213290134 13.6271941238476799   F   F   F
  9.8681901009780599  1.3751029147260663 13.6604698654770953   F   F   F
  9.8352648947886880  6.9497225720385405 13.7209394200135613   F   F   F
  9.8485745228990247 12.4867702851996896 13.7352535535569711   F   F   F
  9.8626309282830018 18.0791453899144656 13.6510931799380426   F   F   F
 17.7435603835715270  1.4291532392556499 13.6009480610813931   F   F   F
 17.6902330542496173  7.0097014751711439 13.6381271143062719   F   F   F
 17.7098254531709252 12.5933219914831920 13.6102836625991284   F   F   F
 17.7303646586863017 18.1532849445447440 13.5865197858568099   F   F   F
  5.9283478096806466  1.3839883785784139 13.6271822594004828   F   F   F
 21.6656581265273402  6.9786217887876179 16.4013816265997683   F   F   F
  5.9695690393217324  7.0137604989680788 13.6222556201637151   F   F   F
  5.9656778675924809 12.6108421924778167 13.5931104777487626   F   F   F
  5.9215069458521743 18.1029048000301636 13.6504320108120361   F   F   F
 19.7256482699999580  5.5792565349999723 12.2103998060000407   F   F   F
 13.8258065958500147  7.0222981025912832 13.6272405561515555   F   F   F
 19.7256482699999580  0.0000000000000000 12.2103998060000407   F   F   F
 11.8353900909999528 11.1585130689999925 12.2103998060000407   F   F   F
  1.9725650740000149  4.1844424010000720 10.8156001569999933   F   F   F
  0.0000000000000000  0.0000000000000000 12.2103998060000407   F   F   F
  0.0000000000000000  5.5792565349999723 12.2103998060000407   F   F   F
  0.0000000000000000 11.1585130689999925 12.2103998060000407   F   F   F
  0.0000000000000000 16.7377696039999648 12.2103998060000407   F   F   F
  7.8902602960000570  0.0000000000000000 12.2103998060000407   F   F   F
  7.8902602960000570  5.5792565349999723 12.2103998060000407   F   F   F
  7.8902602960000570 11.1585130689999925 12.2103998060000407   F   F   F
  7.8902602960000570 16.7377696039999648 12.2103998060000407   F   F   F
 15.7805205919999434  0.0000000000000000 12.2103998060000407   F   F   F
 15.7805205919999434  5.5792565349999723 12.2103998060000407   F   F   F
 15.7805205919999434 11.1585130689999925 12.2103998060000407   F   F   F
 15.7805205919999434 16.7377696039999648 12.2103998060000407   F   F   F
  3.9451301480000271  0.0000000000000000 12.2103998060000407   F   F   F
  3.9451301480000271  5.5792565349999723 12.2103998060000407   F   F   F
  3.9451301480000271 11.1585130689999925 12.2103998060000407   F   F   F
  3.9451301480000271 16.7377696039999648 12.2103998060000407   F   F   F
 11.8353900909999528  0.0000000000000000 12.2103998060000407   F   F   F
 11.8353900909999528  5.5792565349999723 12.2103998060000407   F   F   F
 11.8353900909999528 16.7377696039999648 12.2103998060000407   F   F   F
  3.9534093728514219  2.7741244254465949 14.9798393271457222   F   F   F
 21.7224800096008792  1.4115562799404178 16.4233653554944503   F   F   F
  3.9678477311242850 19.4930994741190347 14.9950409882189604   F   F   F
  5.9586544132378556  4.2040138612515880 16.4124127349031816   F   F   F
 17.7390355029905287 20.8447244095338000 16.4295483106070321   F   F   F
 17.7926278885007925 15.1764814432715145 16.6003762465349531   F   F   F
 17.8070681787238136  9.6974450260932805 16.4787496764799641   F   F   F
 10.0147458792141180  9.9142862382761816 16.3588433670654041   F   F   F
 10.0237319887275689 15.3456733489035475 16.4040288150123814   F   F   F
 17.7158906536012992  4.0971594843974311 16.5221528335155448   F   F   F
  9.8450860590114733 20.9075016650536796 16.3869598155752989   F   F   F
  1.9781371960031693 20.9546674387545906 16.3717325551750683   F   F   F
  9.8397317728576361  4.2745545870473549 16.3958300085539648   F   F   F
  2.0600014383464464 15.3915937197550043 16.3597717455426768   F   F   F
  1.9568623260738764  9.7889689316426107 16.3555320697124777   F   F   F
  1.9802266056392075  4.2177853071208062 16.3650211582150575   F   F   F
 11.8212617144895109  2.8022820464601161 14.9893332979006875   F   F   F
 23.6610173930577368 11.1910206750109467 17.8343883387691520   F   F   F
 23.6603532362106392 16.8015214348832238 17.7695188195179057   F   F   F
  7.9211763340456294  5.6808312134143506 17.7804439237005880   F   F   F
  7.9062386999514471 -0.0038304123135887 17.7621897077587008   F   F   F
 23.6614485039621982 22.3053062933591981 17.7920738938690093   F   F   F
  0.0172597465563611  5.5748953683484244 17.7464764670837987   F   F   F
  7.8884594713087424 11.0886500531990873 17.7205887405112534   F   F   F
  7.9464048355876189 16.5389095094656362 17.6754220449475028   F   F   F
 15.7027390676943490  5.5250618621948515 17.7171504569842355   F   F   F
 15.7578327890190906  0.0091356475445038 17.7553741373078502   F   F   F
 15.7573925223294484 16.5591950787401814 17.7033704636801019   F   F   F
 15.7829950267186252 11.0171409743884929 17.7427423168319791   F   F   F
  3.9583033324247796 22.2858145830903496 17.7694904434593326   F   F   F
  3.9842648127552480  5.5634696754295705 17.7899776138478174   F   F   F
  4.0539637226754923 16.7417812538685773 17.8694626415462814   F   F   F
  5.8733263007121774  9.7340074512436434 16.4762396467242418   F   F   F
  3.9228530313752303 11.2453483339008287 17.6394296628143614   F   F   F
  5.8824607241958642 15.2420123043775853 16.5615780507282118   F   F   F
 13.7464885387687872  4.1558273170333582 16.4765531648217873   F   F   F
 21.6700871996754252 18.1397697767204420 16.4033525888562863   F   F   F
 21.7006441282600697 12.5761625849139698 16.3956667233158129   F   F   F
 13.7578125124552653 12.5074815621258928 16.4863015660833128   F   F   F
 13.8560178256062425 18.1908118573652189 16.5192036473728798   F   F   F
 13.7972143044093141  6.9640352828804186 16.3727381995572863   F   F   F
 13.7859099890307526  1.4170311866333523 16.4134218514619938   F   F   F
  5.9815395813529753 18.1303987630840844 16.5036049318307256   F   F   F
  5.9679672395447154 12.4771590979680322 16.3011613127041279   F   F   F
  5.9052731405997498  7.0023841506258231 16.3798177648486210   F   F   F
  5.9432463031170437  1.3969862562881556 16.4176601095628172   F   F   F
 17.7115190932873290 18.0337980916666112 16.3659886353904866   F   F   F
 17.6695619674346496 12.4429181050082605 16.3327358388817458   F   F   F
  9.8254101654882309 18.1149111193880117 16.4254155482180870   F   F   F
 17.7123692421026000  1.3304045308220120 16.3366306110145416   F   F   F
 17.7053580113683573  6.9459941240576430 16.4385404298616180   F   F   F
  9.8470797582993352  7.1371107104295657 16.5767725901828022   F   F   F
  9.9435510632884778 12.6154567436869289 16.6477650184199319   F   F   F
  9.8588697766615585  1.4597142824483462 16.4222891149628900   F   F   F
  2.0176210733418074 18.1426149649568238 16.4251541863716994   F   F   F
  1.9625832367771965 12.5910184420311655 16.3919074346845939   F   F   F
  2.0310356858282614  6.9959875846465138 16.4096053879334107   F   F   F
  1.9468615437114962  1.4134238510576718 16.4277006514488804   F   F   F
 21.6729783047137694 20.9413969436373506 16.3887085340953647   F   F   F
 21.6278989720145240 15.3809698364127971 16.3510590094561081   F   F   F
 13.8034312532242183 20.9504018666780034 16.3612623211500896   F   F   F
 21.7029441393070819  4.2153294871583835 16.3637820562090326   F   F   F
 21.6847089296988642  9.7661356679052673 16.3728160880049209   F   F   F
 13.6466395520638173  9.7383996179365031 16.5545322425847949   F   F   F
 13.7192127211919281 15.3195691376890846 16.4142726742564342   F   F   F
  5.9519158159367995 20.9168499805136818 16.3558476739457141   F   F   F
 11.7836821079284597 11.2710031833225663 18.2529326027520540   F   F   F
 11.8023279522708737  5.6484304509039998 17.7111147820801733   F   F   F
 11.8216998142623080  0.0018940668071363 17.7325808725760439   F   F   F
 17.8360487011275950 15.4808107668680517 19.7199160521812011   F   F   F
 17.7135832933531141 20.9056367414687756 19.1953413157766235   F   F   F
  5.9938630646786057  4.1613564867503028 19.2282346715199601   F   F   F
 17.6480070030911946  4.3417457878590007 19.4055686999300256   F   F   F
 17.8829524552323988  9.7196245311305329 19.1600058854164352   F   F   F
  9.8816112899387978 20.8626823157814236 19.2076833703966443   F   F   F
  9.9224060467992636 15.1210132741413403 19.0405574014447510   F   F   F
 13.9799841321388278 18.0780764823766589 19.3865758332206823   F   F   F
 21.6792420369524450  1.3979190122087117 19.2541504349544930   F   F   F
 21.5957074316538211 12.5373538081171780 19.2667411795642991   F   F   F
 21.6649551255836812  6.9631052935830811 19.1818144392202292   F   F   F
 21.6257710472273388 18.1439234609557865 19.2358979381852286   F   F   F
 13.7797909590642043  1.4637315230284831 19.1955781139900346   F   F   F
 13.8030418030263604  7.1498643540079607 19.0178252871543165   F   F   F
 14.0121765583420856 12.6059172280824860 19.1925796648109817   F   F   F
  5.8642856123898754 12.7873334808793579 18.9328049771937721   F   F   F
  6.2551010957905335 17.8834036324803947 19.3501116090223313   F   F   F
  5.8972023555301138  7.0490277203391241 19.2488910290949988   F   F   F
  5.9405379151148772  1.3283802379343406 19.2706917770001738   F   F   F
 21.6982156369999721 12.5533272030000536 10.8156001569999933   F   F   F
 11.8240667718387744  8.3514699906206058 14.9957113664893793   F   F   F
 11.8346412876674503 19.4926999588419179 15.0232025917152576   F   F   F
 11.8452328791310393 13.8592737472406178 15.0004021519130237   F   F   F
 19.7019207825688234 13.9052160188954712 14.9999321675510462   F   F   F
 19.7092791065392490 19.5098073341405325 14.9573620870783444   F   F   F
 19.7075274618311056  8.3287932059707686 14.9863254683535239   F   F   F
 19.7151256974545888  2.7784472382969723 14.9901347784602859   F   F   F
  3.9444832636061133  8.3945826745608105 14.9355222610731460   F   F   F
  3.9678561981738314 13.9299278714942378 14.9787717257361361   F   F   F
 13.7353783556854054  9.8048309403321721 19.3985529572250037   F   F   F
 13.7270164637747687 15.2877244425290737 19.1707720393133769   F   F   F
 21.7075916346862599  4.1693627937475535 19.2210220288902391   F   F   F
 13.7648017949011940 20.8689693835170758 19.1573227162102313   F   F   F
 19.6550104205610623 16.7462666173275174 17.7736627030611309   F   F   F
 19.6829640846829150  5.5330665459763555 17.7430870603748261   F   F   F
 19.7238431637356939 11.2271154961438189 17.6634129339601493   F   F   F
 19.6983158493914274  0.0460262531282448 17.7685142677895485   F   F   F
 11.8640637435897371 16.8552902431573806 17.7813502353692030   F   F   F
  9.8870140195557408  1.4555956138910984 19.2051634617695690   F   F   F
 10.1144783558897640  6.8157671296398039 19.6466885117953574   F   F   F
  9.7768919313072331 18.1645655869722980 19.1323167403921524   F   F   F
  9.4379752109795714 12.3129417599703075 19.5276810460042789   F   F   F
 17.8196563019370657 12.7227148328385198 19.0368948174742130   F   F   F
 17.5437145155854566 18.0789862611166399 19.1952893922778429   F   F   F
 17.6706096933031951  6.9764438718684438 19.2049228327279522   F   F   F
 17.6910001365684337  1.4954788233831131 19.1759360703258643   F   F   F
  1.9780851519710174  6.9643777123577184 19.2074771290941086   F   F   F
 15.7745843825622689 19.5217869436110902 14.9814328050246335   F   F   F
  2.0610734160575905 12.5460967748618319 19.2563651903345949   F   F   F
  1.9869067356569907  1.3525382316062782 19.2639933005124391   F   F   F
  2.0449674762679129  9.7465085643214522 19.1718331533281265   F   F   F
  1.9749238153675586  4.1485518681037608 19.2286909721126271   F   F   F
  9.9009771441711063  4.1997908123449195 19.1957686940860093   F   F   F
  9.8245512417242402  9.3640257003629426 18.8848323261606694   F   F   F
  1.9885586973954967 20.8773259979350065 19.2136554113291460   F   F   F
  1.9684452960383865 15.3346084200041801 19.1946067096405280   F   F   F
 21.6070201471191154  9.7324584330991435 19.1813928630434916   F   F   F
 21.6731855310911357 15.3442572883997652 19.1859908663177237   F   F   F
 21.6467415617989900 20.9131068653154735 19.2245721788760626   F   F   F
  5.6995547433121247  9.8599165620611107 19.2380035658653661   F   F   F
  6.2104450958364863 15.1676981277596816 19.8700866323882650   F   F   F
 13.6975776876783737  4.2622106210897988 19.3219930102837978   F   F   F
  5.9538861936420977 20.7614353810673187 19.1149644705804533   F   F   F
  1.9889796290187471 18.1216426702869171 19.2554652302224056   F   F   F
 21.6982156369999721 18.1325837370000720 10.8156001569999933   F   F   F
  0.0129354125471565  2.7406434206352794 18.5916264520134717   F   F   F
 19.7256482699999580 13.9481413360000008 12.2103998060000407   F   F   F
 23.6664447588285967 11.1760328182423425 15.2113659723086716   F   F   F
  7.8319182035321839 11.1442815128182993 15.0292361668069638   F   F   F
  7.8109916820116974  5.5434561253065056 15.0842871990597782   F   F   F
  7.8855777529359710  0.0256423334605136 15.1739847476073848   F   F   F
  7.9011810514306466 16.7623365602567986 15.0363750670698657   F   F   F
 15.7608066308334109  0.0041410636187623 15.1680015421690566   F   F   F
 15.8251270606038332 11.1530627624965444 15.0223486719548198   F   F   F
 15.7877990177268277  5.5311116766998323 15.0890533924384016   F   F   F
 15.7486657348866643 16.7784897471643610 15.0675522693228316   F   F   F
  3.9262072703666560  0.0258383976191702 15.1949170574066823   F   F   F
  3.9373777768196909  5.5477992249556261 15.1839652557933285   F   F   F
  3.8760466320518594 11.1557779901755225 15.0758145490677471   F   F   F
 11.8342358514151389 22.3081204259651464 15.1639349139894648   F   F   F
  3.8933527570829338 16.7703609172526882 15.0982875889635064   F   F   F
 11.8599161054332178 16.7972890232346828 15.1143239133972447   F   F   F
 19.7466155026031451  0.0080535048519832 15.1950165921826787   F   F   F
 11.8678056942380827 11.1571087352667266 15.0071737452434277   F   F   F
 11.8580959716164749  5.5347314518024477 15.0594150959152380   F   F   F
 19.7748380492817368  5.5452885439384705 15.0970358391892425   F   F   F
 -0.0020335598450252 16.7533024022382087 15.1968430471336706   F   F   F
  0.0164487030529085  5.5760072876024740 15.1722544829752302   F   F   F
 -0.0016248361886864 -0.0010431169929049 15.1967240338418321   F   F   F
 19.7256482699999580 19.5273965409999306 12.2103998060000407   F   F   F
  0.0000000000000000 13.9481413360000008 12.2103998060000407   F   F   F
  0.0000000000000000 19.5273965409999306 12.2103998060000407   F   F   F
  7.8902602960000570  2.7896282670000101 12.2103998060000407   F   F   F
  7.8902602960000570  8.3688848019999824 12.2103998060000407   F   F   F
  7.8902602960000570 13.9481413360000008 12.2103998060000407   F   F   F
  7.8902602960000570 19.5273965409999306 12.2103998060000407   F   F   F
 15.7805205919999434  2.7896282670000101 12.2103998060000407   F   F   F
 15.7805205919999434  8.3688848019999824 12.2103998060000407   F   F   F
 15.7805205919999434 13.9481413360000008 12.2103998060000407   F   F   F
 19.7911564809848599 11.1564361705522828 15.0852223927546518   F   F   F
 15.7805205919999434 19.5273965409999306 12.2103998060000407   F   F   F
  3.9451301480000271  8.3688848019999824 12.2103998060000407   F   F   F
  3.9451301480000271 13.9481413360000008 12.2103998060000407   F   F   F
  3.9451301480000271 19.5273965409999306 12.2103998060000407   F   F   F
 11.8353900909999528  2.7896282670000101 12.2103998060000407   F   F   F
 11.8353900909999528  8.3688848019999824 12.2103998060000407   F   F   F
 11.8353900909999528 13.9481413360000008 12.2103998060000407   F   F   F
 11.8353900909999528 19.5273965409999306 12.2103998060000407   F   F   F
 19.7256482699999580  2.7896282670000101 12.2103998060000407   F   F   F
 19.7256482699999580  8.3688848019999824 12.2103998060000407   F   F   F
  3.9451301480000271  2.7896282670000101 12.2103998060000407   F   F   F
  0.0000000000000000  8.3688848019999824 12.2103998060000407   F   F   F
 19.7873133937679953 16.7728789227909942 15.0761557902371290   F   F   F
 19.8137214823838868  8.3165596895303828 18.1286487625914035   F   F   F
 19.6967192373925855 19.5574403051241994 18.5260370815892657   F   F   F
 19.8829579429263568 13.9873382208205559 18.0844505831230116   F   F   F
 23.6432799156734106 19.5231489630009953 18.6567976004371054   F   F   F
  7.8525764699692946  2.6777841336637960 18.4066258606420163   F   F   F
  7.8929390496555207 13.9393713040488070 17.8754653937827648   F   F   F
  7.7008138605106851  8.3519370630763845 17.7871417557723817   F   F   F
 15.8854892125669966  8.3076245083322675 17.8210379768614011   F   F   F
 15.7433824600195074  2.7800245000592945 18.3482645444571943   F   F   F
  7.9109154280968506 19.6170704126736695 18.0496715289305385   F   F   F
  3.7837143696577247 13.9921218656640658 18.0921933198951486   F   F   F
  3.9197294719891751 19.4970206096360990 18.5132703855264218   F   F   F
 11.8744842091552627  8.2931564230618591 17.8492283507532186   F   F   F
 11.8360462991944235  2.7234253057455402 18.1886370727820719   F   F   F
  3.9644749492799658  2.7385892481830991 18.6560785851575126   F   F   F
  3.8667147923565990  8.3035968393933430 18.2319340570716335   F   F   F
 15.7443866202156784 19.6577079507157322 18.2053652132781778   F   F   F
 15.7677636501869358 13.9804223761238209 17.8055819553833601   F   F   F
 -0.0005695348494530  8.3680672220493157 18.6582929309738965   F   F   F
 23.6566163917285976 13.8859660918572452 19.0906451922580764   F   F   F
 19.7273750790718481  2.7905811479266780 18.6020197350159222   F   F   F
 11.8460648013236565 19.5686853498717070 18.2215411759406045   F   F   F
  0.0000000000000000  2.7896282670000101 12.2103998060000407   F   F   F
 11.9108369389695063 13.9626427283041128 17.8220798295507024   F   F   F
 21.6868199572749951  0.0111604220299461 18.1142563096668034   F   F   F
 13.8294348065186057 16.7365503316196893 17.9882632355476204   F   F   F
 13.9764315855450398 11.1836586478685955 17.8114273032410999   F   F   F
  5.7431552322894781 11.1597956238666445 17.8507273700821365   F   F   F
  5.9031413084479150 16.8027104510515848 17.7498295069001486   F   F   F
 13.8236147845841959  5.5241661476713819 17.9004480290988930   F   F   F
 13.7863641089067350  0.0238941902093980 18.1278582524030938   F   F   F
  5.9059258632543195 22.2683622608402096 18.1257468392358270   F   F   F
  5.8921551560846979  5.4891938401806710 18.1053144535740351   F   F   F
  9.8709681573800729  0.0013856299207157 18.1544048215172396   F   F   F
  9.8143922966974184  5.5567531527622167 17.7350230216042064   F   F   F
  9.8537575696780717 16.7299888283456752 17.8181576393267243   F   F   F
 17.9064020045261287 11.2192265338999579 17.8576733151678724   F   F   F
 17.7957964779333864 16.7934353607087381 17.7141091048957620   F   F   F
 17.8422887988740762  5.5371755079077642 17.8230767578183169   F   F   F
 17.7411642872087718  0.0394211503283157 18.1253029154887386   F   F   F
  1.9747637014842010  5.5405198643672140 18.1054599063525465   F   F   F
  1.9266878263093850 11.1826936158399750 18.0997442012850698   F   F   F
  1.9020794962064982 16.7563172864839132 18.0994738116593936   F   F   F
  1.9686142086634006 22.2932585775989303 18.1093539075553736   F   F   F