Au  C  H  O Sr Ti 
 1.0000000000000000
    23.6707801818999997    0.0000000000000000    0.0000000000000000
     0.0000000000000000   22.3170261383000010    0.0000000000000000
     0.0000000000000000    0.0000000000000000   30.0000000000000000
 Au  C   H   O   Sr  Ti 
  50   3   5 265  72  72
Selective dynamics
Cartesian
 16.8631579021870053 11.7126941153303505 22.5762658173355497   F   F   F
 10.6706789242893159 12.9341907774143596 21.1084815557895986   F   F   F
 15.3762846134481634  9.8449707735299903 24.3698983605849442   F   F   F
  8.7117185251683331 13.8602273168073822 24.6070659910312486   F   F   F
 13.4421701946361569 11.4164354216986776 25.7288719095395138   F   F   F
 11.0571027775768282 10.1366363181186863 26.4180292799107974   F   F   F
 12.3136680146779014  8.4635464425142359 22.0069284552000077   F   F   F
  6.6568441266202187  7.6129593305637258 21.0657373141764168   F   F   F
 15.8081041812605143 15.2090825300785593 22.4634603874465242   F   F   F
  9.4011507275709310  8.5265077533377394 20.7243002392004172   F   F   F
 14.6310829471748871  7.0929272837755111 20.9000239356637891   F   F   F
 10.9213696117074424 12.8637992350062724 25.9721708583409914   F   F   F
 16.0022751296764341  4.9225967403345319 22.3171591684620694   T   T   T
  8.8447344772689256 16.5483599919963744 23.3839645015805502   F   F   F
  8.8397882516025952 11.0671247493240674 25.0001072201010182   F   F   F
 10.4242120797647448 10.5245894895725840 22.6731763228811758   F   F   F
 12.7579168074903997 14.9048742177446609 21.0541636403861041   F   F   F
 15.2481941219712844  9.8808783487371468 20.9376664098345309   F   F   F
 13.3363472068957112 14.3207842411833379 25.8618695992384104   F   F   F
  6.0826746586631977 13.2626400720464073 20.8215400087048685   F   F   F
 18.2386633757197494  9.6324859695936098 23.8905612037912114   F   F   F
 16.5122368819045562  7.7564435288022819 22.8061945875527954   F   F   F
  9.8043812665717276 15.5175319050945841 21.0025007807021922   F   F   F
  7.6505154113258280  9.2938131018018666 23.0997361487262793   F   F   F
  9.2496325263997186 18.2323674806433651 21.1928284517362187   F   F   F
 16.7094973743341626 16.8949807217429928 20.6567088821722216   F   F   F
 12.8395151783678934  8.6452187076257108 24.9093641912259294   F   F   F
 13.1030717191095469  4.7704915573069808 21.3595062769406532   F   F   F
 14.6566443938368742 12.7264152625701410 21.1078811687193379   F   F   F
 18.6637855175794449  6.4527402891093422 20.8964727951804505   T   T   T
  6.9275554935673949 16.6658212511904509 20.8968284207766111   F   F   F
 12.0192701622872704 13.5740159000578906 23.3352463851971450   F   F   F
 13.6668134285685419 16.2106389756055975 23.8301067213505249   F   F   F
  5.6622796526267818 10.4928623431751387 21.2865305634147219   F   F   F
  6.7514711543323962 14.8071218651286678 22.9246592118994528   F   F   F
 11.4153127306666669  6.0908185246535336 23.2538435754812269   F   F   F
 12.1260549439541023 10.8063183887410155 20.3319051906399331   F   F   F
  6.8327629536620700 12.0425795789581240 23.3123172262165888   F   F   F
 14.1227956055699675  6.5762234535465414 23.6027805799192834   F   F   F
 18.0300020722274574  9.5863233551905402 21.1752919074995809   F   F   F
 11.4797463032804004 17.3311465223106644 22.6478840673513915   F   F   F
 13.2057209387081738 10.9497862148394649 22.8986188360312646   F   F   F
 14.9439641836772275 13.0628648998669679 23.9816133344019420   F   F   F
 14.0920694232943955 17.5081057916842511 21.3898213144111793   F   F   F
 17.2801868350351739 13.7263896546320776 20.8049338034571747   F   F   F
  8.2258959505892850 11.1654979225852973 20.9022002634679041   F   F   F
  8.7112204092442358  6.6997180514986585 22.6803495294464845   F   F   F
 10.3640989670527066  5.1040429301026071 20.9339464448600374   F   F   F
 10.9336344492224260 15.6027986150858808 24.9884818882406883   F   F   F
 10.0344186041982812  8.3288254992465962 24.5458206347487540   F   F   F
 16.6434886155345936  2.1296815531817046 23.4646552779894613   T   T   T
 19.7474097538369193  5.9681080489360241 22.3728735806104204   T   T   T
 17.2401061782496932  3.2297878593024838 22.6164580966267188   T   T   T
 17.4022685937049815  1.3412484567040590 23.5816870547859310   T   T   T
 16.3777124584044067  2.4749846989385809 24.4671049059755283   T   T   T
 15.7677034353268350  1.6713133126470312 23.0016334823456603   T   T   T
 18.1205261358347016  3.6781061012481935 23.0817813672474657   T   T   T
 17.4648276647437228  2.9256247562674593 21.5912640295038685   T   T   T
  9.8698672944343873 20.8898431078649018 13.6202771865615322   F   F   F
 13.7860835635991048  1.3802673564954064 16.3700286370479127   F   F   F
 13.8627726458256006 18.1710301441363562 16.5100396568604815   F   F   F
 17.6928023739200810  7.0041166529463217 16.3919210789639429   F   F   F
 13.7704811815938051 12.4939975440068043 16.4594918953908369   F   F   F
  5.9752415662308449 12.4740546266582495 16.3163282287553884   F   F   F
  9.8583069276749171  7.1169834606411975 16.5860862669389597   F   F   F
  1.9834100256685900 20.9554694011927722 16.3640950615839316   F   F   F
 13.6332286589517313  9.7243704121628678 16.5522410660355206   F   F   F
 17.7405302489616190  9.7959300925215551 13.6450732714891689   F   F   F
  1.9109172565585093 12.5926815278669189 16.3914824353881876   F   F   F
  2.0018158695723209  6.9872983958390025 16.4123314034062560   F   F   F
  1.9479023494047307  1.4111973994159017 16.4245849725800461   F   F   F
 21.6814325819356206 20.9354150929592038 16.3820696143118170   F   F   F
 21.6417745815319691 15.3702647355563009 16.3689118099865638   F   F   F
 13.8193657348395949 20.9242603069907922 16.3861617371174262   F   F   F
 21.6922213502420362  4.1926738297350497 16.3712255552200681   F   F   F
 21.6647631697748686  9.7649297404449200 16.3668979256302691   F   F   F
 13.7069579274953828 15.3079990597905926 16.4273304026622178   F   F   F
  5.9540366330296939 20.9171735653451591 16.3558273345617735   F   F   F
 11.7697861817067100 11.2641823505199685 18.2609993741613650   F   F   F
 21.7280911404554971 12.5828703418819856 16.4186196057803180   F   F   F
  9.9339510051167483 12.5983960253451173 16.6561844199837594   F   F   F
  9.8677315777933359  1.4495456775088527 16.4215035672631515   F   F   F
 19.7093046015280713 19.5083561022069283 14.9657514754188483   F   F   F
 20.4204796252238694  5.6597542123357965 23.2520486339488706   T   T   T
 19.6983304005415079 22.2689087422721421 17.7681614302584414   F   F   F
 17.8858435166525851  9.7552981623973984 19.1674472409043659   F   F   F
  9.8767147101081214 20.8659992528230269 19.1928903798507839   F   F   F
  9.9468181898040466 15.0888157303695181 19.0159062788448203   F   F   F
  5.9852338710166650 18.1325754529448595 16.5182242518368447   F   F   F
 13.9783043471289865 18.0718949650505003 19.3804805826883175   F   F   F
 13.8601997543562554  6.9352454491485522 16.3555032043932727   F   F   F
 17.7087470554512478 18.0414900141006207 16.3766868613066734   F   F   F
  1.9597583097904061  9.7845263382482290 16.3449103503655984   F   F   F
  1.9645745888761350  4.2163775746997523 16.3659292354316719   F   F   F
 11.8310298859041776  2.8073290198234555 14.9831720624297979   F   F   F
 23.6515542823895757 11.1059300792282567 17.8276361765421960   F   F   F
 13.7690848558494388  4.1354001966623803 16.5109796872333519   F   F   F
 17.7148751549971379 20.8655476361977108 16.4035358449370392   F   F   F
  0.0006279258911643 16.8113527660687154 17.7708504426690261   F   F   F
 23.6632088427999925 22.2611101647416980 17.7699874262014461   F   F   F
 23.6471746667964737  5.5451320629072063 17.7830138916956777   F   F   F
  7.8856408483358633 11.0602349768626436 17.7310763036862262   F   F   F
  7.9288035754053672 16.5376870209582023 17.7069772743664764   F   F   F
 15.7718656789413529  5.4822975222483343 17.7569005269279074   F   F   F
 15.7594906453180990  0.0032865846602290 17.7625758085260870   F   F   F
 15.7504884753460050 16.5491114751414976 17.7199316272007792   F   F   F
 15.7842303418668717 11.0028980597878174 17.7268854856864024   F   F   F
  3.9593132101720450 22.2847543662270340 17.7711871534461245   F   F   F
  3.9746354594103157  5.5644723126651900 17.7948782767088325   F   F   F
  4.0357848374129297 16.7372197180859210 17.8419330503382199   F   F   F
  5.8773894197561596  9.7199729626735536 16.4744786475231102   F   F   F
  3.9132817810508183 11.2134734538428216 17.6085222646671369   F   F   F
  7.9371508035492395  5.6637148979066234 17.7829678288636153   F   F   F
  7.9055486825163381 -0.0001775526071083 17.7582622462296733   F   F   F
 11.8245920828988815 22.3125754902645639 17.7329041991747438   F   F   F
  5.8914635772527264 15.2480638135398792 16.5519815982176510   F   F   F
 21.6716742632803872 18.1310902506454141 16.4059910068477457   F   F   F
  3.9517984674662241  2.7839600245320200 14.9870646541036514   F   F   F
  9.8050301757237932 18.1087602885371446 16.4269193617210476   F   F   F
  5.9398866446367640  1.3959693714450718 16.4171519528578500   F   F   F
 17.6624928825719216 12.4707009796875106 16.3367650249283933   F   F   F
  5.9129892463976441  6.9958051627345519 16.3797137184230657   F   F   F
 21.6937348834863535  1.3550327671664189 19.2156285295014264   F   F   F
 21.6329487816632664 12.5348811251370922 19.2410551372815561   F   F   F
 21.6051775433148769  6.9418365780777807 19.2194913290659883   F   F   F
 17.5427107537209643 18.0667971461978247 19.2056902216777843   F   F   F
 17.7234808747543049  6.9792218714407470 19.2363021213049663   F   F   F
  1.9575465743083227  6.9462554089411466 19.2114762181549068   F   F   F
 15.7746473379727341 19.5118916565808966 14.9640001425481621   F   F   F
  2.0427080070453525 12.5343211562899501 19.1951064345333080   F   F   F
  1.9559305570488532  1.3485127366644354 19.2453006881226649   F   F   F
  2.0535189631596769  9.7208215346454487 19.1880140645103765   F   F   F
  1.9723045926747440  4.1362334680001656 19.2273802287366102   F   F   F
 17.7285931310939411  1.3682176215645347 19.2453004955760498   F   F   F
 13.7315419331215995  4.2702155818076477 19.3776042510414754   F   F   F
  9.9103737047053926  4.1862158398081917 19.2016187658381590   F   F   F
 21.6982156369999721 18.1325837370000720 10.8156001569999933   F   F   F
  2.0177506137383494 18.1164717147413405 19.2831412771438231   F   F   F
  5.9665828739228743 20.7625850408244155 19.1192048699695043   F   F   F
  6.0109845962846524 15.1372751925047133 19.8560123921122305   F   F   F
 19.7191780355715025 11.2475737594132390 17.6702408510306945   F   F   F
  5.6643368109664403  9.8710469191290162 19.2599121899164807   F   F   F
 19.6873727918258830  5.5733510956359922 17.7139108781926531   F   F   F
 21.6974862533735582 15.3313419069192314 19.1623785402805744   F   F   F
 21.5632788776823610  9.7049600492603290 19.1892336839365285   F   F   F
  1.9658219546854987 15.3199291336299659 19.1631147870672258   F   F   F
  2.0023047308747182 20.8780751582940063 19.2236681978560107   F   F   F
  9.8433305460352010  9.3407377662363604 18.9109694036486182   F   F   F
 21.6683064725833070 20.8830238210865318 19.2482350435397755   F   F   F
  1.9956236221689763 15.3308752909682617 13.5940037612900824   F   F   F
  1.9596284819330103  9.7474169984679708 13.5853425649373349   F   F   F
  1.9725650740000149  6.9740706679999214 10.8156001569999933   F   F   F
  1.9842842327133607  4.1629789996011182 13.5888100215344014   F   F   F
  1.9835015842936399 20.9029949658057141 13.6026871858361105   F   F   F
 17.7900043552353608 12.7402784509253468 19.0337245363948391   F   F   F
  9.4014052241491282 12.2870624444036523 19.5535998267279538   F   F   F
  9.7490192005276608 18.1411362908060347 19.1762262894415336   F   F   F
 10.0860955628224858  6.7910933177391923 19.6619591424544176   F   F   F
 21.6508786673633367 18.1250196431506509 19.2776919564859810   F   F   F
 13.7763967635361375  1.4525866245615373 19.1882812704187842   F   F   F
 13.9284545360746073  7.1571198677321117 18.9894808857617434   F   F   F
 13.9964442737976711 12.6289397033862265 19.1344054402581669   F   F   F
  9.8747782849266468 15.2907514641740505 13.6519431974950471   F   F   F
 17.8375554036151662 15.4514957966878015 19.7259127509490320   F   F   F
  6.1911847063963412 17.8545446338711002 19.3820957360139587   F   F   F
 17.7843076545211822  4.1297866092936237 19.2024616159013028   F   F   F
 21.6982156369999721 12.5533272030000536 10.8156001569999933   F   F   F
 11.8345841840350552 19.4936343841097859 15.0245050079953817   F   F   F
 11.8403102169511385 13.8562446144233427 15.0029479764583655   F   F   F
 19.7044938879948930 13.9054401576235769 15.0039127971257518   F   F   F
  5.9607850930793980  4.2055094673244673 16.4135798051581645   F   F   F
 19.7214561620092752  8.3330664137815251 14.9653418203733324   F   F   F
  2.0294416635615100 15.3789325311046312 16.3576460731258990   F   F   F
 19.7168335908026755  2.7685394536162677 14.9668292767877471   F   F   F
  3.9655277364436996 13.9272393916763075 15.0035716476319170   F   F   F
 13.7290089278770484  9.7961814642806271 19.3805838653010305   F   F   F
 13.6515358928343407 15.3078027833253429 19.1878843912228128   F   F   F
 21.6172960271997248  4.1287717910237465 19.2068767946234900   F   F   F
  5.9134293095588299  7.0668675615616445 19.2226035775630493   F   F   F
  3.9687560420017061 19.4905164721612891 14.9945443135195191   F   F   F
 17.6896052726521091 20.8326951386992896 19.1986008547768279   F   F   F
 11.8334657551973415  8.3079301906407856 15.0210274635924854   F   F   F
  5.9881916956282168  4.1602981674639299 19.2275255712652928   F   F   F
  5.9403821447248850  1.3278720143812803 19.2695646427221838   F   F   F
 19.6601081030340765 16.7633832569624595 17.7933165569280725   F   F   F
  9.8868257264899899  1.4548782867766750 19.2014918516116211   F   F   F
 13.7654547990809224 20.8642004390034188 19.1799500710416311   F   F   F
 11.8406185275374849 16.8831934000068280 17.7780194987205320   F   F   F
  3.9418887529396049  8.3809539733219900 14.9423662063104690   F   F   F
  9.8859035869446661  4.2567818480148398 16.4239246294547030   F   F   F
  5.8582896398506561 12.7966866362308398 18.8560426143172641   F   F   F
  9.8422421614800282 20.9074572554315381 16.3830605656167343   F   F   F
 13.8079546360000549 20.9222120050000342 10.8156001569999933   F   F   F
 13.8079546360000549 15.3429554700000619 10.8156001569999933   F   F   F
 13.8079546360000549  9.7636982699999884 10.8156001569999933   F   F   F
 13.8079546360000549  4.1844424010000720 10.8156001569999933   F   F   F
 21.6840174868744597  1.3898688245003872 16.4043095733643938   F   F   F
  5.9176950450000287 20.9222120050000342 10.8156001569999933   F   F   F
  5.9176950450000287 15.3429554700000619 10.8156001569999933   F   F   F
  5.9176950450000287  4.1844424010000720 10.8156001569999933   F   F   F
 17.7530837259999217 20.9222120050000342 10.8156001569999933   F   F   F
 17.7530837259999217 15.3429554700000619 10.8156001569999933   F   F   F
 17.7530837259999217  9.7636982699999884 10.8156001569999933   F   F   F
 17.7530837259999217  4.1844424010000720 10.8156001569999933   F   F   F
  9.8628241350000643 20.9222120050000342 10.8156001569999933   F   F   F
  9.8628241350000643 15.3429554700000619 10.8156001569999933   F   F   F
  9.8628241350000643  9.7636982699999884 10.8156001569999933   F   F   F
  5.9176950450000287  9.7636982699999884 10.8156001569999933   F   F   F
  1.9725650740000149  1.3948141340000613 10.8156001569999933   F   F   F
 21.6659181130755805 15.3290730617509894 13.5993877156713356   F   F   F
 15.7555623450180082  8.4848524136344565 15.0762540042357429   F   F   F
  7.9210454678782156  8.4422016011028891 15.0933931744508172   F   F   F
 21.6982156369999721 20.9222120050000342 10.8156001569999933   F   F   F
 21.6982156369999721  1.3948141340000613 10.8156001569999933   F   F   F
  3.9451301480000271 11.1585130689999925 12.2103998060000407   F   F   F
  5.9296961695275385  1.3858539903722935 13.6279018439648656   F   F   F
 13.8079546360000549 18.1325837370000720 10.8156001569999933   F   F   F
 13.8079546360000549  6.9740706679999214 10.8156001569999933   F   F   F
 13.8079546360000549  1.3948141340000613 10.8156001569999933   F   F   F
  5.9176950450000287 18.1325837370000720 10.8156001569999933   F   F   F
  5.9176950450000287 12.5533272030000536 10.8156001569999933   F   F   F
 21.6982156369999721  4.1844424010000720 10.8156001569999933   F   F   F
 21.6982156369999721  9.7636982699999884 10.8156001569999933   F   F   F
 21.6982156369999721 15.3429554700000619 10.8156001569999933   F   F   F
 13.8380084163296981 12.5626996812033660 13.6433698885048607   F   F   F
 17.7485475115430731  4.1884176574775855 13.6065270987676765   F   F   F
 21.6851693071542577 12.5466648416266260 13.6230225953645796   F   F   F
 17.7354753887701548 15.3762231640886657 13.7144380583242800   F   F   F
  9.8855388938791044  9.7157726553738097 13.6253229400940494   F   F   F
 21.6883004084656470  1.3894675481515173 13.6161583939533877   F   F   F
 11.8588572289147383  5.6618474716333811 17.7475992404588254   F   F   F
 15.7688029449707763  2.7994943360267204 14.9838695669390436   F   F   F
  9.8680137521449485  4.1794237559632235 13.6163133648469028   F   F   F
  5.9651721051363138 15.3427296539489344 13.6796564849623810   F   F   F
 21.6917713210029248 20.9143905519632831 13.6085608861484388   F   F   F
 13.8058366054606942  4.2455777852728822 13.6681601055966429   F   F   F
 23.6653049561861302  2.7892939143064912 14.9545828453026264   F   F   F
 13.8064505129828845 18.0877302903374790 13.6594400204785380   F   F   F
 23.6679262251347389  8.3410340402477861 14.9432733744345150   F   F   F
  5.9176950450000287  6.9740706679999214 10.8156001569999933   F   F   F
 23.6623091834821047 13.9951645224763670 14.9292347490792849   F   F   F
  0.0021364481272318 19.5193482761302626 14.9808039875071088   F   F   F
  7.8906383390332451 19.4962628070032231 14.9720754706736461   F   F   F
  5.9431432811079743  9.8006329643197585 13.6510636224842195   F   F   F
  1.9725650740000149 12.5533272030000536 10.8156001569999933   F   F   F
 17.7504442057997416 20.9162395707449491 13.6395429792032843   F   F   F
 21.6925260380082392  6.9696825860423770 13.6105436355518208   F   F   F
  5.9238025036305739  4.2051484493137359 13.6234088074895396   F   F   F
 13.8062009923541620  1.4199771797392076 13.6170999727543176   F   F   F
  7.9404907192748819 13.9626712653529985 15.1103002532129675   F   F   F
 13.7942665734935428 20.9135368383474862 13.6287049747284605   F   F   F
 13.7917093112299334 15.3118499303262503 13.6381829803298888   F   F   F
 13.7796927118208838  9.8102939840269521 13.6842153275198051   F   F   F
  5.9181726098736407 20.8901852850223761 13.6200876137690976   F   F   F
 15.7504016146140255 13.9872082158224842 15.0838596963092577   F   F   F
  7.9035942983986027  2.8029020509490805 14.9748446060100644   F   F   F
  5.9176950450000287  1.3948141340000613 10.8156001569999933   F   F   F
  2.0171718545524566 18.1419084580424759 16.4248128639838988   F   F   F
 17.7530837259999217  6.9740706679999214 10.8156001569999933   F   F   F
  0.0000000000000000  5.5792565349999723 12.2103998060000407   F   F   F
  0.0000000000000000 11.1585130689999925 12.2103998060000407   F   F   F
 17.7100557056389789 12.6022444775453977 13.6087473339521452   F   F   F
  7.8902602960000570  0.0000000000000000 12.2103998060000407   F   F   F
 17.7368025045531930 18.1453682872474218 13.5951856312585644   F   F   F
  7.8902602960000570 11.1585130689999925 12.2103998060000407   F   F   F
 15.7805205919999434  0.0000000000000000 12.2103998060000407   F   F   F
 15.7805205919999434  5.5792565349999723 12.2103998060000407   F   F   F
 15.7805205919999434 11.1585130689999925 12.2103998060000407   F   F   F
 15.7805205919999434 16.7377696039999648 12.2103998060000407   F   F   F
  3.9451301480000271  0.0000000000000000 12.2103998060000407   F   F   F
  3.9451301480000271  5.5792565349999723 12.2103998060000407   F   F   F
 21.6804078107035849  4.1704955000839430 13.5948311897488132   F   F   F
 11.8353900909999528  0.0000000000000000 12.2103998060000407   F   F   F
 11.8353900909999528  5.5792565349999723 12.2103998060000407   F   F   F
 11.8353900909999528 16.7377696039999648 12.2103998060000407   F   F   F
 21.6982156369999721  6.9740706679999214 10.8156001569999933   F   F   F
  7.8902602960000570  5.5792565349999723 12.2103998060000407   F   F   F
 17.6942507865083236  7.0049151903248550 13.6214630055710035   F   F   F
  7.8902602960000570 16.7377696039999648 12.2103998060000407   F   F   F
 21.6890501075151647  9.7567080451039132 13.6051321550469737   F   F   F
 21.6940048524772742 18.1237123401044968 13.6214288932084244   F   F   F
 17.7598025677245985  4.1924096920739453 16.3760113753935848   F   F   F
 10.0086414057998336 15.3422637779628221 16.4073607702879904   F   F   F
 10.0193757617842305  9.8923777146035672 16.3768000900124520   F   F   F
 17.8315032074803952  9.7431693624800744 16.4446032675185201   F   F   F
 17.7987074275673294 15.1971707746178275 16.5919005952827021   F   F   F
 17.7408449160347566  1.3869755462504667 16.3980039014618519   F   F   F
 17.7530837259999217 12.5533272030000536 10.8156001569999933   F   F   F
  0.0000000000000000  0.0000000000000000 12.2103998060000407   F   F   F
  1.9725650740000149  4.1844424010000720 10.8156001569999933   F   F   F
  3.9451301480000271 16.7377696039999648 12.2103998060000407   F   F   F
 19.7256482699999580  0.0000000000000000 12.2103998060000407   F   F   F
  9.8628241350000643 18.1325837370000720 10.8156001569999933   F   F   F
 17.7530837259999217  1.3948141340000613 10.8156001569999933   F   F   F
 11.8353900909999528 11.1585130689999925 12.2103998060000407   F   F   F
  9.8628241350000643 12.5533272030000536 10.8156001569999933   F   F   F
  9.8628241350000643  6.9740706679999214 10.8156001569999933   F   F   F
 17.7530837259999217 18.1325837370000720 10.8156001569999933   F   F   F
  1.9765567363296697  6.9614015062907679 13.6211592982813894   F   F   F
  9.8628241350000643  1.3948141340000613 10.8156001569999933   F   F   F
  9.8716534836976368  1.3767176289237204 13.6609805467245042   F   F   F
  1.9777427752373038 18.1222812530427149 13.6257743388844919   F   F   F
  9.8446753857527440 12.4873343516971840 13.7320276334101461   F   F   F
  1.9810188581133861  1.3810970611024345 13.6268477332656186   F   F   F
  9.8354104065792143  6.9481103079319944 13.7207243907333005   F   F   F
 19.7256482699999580 16.7377696039999648 12.2103998060000407   F   F   F
  1.9725650740000149  9.7636982699999884 10.8156001569999933   F   F   F
  1.9873583470886911 12.5530927251616120 13.6171346926311472   F   F   F
  5.9233118142399803 18.0921064196387640 13.6586543444639048   F   F   F
 19.7256482699999580  5.5792565349999723 12.2103998060000407   F   F   F
  1.9725650740000149 15.3429554700000619 10.8156001569999933   F   F   F
  5.9604732362385402 12.6001901640717495 13.6100562864872909   F   F   F
  5.9718797613404186  7.0099673798035536 13.6243223299367884   F   F   F
  0.0000000000000000 16.7377696039999648 12.2103998060000407   F   F   F
  9.8682863289607550 18.0863916227873105 13.6452568309126256   F   F   F
 21.6776942898573175  6.9843097814456270 16.4056787718259507   F   F   F
 17.7334255603219830  1.3952348877478216 13.6196578179670738   F   F   F
 19.7256482699999580 11.1585130689999925 12.2103998060000407   F   F   F
  1.9725650740000149 18.1325837370000720 10.8156001569999933   F   F   F
  9.8628241350000643  4.1844424010000720 10.8156001569999933   F   F   F
  1.9725650740000149 20.9222120050000342 10.8156001569999933   F   F   F
 13.8079546360000549 12.5533272030000536 10.8156001569999933   F   F   F
 13.8328042313418162  7.0409792172591326 13.6076044680765929   F   F   F
 19.7895542844566918 16.7672068471515203 15.0817004716352940   F   F   F
 19.7085953202024342 19.5259195294516275 18.5839991847755606   F   F   F
 15.7761082010505547  2.7196662360383956 18.4236793076094116   F   F   F
 11.8362921018516669 19.5607206216119920 18.2870348384799470   F   F   F
 11.8404335761606312 22.2990170648723698 15.1647309692002032   F   F   F
 19.7833666914124393  8.3131567830293491 18.0275457475373493   F   F   F
 19.7256482699999580  8.3688848019999824 12.2103998060000407   F   F   F
  7.8476063520354540  2.6785081899227721 18.3989217263645415   F   F   F
 19.8735058479425462 13.9850309371858916 18.1259253330924608   F   F   F
 11.8353900909999528 13.9481413360000008 12.2103998060000407   F   F   F
  3.9451301480000271  2.7896282670000101 12.2103998060000407   F   F   F
 11.9131951348313265 13.9339608801316270 17.8248367934993226   F   F   F
 11.8353900909999528  2.7896282670000101 12.2103998060000407   F   F   F
 11.8353900909999528  8.3688848019999824 12.2103998060000407   F   F   F
  0.0000000000000000  2.7896282670000101 12.2103998060000407   F   F   F
 15.9423708910654760  8.2979634407904683 17.8441414607850177   F   F   F
 19.7256482699999580  2.7896282670000101 12.2103998060000407   F   F   F
  3.9563914399250710  2.7280936769981636 18.6535607673971953   F   F   F
 19.7266553993650469  2.6820797806771832 18.3911278084296619   F   F   F
 23.6651896366833121 13.8894366056331400 18.7281739145320429   F   F   F
 23.6368383816467293  8.3464122048922000 18.7024318518047572   F   F   F
 15.7713643771219214 13.9781519405422934 17.7875035899732055   F   F   F
  3.9451301480000271 13.9481413360000008 12.2103998060000407   F   F   F
 15.7235284731880078 19.6258037655515203 18.2006934303516488   F   F   F
  3.9412574651287677 19.4925076915306406 18.5425916586801200   F   F   F
 11.8451273824929082  2.7175953465174545 18.2043467827639596   F   F   F
 11.9017534142629362  8.2730691020719185 17.8715462863604841   F   F   F
  3.9451301480000271 19.5273965409999306 12.2103998060000407   F   F   F
  3.7712195296742359 13.9833873103242343 18.0366258102719179   F   F   F
  7.9144127570300107 19.6113030010547966 18.0816369794424681   F   F   F
  3.8575661313584804  8.2702644490564854 18.2301620424352642   F   F   F
 11.8353900909999528 19.5273965409999306 12.2103998060000407   F   F   F
 23.6707206091840732 19.5022052872289500 18.7196217907099118   F   F   F
  0.0000000000000000  8.3688848019999824 12.2103998060000407   F   F   F
 19.7353812272269238  5.5440703573144718 15.1325990360046028   F   F   F
 11.8640380235982281 11.1494236395025244 15.0115560782591793   F   F   F
  7.8389541021762188 11.1367997556002223 15.0301134993560410   F   F   F
 15.8341413249579031 11.1485129327077441 15.0178776391664766   F   F   F
  7.9008458667226842 16.7619526754569854 15.0462822408361969   F   F   F
  7.8859854238717784  0.0252675470378706 15.1714833541192036   F   F   F
  7.8196507988929245  5.5321497075333879 15.0830975314485780   F   F   F
 15.7805205919999434 13.9481413360000008 12.2103998060000407   F   F   F
 15.8117365818636468  5.5226568142695927 15.1182213113078134   F   F   F
  3.8910358630480428 16.7677130476578320 15.1000615707222430   F   F   F
  7.9069310554090526 13.9324698056282177 17.8473322536213743   F   F   F
 11.8545884935525550 16.7992720415201475 15.1184304148129769   F   F   F
 19.7256482699999580 13.9481413360000008 12.2103998060000407   F   F   F
  3.9279838003302729  0.0264820488554264 15.1950988562933667   F   F   F
  3.9451301480000271  8.3688848019999824 12.2103998060000407   F   F   F
 23.6546670151758320  2.7546510185313480 18.5787159396325166   F   F   F
 23.6540671721234759 11.1526685602855906 15.2020374006881749   F   F   F
  3.9293601011000368  5.5372581469713804 15.1880110086526550   F   F   F
 15.7722129283247590  0.0163812908124823 15.1753833361511319   F   F   F
 11.8726550621111162  5.5330557013212003 15.0763625123920963   F   F   F
 15.7805205919999434  8.3688848019999824 12.2103998060000407   F   F   F
  0.0000000000000000 19.5273965409999306 12.2103998060000407   F   F   F
  3.8703259591112058 11.1481856861809678 15.0574578085209065   F   F   F
 15.7522549000876300 16.7765854743496554 15.0653076328258226   F   F   F
 15.7805205919999434 19.5273965409999306 12.2103998060000407   F   F   F
  7.7285976165972041  8.3289494228442038 17.7780525771282356   F   F   F
 15.7805205919999434  2.7896282670000101 12.2103998060000407   F   F   F
  7.8902602960000570 19.5273965409999306 12.2103998060000407   F   F   F
 19.7774025702623462 11.1512501058591429 15.0838087654411819   F   F   F
  7.8902602960000570  8.3688848019999824 12.2103998060000407   F   F   F
  7.8902602960000570  2.7896282670000101 12.2103998060000407   F   F   F
  7.8902602960000570 13.9481413360000008 12.2103998060000407   F   F   F
  0.0000000000000000 13.9481413360000008 12.2103998060000407   F   F   F
 19.7256482699999580 19.5273965409999306 12.2103998060000407   F   F   F
 23.6689534483655599 22.3129409426149117 15.1865849970676479   F   F   F
  0.0000410062603393 16.7556218524247633 15.1980899612000613   F   F   F
 23.6647374642329922  5.5681609203676574 15.1872868213670564   F   F   F
 19.7392049807250345 22.3169556552513058 15.1867249796255148   F   F   F
  9.8628241350000643 11.1585130689999925 12.2103998060000407   F   F   F
  5.9176950450000287  5.5792565349999723 12.2103998060000407   F   F   F
 13.8143865745703209  2.7533678689279557 15.1485425659222166   F   F   F
  1.9725650740000149 16.7377696039999648 12.2103998060000407   F   F   F
  1.9725650740000149 11.1585130689999925 12.2103998060000407   F   F   F
 21.6982156369999721 16.7377696039999648 12.2103998060000407   F   F   F
  1.9725650740000149  0.0000000000000000 12.2103998060000407   F   F   F
 21.6982156369999721 11.1585130689999925 12.2103998060000407   F   F   F
 17.8085286500663287 13.9354326369978345 15.0833309092168584   F   F   F
  9.8628241350000643  0.0000000000000000 12.2103998060000407   F   F   F
 13.8195005869706300 19.5453540706372557 15.1710028262997287   F   F   F