Au  O Sr Ti                             
   1.00000000000000     
    23.6707801818999997    0.0000000000000000    0.0000000000000000
     0.0000000000000000   22.3170261383000010    0.0000000000000000
     0.0000000000000000    0.0000000000000000   30.0000000000000000
   Au   O    Sr   Ti
    50   264    72    72
Selective dynamics
Direct
  0.6926748605074754  0.5497433393454720  0.7679631208172406   T   T   T
  0.6178310966945235  0.5650709005044339  0.6991617958239286   T   T   T
  0.6064706296889958  0.2507971949872379  0.6898863374367501   T   T   T
  0.2844019940456309  0.7953393411174865  0.7087638557238681   T   T   T
  0.5894403114762807  0.7460650759788497  0.7989409579807417   T   T   T
  0.5163942990684894  0.6824253024435358  0.8551272992213098   T   T   T
  0.5183035355689525  0.4350366738515711  0.8462464178745195   T   T   T
  0.3515221595730155  0.5179426949083623  0.7743016207483865   T   T   T
  0.2445462102311343  0.7329220235053111  0.7850672670460842   T   T   T
  0.6222833563585590  0.3719009716713864  0.8462389877513556   T   T   T
  0.5352442755015586  0.5146586759259116  0.7623880488027092   T   T   T
  0.5099245290613635  0.4841340985873413  0.6737716673285412   T   T   T
  0.5127646726056402  0.8121565555235227  0.8513755133974598   T   T   T
  0.7291972010205652  0.4834728766135695  0.6955539333050225   T   T   T
  0.7307492580069352  0.6168877187062153  0.6958219937580801   T   T   T
  0.6115394426889608  0.6184437560799050  0.8212970240013667   T   T   T
  0.6519104701195205  0.8229914459031892  0.7444566823673640   T   T   T
  0.4742008579593127  0.7578648834216691  0.7736418458253458   T   T   T
  0.4410498650244901  0.5723585935706575  0.7041317983219060   T   T   T
  0.4189565923334513  0.3865709875500328  0.7951815604235311   T   T   T
  0.4108528426498418  0.3313033674592507  0.7098730629834169   T   T   T
  0.2527938374909729  0.6719503134399923  0.7046868974927509   T   T   T
  0.4053539411254720  0.8146840783938731  0.7058409420577870   T   T   T
  0.2597620764620372  0.6060689791629037  0.7856000889964164   T   T   T
  0.5055233418403313  0.2668622418067865  0.7352517760807847   T   T   T
  0.5409007382080970  0.6492373184447192  0.7427040154688330   T   T   T
  0.6182042380575808  0.3168901837154673  0.7633646616364017   T   T   T
  0.7143841965436262  0.7508861185993188  0.6917609024924186   T   T   T
  0.6222254170304670  0.4956122309628173  0.8315261557881652   T   T   T
  0.3190574132292655  0.6804863149218163  0.8462084259102961   T   T   T
  0.5223430341688422  0.5567248561047143  0.8642669649860375   T   T   T
  0.2915297680090049  0.5489005524860542  0.7007875545384782   T   T   T
  0.4184433018424675  0.4939899342379185  0.8566203905657037   T   T   T
  0.5137861997034014  0.3954123353901398  0.7389544297117959   T   T   T
  0.3851349034020724  0.4589652323296520  0.6991519870183823   T   T   T
  0.6660015514838615  0.6781975756039108  0.7524930198188562   T   T   T
  0.3143957885683619  0.3865850844644658  0.7502017950164930   T   T   T
  0.3134176473845557  0.5545509203728548  0.8616942310448203   T   T   T
  0.4165780627614059  0.6208058565010407  0.8796950056189461   T   T   T
  0.3195388886226687  0.4312999814889157  0.8372290153741437   T   T   T
  0.5183014440034784  0.3191727729705244  0.8171796768724345   T   T   T
  0.4501639102425408  0.7007405538652460  0.6968298577249694   T   T   T
  0.7059517178925533  0.3304134816738359  0.7030679015945633   T   T   T
  0.6908258189574555  0.4197030425385511  0.7741969630788439   T   T   T
  0.3594431865601401  0.6487408434762977  0.7450909078451280   T   T   T
  0.6225777123742475  0.4243582876138442  0.7025234710935012   T   T   T
  0.4131382360381146  0.7477133797045217  0.8617556483159476   T   T   T
  0.5832555538911477  0.7487205487984758  0.6956176436974727   T   T   T
  0.4517265609575141  0.5973351343834776  0.7919186251329671   T   T   T
  0.3556765864334608  0.7733687169435925  0.7815393326733346   T   T   T
  0.2508645040362626  0.1868943447774633  0.4532803331478010   T   T   T
  0.7499205548744405  0.9357756979666662  0.4538037963674123   T   T   T
  0.7476141108450203  0.6856331402226893  0.4555247772839761   T   T   T
  0.7487143215546630  0.4369520147779662  0.4535631210035987   T   T   T
  0.7489994830477458  0.1867989185827632  0.4529481654100966   T   T   T
  0.4167520971621918  0.9364509128961096  0.4536478645006762   T   T   T
  0.4153949140020750  0.6861407177568025  0.4539256434218537   T   T   T
  0.4171558270403165  0.4375498108485832  0.4540205676447475   T   T   T
  0.0830751464828706  0.6874097043698337  0.4533918857993087   T   T   T
  0.0838824883748016  0.9374879924604292  0.4536002312253162   T   T   T
  0.0828121943317243  0.4367101597635906  0.4529010170408836   T   T   T
  0.0830064100786862  0.1871693440191307  0.4534438915963339   T   T   T
  0.9161549401212086  0.8128954019044951  0.4532559832731476   T   T   T
  0.9160461672916351  0.5625072219589504  0.4539090761773910   T   T   T
  0.2507089020435035  0.4373353450659753  0.4532911247822716   T   T   T
  0.9166609566598234  0.0622760259629284  0.4537607010453493   T   T   T
  0.9164815727994171  0.3119974469296761  0.4541199225391540   T   T   T
  0.4166275534502939  0.1868445940182321  0.4531525056690384   T   T   T
  0.2518422973813734  0.6862790173898325  0.4530292639622019   T   T   T
  0.9158813107017713  0.9372867862933485  0.4537575534736629   T   T   T
  0.5834502651626092  0.1880666870947155  0.4540418390655248   T   T   T
 -0.0001020673434395  0.1246354448304978  0.4993808364353665   T   T   T
  0.5827928909051993  0.8109061149963607  0.4549297432194166   T   T   T
  0.0000776271479095  0.3734098406865862  0.4986239957665831   T   T   T
  0.0005351781511217  0.6255973690986156  0.4990570788262724   T   T   T
  0.3335709171386294  0.1242337066573633  0.4994397224012893   T   T   T
 -0.0001040360460315  0.8751516568337246  0.4986134368721739   T   T   T
  0.3335090193369535  0.8743589416456025  0.4986289319927767   T   T   T
  0.6664638602891493  0.1250454294139160  0.4996527805689531   T   T   T
  0.3338464897980402  0.6226420143897609  0.5027423265643842   T   T   T
  0.3341358137994457  0.3764733199570166  0.5001883909457301   T   T   T
  0.6661803758823520  0.3763556889142615  0.5025477799670595   T   T   T
  0.9161124239467555  0.6873179950714619  0.4538693566260508   T   T   T
  0.9171796622136659  0.4368113446918014  0.4528729320691767   T   T   T
  0.9165585113309600  0.1867478373933628  0.4530772796425976   T   T   T
  0.5832654755806509  0.9363101871515824  0.4538648789404383   T   T   T
  0.5841070987099732  0.6872339080250327  0.4558617935480101   T   T   T
  0.5835191531972413  0.4385218168301038  0.4561579169079429   T   T   T
  0.2497070433006375  0.9354899478168007  0.4532547665912946   T   T   T
  0.6647331029458883  0.6235700962137974  0.5035686193637934   T   T   T
  0.5837472730573736  0.5627725072087529  0.4549767065826334   T   T   T
  0.5835685231977363  0.0618826100361719  0.4546977783095644   T   T   T
  0.9166666865332829  0.6874999999963620  0.3605200052333331   F   F   F
  0.9166666865332829  0.4374999701794380  0.3605200052333331   F   F   F
  0.9166666865332829  0.1875000000030838  0.3605200052333331   F   F   F
  0.5833333134730552  0.9375000000154046  0.3605200052333331   F   F   F
  0.5833333134730552  0.6874999999963620  0.3605200052333331   F   F   F
  0.5833333134730552  0.4374999701794380  0.3605200052333331   F   F   F
  0.5833333134730552  0.1875000000030838  0.3605200052333331   F   F   F
  0.2499999999799343  0.9375000000154046  0.3605200052333331   F   F   F
  0.9166666865332829  0.9375000000154046  0.3605200052333331   F   F   F
  0.2499999999799343  0.6874999999963620  0.3605200052333331   F   F   F
  0.2499999999799343  0.1875000000030838  0.3605200052333331   F   F   F
  0.7499999404149307  0.9375000000154046  0.3605200052333331   F   F   F
  0.7499999404149307  0.6874999999963620  0.3605200052333331   F   F   F
  0.7499999404149307  0.4374999701794380  0.3605200052333331   F   F   F
  0.7499999404149307  0.1875000000030838  0.3605200052333331   F   F   F
  0.4166666269218169  0.9375000000154046  0.3605200052333331   F   F   F
  0.4166666269218169  0.6874999999963620  0.3605200052333331   F   F   F
  0.4166666269218169  0.4374999701794380  0.3605200052333331   F   F   F
  0.2499999999799343  0.4374999701794380  0.3605200052333331   F   F   F
  0.0833333358191695  0.0625000000159659  0.3605200052333331   F   F   F
  0.0833333358191695  0.3124999999901945  0.3605200052333331   F   F   F
  0.0833333358191695  0.5625000000092442  0.3605200052333331   F   F   F
  0.9166666865332829  0.3124999999901945  0.3605200052333331   F   F   F
  0.9166666865332829  0.0625000000159659  0.3605200052333331   F   F   F
  0.5833333134730552  0.8124999999834799  0.3605200052333331   F   F   F
  0.5833333134730552  0.5625000000092442  0.3605200052333331   F   F   F
  0.5833333134730552  0.3124999999901945  0.3605200052333331   F   F   F
  0.5833333134730552  0.0625000000159659  0.3605200052333331   F   F   F
  0.2499999999799343  0.8124999999834799  0.3605200052333331   F   F   F
  0.2499999999799343  0.5625000000092442  0.3605200052333331   F   F   F
  0.2499999999799343  0.3124999999901945  0.3605200052333331   F   F   F
  0.2499999999799343  0.0625000000159659  0.3605200052333331   F   F   F
  0.7499999404149307  0.8124999999834799  0.3605200052333331   F   F   F
  0.7499999404149307  0.5625000000092442  0.3605200052333331   F   F   F
  0.7499999404149307  0.3124999999901945  0.3605200052333331   F   F   F
  0.7499999404149307  0.0625000000159659  0.3605200052333331   F   F   F
  0.4166666269218169  0.8124999999834799  0.3605200052333331   F   F   F
  0.4166666269218169  0.5625000000092442  0.3605200052333331   F   F   F
  0.4166666269218169  0.3124999999901945  0.3605200052333331   F   F   F
  0.4166666269218169  0.0625000000159659  0.3605200052333331   F   F   F
  0.0833333358191695  0.8124999999834799  0.3605200052333331   F   F   F
  0.4166666269218169  0.1875000000030838  0.3605200052333331   F   F   F
  0.0833333358191695  0.9375000000154046  0.3605200052333331   F   F   F
  0.0833333358191695  0.6874999999963620  0.3605200052333331   F   F   F
  0.0833333358191695  0.4374999701794380  0.3605200052333331   F   F   F
  0.8333332538436267  0.4999999999932783  0.4070133268666680   F   F   F
  0.8333332538436267  0.7500000000123208  0.4070133268666680   F   F   F
  0.0830579615173311  0.0629413002980826  0.4532878675155159   T   T   T
  0.0836666071733182  0.3121702192206014  0.4539032245007425   T   T   T
  0.0834706724064673  0.5621913494625455  0.4537706224006298   T   T   T
  0.0835009173422160  0.8128704602597043  0.4534940955702197   T   T   T
  0.4168062160515109  0.0616154573850663  0.4545210634098378   T   T   T
  0.4172703125440934  0.3125183674862697  0.4552570449596411   T   T   T
  0.4165490464532743  0.5619024727210294  0.4550144422565688   T   T   T
  0.4173147817885857  0.8115436907754583  0.4542595037337825   T   T   T
  0.7493429822003989  0.0615785889426304  0.4543024859962199   T   T   T
  0.7487231530290954  0.3119915500272376  0.4557534989733254   T   T   T
  0.7485398154333096  0.5607749134378274  0.4575683534025907   T   T   T
  0.7497826805518857  0.8100739062714541  0.4553751740273844   T   T   T
  0.2506030984125603  0.0614287027519544  0.4542824842024660   T   T   T
  0.9148881739516281  0.3133209717765811  0.5473955527972464   T   T   T
  0.2508964965782257  0.3129605534760317  0.4542026521004415   T   T   T
  0.2512177867567809  0.5623670987301548  0.4547135991848658   T   T   T
  0.2500023545498489  0.8102348945826213  0.4553706665793779   T   T   T
  0.8333332538436267  0.2500000000190425  0.4070133268666680   F   F   F
  0.5837830381233519  0.3136101855324466  0.4554435432925489   T   T   T
  0.8333332538436267  0.0000000000000000  0.4070133268666680   F   F   F
  0.5000000000021103  0.4999999999932783  0.4070133268666680   F   F   F
  0.0833333358191695  0.1875000000030838  0.3605200052333331   F   F   F
  0.0000000000000000  0.0000000000000000  0.4070133268666680   F   F   F
  0.0000000000000000  0.2500000000190425  0.4070133268666680   F   F   F
  0.0000000000000000  0.4999999999932783  0.4070133268666680   F   F   F
  0.0000000000000000  0.7500000000123208  0.4070133268666680   F   F   F
  0.3333333432766779  0.0000000000000000  0.4070133268666680   F   F   F
  0.3333333432766779  0.2500000000190425  0.4070133268666680   F   F   F
  0.3333333432766779  0.4999999999932783  0.4070133268666680   F   F   F
  0.3333333432766779  0.7500000000123208  0.4070133268666680   F   F   F
  0.6666666865533486  0.0000000000000000  0.4070133268666680   F   F   F
  0.6666666865533486  0.2500000000190425  0.4070133268666680   F   F   F
  0.6666666865533486  0.4999999999932783  0.4070133268666680   F   F   F
  0.6666666865533486  0.7500000000123208  0.4070133268666680   F   F   F
  0.1666666716383389  0.0000000000000000  0.4070133268666680   F   F   F
  0.1666666716383389  0.2500000000190425  0.4070133268666680   F   F   F
  0.1666666716383389  0.4999999999932783  0.4070133268666680   F   F   F
  0.1666666716383389  0.7500000000123208  0.4070133268666680   F   F   F
  0.5000000000021103  0.0000000000000000  0.4070133268666680   F   F   F
  0.5000000000021103  0.2500000000190425  0.4070133268666680   F   F   F
  0.5000000000021103  0.7500000000123208  0.4070133268666680   F   F   F
  0.1667820576356558  0.1242773128415569  0.4981927751108355   T   T   T
  0.9161549910083776  0.0620887291998835  0.5465432041140702   T   T   T
  0.1672003102000363  0.8740193319941983  0.4999199892622382   T   T   T
  0.2492340019436986  0.1885637315320886  0.5456083811844811   T   T   T
  0.7486634347721673  0.9373531906454027  0.5451520124792725   T   T   T
  0.7489018677949122  0.6873085978008223  0.5489568397680834   T   T   T
  0.7488223145815124  0.4417216169043870  0.5458504987344823   T   T   T
  0.4209301926880443  0.4401700251305813  0.5468654202932673   T   T   T
  0.4167916496214152  0.6876174884518094  0.5457713185925835   T   T   T
  0.7509068194288079  0.1896617610602589  0.5451437741676037   T   T   T
  0.4159831883225681  0.9374122566178702  0.5459531499521035   T   T   T
  0.0833593990639762  0.9377683388987792  0.5459886305246949   T   T   T
  0.4178373387664675  0.1895354791341656  0.5452782422901521   T   T   T
  0.0872483048520877  0.6877744420235083  0.5460536355104787   T   T   T
  0.0831709205238534  0.4385548966659527  0.5451784654225192   T   T   T
  0.0835064470025447  0.1879417574418990  0.5458720157017722   T   T   T
  0.5001829344255184  0.1251172391863981  0.4985830849246218   T   T   T
  0.0010277824734101  0.4976690299518475  0.5924841739559613   T   T   T
  0.0011900736099414  0.7475627949243103  0.5923135396378904   T   T   T
  0.3346909431203310  0.2463389955799218  0.5923439882626511   T   T   T
  0.3338910289856448  0.0011857684698329  0.5919235674523510   T   T   T
  0.9996981497114797  0.9984726087332486  0.5917941362075070   T   T   T
  0.9993514135756980  0.2499958991896584  0.5919937249978589   T   T   T
  0.3329249462172494  0.5034725160227819  0.5869823756315904   T   T   T
  0.3337475018463849  0.7490355601492157  0.5900229055097180   T   T   T
  0.6675280645822101  0.2505503984125193  0.5881137730192972   T   T   T
  0.6661839963043309  0.9983916284904730  0.5910862331296449   T   T   T
  0.6636002805812763  0.7445776949772696  0.5909002324025570   T   T   T
  0.6656827848720746  0.5008252737591344  0.5920227754639222   T   T   T
  0.1671122343678384  0.9973929166641045  0.5920476182292392   T   T   T
  0.1671706755080693  0.2494503694969610  0.5928717811532913   T   T   T
  0.1693009007352015  0.7564947096467873  0.5913100087047349   T   T   T
  0.2514003078875267  0.4392541166384441  0.5451971536538462   T   T   T
  0.1680180240225421  0.4953061229304626  0.5924650292589171   T   T   T
  0.2494962245786824  0.6902133947116034  0.5457677843199198   T   T   T
  0.5831167146760236  0.1876517186691934  0.5466164216748813   T   T   T
  0.9172596317889229  0.8105913086605397  0.5456835898913447   T   T   T
  0.9163814990242257  0.5624325396609029  0.5461271090275541   T   T   T
  0.5776335532688204  0.5596412946187647  0.5471875317100103   T   T   T
  0.5833758166105808  0.8129179574457007  0.5488981792027064   T   T   T
  0.5827838951313958  0.3144866205711087  0.5491711787376029   T   T   T
  0.5827412057979767  0.0633620677164447  0.5469769124983691   T   T   T
  0.2528348473898145  0.8159474736420700  0.5501786000737185   T   T   T
  0.2461979580359734  0.5666504887871181  0.5486435944209295   T   T   T
  0.2516962987126022  0.3137942104414270  0.5473202678743998   T   T   T
  0.2493376707292134  0.0628086308785665  0.5475501204463806   T   T   T
  0.7471363336592557  0.8131784717339392  0.5496431251355340   T   T   T
  0.7484430856630556  0.5674399661275581  0.5534320664354951   T   T   T
  0.4151703596761799  0.8133314564708839  0.5468870288789114   T   T   T
  0.7495793349544621  0.0630735005549347  0.5468349919465473   T   T   T
  0.7517079848776812  0.3182477389275590  0.5490482243864286   T   T   T
  0.4163942697869443  0.3164778312142156  0.5489795177399956   T   T   T
  0.4229858951600861  0.5637324752013008  0.5488019337967396   T   T   T
  0.4178524244540160  0.0635903799432517  0.5476806048218404   T   T   T
  0.0825148955864921  0.8121673285536818  0.5462545161445930   T   T   T
  0.0859399925106046  0.5629009836162142  0.5465741061150317   T   T   T
  0.0839385453907538  0.3125061117424404  0.5470536162000958   T   T   T
  0.0839647357916875  0.0619036873380810  0.5462601353324543   T   T   T
  0.9161594011961351  0.9371022901973310  0.5462420969597599   T   T   T
  0.9142453879925786  0.6867390667733728  0.5463216891488464   T   T   T
  0.5837577220529748  0.9372367962918062  0.5457044816234301   T   T   T
  0.9160023643576343  0.1883859005474706  0.5457936581228926   T   T   T
  0.9173912707067894  0.4388985897004852  0.5447393329322054   T   T   T
  0.5801930582967945  0.4368530181955966  0.5502580806860643   T   T   T
  0.5800433290746129  0.6826414790910859  0.5505725577612960   T   T   T
  0.2521613336654209  0.9391160934747024  0.5448927338786911   T   T   T
  0.4999332989069298  0.5002289347976696  0.6029805960986370   T   T   T
  0.5010433676764043  0.2496012466162252  0.5908104882864208   T   T   T
  0.5005195613701385 -0.0008925553664565  0.5917635282029708   T   T   T
  0.7487139854274210  0.6854267030938715  0.6495405506751758   T   T   T
  0.7477319169400090  0.9317940593483330  0.6388130055284759   T   T   T
  0.2500674398032776  0.1835443765346685  0.6410886226544400   T   T   T
  0.7460401333127054  0.1847728620145827  0.6397388736454284   T   T   T
  0.7477622967298491  0.4354422558254074  0.6383728082591182   T   T   T
  0.4165570646804534  0.9334074694892892  0.6385384279382598   T   T   T
  0.4162158663319871  0.6833683832029914  0.6351054081555900   T   T   T
  0.5819729507257768  0.8085936681287641  0.6428638974210013   T   T   T
  0.9162366617924929  0.0607693509290735  0.6406866823916940   T   T   T
  0.9165128361928520  0.5614566466484326  0.6386129200532272   T   T   T
  0.9151209636771863  0.3106268578272086  0.6413627182491511   T   T   T
  0.9163608182117168  0.8111206543192112  0.6404055657494342   T   T   T
  0.5843483501212291  0.0633592597774061  0.6401736849156420   T   T   T
  0.5871492188051706  0.3113843949327664  0.6397174032696602   T   T   T
  0.5855315334988466  0.5708862097037539  0.6360276137186089   T   T   T
  0.2525252372400585  0.5612650575982034  0.6407319857645790   T   T   T
  0.2549194410749654  0.8099396008750289  0.6448793326109225   T   T   T
  0.2525794473460444  0.3096059475672465  0.6413915460727366   T   T   T
  0.2489302524595742  0.0597832921729890  0.6425626860038095   T   T   T
  0.9166666865332829  0.5625000000092442  0.3605200052333331   F   F   F
  0.5005174652684743  0.3749074843633590  0.5002954391436222   T   T   T
  0.4999998075016089  0.8747366663712487  0.4999880978315502   T   T   T
  0.4997923913895696  0.6260009524530273  0.4983972360080941   T   T   T
  0.8319856003799813  0.6240911453932676  0.5001004795721340   T   T   T
  0.8324200679812299  0.8732016511226802  0.4998523148390245   T   T   T
  0.8331354113381154  0.3765194819749236  0.4982345444344422   T   T   T
  0.8332590868621395  0.1243070540183373  0.4981712154010630   T   T   T
  0.1669239349375585  0.3752134208636727  0.4987467787252484   T   T   T
  0.1669867231687691  0.6256524883831670  0.4971959869078790   T   T   T
  0.5776867002272787  0.4345929352726344  0.6421556867724305   T   T   T
  0.5739778070713799  0.6906028197564651  0.6435907425927049   T   T   T
  0.9162860650617628  0.1851008948547562  0.6403284255616832   T   T   T
  0.5830190795824846  0.9325638096975143  0.6387808243175301   T   T   T
  0.8306817632718962  0.7500525472071219  0.5922484179300698   T   T   T
  0.8314844674655041  0.2496345665886270  0.5931978719880482   T   T   T
  0.8327729539604957  0.4994302016401980  0.5895865665717562   T   T   T
  0.8326621854723549  0.9970799672469421  0.5921713633244663   T   T   T
  0.4980009756976057  0.7516575404497328  0.5883594200044970   T   T   T
  0.4182296264332100  0.0600621827439530  0.6428612746645422   T   T   T
  0.4177991631615844  0.3098795471558072  0.6429470334579230   T   T   T
  0.4177358688179371  0.8141725939725110  0.6384933027033790   T   T   T
  0.4109499456441835  0.5627940769593825  0.6396824132243485   T   T   T
  0.7632586831786656  0.5536723657840641  0.6515247487215768   T   T   T
  0.7432711454667332  0.8072121524840123  0.6428895555877593   T   T   T
  0.7473802890873661  0.3122817699970846  0.6440119855286321   T   T   T
  0.7488670594199378  0.0596238476419720  0.6407242524949426   T   T   T
  0.0833274921345696  0.3097924492074985  0.6420197214862202   T   T   T
  0.6663271469098113  0.8734675308340761  0.4989365450602277   T   T   T
  0.0859002053572821  0.5604141223244494  0.6397017264125001   T   T   T
  0.0828418471713459  0.0609378716749604  0.6400981553231171   T   T   T
  0.0841865056517241  0.4340053654340069  0.6415095448218863   T   T   T
  0.0825234468641975  0.1851712187878599  0.6398953810080515   T   T   T
  0.4196827478860287  0.1829730432107420  0.6400864597518507   T   T   T
  0.4106421694664243  0.4322646916646377  0.6355069343522298   T   T   T
  0.0840173538967059  0.9358679672711808  0.6405190917687166   T   T   T
  0.0888760088066277  0.6861445664461181  0.6388747295556458   T   T   T
  0.9138548358948252  0.4348369810236167  0.6394980313770268   T   T   T
  0.9159525527715424  0.6851491921352624  0.6388087500299940   T   T   T
  0.9162255730117491  0.9352727176133735  0.6407926783980519   T   T   T
  0.2551284553011868  0.4338083248689673  0.6390838982290987   T   T   T
  0.2480661939438831  0.6836027831991500  0.6367159252831038   T   T   T
  0.5873803929511812  0.1896240426032459  0.6411879078039586   T   T   T
  0.2526076947341975  0.9333490522540735  0.6384165049679075   T   T   T
  0.0838673428051254  0.8120940740775091  0.6413687963489537   T   T   T
  0.9166666865332829  0.8124999999834799  0.3605200052333331   F   F   F
  0.9993433369289914  0.1227104027621158  0.6176089094844287   T   T   T
  0.8333332538436267  0.6249999999803961  0.4070133268666680   F   F   F
  0.0012220135928249  0.4998659860509383  0.5059326879814158   T   T   T
  0.3310176926895229  0.4988895825367668  0.5010385036260488   T   T   T
  0.3324904966718789  0.2479923935020893  0.5054920431035568   T   T   T
  0.3332288280006368  0.0017046724111588  0.5054950465051606   T   T   T
  0.3321009911802670  0.7508138539877508  0.5024579947257896   T   T   T
  0.6669445577786524  0.0008784397348468  0.5052665630524439   T   T   T
  0.6681103798927053  0.4992780147029267  0.5003789221379646   T   T   T
  0.6683120549626814  0.2475187239657484  0.5024847219050592   T   T   T
  0.6674945774163977  0.7517909593725908  0.5011919743575917   T   T   T
  0.1664122079422583  0.0001254499181588  0.5057400594054696   T   T   T
  0.1664370366106944  0.2496114357392099  0.5061767183718906   T   T   T
  0.1660240222813915  0.4988319301957604  0.5050065397774023   T   T   T
  0.4997453629830714  0.0004341898911982  0.5057694170378371   T   T   T
  0.1661183002538543  0.7510151309850009  0.5042958944341384   T   T   T
  0.4988395081937164  0.7517776706812227  0.5017670339530550   T   T   T
  0.8340319303586829  0.0007145973128808  0.5061478521244565   T   T   T
  0.4988083200956125  0.4990958920945260  0.5007540468774675   T   T   T
  0.4980387761962594  0.2479311202012825  0.5026446503682173   T   T   T
  0.8339889492149504  0.2489240199403113  0.5062922528876049   T   T   T
  0.0009444398124436  0.7495219875660782  0.5060370779551863   T   T   T
  0.0000304153685909  0.2494980124008798  0.5058522855648009   T   T   T
 -0.0002143093253051 -0.0001263675444962  0.5056719720595985   T   T   T
  0.8333332538436267  0.8749999404036828  0.4070133268666680   F   F   F
  0.0000000000000000  0.6249999999803961  0.4070133268666680   F   F   F
  0.0000000000000000  0.8749999404036828  0.4070133268666680   F   F   F
  0.3333333432766779  0.1249999999871179  0.4070133268666680   F   F   F
  0.3333333432766779  0.3750000000061604  0.4070133268666680   F   F   F
  0.3333333432766779  0.6249999999803961  0.4070133268666680   F   F   F
  0.3333333432766779  0.8749999404036828  0.4070133268666680   F   F   F
  0.6666666865533486  0.1249999999871179  0.4070133268666680   F   F   F
  0.6666666865533486  0.3750000000061604  0.4070133268666680   F   F   F
  0.6666666865533486  0.6249999999803961  0.4070133268666680   F   F   F
  0.8368996532595784  0.4988385179841655  0.5019422071913576   T   T   T
  0.6666666865533486  0.8749999404036828  0.4070133268666680   F   F   F
  0.1666666716383389  0.3750000000061604  0.4070133268666680   F   F   F
  0.1666666716383389  0.6249999999803961  0.4070133268666680   F   F   F
  0.1666666716383389  0.8749999404036828  0.4070133268666680   F   F   F
  0.5000000000021103  0.1249999999871179  0.4070133268666680   F   F   F
  0.5000000000021103  0.3750000000061604  0.4070133268666680   F   F   F
  0.5000000000021103  0.6249999999803961  0.4070133268666680   F   F   F
  0.5000000000021103  0.8749999404036828  0.4070133268666680   F   F   F
  0.8333332538436267  0.1249999999871179  0.4070133268666680   F   F   F
  0.8333332538436267  0.3750000000061604  0.4070133268666680   F   F   F
  0.1666666716383389  0.1249999999871179  0.4070133268666680   F   F   F
  0.0000000000000000  0.3750000000061604  0.4070133268666680   F   F   F
  0.8362143507863246  0.7506114076190203  0.5029439871552810   T   T   T
  0.8336745920366027  0.3703100476521181  0.6128419920961254   T   T   T
  0.8338821462343136  0.8736473734205646  0.6183419562917301   T   T   T
  0.8394679321456768  0.6233353772466890  0.6043653115956246   T   T   T
  0.0002486036299858  0.8739969993349063  0.6192838866603181   T   T   T
  0.3333164009146039  0.1205936739047120  0.6204546117478650   T   T   T
  0.3309129967469016  0.6256450502252667  0.5985961352087897   T   T   T
  0.3312077972684504  0.3668404577553420  0.6026721305300268   T   T   T
  0.6692523582986670  0.3711731532591879  0.5950112170039258   T   T   T
  0.6678155400046056  0.1198226631561984  0.6095504461556990   T   T   T
  0.3332716242541773  0.8772524597787745  0.6029539150412943   T   T   T
  0.1653552327724538  0.6204217079619365  0.6059239454821010   T   T   T
  0.1668670961299757  0.8742651548420206  0.6173131127015584   T   T   T
  0.4965993767440905  0.3707480705413724  0.5978541144093709   T   T   T
  0.5007955054502231  0.1201153268642970  0.6132613371259532   T   T   T
  0.1661319718009385  0.1226506967183011  0.6184328257052985   T   T   T
  0.1673172178532414  0.3703342801146275  0.6195346608058954   T   T   T
  0.6657301903782814  0.8760039649749715  0.6065666381373945   T   T   T
  0.6653245165741215  0.6276593414524219  0.5923088268873332   T   T   T
  0.9995287462630034  0.3720426033335759  0.6218335537437701   T   T   T
  0.0023684379872415  0.6239640014758632  0.6219919841075643   T   T   T
  0.8321721884014891  0.1225799447963137  0.6199640842235041   T   T   T
  0.5005624790302164  0.8766566537005639  0.6066487627118512   T   T   T
  0.0000000000000000  0.1249999999871179  0.4070133268666680   F   F   F
  0.4988203829823658  0.6241025316946186  0.5974246092232883   T   T   T
  0.9164790999372598  0.9978879798624584  0.6032375127736135   T   T   T
  0.5834950507446005  0.7503441387562521  0.5926643074092686   T   T   T
  0.5884072866061929  0.5014350930680656  0.5914986586318720   T   T   T
  0.2476431218928264  0.4928982017273631  0.6004849166809969   T   T   T
  0.2492269451115267  0.7519356612727531  0.5974833537993605   T   T   T
  0.5819831912890566  0.2476630292989497  0.5914301094223283   T   T   T
  0.5835382870111608  0.9986296679431288  0.6043960323093510   T   T   T
  0.2499107793890253 -0.0010345864365649  0.6034256838521656   T   T   T
  0.2496238911385830  0.2462236555653441  0.6039771385112900   T   T   T
  0.4168042460472718 -0.0006611672724194  0.6039387748825532   T   T   T
  0.4157146499281847  0.2426193466257282  0.6024244971626177   T   T   T
  0.4162527590259648  0.7507603624684107  0.5945890617867878   T   T   T
  0.7553242680798139  0.4977142116923468  0.5914867136480207   T   T   T
  0.7527783012729047  0.7530790831477993  0.5910237115383679   T   T   T
  0.7490059948632289  0.2452695006953432  0.6028251253522279   T   T   T
  0.7501028147900360  0.9968020381692625  0.6035229614328210   T   T   T
  0.0829077977467207  0.2484855911313389  0.6030496978695632   T   T   T
  0.0834004957907264  0.4957942401656778  0.6036234709857649   T   T   T
  0.0840448577071636  0.7504433850894916  0.6030542929167766   T   T   T
  0.0830619051305220 -0.0019110855822365  0.6026363351176729   T   T   T