Au  O Sr Ti                             
   1.00000000000000     
    23.6707801818999997    0.0000000000000000    0.0000000000000000
     0.0000000000000000   22.3170261383000010    0.0000000000000000
     0.0000000000000000    0.0000000000000000   30.0000000000000000
   Au   O    Sr   Ti
    50   264    72    72
Selective dynamics
Direct
  0.6893447962591561  0.5521079069554904  0.7730469455021277   T   T   T
  0.6148926275968651  0.5681812448130464  0.7047820889127380   T   T   T
  0.6020826972093212  0.2519426842927674  0.6947599702540769   T   T   T
  0.2838103944021524  0.7951763894515994  0.7092931115243664   T   T   T
  0.5943498352187454  0.7468575189281511  0.8121979007412606   T   T   T
  0.5155925218931551  0.6858455488646615  0.8604417469740203   T   T   T
  0.5165579983048302  0.4397792340302070  0.8533742431951432   T   T   T
  0.3506225845235234  0.5127469532188282  0.7649463342444001   T   T   T
  0.2415303670954372  0.7015458126029782  0.7907955455050482   T   T   T
  0.6210733146234211  0.3775352469469101  0.8500316597592475   T   T   T
  0.5368064167608635  0.5129653311863210  0.7661977846486853   T   T   T
  0.5129498360371806  0.4893872316294847  0.6774603110155613   T   T   T
  0.5119586687960355  0.8161386137652908  0.8518699087632854   T   T   T
  0.7266689754896922  0.4862066914042748  0.7008760884216928   T   T   T
  0.7283310650836213  0.6184546985122281  0.7013114957714807   T   T   T
  0.6137362272784767  0.6226007220636295  0.8300681566909816   T   T   T
  0.6466974956035828  0.8159334465559316  0.7488332016558438   T   T   T
  0.4764344110421090  0.7578408353944402  0.7756454207088670   T   T   T
  0.4303228634535713  0.5683529681168318  0.7064824821562060   T   T   T
  0.4217894018684749  0.4000736956002301  0.8012771875534318   T   T   T
  0.4109539131176121  0.3191294947635911  0.7140425809092736   T   T   T
  0.2542272641852296  0.6788228674878015  0.7043034186813449   T   T   T
  0.4006735465617995  0.8067756130993509  0.7096061346991219   T   T   T
  0.2618299721993237  0.5779848282614327  0.8020833333354864   T   T   T
  0.5068894165451964  0.2654924463626038  0.7473265467662220   T   T   T
  0.5396447919593431  0.6521474643487362  0.7510952029926297   T   T   T
  0.6163361120433738  0.3187591015261323  0.7685252854593141   T   T   T
  0.7123882778495541  0.7490169358679666  0.6959067431832817   T   T   T
  0.6215316326764567  0.4996311663209023  0.8376439568012298   T   T   T
  0.3207582485067498  0.6779095240211646  0.8544825364606018   T   T   T
  0.5210261549114388  0.5609787848245867  0.8653174544117980   T   T   T
  0.2634902677293140  0.5557615424734788  0.7104611028055832   T   T   T
  0.4150595633726011  0.4977209186673394  0.8631210364944714   T   T   T
  0.5138907968096924  0.3934055620624645  0.7416934025868198   T   T   T
  0.4064433535804178  0.4421309472576538  0.7055298602351061   T   T   T
  0.6658831037855044  0.6806891413611048  0.7598995718271235   T   T   T
  0.3213279864622204  0.3845357710408538  0.7582374972215874   T   T   T
  0.3155506808821595  0.5589422615973541  0.8848666867899879   T   T   T
  0.4191789151710457  0.6229982260166942  0.8837376528458203   T   T   T
  0.3074654476421586  0.4534552595417390  0.8358221601175312   T   T   T
  0.5164426195877904  0.3256137477964159  0.8249072997901959   T   T   T
  0.4479295118280574  0.6939644155410600  0.7022489190999949   T   T   T
  0.7028959747929654  0.3302426187967145  0.7076304000628829   T   T   T
  0.6870155714442837  0.4225301731751056  0.7774149476736775   T   T   T
  0.3492468515586942  0.6415490105544698  0.7540761988053876   T   T   T
  0.6210282255988554  0.4246605835871716  0.7050834785866233   T   T   T
  0.4133290955761352  0.7492674645984239  0.8588719423820218   T   T   T
  0.5765613755682448  0.7451937791702543  0.6975192530170879   T   T   T
  0.4462238375039725  0.5898856105586818  0.7933100756921220   T   T   T
  0.3464653559910100  0.7651780653981064  0.7830273269600065   T   T   T
  0.2501530573636762  0.1867411772707676  0.4537114905349909   T   T   T
  0.7498252447752844  0.9357430449215367  0.4542938784381545   T   T   T
  0.7477619252586936  0.6856296435346958  0.4568497930308207   T   T   T
  0.7485933195204454  0.4372073244434393  0.4548012322877337   T   T   T
  0.7490924644319586  0.1871972599217371  0.4537301759099797   T   T   T
  0.4169172576330803  0.9362756392842375  0.4542093775252112   T   T   T
  0.4159861237691078  0.6865980179858204  0.4553639553011581   T   T   T
  0.4178238313774250  0.4383145320453480  0.4550629463632276   T   T   T
  0.0826803600988167  0.6873973031111992  0.4539184957059760   T   T   T
  0.0837860537895507  0.9375371616301268  0.4542444873834681   T   T   T
  0.0836269450539370  0.4374517233238580  0.4539821513208954   T   T   T
  0.0831481383438910  0.1874688196960941  0.4542734797983801   T   T   T
  0.9164403469181681  0.8122735418016865  0.4542818081749707   T   T   T
  0.9154882947239065  0.5627986016718262  0.4544075063976650   T   T   T
  0.2500529263603022  0.4371072740919544  0.4535701610705373   T   T   T
  0.9165812806390049  0.0623316818557043  0.4541611634539456   T   T   T
  0.9164927721141569  0.3128175725864060  0.4542117139627510   T   T   T
  0.4166528548347055  0.1877867021829710  0.4541618771497352   T   T   T
  0.2522683468469852  0.6870212757638063  0.4543165734998563   T   T   T
  0.9157902603308492  0.9373173389576618  0.4540459248069466   T   T   T
  0.5833286394802618  0.1878935693390243  0.4544728735343257   T   T   T
  0.9996260276923195  0.1249449998061805  0.4998717189172213   T   T   T
  0.5826428726557633  0.8095492087237962  0.4559004574424343   T   T   T
  0.9995013074520130  0.3744171901512928  0.4996166260105188   T   T   T
  0.9997246070371232  0.6250155234357538  0.5001234934113843   T   T   T
  0.3333230231117494  0.1250036907083708  0.5003169306063838   T   T   T
  0.9990774115165447  0.8757530016691640  0.4993923981916766   T   T   T
  0.3332082678296124  0.8745642160483779  0.4994420833659036   T   T   T
  0.6662869413218448  0.1251578256098731  0.5003633617531936   T   T   T
  0.3336653278318621  0.6232331621917190  0.5041988065005170   T   T   T
  0.3339138476932728  0.3768457935274795  0.5005381155474546   T   T   T
  0.6664344382213339  0.3762557380212874  0.5040043261946686   T   T   T
  0.9154973396012051  0.6871089461435631  0.4543849778108615   T   T   T
  0.9161422409640992  0.4377281450777205  0.4541315006257792   T   T   T
  0.9165813866896074  0.1875089517835934  0.4540473916428380   T   T   T
  0.5826853159137401  0.9356786544722422  0.4540534576254232   T   T   T
  0.5845886426285754  0.6856047342231537  0.4559127746348049   T   T   T
  0.5839273419899038  0.4370390752961475  0.4562261411188669   T   T   T
  0.2495729838048342  0.9362017107881904  0.4543299726054582   T   T   T
  0.6648629068153755  0.6231525092679359  0.5057543080694592   T   T   T
  0.5837069399189639  0.5609377421438511  0.4570322749264233   T   T   T
  0.5832114563851586  0.0616430862317585  0.4552442062968274   T   T   T
  0.9166666865332829  0.6874999999963620  0.3605200052333331   F   F   F
  0.9166666865332829  0.4374999701794380  0.3605200052333331   F   F   F
  0.9166666865332829  0.1875000000030838  0.3605200052333331   F   F   F
  0.5833333134730552  0.9375000000154046  0.3605200052333331   F   F   F
  0.5833333134730552  0.6874999999963620  0.3605200052333331   F   F   F
  0.5833333134730552  0.4374999701794380  0.3605200052333331   F   F   F
  0.5833333134730552  0.1875000000030838  0.3605200052333331   F   F   F
  0.2499999999799343  0.9375000000154046  0.3605200052333331   F   F   F
  0.9166666865332829  0.9375000000154046  0.3605200052333331   F   F   F
  0.2499999999799343  0.6874999999963620  0.3605200052333331   F   F   F
  0.2499999999799343  0.1875000000030838  0.3605200052333331   F   F   F
  0.7499999404149307  0.9375000000154046  0.3605200052333331   F   F   F
  0.7499999404149307  0.6874999999963620  0.3605200052333331   F   F   F
  0.7499999404149307  0.4374999701794380  0.3605200052333331   F   F   F
  0.7499999404149307  0.1875000000030838  0.3605200052333331   F   F   F
  0.4166666269218169  0.9375000000154046  0.3605200052333331   F   F   F
  0.4166666269218169  0.6874999999963620  0.3605200052333331   F   F   F
  0.4166666269218169  0.4374999701794380  0.3605200052333331   F   F   F
  0.2499999999799343  0.4374999701794380  0.3605200052333331   F   F   F
  0.0833333358191695  0.0625000000159659  0.3605200052333331   F   F   F
  0.0833333358191695  0.3124999999901945  0.3605200052333331   F   F   F
  0.0833333358191695  0.5625000000092442  0.3605200052333331   F   F   F
  0.9166666865332829  0.3124999999901945  0.3605200052333331   F   F   F
  0.9166666865332829  0.0625000000159659  0.3605200052333331   F   F   F
  0.5833333134730552  0.8124999999834799  0.3605200052333331   F   F   F
  0.5833333134730552  0.5625000000092442  0.3605200052333331   F   F   F
  0.5833333134730552  0.3124999999901945  0.3605200052333331   F   F   F
  0.5833333134730552  0.0625000000159659  0.3605200052333331   F   F   F
  0.2499999999799343  0.8124999999834799  0.3605200052333331   F   F   F
  0.2499999999799343  0.5625000000092442  0.3605200052333331   F   F   F
  0.2499999999799343  0.3124999999901945  0.3605200052333331   F   F   F
  0.2499999999799343  0.0625000000159659  0.3605200052333331   F   F   F
  0.7499999404149307  0.8124999999834799  0.3605200052333331   F   F   F
  0.7499999404149307  0.5625000000092442  0.3605200052333331   F   F   F
  0.7499999404149307  0.3124999999901945  0.3605200052333331   F   F   F
  0.7499999404149307  0.0625000000159659  0.3605200052333331   F   F   F
  0.4166666269218169  0.8124999999834799  0.3605200052333331   F   F   F
  0.4166666269218169  0.5625000000092442  0.3605200052333331   F   F   F
  0.4166666269218169  0.3124999999901945  0.3605200052333331   F   F   F
  0.4166666269218169  0.0625000000159659  0.3605200052333331   F   F   F
  0.0833333358191695  0.8124999999834799  0.3605200052333331   F   F   F
  0.4166666269218169  0.1875000000030838  0.3605200052333331   F   F   F
  0.0833333358191695  0.9375000000154046  0.3605200052333331   F   F   F
  0.0833333358191695  0.6874999999963620  0.3605200052333331   F   F   F
  0.0833333358191695  0.4374999701794380  0.3605200052333331   F   F   F
  0.8333332538436267  0.4999999999932783  0.4070133268666680   F   F   F
  0.8333332538436267  0.7500000000123208  0.4070133268666680   F   F   F
  0.0830597232079393  0.0625826229389905  0.4539494232529386   T   T   T
  0.0832830346640895  0.3127125552287275  0.4541240344439836   T   T   T
  0.0831121845565166  0.5625086201099178  0.4539924303936945   T   T   T
  0.0832225335197816  0.8128173979183148  0.4539865379381146   T   T   T
  0.4165339588757450  0.0620920923754277  0.4548084947443644   T   T   T
  0.4175386961419795  0.3130128352143534  0.4560953135506881   T   T   T
  0.4160341201727202  0.5628344681570204  0.4554321897554117   T   T   T
  0.4170347121939262  0.8111783916856612  0.4549486002364929   T   T   T
  0.7491981550668453  0.0612550731094637  0.4550076152364709   T   T   T
  0.7485509199126538  0.3121863057511197  0.4566189450615747   T   T   T
  0.7482763426424913  0.5608806542223362  0.4588406643672626   T   T   T
  0.7494076312677936  0.8097112609098599  0.4559766125263822   T   T   T
  0.2504997134183980  0.0616539531836727  0.4546011531826590   T   T   T
  0.9145256459197331  0.3121035035188774  0.5480903758750593   T   T   T
  0.2505185684410953  0.3124251251750725  0.4550954581032669   T   T   T
  0.2512062460287941  0.5626149569931408  0.4553950795433006   T   T   T
  0.2494164134946933  0.8111983167674014  0.4552723981914806   T   T   T
  0.8333332538436267  0.2500000000190425  0.4070133268666680   F   F   F
  0.5839295464765615  0.3124490140251030  0.4576084390893723   T   T   T
  0.8333332538436267  0.0000000000000000  0.4070133268666680   F   F   F
  0.5000000000021103  0.4999999999932783  0.4070133268666680   F   F   F
  0.0833333358191695  0.1875000000030838  0.3605200052333331   F   F   F
  0.0000000000000000  0.0000000000000000  0.4070133268666680   F   F   F
  0.0000000000000000  0.2500000000190425  0.4070133268666680   F   F   F
  0.0000000000000000  0.4999999999932783  0.4070133268666680   F   F   F
  0.0000000000000000  0.7500000000123208  0.4070133268666680   F   F   F
  0.3333333432766779  0.0000000000000000  0.4070133268666680   F   F   F
  0.3333333432766779  0.2500000000190425  0.4070133268666680   F   F   F
  0.3333333432766779  0.4999999999932783  0.4070133268666680   F   F   F
  0.3333333432766779  0.7500000000123208  0.4070133268666680   F   F   F
  0.6666666865533486  0.0000000000000000  0.4070133268666680   F   F   F
  0.6666666865533486  0.2500000000190425  0.4070133268666680   F   F   F
  0.6666666865533486  0.4999999999932783  0.4070133268666680   F   F   F
  0.6666666865533486  0.7500000000123208  0.4070133268666680   F   F   F
  0.1666666716383389  0.0000000000000000  0.4070133268666680   F   F   F
  0.1666666716383389  0.2500000000190425  0.4070133268666680   F   F   F
  0.1666666716383389  0.4999999999932783  0.4070133268666680   F   F   F
  0.1666666716383389  0.7500000000123208  0.4070133268666680   F   F   F
  0.5000000000021103  0.0000000000000000  0.4070133268666680   F   F   F
  0.5000000000021103  0.2500000000190425  0.4070133268666680   F   F   F
  0.5000000000021103  0.7500000000123208  0.4070133268666680   F   F   F
  0.1662170042521463  0.1241104274145838  0.4994314479739095   T   T   T
  0.9163839737299887  0.0619596003480746  0.5479965843967521   T   T   T
  0.1664420714244120  0.8742751780158552  0.5010672738304908   T   T   T
  0.2484926898995690  0.1884014116690313  0.5470963111158968   T   T   T
  0.7483723471040652  0.9379708547163734  0.5458646877354122   T   T   T
  0.7486199146910334  0.6877855956386308  0.5512722132775408   T   T   T
  0.7478448830130121  0.4411103180019115  0.5495094284775986   T   T   T
  0.4199307596087953  0.4403245992103691  0.5480865467374380   T   T   T
  0.4170257951134713  0.6867706982043439  0.5487819422250635   T   T   T
  0.7505441554028448  0.1890995008134211  0.5472595542710595   T   T   T
  0.4154393149210049  0.9378804813194902  0.5467114790243799   T   T   T
  0.0826655920887137  0.9370151212996475  0.5480298200904358   T   T   T
  0.4179755820013167  0.1899195471639496  0.5473480863319017   T   T   T
  0.0862582763983925  0.6874003238782955  0.5474782532413589   T   T   T
  0.0824470508567757  0.4369612442321384  0.5476949664781897   T   T   T
  0.0826828892690694  0.1866715256131762  0.5483748948594844   T   T   T
  0.4999331198491300  0.1256094826277123  0.4993934742796664   T   T   T
  0.0003560795007301  0.4960722572706812  0.5956571467977353   T   T   T
  0.9998818668491750  0.7475907268113702  0.5960154305981629   T   T   T
  0.3340888384542348  0.2442243529717638  0.5952179882135010   T   T   T
  0.3330842325227820  0.0043199822098039  0.5943652126525155   T   T   T
  0.9987196497497709  0.9958689872848274  0.5950638684137999   T   T   T
  0.9983865507365306  0.2500864191609666  0.5956151674514489   T   T   T
  0.3322699010072487  0.5040277403329469  0.5892077206803792   T   T   T
  0.3331911141159077  0.7494697871389129  0.5922673011768077   T   T   T
  0.6671918710335185  0.2505425018082710  0.5912440786965332   T   T   T
  0.6659762082560523  0.9983178743113398  0.5929328203084941   T   T   T
  0.6634454709665728  0.7443317692416933  0.5934931831171540   T   T   T
  0.6652687624872525  0.5038528100744961  0.5956270666456335   T   T   T
  0.1659594494243536  0.9985013960674132  0.5944853761452021   T   T   T
  0.1663135033543665  0.2482528553639535  0.5954883685212585   T   T   T
  0.1680708046586246  0.7570533556197148  0.5923914213057702   T   T   T
  0.2509259546069205  0.4394521175351598  0.5463960658394024   T   T   T
  0.1669824292129208  0.4950442329496781  0.5943056723789735   T   T   T
  0.2485358400276915  0.6893362751718152  0.5481106552328122   T   T   T
  0.5831642043141899  0.1880306938631679  0.5487298832366476   T   T   T
  0.9163719066096149  0.8112634206491580  0.5480055029102026   T   T   T
  0.9155034402541941  0.5616389398106626  0.5476753629351579   T   T   T
  0.5772589961695701  0.5624400226563881  0.5514283099262927   T   T   T
  0.5833728868617128  0.8142166667222310  0.5513613763830938   T   T   T
  0.5827843992175881  0.3165588480273390  0.5530919230554046   T   T   T
  0.5822654718727992  0.0635391999549250  0.5476691758822697   T   T   T
  0.2527723832947379  0.8148383237046850  0.5505173702398030   T   T   T
  0.2456963933393807  0.5665860351521167  0.5498589608038991   T   T   T
  0.2519607353365541  0.3137046516225849  0.5485392048245322   T   T   T
  0.2486215761855846  0.0623740108526293  0.5485541007000082   T   T   T
  0.7466103177271599  0.8136596711190004  0.5515076032072587   T   T   T
  0.7484019771234214  0.5676263036249850  0.5565357823664505   T   T   T
  0.4139802161750907  0.8136222804600217  0.5492428436480896   T   T   T
  0.7494188121279974  0.0635029789741668  0.5487278346216519   T   T   T
  0.7510225613905758  0.3175980505705010  0.5505057413171365   T   T   T
  0.4155276903506847  0.3171672109099461  0.5508564450764295   T   T   T
  0.4229680767820954  0.5629136944584425  0.5497388456350941   T   T   T
  0.4179188758620702  0.0634654802112716  0.5481454217143565   T   T   T
  0.0811056163724497  0.8115037382401995  0.5472484338015063   T   T   T
  0.0856975484804626  0.5619875242951716  0.5474036623201775   T   T   T
  0.0828673218097108  0.3105605355166747  0.5477563230932964   T   T   T
  0.0822408417538145  0.0608644412676855  0.5474953675714361   T   T   T
  0.9155898364100999  0.9379372397995753  0.5476364785575809   T   T   T
  0.9130676123534279  0.6869292717099579  0.5479588131225220   T   T   T
  0.5832790142140598  0.9384737831672606  0.5457594320440073   T   T   T
  0.9150170517966131  0.1878128147994241  0.5477571711517123   T   T   T
  0.9158623256378721  0.4382314119178776  0.5475116357781354   T   T   T
  0.5819381366953245  0.4396265976306019  0.5507025411571959   T   T   T
  0.5796202357582518  0.6849283505687056  0.5509975189910493   T   T   T
  0.2514151379007296  0.9383667697417637  0.5466242464350403   T   T   T
  0.5000485682178787  0.4968445451749299  0.6057649010547642   T   T   T
  0.5007277446727131  0.2496426355584173  0.5936901683174884   T   T   T
  0.5000172413189187  0.0000393806430324  0.5934061580134044   T   T   T
  0.7497849561602707  0.6840198526426683  0.6554855556783012   T   T   T
  0.7468690680781533  0.9318312675110196  0.6414941005744887   T   T   T
  0.2488287251003923  0.1840856698789094  0.6457936325446134   T   T   T
  0.7465610637305220  0.1855310536319708  0.6428038659508899   T   T   T
  0.7458186243283086  0.4384498094127511  0.6441251249222327   T   T   T
  0.4152685897825186  0.9346179730307070  0.6395927404136380   T   T   T
  0.4143044587413749  0.6844434784612947  0.6396591196799356   T   T   T
  0.5816054312737790  0.8061145542029777  0.6468937198532374   T   T   T
  0.9155007742254323  0.0599285620721847  0.6432007216779770   T   T   T
  0.9162034074125950  0.5616062285966793  0.6420638104615503   T   T   T
  0.9142888570891008  0.3110833054641775  0.6454934144901596   T   T   T
  0.9159617639162810  0.8098368591979609  0.6458218602043896   T   T   T
  0.5847308171700477  0.0629841490826304  0.6421835837272711   T   T   T
  0.5864612178536796  0.3099277516125178  0.6440001866529688   T   T   T
  0.5815188823788611  0.5686287240463224  0.6421694998817724   T   T   T
  0.2490148224231687  0.5597744628873118  0.6438976649470680   T   T   T
  0.2517782655773071  0.8094278865106903  0.6468903647176976   T   T   T
  0.2519972922023564  0.3082855874771737  0.6435566144226821   T   T   T
  0.2470855465474247  0.0590980580147123  0.6467199145837157   T   T   T
  0.9166666865332829  0.5625000000092442  0.3605200052333331   F   F   F
  0.5009725376025302  0.3751918278181592  0.5025704571814379   T   T   T
  0.4996894828328250  0.8735911776238124  0.5010297766331573   T   T   T
  0.4999673923252699  0.6254339710929130  0.4995225286727960   T   T   T
  0.8314733541932969  0.6235521665241072  0.5020781554738406   T   T   T
  0.8322360185328453  0.8731391500838582  0.4999979596386650   T   T   T
  0.8326948937454145  0.3766400021522501  0.4997390711562143   T   T   T
  0.8330063884112470  0.1241947835454467  0.4989396873367756   T   T   T
  0.1664295730908856  0.3747231646756162  0.5003281198406367   T   T   T
  0.1663648533982502  0.6260268269805813  0.4981040848540363   T   T   T
  0.5795929541583028  0.4333681543626504  0.6442611423715640   T   T   T
  0.5722898867469836  0.6899051832754778  0.6444785983053060   T   T   T
  0.9135915041251578  0.1864178062604340  0.6431281380335371   T   T   T
  0.5822097584399183  0.9320596831646206  0.6395743617308890   T   T   T
  0.8296947057228866  0.7512004070573892  0.5958464317869775   T   T   T
  0.8303748806196914  0.2526604346418836  0.5964426762633657   T   T   T
  0.8317798180936199  0.4997836885475098  0.5944296251585407   T   T   T
  0.8321919180871870  0.9965880567033409  0.5943018305174177   T   T   T
  0.4970505492151566  0.7531304965824936  0.5909176883670922   T   T   T
  0.4188649341896891  0.0601503402297123  0.6460971830629272   T   T   T
  0.4159925380197619  0.3092485560498918  0.6458186558294172   T   T   T
  0.4170252535628050  0.8135481789394290  0.6434289716712246   T   T   T
  0.4125623364293367  0.5637851119709991  0.6399888750633432   T   T   T
  0.7624699971739800  0.5537974281117336  0.6597525166706185   T   T   T
  0.7409035111866207  0.8053662248924487  0.6470621042058671   T   T   T
  0.7447176382336592  0.3131152194863379  0.6486243003330932   T   T   T
  0.7486642475151184  0.0589245867434832  0.6435036176252639   T   T   T
  0.0838534445712463  0.3092669576108248  0.6456910374650330   T   T   T
  0.6660220253386814  0.8734318784508847  0.4993907110880262   T   T   T
  0.0848287455079545  0.5600743580382579  0.6425905159966706   T   T   T
  0.0804040027878748  0.0606600624949483  0.6434469550309547   T   T   T
  0.0845992483591150  0.4349649839051580  0.6458563590277513   T   T   T
  0.0811731269012535  0.1858943074340350  0.6442087068849413   T   T   T
  0.4194776350393609  0.1835752577965664  0.6442680604573525   T   T   T
  0.4088709592329552  0.4322780578588877  0.6370050044382178   T   T   T
  0.0841975937644825  0.9370188499534462  0.6449273809687432   T   T   T
  0.0889901801174829  0.6868933769663017  0.6415540463696928   T   T   T
  0.9136990859236053  0.4363028392763844  0.6445190036026536   T   T   T
  0.9134733486800807  0.6860393404449868  0.6425700239948477   T   T   T
  0.9142821689400843  0.9358251717630852  0.6457129794210077   T   T   T
  0.2542233359524654  0.4331327912689278  0.6406002118250614   T   T   T
  0.2465168908213502  0.6823912860892959  0.6370828238006485   T   T   T
  0.5872205885535279  0.1912711443760630  0.6459842858865148   T   T   T
  0.2527129454872424  0.9339477593845469  0.6397660196793808   T   T   T
  0.0840110584817766  0.8118560681575939  0.6444179479471833   T   T   T
  0.9166666865332829  0.8124999999834799  0.3605200052333331   F   F   F
  0.9975157866609005  0.1239110801857949  0.6228815001345536   T   T   T
  0.8333332538436267  0.6249999999803961  0.4070133268666680   F   F   F
  0.0006095122411356  0.4994957372781475  0.5084788433773524   T   T   T
  0.3305364093466177  0.4987931193911619  0.5021817682936301   T   T   T
  0.3319738504381865  0.2475897499881341  0.5073981784992865   T   T   T
  0.3327479104885966  0.0023337671958927  0.5071061011558700   T   T   T
  0.3317376624428504  0.7510164979271776  0.5035524091195900   T   T   T
  0.6668990014309023  0.0013776212753892  0.5066005469744191   T   T   T
  0.6680361305832744  0.4989018667401175  0.5015409127528873   T   T   T
  0.6686360826726887  0.2471978053474941  0.5042680517143706   T   T   T
  0.6671078246906514  0.7519460803755008  0.5020951586350548   T   T   T
  0.1654909584366583  0.0003179931561269  0.5076493096877861   T   T   T
  0.1657981884339310  0.2490472233217352  0.5081418005328672   T   T   T
  0.1649134847540526  0.4979758720571772  0.5063843124116496   T   T   T
  0.4992254850471606  0.0007594702397385  0.5067841845209505   T   T   T
  0.1644932496802298  0.7510552275342385  0.5047873935038730   T   T   T
  0.4980954057071013  0.7518876924455250  0.5032311942629171   T   T   T
  0.8338109354978784  0.0009320822904678  0.5078495733292694   T   T   T
  0.4984676919281840  0.4993115575880299  0.5015178294978337   T   T   T
  0.4976628989805444  0.2478790774139739  0.5041418376569377   T   T   T
  0.8335872332031465  0.2488073292973285  0.5084828659124421   T   T   T
  0.9995653687234176  0.7494201165614843  0.5085830464773501   T   T   T
  0.9993180551960497  0.2493449929012304  0.5081418681467097   T   T   T
  0.9991300514244371  0.9996136474171811  0.5078107331342970   T   T   T
  0.8333332538436267  0.8749999404036828  0.4070133268666680   F   F   F
  0.0000000000000000  0.6249999999803961  0.4070133268666680   F   F   F
  0.0000000000000000  0.8749999404036828  0.4070133268666680   F   F   F
  0.3333333432766779  0.1249999999871179  0.4070133268666680   F   F   F
  0.3333333432766779  0.3750000000061604  0.4070133268666680   F   F   F
  0.3333333432766779  0.6249999999803961  0.4070133268666680   F   F   F
  0.3333333432766779  0.8749999404036828  0.4070133268666680   F   F   F
  0.6666666865533486  0.1249999999871179  0.4070133268666680   F   F   F
  0.6666666865533486  0.3750000000061604  0.4070133268666680   F   F   F
  0.6666666865533486  0.6249999999803961  0.4070133268666680   F   F   F
  0.8363751652205538  0.4987695488789645  0.5041462304037054   T   T   T
  0.6666666865533486  0.8749999404036828  0.4070133268666680   F   F   F
  0.1666666716383389  0.3750000000061604  0.4070133268666680   F   F   F
  0.1666666716383389  0.6249999999803961  0.4070133268666680   F   F   F
  0.1666666716383389  0.8749999404036828  0.4070133268666680   F   F   F
  0.5000000000021103  0.1249999999871179  0.4070133268666680   F   F   F
  0.5000000000021103  0.3750000000061604  0.4070133268666680   F   F   F
  0.5000000000021103  0.6249999999803961  0.4070133268666680   F   F   F
  0.5000000000021103  0.8749999404036828  0.4070133268666680   F   F   F
  0.8333332538436267  0.1249999999871179  0.4070133268666680   F   F   F
  0.8333332538436267  0.3750000000061604  0.4070133268666680   F   F   F
  0.1666666716383389  0.1249999999871179  0.4070133268666680   F   F   F
  0.0000000000000000  0.3750000000061604  0.4070133268666680   F   F   F
  0.8358476041839474  0.7509407547703050  0.5047400576384623   T   T   T
  0.8328334344951495  0.3718302544035561  0.6201843312792813   T   T   T
  0.8323612668910442  0.8720451213692922  0.6287274773073133   T   T   T
  0.8393469110687005  0.6232875360161770  0.6072596821739591   T   T   T
  0.9994455496214426  0.8748383755614146  0.6301930484076959   T   T   T
  0.3325726275933493  0.1200646355015004  0.6316412497380914   T   T   T
  0.3296508049917817  0.6246369407057216  0.6004816747196977   T   T   T
  0.3297377536573857  0.3659945412372156  0.6055660840026970   T   T   T
  0.6689400423887987  0.3712049848529916  0.5977180621589094   T   T   T
  0.6683038265358505  0.1198072114337906  0.6138278053362300   T   T   T
  0.3327903768324864  0.8779760653409657  0.6052458325561806   T   T   T
  0.1626161767100759  0.6201430068103210  0.6067746564964454   T   T   T
  0.1657133323316435  0.8757038832034340  0.6204766684659923   T   T   T
  0.4958088504682814  0.3711518618286839  0.6001328293671194   T   T   T
  0.5008487856350007  0.1201581468885696  0.6182245867900399   T   T   T
  0.1645160660305715  0.1227077596540930  0.6259863969714725   T   T   T
  0.1668877130716855  0.3701063564072792  0.6243745613862752   T   T   T
  0.6652117354443001  0.8762692751389556  0.6105668429109612   T   T   T
  0.6640926701418278  0.6273151323160113  0.5938175132441577   T   T   T
  0.9993819035435700  0.3726145128255752  0.6325541305092025   T   T   T
  0.0013497199597030  0.6258473978388657  0.6348257000137718   T   T   T
  0.8315112140806153  0.1221501610372228  0.6247109329317329   T   T   T
  0.4990593860458369  0.8769068336093759  0.6101999365749000   T   T   T
  0.0000000000000000  0.1249999999871179  0.4070133268666680   F   F   F
  0.4973533273680168  0.6245487032741576  0.5994274491251891   T   T   T
  0.9153676884222418  0.9963142852997471  0.6059750960152318   T   T   T
  0.5828941010472579  0.7507264653069604  0.5937748463243410   T   T   T
  0.5876716614506480  0.5009733828105454  0.5932803701634940   T   T   T
  0.2468351964982098  0.4924219436358012  0.6022554963156337   T   T   T
  0.2469099147400471  0.7522872649766268  0.5970595906177352   T   T   T
  0.5817383383919248  0.2481469776578996  0.5933396738550399   T   T   T
  0.5831752482570094  0.9988360184043177  0.6056451643656563   T   T   T
  0.2488137678913701  0.0006925983505311  0.6055695900804944   T   T   T
  0.2486779730759894  0.2444972983040548  0.6064795559456756   T   T   T
  0.4162824206281072  0.0010764577389862  0.6054398100487027   T   T   T
  0.4148560506393789  0.2410791888464676  0.6045391115102079   T   T   T
  0.4147579017676603  0.7506521154831342  0.5972760435421555   T   T   T
  0.7538073473669021  0.4975713955240290  0.5939563891245350   T   T   T
  0.7513772707338999  0.7541918885588688  0.5927747752808830   T   T   T
  0.7484429093122311  0.2464340632160361  0.6061485037603364   T   T   T
  0.7498819282459158  0.9964497078017596  0.6056645311470973   T   T   T
  0.0820686061580270  0.2482102298573852  0.6060621202597058   T   T   T
  0.0825225035280569  0.4953895818823909  0.6064333685810506   T   T   T
  0.0823225773765646  0.7509239370587528  0.6052896198082032   T   T   T
  0.0819884908586918  0.9980444983513764  0.6054839854983786   T   T   T