Au  C  H  O Sr Ti 
 1.0000000000000000
    23.6707801818999997    0.0000000000000000    0.0000000000000000
     0.0000000000000000   22.3170261383000010    0.0000000000000000
     0.0000000000000000    0.0000000000000000   30.0000000000000000
 Au  C   H   O   Sr  Ti 
  50   1   2 265  72  72
Selective dynamics
Cartesian
 16.9311479557189379 11.7049331007093684 22.5852678775336280   F   F   F
 14.6861500657127664 12.7452676940486054 21.1226670763030882   F   F   F
 17.1024136717124051  5.7838209292061036 20.7281831516219199   F   F   F
  6.9772873059093659 16.6515190817376286 20.8864096220086779   F   F   F
 12.1101031176214224 13.4638473053443963 23.3093054809440865   F   F   F
 13.6980224045792003 16.1948353002222447 23.8199139207451545   F   F   F
  5.6901693678147476 10.4699527719376952 21.2621994501048626   F   F   F
  6.7694744710213435 14.7801713762233149 22.9210942315651707   F   F   F
 14.2007202407789563  6.3908386205954129 23.5013879885180685   F   F   F
 12.1692658419197137 10.8107690575233928 20.3388860659591657   F   F   F
 13.3212585278666964 10.8449767326875737 22.8661527131903881   F   F   F
 12.9870012760647526  4.8156742066415736 21.2646680811130260   F   F   F
 12.9515285366172446  8.5686056056758559 24.8170050069983255   F   F   F
  9.2803764846231864 18.2399302213237746 21.1994811974380859   F   F   F
 10.9789800180545392 15.5126225787205065 24.9171361648760765   F   F   F
 10.2294365047338882  5.0657055146092898 20.9595394339767260   F   F   F
  8.7221963943922969  6.6825183583945611 22.6860091109741226   F   F   F
  8.2711858271711733 11.1465012901578895 20.9325602178715542   F   F   F
 10.1033278461059890  8.2993095799938601 24.5000593349291904   F   F   F
 14.1212560837659353 17.5091580805352365 21.3888374038779077   F   F   F
 15.0252068048134326 13.0309576565230607 24.0030747492347842   F   F   F
 17.3389790492532008 13.7136180807860129 20.8199680121200856   F   F   F
 11.5021633855244030 17.2967510470663939 22.6371244970157761   F   F   F
 18.0724512124778336  9.6122483012795623 21.1265710051566309   F   F   F
 11.4390552991810370  6.0547312174196888 23.2554846935577331   F   F   F
  6.8434523203554924 12.0153243962484115 23.3165398270102884   F   F   F
 14.6087849454779146  7.1479139517509545 20.8692053793016541   F   F   F
  8.7198691105425503 13.8130944470450547 24.6089444232484240   F   F   F
 13.4724615942123158 11.3661321320754514 25.6922806263713817   F   F   F
 15.5374444034418140  4.2085100778043882 22.3393596727619261   T   T   T
 11.1324951810374255 10.0589987188220551 26.3820912393873499   F   F   F
 12.2538674345522960  8.4185614450566675 21.9571893096605670   F   F   F
  6.6647087805454692  7.6027985364840278 21.0712054590364097   F   F   F
 15.8465536140812286 15.2014375224382956 22.4633671388269818   F   F   F
  9.4121800120969503  8.5155426966950198 20.7142694315431299   F   F   F
 10.7013534117960241 12.9325740328717860 21.0864053259556670   F   F   F
  8.8694401993473679 11.0080586927556965 24.9877280560919921   F   F   F
  7.6815394492161602  9.2692655551018017 23.0862746564734245   F   F   F
  9.8209303910414167 15.5112899503002506 20.9920670527328141   F   F   F
 16.5667327671505582  7.6747256161132791 22.7216680801171051   F   F   F
 18.3054586768884242  9.5622008134124634 23.8297846946888221   F   F   F
  6.0790234732105315 13.2253563160894920 20.8276092839186653   F   F   F
 15.3483976482457631  9.9451661946024785 20.8361111884438124   F   F   F
 13.3630748868569800 14.2664103346419715 25.8322287806591007   F   F   F
 12.7740040902053416 14.9103431085889362 21.0619251961368903   F   F   F
 10.4977897003713387 10.5593209872266769 22.6937044418279612   F   F   F
  8.8649592568142204 16.5132578943921189 23.3778206148914833   F   F   F
 10.9463640950513561 12.7911305088966465 25.9303753701556943   F   F   F
 15.5049512356172485  9.8301092066539635 24.3764866200964718   F   F   F
 16.7243583488468595 16.8918365131108992 20.6514249557874940   F   F   F
 16.6327906309390521  2.5540710350494837 21.9927968934271938   T   T   T
 17.5236577911166442  2.5224748672182189 21.3547188358504911   T   T   T
 15.5061971840193404  1.3157051772112869 22.8981458149773154   T   T   T
  5.8993621825341291  7.0023306472612834 16.3758761212594877   F   F   F
 17.7595439646458111  4.2307771128101024 13.6712137401535792   F   F   F
  9.8764724941868920 20.8898305908089412 13.6216770728222372   F   F   F
  9.8754927208483707 15.2905524200163860 13.6511183675868288   F   F   F
  9.8632483193238460  9.7207634514929548 13.6194261935610363   F   F   F
  1.9970422545320645 15.3307337812614541 13.5952729727225670   F   F   F
  1.9902021811471855 20.9086096880790571 13.6111105497099150   F   F   F
  1.9588820255378543  9.7478368619380014 13.5849373915674470   F   F   F
  1.9847404060694165  4.1631947199439461 13.5901905295767893   F   F   F
 21.6955614241781127 18.1280295011311523 13.6224677892941699   F   F   F
  1.9725650740000149  6.9740706679999214 10.8156001569999933   F   F   F
 17.6686034843149180 12.4467677454221910 16.3396520780512624   F   F   F
 21.6854800241291876  1.3885794787830821 13.6235553804811893   F   F   F
 21.6844781090480296  6.9661193449826779 13.6167476252990625   F   F   F
  9.8687161859102961  4.1792656664708767 13.6099998419403700   F   F   F
  5.9666429384522299 15.3451763179772538 13.6817645498487366   F   F   F
 21.6912477274763233 20.9134284684935317 13.6105840484988754   F   F   F
 13.8008310744932032  4.2495802969936598 13.6708703191256049   F   F   F
  0.0015717356520268  2.7921434164228982 14.9556149327818275   F   F   F
 13.7967462347028142 18.0949756577629799 13.6577191475450679   F   F   F
 -0.0003317621811606  8.3337616131583125 14.9515259693716693   F   F   F
 -0.0086097885188165 13.9962033822369509 14.9291153914910826   F   F   F
  7.8973244219410299  2.8044097243161548 14.9618424534010206   F   F   F
  0.0027874069881633 19.5321678260478784 14.9891076813739978   F   F   F
  7.8943385971920659 19.5081257761816929 14.9732805274891305   F   F   F
 15.7609987396547613  2.8440382216003171 15.0282101707744449   F   F   F
  5.9460592192974424  9.8065682022190011 13.6470046088939423   F   F   F
  1.9725650740000149 12.5533272030000536 10.8156001569999933   F   F   F
 21.6982156369999721  1.3948141340000613 10.8156001569999933   F   F   F
 17.7422243656013876 18.1476768546000393 13.5907505080429640   F   F   F
 17.7446647800216084  9.7809811843722603 13.6748004941851669   F   F   F
  5.9291344682936185  1.3856378025401974 13.6288501368591923   F   F   F
 17.7308679815612997 15.3682026790642059 13.7259525331271881   F   F   F
  5.9178954399899819  4.2117554793974801 13.6307817904729021   F   F   F
  5.9171808984508871 20.8910530118006825 13.6206236413066772   F   F   F
 15.7489812800666407 13.9711308543121326 15.0915400342970933   F   F   F
 13.8362913286724574 12.5633220418049056 13.6460551531723979   F   F   F
 13.8181220658089305  1.4325059026668492 13.6154895352167173   F   F   F
 21.6982156369999721 15.3429554700000619 10.8156001569999933   F   F   F
 21.6982156369999721  9.7636982699999884 10.8156001569999933   F   F   F
 21.6982156369999721  4.1844424010000720 10.8156001569999933   F   F   F
 13.8079546360000549 20.9222120050000342 10.8156001569999933   F   F   F
 13.8079546360000549 15.3429554700000619 10.8156001569999933   F   F   F
 13.8079546360000549  9.7636982699999884 10.8156001569999933   F   F   F
 13.8079546360000549  4.1844424010000720 10.8156001569999933   F   F   F
  5.9176950450000287 20.9222120050000342 10.8156001569999933   F   F   F
 21.6982156369999721 20.9222120050000342 10.8156001569999933   F   F   F
  5.9176950450000287 15.3429554700000619 10.8156001569999933   F   F   F
  5.9176950450000287  4.1844424010000720 10.8156001569999933   F   F   F
 17.7530837259999217 20.9222120050000342 10.8156001569999933   F   F   F
 17.7530837259999217 15.3429554700000619 10.8156001569999933   F   F   F
 17.7530837259999217  9.7636982699999884 10.8156001569999933   F   F   F
 17.7530837259999217  4.1844424010000720 10.8156001569999933   F   F   F
  9.8628241350000643 20.9222120050000342 10.8156001569999933   F   F   F
  9.8628241350000643 15.3429554700000619 10.8156001569999933   F   F   F
  9.8628241350000643  9.7636982699999884 10.8156001569999933   F   F   F
  5.9176950450000287  9.7636982699999884 10.8156001569999933   F   F   F
  1.9725650740000149  1.3948141340000613 10.8156001569999933   F   F   F
 21.6656042029669926 15.3292187285089074 13.6007482866496670   F   F   F
 15.7505598734876529  8.4494530496798550 15.0946260081881576   F   F   F
  7.9144117715568632  8.4463298693904285 15.0877798232180798   F   F   F
  7.9450900784525578 13.9666364126096578 15.1132327861460372   F   F   F
 21.7090033801642477  1.4139537514778293 16.4246006917318965   F   F   F
 17.7480979736468001 20.9434638983894317 13.6644952031121480   F   F   F
 21.6743277436712738  6.9729805500980122 16.4002973390553564   F   F   F
  5.9704111426836768  7.0164213207355459 13.6184938960823523   F   F   F
  5.9607038220463702 12.6049213851493125 13.6093715143306149   F   F   F
  5.9176950450000287 18.1325837370000720 10.8156001569999933   F   F   F
  5.9176950450000287 12.5533272030000536 10.8156001569999933   F   F   F
  5.9176950450000287  6.9740706679999214 10.8156001569999933   F   F   F
  5.9176950450000287  1.3948141340000613 10.8156001569999933   F   F   F
 17.7530837259999217 12.5533272030000536 10.8156001569999933   F   F   F
 17.7530837259999217  6.9740706679999214 10.8156001569999933   F   F   F
 17.7530837259999217  1.3948141340000613 10.8156001569999933   F   F   F
  9.8628241350000643 18.1325837370000720 10.8156001569999933   F   F   F
  9.8628241350000643 12.5533272030000536 10.8156001569999933   F   F   F
  9.8628241350000643  6.9740706679999214 10.8156001569999933   F   F   F
 17.7530837259999217 18.1325837370000720 10.8156001569999933   F   F   F
  1.9758357054342439  6.9622991320371899 13.6213790971021833   F   F   F
  9.8628241350000643  1.3948141340000613 10.8156001569999933   F   F   F
  9.8663285206989109  1.3749072363031223 13.6598991305951607   F   F   F
  1.9756572571195645 18.1252143504669867 13.6252308597820324   F   F   F
  1.9875652372843176 12.5538387689731543 13.6193207581314688   F   F   F
  9.8464902734309554 12.4890162969427170 13.7360957341634489   F   F   F
  1.9837686613796761  1.3835793290917004 13.6254342836694811   F   F   F
  9.8363344919072180  6.9492847715286832 13.7214257246555036   F   F   F
 19.7256482699999580 16.7377696039999648 12.2103998060000407   F   F   F
  1.9725650740000149  9.7636982699999884 10.8156001569999933   F   F   F
  1.9725650740000149 15.3429554700000619 10.8156001569999933   F   F   F
  1.9725650740000149 20.9222120050000342 10.8156001569999933   F   F   F
  9.8628241350000643  4.1844424010000720 10.8156001569999933   F   F   F
  1.9725650740000149 18.1325837370000720 10.8156001569999933   F   F   F
 19.7256482699999580 11.1585130689999925 12.2103998060000407   F   F   F
 16.3345210676955759  1.3537342915482797 22.3862283569012988   T   T   T
  5.9442135101162759  1.3942202847803939 16.4190147103151602   F   F   F
  9.8018432600027783 18.1167257544200595 16.4354977266610938   F   F   F
 13.8079546360000549  1.3948141340000613 10.8156001569999933   F   F   F
 13.8079546360000549  6.9740706679999214 10.8156001569999933   F   F   F
 13.8079546360000549 18.1325837370000720 10.8156001569999933   F   F   F
 17.7195554177975687  1.4317680052824455 13.6107623221997311   F   F   F
  5.9271823667402783 18.0945361432730181 13.6603395803158190   F   F   F
 19.7256482699999580  5.5792565349999723 12.2103998060000407   F   F   F
 13.8323350150778097  7.0422045062776482 13.6095881415752782   F   F   F
 19.7256482699999580  0.0000000000000000 12.2103998060000407   F   F   F
 17.6971209965859089 18.0172224171165460 16.3609749456377926   F   F   F
  1.9725650740000149  4.1844424010000720 10.8156001569999933   F   F   F
  0.0000000000000000  0.0000000000000000 12.2103998060000407   F   F   F
  0.0000000000000000  5.5792565349999723 12.2103998060000407   F   F   F
  0.0000000000000000 11.1585130689999925 12.2103998060000407   F   F   F
 17.7113064867492263 12.5923048007314549 13.6150513222227953   F   F   F
  7.8902602960000570  0.0000000000000000 12.2103998060000407   F   F   F
  7.8902602960000570 11.1585130689999925 12.2103998060000407   F   F   F
  7.8902602960000570 16.7377696039999648 12.2103998060000407   F   F   F
 15.7805205919999434  0.0000000000000000 12.2103998060000407   F   F   F
 13.7926224349980107  9.8120941243982962 13.6954422503616211   F   F   F
 15.7805205919999434  5.5792565349999723 12.2103998060000407   F   F   F
 15.7805205919999434 16.7377696039999648 12.2103998060000407   F   F   F
  3.9451301480000271  0.0000000000000000 12.2103998060000407   F   F   F
  3.9451301480000271  5.5792565349999723 12.2103998060000407   F   F   F
  3.9451301480000271 11.1585130689999925 12.2103998060000407   F   F   F
  3.9451301480000271 16.7377696039999648 12.2103998060000407   F   F   F
 11.8353900909999528  0.0000000000000000 12.2103998060000407   F   F   F
 11.8353900909999528  5.5792565349999723 12.2103998060000407   F   F   F
 11.8353900909999528 16.7377696039999648 12.2103998060000407   F   F   F
 21.6982156369999721  6.9740706679999214 10.8156001569999933   F   F   F
  7.8902602960000570  5.5792565349999723 12.2103998060000407   F   F   F
 17.6899249867880322  7.0079096691340066 13.6538597232732233   F   F   F
  0.0000000000000000 16.7377696039999648 12.2103998060000407   F   F   F
  9.8674043252852695 18.0854116064802746 13.6487583167105733   F   F   F
 13.8079546360000549 12.5533272030000536 10.8156001569999933   F   F   F
 15.7805205919999434 11.1585130689999925 12.2103998060000407   F   F   F
 13.7930373125426780 15.3214771642101955 13.6470410494331187   F   F   F
 11.8353900909999528 11.1585130689999925 12.2103998060000407   F   F   F
 21.6746511480096515  4.1645694593772022 13.5962530518912690   F   F   F
  9.8465469982123679 20.9147896188353286 16.3829345256973333   F   F   F
 11.7929298082399789  5.6575991471003171 17.7287692784102049   F   F   F
  9.8458067575036612  4.2702524670740125 16.3979714408566508   F   F   F
  2.0217185386997070 15.3800773219346905 16.3648000886587646   F   F   F
  1.9595993268926175  9.7865292022009882 16.3467208580170364   F   F   F
  1.9839553462249515  4.2135108726169497 16.3755022881377101   F   F   F
 11.8225530325095498  2.8033811672008007 14.9744211630703390   F   F   F
 23.6605521808133688 11.1230506329593002 17.8236287047577946   F   F   F
 13.7155248331570210  4.1259428892367636 16.5170091374137797   F   F   F
 23.6615859231564905 16.8243548163356920 17.7874343767980676   F   F   F
  7.9075996692685928 22.3136570006535884 17.7597621916158666   F   F   F
 -0.0022438388995846 22.2977857770334040 17.7986046341673259   F   F   F
  0.0263037781700326  5.5523204609014671 17.7678334235148192   F   F   F
  7.8882808246240206 11.0775593835111721 17.7277637381118645   F   F   F
  7.9370787444060555 16.5416092538259285 17.7127783631640945   F   F   F
 15.7001753601279148  5.5171319862381338 17.7232801679527121   F   F   F
 15.7714281295045264  0.0301407093641283 17.7599775412347469   F   F   F
 15.7524467098944729 16.5382459153567964 17.7274817141920309   F   F   F
 15.7794564780662938 11.0391370564073679 17.7439191024454885   F   F   F
  3.9650610462914551 22.2791919059292347 17.7695290279095879   F   F   F
  3.9896504830290866  5.5470677012545107 17.8007767837909299   F   F   F
  4.0418797821967720 16.7396067393007080 17.8503518464703923   F   F   F
  5.8828180145190592  9.7290585772640430 16.4671571480994743   F   F   F
  3.9172295342133330 11.2223638345668704 17.6072490116854254   F   F   F
  7.9189123815779094  5.6839506215474342 17.7789755672949035   F   F   F
 11.8332311222817577  0.0039331832568245 17.7357901331937455   F   F   F
 19.7090020274499089 19.5095342643566099 14.9775248218811967   F   F   F
 17.7057237250230664 20.9612808585253063 19.2426311941977843   F   F   F
 19.6877208958498073  0.0598057970256541 17.7740591044126681   F   F   F
 17.7278812225870688  4.1107651808033161 16.5201126429251310   F   F   F
 10.0156424629611607 15.3518780517802202 16.4070941435419329   F   F   F
 10.0157687571657501  9.8989007618965204 16.3790045242222106   F   F   F
 17.7993912370168061  9.7154742896435451 16.4699668132297319   F   F   F
 13.7969719596649814  6.9406501848893472 16.3522877463925127   F   F   F
  5.9913350981426357 18.1345484864700026 16.5189460237533154   F   F   F
 13.8009161684452888  1.3843935111038004 16.3664668719874236   F   F   F
 13.7891649347534813 20.9262253780253786 13.6411420746864991   F   F   F
 13.8680400141707185 18.1703460930777823 16.5120599441242533   F   F   F
 17.6958562532353625  6.9619621652593642 16.4604215695483553   F   F   F
 13.7559008153240097 12.4976773483360901 16.4673973892393484   F   F   F
  5.9789710875750091 12.4770094281696799 16.3123133827601379   F   F   F
  9.8444191016852169  7.1297192264242879 16.5731827902060935   F   F   F
 13.6501743888506990  9.7261439433510297 16.5668990404373950   F   F   F
  9.8627157751141841  1.4596056069826755 16.4208543853834890   F   F   F
  2.0187316003919631 18.1335581964248149 16.4207878354174817   F   F   F
  1.9133144724913871 12.5942815553919498 16.3911775093692000   F   F   F
  2.0508953124434872  6.9948374501454182 16.4129367858344573   F   F   F
 11.8427548548244328 16.8960986855213200 17.7865319297935329   F   F   F
  1.9526271523589522  1.4067760112282599 16.4259836760502083   F   F   F
 21.6444644305770169 15.3673469391314690 16.3774775398094334   F   F   F
 13.8220083216581706 20.9226664816212882 16.3912834431539132   F   F   F
 21.6932152299055865  4.2110852924981605 16.3619711557235092   F   F   F
 21.6695317688784890  9.7598061208318789 16.3723088570043096   F   F   F
 13.7077304734223659 15.3098842375516551 16.4302925422712391   F   F   F
  5.9532788642551751 20.9175256554640789 16.3579025594570844   F   F   F
 11.7745696536644111 11.2560563561163569 18.2690745961755425   F   F   F
 21.7289715819706366 12.5807068895673666 16.4120159108761996   F   F   F
  9.9417704142011889 12.6057234710788624 16.6612945598154845   F   F   F
 21.6723676727489476 18.1360046276091502 16.4055041230808740   F   F   F
  1.9901047122386697 20.9417854027784678 16.3850038723138063   F   F   F
  5.8931489419451966 15.2493068689727895 16.5541828944413609   F   F   F
 17.7239034198213368 20.8333662176400196 16.4460529192029341   F   F   F
 17.7950399349578774 15.1746579651013338 16.6055559651007378   F   F   F
 21.6740668760491815 20.9478475403213764 16.3951158854213830   F   F   F
  9.8863528276292989  1.4542163380729847 19.2030788890447184   F   F   F
 21.6845068842985711 12.5466380109006437 13.6224892925111050   F   F   F
  9.7638673078229967 18.1442326602704576 19.1909362382528492   F   F   F
 21.6811469033675230  1.4059722846972404 19.2368006183553142   F   F   F
 21.6330436137644107 12.5609015376190705 19.2223775370554257   F   F   F
 21.6645126401682475  6.9607693981841372 19.1903613688945001   F   F   F
 21.6151242734274405 18.1561600011026805 19.2651631629425850   F   F   F
 13.8038899671155608  1.4922663314721150 19.1742682865559715   F   F   F
 13.8078036295261253  7.1650503454210472 19.0048647415645497   F   F   F
 13.9777634447417860 12.6359243910914518 19.1646155672825707   F   F   F
  5.8571945620482788 12.8017695696109470 18.8551535745422321   F   F   F
 17.8454333383163046 15.4392802097836039 19.7188290581610950   F   F   F
  6.2023848821233338 17.8426578390363844 19.3908371975872669   F   F   F
  5.9417397288308411  1.3258911493469883 19.2697775080036493   F   F   F
 21.6982156369999721 12.5533272030000536 10.8156001569999933   F   F   F
 11.8247613693212710  8.3517694919708791 14.9970167483909496   F   F   F
 11.8415378842633956 13.8594060410359372 15.0029076688587111   F   F   F
 19.7042684197722764 13.9046218188902433 15.0053514991036057   F   F   F
  5.9638452093545613  4.1970410458361220 16.4227885019707003   F   F   F
 19.7022747381599928  8.3248168983086455 14.9960430684311294   F   F   F
 19.7059989397238660  2.7701299042722818 15.0036480007726993   F   F   F
  3.9465524416237296  8.3961266254337019 14.9319359553126176   F   F   F
  3.9650361424617597 13.9325690855543538 15.0082766451787535   F   F   F
 13.7599578444642034  9.7972613905321104 19.3870234477398249   F   F   F
 13.6537888421028395 15.3208850922508031 19.1949095507286529   F   F   F
 21.6798247047897377  4.1553317187488519 19.1962152206690142   F   F   F
  5.8975878192206190  7.0627419335688515 19.2376129353311072   F   F   F
 21.6777747555301588  9.7501585646554734 13.6097264726902534   F   F   F
  3.9554973437815524  2.7778970804421395 14.9844775375231567   F   F   F
 17.7044499678511471  1.3521690727418916 16.3545538383792888   F   F   F
  3.9701940194307728 19.4887325074807656 14.9962349697234991   F   F   F
 10.0983864618531687  6.7905674798020490 19.6711165740454810   F   F   F
 13.9890082994151630 18.0896183909502319 19.3822486339855615   F   F   F
  9.9490785109947506 15.0855763965670029 19.0106950019118841   F   F   F
 11.8342880582517491 19.4900754046947569 15.0310124502626810   F   F   F
 17.8627016026306045  9.6608806399296796 19.1276297866463274   F   F   F
 17.8321319830981260 12.6785272100761688 19.0732912104359116   F   F   F
  9.4019472217719553 12.2857407850827087 19.5592773220292138   F   F   F
  9.8861723571587365 20.8656909316299739 19.1941667224315076   F   F   F
 17.5419982064782651 18.0755226400793809 19.1987166379871717   F   F   F
 17.6859246213653734  6.9761724907285645 19.2231624408303929   F   F   F
 17.7025127438097094  1.5729296746038204 19.2001477842521950   F   F   F
  1.9849513380276518  6.9603633583509579 19.2180237335676054   F   F   F
 15.7753241110634619 19.5111664166453380 14.9608582167907862   F   F   F
  2.0495880517484326 12.5578450911483621 19.1955874653090355   F   F   F
  2.0691878464006064  9.7434725377634948 19.1910635808966390   F   F   F
  1.9957995291319850  4.1507073269466037 19.2603106058181801   F   F   F
  9.8789276904066838  4.1753320188711411 19.1882854202774027   F   F   F
  9.8276941351007512  9.3421678593987387 18.9048539711009020   F   F   F
  2.0000883647376404 20.8822072385759974 19.2314759962647095   F   F   F
  1.9674144063258272 15.3320683059763159 19.1670301580100002   F   F   F
  1.9960937942770882  1.3528747686124711 19.2638928860533589   F   F   F
 19.7246090255645576 11.2255510942858301 17.6673650023856936   F   F   F
 21.5965332867236768  9.7336572828064458 19.1998942551664129   F   F   F
 19.6544996498035793 16.7588856914863982 17.7848262087579450   F   F   F
 19.6879059107176033  5.5612702880229090 17.7226176979683778   F   F   F
 17.6675177345471859  4.3396789926548713 19.4033311901919099   F   F   F
 21.6982156369999721 18.1325837370000720 10.8156001569999933   F   F   F
 13.7884726692968940 20.8996213540714955 19.1956026092584331   F   F   F
  2.0039269250519798 18.1364683592209097 19.2742503462854096   F   F   F
 13.6801531451145078  4.2917282754415718 19.3574012802782320   F   F   F
  6.0363662363828521 15.1129704961994005 19.8791736321211410   F   F   F
  5.6927582831214005  9.8656018554024723 19.2355756657594235   F   F   F
 21.6382998812162732 20.9225281721949870 19.2453598554507010   F   F   F
 21.6914825806572473 15.3468697500271745 19.1721847817633524   F   F   F
  5.9660016235663562 20.7586581691377177 19.1209720718023988   F   F   F
  6.0049517476886001  4.1637779143596001 19.2440768402039453   F   F   F
  0.0236833660525191  2.7505898025377515 18.6173243155742973   F   F   F
  3.9451301480000271  8.3688848019999824 12.2103998060000407   F   F   F
 15.7476153670630712 16.7794862432444027 15.0660255246180661   F   F   F
 11.8624445957985412 16.8025082561287249 15.1156999304635793   F   F   F
 15.7657777573997304 -0.0091098734015156 15.1701323524380935   F   F   F
  3.8894675356530750 16.7674460388761730 15.1036928607575422   F   F   F
 19.7256482699999580 13.9481413360000008 12.2103998060000407   F   F   F
 15.8216002362470505 11.1584358891211135 15.0176336995865363   F   F   F
  7.8386294674167374 11.1420986995624993 15.0256964339503902   F   F   F
  7.8140518825583341  5.5348542747047924 15.0859113433267247   F   F   F
  7.9040283191641585 16.7639925603263684 15.0472568040640713   F   F   F
 15.7841473265309471  5.5430428463299481 15.0703947573911137   F   F   F
 11.8611141108435305 11.1541841499497831 15.0077450492308966   F   F   F
 -0.0110945852999206 11.1541983644919629 15.2028955786811402   F   F   F
 19.7952908349342600 11.1612924145755787 15.0833887553712991   F   F   F
 19.7906721606779641  5.5461707240755800 15.0713369604228493   F   F   F
 15.7805205919999434  8.3688848019999824 12.2103998060000407   F   F   F
  3.9292557001951769  0.0254070218940419 15.1972061891335652   F   F   F
  0.0000000000000000 19.5273965409999306 12.2103998060000407   F   F   F
 11.8571872962122153  5.5341910208360066 15.0627675136945065   F   F   F
 -0.0039021875379189 16.7628420924532051 15.2048188095166346   F   F   F
  0.0241879110811064  5.5709590121147601 15.1867480344377679   F   F   F
  0.0036068992704993 -0.0012131593527962 15.2060162111061281   F   F   F
 15.7805205919999434 13.9481413360000008 12.2103998060000407   F   F   F
 19.7256482699999580 19.5273965409999306 12.2103998060000407   F   F   F
  7.8902602960000570 13.9481413360000008 12.2103998060000407   F   F   F
  7.8902602960000570  2.7896282670000101 12.2103998060000407   F   F   F
  7.8902602960000570  8.3688848019999824 12.2103998060000407   F   F   F
 19.7429259714054908 -0.0019440022601680 15.2023560376733418   F   F   F
  7.8902602960000570 19.5273965409999306 12.2103998060000407   F   F   F
 15.7805205919999434  2.7896282670000101 12.2103998060000407   F   F   F
  0.0000000000000000 13.9481413360000008 12.2103998060000407   F   F   F
  3.9398830852087752  5.5364410393488583 15.1910966483882941   F   F   F
  7.8867686346418733  0.0228107858841678 15.1739201153516312   F   F   F
 11.8432099244254907 22.2981185876213495 15.1703632148538645   F   F   F
 11.8644510295341732 19.5766831907557695 18.2902597594175944   F   F   F
  7.7159763230523870  8.3363243203499167 17.7808039879095361   F   F   F
  0.0000000000000000  8.3688848019999824 12.2103998060000407   F   F   F
  7.9062645525867712 13.9403101545043029 17.8489369108035056   F   F   F
 11.8353900909999528 19.5273965409999306 12.2103998060000407   F   F   F
 19.7256482699999580  8.3688848019999824 12.2103998060000407   F   F   F
  3.9451301480000271  2.7896282670000101 12.2103998060000407   F   F   F
 15.7402740373457313  2.7790572278966628 18.1583959815112266   F   F   F
 11.8353900909999528 13.9481413360000008 12.2103998060000407   F   F   F
 19.8712723760199808 13.9969585539651025 18.1252978159757667   F   F   F
  7.8467931835544178  2.6699230054289673 18.3780994780705420   F   F   F
 23.6467944723431742 19.5292363091394847 18.7197507081352228   F   F   F
  3.8662082712295702 11.1535914233569038 15.0548655000155200   F   F   F
 11.8353900909999528  2.7896282670000101 12.2103998060000407   F   F   F
 19.6778455622491961 19.5816695775276202 18.5566282673433314   F   F   F
 19.8422972632538510  8.3192347300082137 18.0860112907885089   F   F   F
 19.7929595923908117 16.7787230657214970 15.0815155213713492   F   F   F
  3.9451301480000271 19.5273965409999306 12.2103998060000407   F   F   F
 19.7256482699999580  2.7896282670000101 12.2103998060000407   F   F   F
  0.0000000000000000  2.7896282670000101 12.2103998060000407   F   F   F
 11.9220725823758489 13.9464687047496803 17.8241057163964527   F   F   F
 15.8676718835972448  8.3173945343224940 17.7883654441333690   F   F   F
 11.8353900909999528  8.3688848019999824 12.2103998060000407   F   F   F
 15.7805205919999434 19.5273965409999306 12.2103998060000407   F   F   F
  7.9222387120237077 19.6106782308703416 18.0880764606548858   F   F   F
  3.7761473599678523 14.0030297846021039 18.0421136556629804   F   F   F
  3.9339750157363245 19.5012029449682771 18.5227352145665485   F   F   F
 11.8712024392633211  8.2917571340361143 17.8393420139184862   F   F   F
  3.9451301480000271 13.9481413360000008 12.2103998060000407   F   F   F
  3.9747367552375974  2.7437548234980862 18.6601707172292741   F   F   F
 11.8425527012374143  2.7300958170499126 18.1943928800182562   F   F   F
 -0.0064218611871205 13.9142805573884640 18.7117076460869001   F   F   F
  0.0040148346989689  8.3802778326083338 18.7342374862717307   F   F   F
 19.7710957759180168  2.7687684304699598 18.3674456813924216   F   F   F
 15.7590529696308277 19.6815565885792445 18.2222968529225362   F   F   F
  3.8652962937938860  8.2862003086283096 18.2209686570363907   F   F   F
 15.7763935679913256 13.9688486086357564 17.7980088985325864   F   F   F
  1.9868268054476037  5.5321657278512673 18.1243689203457876   F   F   F
 17.7435452505696922  0.0730469597119159 18.1621812586944351   F   F   F
 13.7952817601541469  0.0325798284725874 18.1349977929772734   F   F   F
 21.6981801487838730  0.0021709568460899 18.1170590312888891   F   F   F
 13.8453886815598821 16.7389997877869376 17.9927869916155316   F   F   F
 13.9706810511378023 11.1902501721156220 17.8050552394274355   F   F   F
  5.7361983282654405 11.1138493703542345 17.8078033637727451   F   F   F
 13.8322218037382001  5.5290584913681480 17.8907368038827315   F   F   F
  5.9118490648258915 22.2649881243084451 18.1265802558665783   F   F   F
 17.8577583612870967  5.5379401664343790 17.7632674831798312   F   F   F
  5.9045658354392829  5.4845153837025817 18.1157300924904980   F   F   F
  9.8783072600836466  0.0007310236875958 18.1407197568382657   F   F   F
  5.9119251472796774 16.8004780111594805 17.7578486251576848   F   F   F
  1.9297240392267505 11.1498746746405057 18.0885512648869344   F   F   F
  1.9143326022531764 13.9660276266777732 15.1624136953622024   F   F   F
  5.8364229477886136  8.3211480799064823 15.0802664862528655   F   F   F