Au  O Sr Ti                             
   1.00000000000000     
    23.6707801818999997    0.0000000000000000    0.0000000000000000
     0.0000000000000000   22.3170261383000010    0.0000000000000000
     0.0000000000000000    0.0000000000000000   30.0000000000000000
   Au   O    Sr   Ti
    50   264    72    72
Selective dynamics
Direct
  0.7623124038552067  0.5021166218021025  0.7881626257026790   T   T   T
  0.6519069471298247  0.5089013237094329  0.7519928188748412   T   T   T
  0.6743182277742672  0.2281098575957951  0.7621926231673209   T   T   T
  0.3963885719578467  0.7394134223020025  0.6918573769737063   T   T   T
  0.5561926675501445  0.6143315306247827  0.7847419857769615   T   T   T
  0.6397359439261080  0.7139647769150025  0.7825428249588546   T   T   T
  0.5364746413514813  0.3824943078893984  0.8423478387628810   T   T   T
  0.2848370146834522  0.5590177335925828  0.7057882309652355   T   T   T
  0.3496424627298476  0.7494205456065044  0.7761604714472123   T   T   T
  0.6190106288998855  0.3066826861963206  0.8142340762366076   T   T   T
  0.5308106541094866  0.4296256386796375  0.7004372454162109   T   T   T
  0.5485495400657894  0.4841175883435198  0.7865940360683804   T   T   T
  0.5376594962588698  0.7126908186140816  0.8438493918239877   T   T   T
  0.7400337354119880  0.4405368600577358  0.7080937030741856   T   T   T
  0.7443794439768220  0.5662090619563874  0.7090067657719765   T   T   T
  0.6934410418026468  0.5329274839146035  0.8618368218155100   T   T   T
  0.6255489409953835  0.7777830697750928  0.7037102932208534   T   T   T
  0.4575425908528823  0.6807840211680095  0.7587023873423548   T   T   T
  0.4300278855297042  0.4999554953413760  0.6945965128955378   T   T   T
  0.4461027401715013  0.4229102414927495  0.7680836220787358   T   T   T
  0.2932981399435877  0.3172199115493179  0.7005123490954670   T   T   T
  0.3389572801206031  0.3703162548867964  0.7723777931238346   T   T   T
  0.5413214602914246  0.7817821576675040  0.7657314143230641   T   T   T
  0.3416288940563288  0.6220112185714338  0.7743109532757413   T   T   T
  0.4926510385150935  0.2426138036284671  0.6863906619190118   T   T   T
  0.5563849657660546  0.5539911618414599  0.7057264400069709   T   T   T
  0.6099122285451926  0.2759353411243425  0.6977651149010484   T   T   T
  0.7128502741172316  0.6927946551004486  0.7117784827852599   T   T   T
  0.7637577070691871  0.4314829484379662  0.8644057123408304   T   T   T
  0.4053799531083454  0.6768119436579697  0.8446913072990972   T   T   T
  0.5797857366539557  0.5123349342211873  0.8783321531837861   T   T   T
  0.7247091555183713  0.3736765452268226  0.7891773345361058   T   T   T
  0.4700875958835747  0.4774610563712987  0.8673562190901362   T   T   T
  0.5199209078641513  0.3219286044477663  0.7572921337530845   T   T   T
  0.2838042371618085  0.4393582785824849  0.7055483094143588   T   T   T
  0.7073729190828486  0.6153012840141017  0.7888124022435373   T   T   T
  0.3664629464251680  0.4312312944201172  0.8492573948490214   T   T   T
  0.3805343017657350  0.5571344256090847  0.8537191792835617   T   T   T
  0.4955159058239654  0.6010827044795460  0.8713924709675823   T   T   T
  0.3293759386107282  0.4985697912517034  0.7776877421338572   T   T   T
  0.4122709398682651  0.3257371074233191  0.7060500474317420   T   T   T
  0.2935998939826582  0.8009383889160039  0.7069651630199256   T   T   T
  0.7248493806859962  0.3164501852068020  0.7076077993414494   T   T   T
  0.6480657296639946  0.4136393923791443  0.8588568052516404   T   T   T
  0.2874159347665420  0.6798580237336573  0.7064007038052246   T   T   T
  0.6281267326499773  0.3865302677144641  0.7375138187568617   T   T   T
  0.6228868306272595  0.6306525726145191  0.8597939583207813   T   T   T
  0.5500310188168896  0.6786821336723161  0.7032496871211220   T   T   T
  0.4483808626291880  0.5555596986845097  0.7718678146014022   T   T   T
  0.4481567324016245  0.7881285389340137  0.8189665252380548   T   T   T
  0.2507527114867769  0.1874205435908127  0.4539157763566999   T   T   T
  0.7503972278888140  0.9377953698388005  0.4547833244717946   T   T   T
  0.7489314242420336  0.6877112015379296  0.4558522977878445   T   T   T
  0.7501760240514810  0.4382016592034974  0.4550243945870416   T   T   T
  0.7497025672011026  0.1884636926778998  0.4545998327592134   T   T   T
  0.4166617653205237  0.9366766575692157  0.4543183154489571   T   T   T
  0.4170905198415520  0.6869937180698676  0.4557940732347838   T   T   T
  0.4181049442602396  0.4376162985385512  0.4560555815196866   T   T   T
  0.0834167291801084  0.6872184385348736  0.4542650492810210   T   T   T
  0.0839665001497116  0.9372300740596227  0.4543803215229645   T   T   T
  0.0841406863371515  0.4374336218496995  0.4541223909121467   T   T   T
  0.0833697439794886  0.1874068492250032  0.4541578811180970   T   T   T
  0.9167326414293755  0.8126552979836631  0.4541575417429917   T   T   T
  0.9162791994140844  0.5625456281061488  0.4539385077567968   T   T   T
  0.2502601376494674  0.4383671108352335  0.4552266885766905   T   T   T
  0.9164952458929289  0.0626912837620162  0.4538279965333755   T   T   T
  0.9165557127859403  0.3128542060372150  0.4541679521755715   T   T   T
  0.4170303532673671  0.1887889691353657  0.4554046236871878   T   T   T
  0.2512226075666512  0.6872931269454744  0.4558237563778988   T   T   T
  0.9162773947811359  0.9375464489285315  0.4542152781067081   T   T   T
  0.5836607923822943  0.1899577750406184  0.4560999125206962   T   T   T
  0.0001611059541199  0.1247513027145170  0.4997278808290482   T   T   T
  0.5831210608782533  0.8116141415226048  0.4549338591977800   T   T   T
  0.0001621697299124  0.3753439728816329  0.4997274756828398   T   T   T
  0.9998980450467800  0.6256043746830415  0.5002329943255982   T   T   T
  0.3339078318223695  0.1251418978744727  0.5002577503288540   T   T   T
  0.0001611612050272  0.8753240558104749  0.5000217804508097   T   T   T
  0.3338547611109514  0.8744872600962637  0.5004724439465126   T   T   T
  0.6664463189686631  0.1260114309881938  0.5008556962071748   T   T   T
  0.3342537869547778  0.6274043392078835  0.5033959431065544   T   T   T
  0.3338156931285605  0.3774493143233782  0.5006220760471071   T   T   T
  0.6660924882199603  0.3773694596555142  0.4999093421571896   T   T   T
  0.9165906014226571  0.6872222835176185  0.4543141759146092   T   T   T
  0.9159793425795610  0.4373931032171807  0.4540925975420413   T   T   T
  0.9166832425084281  0.1876168960649886  0.4541765562587634   T   T   T
  0.5829516754726077  0.9380689518970440  0.4550992021306295   T   T   T
  0.5824916621378875  0.6868713592758900  0.4553307623428047   T   T   T
  0.5815930396549609  0.4376465423895861  0.4554718115925133   T   T   T
  0.2505475384188038  0.9365259257671471  0.4545569664412492   T   T   T
  0.6659426798517996  0.6264907531960905  0.5020777139853011   T   T   T
  0.5840096499869286  0.5622340772436729  0.4556216683859268   T   T   T
  0.5838510605078312  0.0642082779770610  0.4538200014139603   T   T   T
  0.9166666865332829  0.6874999999963620  0.3605200052333331   F   F   F
  0.9166666865332829  0.4374999701794380  0.3605200052333331   F   F   F
  0.9166666865332829  0.1875000000030838  0.3605200052333331   F   F   F
  0.5833333134730552  0.9375000000154046  0.3605200052333331   F   F   F
  0.5833333134730552  0.6874999999963620  0.3605200052333331   F   F   F
  0.5833333134730552  0.4374999701794380  0.3605200052333331   F   F   F
  0.5833333134730552  0.1875000000030838  0.3605200052333331   F   F   F
  0.2499999999799343  0.9375000000154046  0.3605200052333331   F   F   F
  0.9166666865332829  0.9375000000154046  0.3605200052333331   F   F   F
  0.2499999999799343  0.6874999999963620  0.3605200052333331   F   F   F
  0.2499999999799343  0.1875000000030838  0.3605200052333331   F   F   F
  0.7499999404149307  0.9375000000154046  0.3605200052333331   F   F   F
  0.7499999404149307  0.6874999999963620  0.3605200052333331   F   F   F
  0.7499999404149307  0.4374999701794380  0.3605200052333331   F   F   F
  0.7499999404149307  0.1875000000030838  0.3605200052333331   F   F   F
  0.4166666269218169  0.9375000000154046  0.3605200052333331   F   F   F
  0.4166666269218169  0.6874999999963620  0.3605200052333331   F   F   F
  0.4166666269218169  0.4374999701794380  0.3605200052333331   F   F   F
  0.2499999999799343  0.4374999701794380  0.3605200052333331   F   F   F
  0.0833333358191695  0.0625000000159659  0.3605200052333331   F   F   F
  0.0833333358191695  0.3124999999901945  0.3605200052333331   F   F   F
  0.0833333358191695  0.5625000000092442  0.3605200052333331   F   F   F
  0.9166666865332829  0.3124999999901945  0.3605200052333331   F   F   F
  0.9166666865332829  0.0625000000159659  0.3605200052333331   F   F   F
  0.5833333134730552  0.8124999999834799  0.3605200052333331   F   F   F
  0.5833333134730552  0.5625000000092442  0.3605200052333331   F   F   F
  0.5833333134730552  0.3124999999901945  0.3605200052333331   F   F   F
  0.5833333134730552  0.0625000000159659  0.3605200052333331   F   F   F
  0.2499999999799343  0.8124999999834799  0.3605200052333331   F   F   F
  0.2499999999799343  0.5625000000092442  0.3605200052333331   F   F   F
  0.2499999999799343  0.3124999999901945  0.3605200052333331   F   F   F
  0.2499999999799343  0.0625000000159659  0.3605200052333331   F   F   F
  0.7499999404149307  0.8124999999834799  0.3605200052333331   F   F   F
  0.7499999404149307  0.5625000000092442  0.3605200052333331   F   F   F
  0.7499999404149307  0.3124999999901945  0.3605200052333331   F   F   F
  0.7499999404149307  0.0625000000159659  0.3605200052333331   F   F   F
  0.4166666269218169  0.8124999999834799  0.3605200052333331   F   F   F
  0.4166666269218169  0.5625000000092442  0.3605200052333331   F   F   F
  0.4166666269218169  0.3124999999901945  0.3605200052333331   F   F   F
  0.4166666269218169  0.0625000000159659  0.3605200052333331   F   F   F
  0.0833333358191695  0.8124999999834799  0.3605200052333331   F   F   F
  0.4166666269218169  0.1875000000030838  0.3605200052333331   F   F   F
  0.0833333358191695  0.9375000000154046  0.3605200052333331   F   F   F
  0.0833333358191695  0.6874999999963620  0.3605200052333331   F   F   F
  0.0833333358191695  0.4374999701794380  0.3605200052333331   F   F   F
  0.8333332538436267  0.4999999999932783  0.4070133268666680   F   F   F
  0.8333332538436267  0.7500000000123208  0.4070133268666680   F   F   F
  0.0836366469996558  0.0623120830076500  0.4540690512620391   T   T   T
  0.0832990523339127  0.3127167978412183  0.4541664362008770   T   T   T
  0.0836773056119016  0.5625279476501407  0.4541803353339296   T   T   T
  0.0833469788101800  0.8124777106014885  0.4541010927204048   T   T   T
  0.4168455191554406  0.0625256772226180  0.4549669485312993   T   T   T
  0.4170670596365783  0.3129592543147637  0.4558952629873961   T   T   T
  0.4156100925840006  0.5623576235982258  0.4563302896801962   T   T   T
  0.4171706200649802  0.8110595070817660  0.4552895070689997   T   T   T
  0.7494975978660219  0.0633506003091115  0.4542398293603976   T   T   T
  0.7488441283494279  0.3134893458543437  0.4546421696556143   T   T   T
  0.7487801970695540  0.5627213966366067  0.4544766609386017   T   T   T
  0.7501377499968556  0.8128385400903817  0.4538250456516018   T   T   T
  0.2504902473618594  0.0623413588153988  0.4545940895082284   T   T   T
  0.9156791166625292  0.3126861503131465  0.5477480819411676   T   T   T
  0.2514837240533104  0.3129704280690522  0.4549943266039767   T   T   T
  0.2517148088231784  0.5631289943122026  0.4554302876461604   T   T   T
  0.2510418718210723  0.8111087022936954  0.4551867443455324   T   T   T
  0.8333332538436267  0.2500000000190425  0.4070133268666680   F   F   F
  0.5827703606941120  0.3137680667945886  0.4552280407892045   T   T   T
  0.8333332538436267  0.0000000000000000  0.4070133268666680   F   F   F
  0.5000000000021103  0.4999999999932783  0.4070133268666680   F   F   F
  0.0833333358191695  0.1875000000030838  0.3605200052333331   F   F   F
  0.0000000000000000  0.0000000000000000  0.4070133268666680   F   F   F
  0.0000000000000000  0.2500000000190425  0.4070133268666680   F   F   F
  0.0000000000000000  0.4999999999932783  0.4070133268666680   F   F   F
  0.0000000000000000  0.7500000000123208  0.4070133268666680   F   F   F
  0.3333333432766779  0.0000000000000000  0.4070133268666680   F   F   F
  0.3333333432766779  0.2500000000190425  0.4070133268666680   F   F   F
  0.3333333432766779  0.4999999999932783  0.4070133268666680   F   F   F
  0.3333333432766779  0.7500000000123208  0.4070133268666680   F   F   F
  0.6666666865533486  0.0000000000000000  0.4070133268666680   F   F   F
  0.6666666865533486  0.2500000000190425  0.4070133268666680   F   F   F
  0.6666666865533486  0.4999999999932783  0.4070133268666680   F   F   F
  0.6666666865533486  0.7500000000123208  0.4070133268666680   F   F   F
  0.1666666716383389  0.0000000000000000  0.4070133268666680   F   F   F
  0.1666666716383389  0.2500000000190425  0.4070133268666680   F   F   F
  0.1666666716383389  0.4999999999932783  0.4070133268666680   F   F   F
  0.1666666716383389  0.7500000000123208  0.4070133268666680   F   F   F
  0.5000000000021103  0.0000000000000000  0.4070133268666680   F   F   F
  0.5000000000021103  0.2500000000190425  0.4070133268666680   F   F   F
  0.5000000000021103  0.7500000000123208  0.4070133268666680   F   F   F
  0.1668794275035400  0.1248189778980905  0.4995851436073958   T   T   T
  0.9168364687634293  0.0614678110420310  0.5472672176938901   T   T   T
  0.1676252066406881  0.8733054950872410  0.5000606850753148   T   T   T
  0.2502771593365612  0.1887352707259409  0.5477964204475002   T   T   T
  0.7483510290523202  0.9368947685147127  0.5485605685429338   T   T   T
  0.7519923286621842  0.6833838674871523  0.5507144671799733   T   T   T
  0.7494535988919448  0.4366507963074949  0.5497612355093910   T   T   T
  0.4169455192607878  0.4349304602794667  0.5501250027057152   T   T   T
  0.4227270853442524  0.6878255472930507  0.5493508091653059   T   T   T
  0.7501401476689864  0.1879072608348939  0.5481546721081310   T   T   T
  0.4159489986732705  0.9384917511669058  0.5461934700653827   T   T   T
  0.0851555943052052  0.9371471297472211  0.5482023936170630   T   T   T
  0.4197688090849431  0.1864011459165037  0.5506078943697208   T   T   T
  0.0862765898989331  0.6877580924943655  0.5478625131875962   T   T   T
  0.0854373540164115  0.4380445136713950  0.5474966427492501   T   T   T
  0.0834834625236708  0.1881638202107191  0.5477782185899168   T   T   T
  0.5003751942238036  0.1255127271158454  0.4996238189097547   T   T   T
 -0.0000003814353459  0.4997316265715035  0.5966409616151466   T   T   T
  0.9995861748169828  0.7486069621267888  0.5955591665023183   T   T   T
  0.3367663697460931  0.2414776684936731  0.5970843211785221   T   T   T
  0.3341708624676991  0.0027899781649562  0.5939405253330868   T   T   T
  0.0003943720380324  0.9984633281535116  0.5943693530199186   T   T   T
  0.0001112229875237  0.2490538266683052  0.5951506459377703   T   T   T
  0.3336568272188271  0.4984966418543909  0.5901534434828551   T   T   T
  0.3355060044771171  0.7467137168034020  0.5910995839750888   T   T   T
  0.6644856536414887  0.2414803703746894  0.5960913871106974   T   T   T
  0.6664353080914641  0.0032834251079142  0.5937407802947722   T   T   T
  0.6661557781210661  0.7451406233727952  0.5919102982666814   T   T   T
  0.6637393630400877  0.4962996745055705  0.5936507302226082   T   T   T
  0.1673495664790570  0.0039460224212174  0.5954701516319001   T   T   T
  0.1682674303869381  0.2500091271407891  0.5950195732014755   T   T   T
  0.1698125281351862  0.7522275129493591  0.5953238221680658   T   T   T
  0.2487410113165475  0.4364890927825224  0.5502597990257017   T   T   T
  0.1688195245382965  0.5033161784138631  0.5933673607365578   T   T   T
  0.2482922981754343  0.6867682538235955  0.5503968589392142   T   T   T
  0.5815843035191171  0.1837824902603622  0.5528708094250224   T   T   T
  0.9165407445681755  0.8115037169612174  0.5477726152387856   T   T   T
  0.9163269647868323  0.5614917555788760  0.5470151973135272   T   T   T
  0.5844504110385372  0.5638046814525596  0.5497269330207722   T   T   T
  0.5868456674898742  0.8136616892270822  0.5496191862457532   T   T   T
  0.5891044539612609  0.3127767485679381  0.5494509082397903   T   T   T
  0.5824905164275587  0.0604075309114701  0.5452647302607644   T   T   T
  0.2525639623100102  0.8133555271627223  0.5508257684490280   T   T   T
  0.2515114457393674  0.5637936038257290  0.5497902869746976   T   T   T
  0.2543286929172052  0.3133976737170739  0.5484322712677305   T   T   T
  0.2501711332367269  0.0622157002490491  0.5479385421853596   T   T   T
  0.7478004274541903  0.8111521892381408  0.5477410834170099   T   T   T
  0.7457988930176165  0.5608518655432609  0.5482226622230966   T   T   T
  0.4165103117338056  0.8146839010802311  0.5502586137566138   T   T   T
  0.7499897983072283  0.0621743962064975  0.5473257305851306   T   T   T
  0.7460414572000643  0.3137230732405641  0.5485434634928006   T   T   T
  0.4119274245440459  0.3125203020409977  0.5498686751285758   T   T   T
  0.4150015441883875  0.5654682771205576  0.5505832855385138   T   T   T
  0.4187106693095468  0.0624928608750516  0.5471438874945066   T   T   T
  0.0835942740486518  0.8114216236164266  0.5475745292268155   T   T   T
  0.0837957067277695  0.5619818810072273  0.5475893040114496   T   T   T
  0.0846622008066441  0.3125431411235667  0.5478953972144706   T   T   T
  0.0832385248698672  0.0617894771159868  0.5478547719697038   T   T   T
  0.9165669774517603  0.9378354154622536  0.5479698465240909   T   T   T
  0.9127590405725065  0.6870603699848983  0.5482894678120218   T   T   T
  0.5846369451007875  0.9370604092964960  0.5481597762026483   T   T   T
  0.9166117099491530  0.1874076438832809  0.5481398836310313   T   T   T
  0.9151979739790479  0.4381108227728602  0.5475213307239311   T   T   T
  0.5822338130530532  0.4364263869675182  0.5479520236103461   T   T   T
  0.5802971124652997  0.6875636684546944  0.5484282939477730   T   T   T
  0.2506415774676372  0.9378464999881677  0.5471927154298206   T   T   T
  0.4985865803240567  0.5013645544057709  0.5881338848772001   T   T   T
  0.5023183801134554  0.2552506335552480  0.5894042921534201   T   T   T
  0.5004293809199084  0.9999639565630395  0.5929985455785745   T   T   T
  0.7455632719042311  0.6893487492017131  0.6486110185739022   T   T   T
  0.7482643629408758  0.9396041431449794  0.6435431362342883   T   T   T
  0.2505318747120923  0.1877433519442258  0.6457585930941281   T   T   T
  0.7493802730813144  0.1867481433446760  0.6444557107176776   T   T   T
  0.7508485643922512  0.4366183690118234  0.6408295783679101   T   T   T
  0.4169623773658124  0.9331449097091367  0.6391923090307932   T   T   T
  0.4225294028708552  0.6865605361685253  0.6406794036101953   T   T   T
  0.5915927623920211  0.8108905072231124  0.6458509674265701   T   T   T
  0.9179365695719847  0.0630548252231306  0.6431243089471156   T   T   T
  0.9131301006533817  0.5646480570083283  0.6426674113352017   T   T   T
  0.9153285773122337  0.3135356621894232  0.6425419753175408   T   T   T
  0.9170130098426696  0.8134456380255033  0.6448144772068019   T   T   T
  0.5819796071695544  0.0705608852591717  0.6387811863217603   T   T   T
  0.5873327439127394  0.3182943619496304  0.6395091845778315   T   T   T
  0.5796889652046683  0.5617805858745498  0.6404979229515078   T   T   T
  0.2536794598511047  0.5638139461129351  0.6428319178539211   T   T   T
  0.2545354883488251  0.8128243591471026  0.6459346455159152   T   T   T
  0.2532793400245088  0.3135617438684398  0.6408449529054181   T   T   T
  0.2524346083626133  0.0615232237273082  0.6468951047622169   T   T   T
  0.9166666865332829  0.5625000000092442  0.3605200052333331   F   F   F
  0.4999503877473506  0.3723131767957509  0.5034741818046869   T   T   T
  0.5005595804868648  0.8744724907920606  0.5003602395706317   T   T   T
  0.4999533528423907  0.6222309953619988  0.5009370316032802   T   T   T
  0.8324217065301487  0.6230224498930846  0.4999924419233898   T   T   T
  0.8331478672081449  0.8749213562210150  0.5002610906035659   T   T   T
  0.8326119963709961  0.3744233856756747  0.5007698513042460   T   T   T
  0.8334286446355308  0.1250257735846821  0.4995563190588203   T   T   T
  0.1675140403219474  0.3734017375167185  0.5000122454027551   T   T   T
  0.1672850170666737  0.6238795420636047  0.4998330742667239   T   T   T
  0.5730726623783919  0.4349102619326798  0.6403013029965449   T   T   T
  0.5791678839420741  0.6833270251033551  0.6385739147745209   T   T   T
  0.9164679105948285  0.1889935988187974  0.6453302307113347   T   T   T
  0.5836329110088839  0.9388229091785995  0.6424281408008202   T   T   T
  0.8303718243643413  0.7525187078384404  0.5967329331781438   T   T   T
  0.8321029974349173  0.2493762085479644  0.5941533053393749   T   T   T
  0.8313677779120939  0.5029746299030563  0.5920798934188561   T   T   T
  0.8333466074912640  0.0010959111724753  0.5949465747080823   T   T   T
  0.5026481385217725  0.7587134768255051  0.5930374653682565   T   T   T
  0.4194986843273983  0.0647819342673371  0.6417676014411796   T   T   T
  0.4175888767870500  0.3211343036833612  0.6380423190998448   T   T   T
  0.4140941567744650  0.8056615985901712  0.6472662081048584   T   T   T
  0.4166694422540549  0.5590366434571986  0.6442060352528772   T   T   T
  0.7479253301478905  0.5661435036015958  0.6406954022977128   T   T   T
  0.7429719011223304  0.8153114748087933  0.6428644789525167   T   T   T
  0.7483355149324679  0.3133464291652127  0.6422015684725166   T   T   T
  0.7492886721727765  0.0638948174337740  0.6438151416711384   T   T   T
  0.0845100180785888  0.3133355026446806  0.6428056639602691   T   T   T
  0.6668401795002689  0.8756385022915892  0.4989384687016609   T   T   T
  0.0854583052985925  0.5634235467840012  0.6439813592615746   T   T   T
  0.0811285628855364  0.0616036751297149  0.6456655456814642   T   T   T
  0.0873257525000459  0.4383937124814578  0.6427934018521010   T   T   T
  0.0838212168261871  0.1885824352861984  0.6451937364844333   T   T   T
  0.4326914452540216  0.1979398857606421  0.6485545082861350   T   T   T
  0.4173472859547668  0.4413187981005920  0.6439753546513162   T   T   T
  0.0857206420306977  0.9380558680957184  0.6433293309194363   T   T   T
  0.0865378021549487  0.6886142712783738  0.6436413836817533   T   T   T
  0.9122311475631475  0.4387696551851299  0.6425280288421427   T   T   T
  0.9135265953455141  0.6891161449592073  0.6440146151740589   T   T   T
  0.9164372106212677  0.9392103923300082  0.6449979567815255   T   T   T
  0.2507868962677546  0.4375473058719346  0.6430635173497344   T   T   T
  0.2525807674115594  0.6856898348853507  0.6434331936623517   T   T   T
  0.5695962744265823  0.2048717282400482  0.6603113525995994   T   T   T
  0.2517259996668429  0.9359885893697649  0.6401306470052306   T   T   T
  0.0843001324184828  0.8133955729152612  0.6429511342727677   T   T   T
  0.9166666865332829  0.8124999999834799  0.3605200052333331   F   F   F
  0.0001766696818391  0.1265427514663354  0.6247643451237075   T   T   T
  0.8333332538436267  0.6249999999803961  0.4070133268666680   F   F   F
  0.0001835692942885  0.5000115765666464  0.5086805741613846   T   T   T
  0.3307410459757347  0.5002733644417495  0.5022852989856407   T   T   T
  0.3315357697609785  0.2471057083909913  0.5046554740870770   T   T   T
  0.3326604936263187  0.0012482548803813  0.5069246902405715   T   T   T
  0.3314809885851687  0.7519403892122097  0.5028866678100093   T   T   T
  0.6673947601459486  0.0004499284709420  0.5064231806247017   T   T   T
  0.6682156732639528  0.5006425675636405  0.5035529106693523   T   T   T
  0.6691808034065410  0.2480271035321396  0.5042979372965580   T   T   T
  0.6678583694449307  0.7513294249610944  0.5048436279701607   T   T   T
  0.1661444327652729  0.0004490618720058  0.5079340558835976   T   T   T
  0.1657486982867661  0.2485588471758036  0.5073352684402951   T   T   T
  0.1648441320922975  0.4998634802060760  0.5053382444842320   T   T   T
  0.5004858364534336  0.9992377281960561  0.5063636653072549   T   T   T
  0.1651553080091967  0.7511462851732452  0.5064022723349083   T   T   T
  0.5011426192366232  0.7528190013378643  0.5034052854697335   T   T   T
  0.8340233839239085  0.9996258217533711  0.5078485915263715   T   T   T
  0.5008895329215732  0.5003297775300971  0.5019999895397235   T   T   T
  0.4994966481618212  0.2481327372673525  0.5022057641188638   T   T   T
  0.8344994469737139  0.2487095872133913  0.5070838989160704   T   T   T
  0.9994262446271498  0.7497918829204607  0.5083896508155012   T   T   T
  0.0001207886826452  0.2501295390219470  0.5080344093453332   T   T   T
  0.0002264178075176  0.9996269620991136  0.5076598300469806   T   T   T
  0.8333332538436267  0.8749999404036828  0.4070133268666680   F   F   F
  0.0000000000000000  0.6249999999803961  0.4070133268666680   F   F   F
  0.0000000000000000  0.8749999404036828  0.4070133268666680   F   F   F
  0.3333333432766779  0.1249999999871179  0.4070133268666680   F   F   F
  0.3333333432766779  0.3750000000061604  0.4070133268666680   F   F   F
  0.3333333432766779  0.6249999999803961  0.4070133268666680   F   F   F
  0.3333333432766779  0.8749999404036828  0.4070133268666680   F   F   F
  0.6666666865533486  0.1249999999871179  0.4070133268666680   F   F   F
  0.6666666865533486  0.3750000000061604  0.4070133268666680   F   F   F
  0.6666666865533486  0.6249999999803961  0.4070133268666680   F   F   F
  0.8350773851233124  0.5000728572094643  0.5043958915138479   T   T   T
  0.6666666865533486  0.8749999404036828  0.4070133268666680   F   F   F
  0.1666666716383389  0.3750000000061604  0.4070133268666680   F   F   F
  0.1666666716383389  0.6249999999803961  0.4070133268666680   F   F   F
  0.1666666716383389  0.8749999404036828  0.4070133268666680   F   F   F
  0.5000000000021103  0.1249999999871179  0.4070133268666680   F   F   F
  0.5000000000021103  0.3750000000061604  0.4070133268666680   F   F   F
  0.5000000000021103  0.6249999999803961  0.4070133268666680   F   F   F
  0.5000000000021103  0.8749999404036828  0.4070133268666680   F   F   F
  0.8333332538436267  0.1249999999871179  0.4070133268666680   F   F   F
  0.8333332538436267  0.3750000000061604  0.4070133268666680   F   F   F
  0.1666666716383389  0.1249999999871179  0.4070133268666680   F   F   F
  0.0000000000000000  0.3750000000061604  0.4070133268666680   F   F   F
  0.8334307023833865  0.7516032993253638  0.5081323153893214   T   T   T
  0.8361111509623989  0.3736644980671490  0.6092093394455542   T   T   T
  0.8323924575082207  0.8763485916107210  0.6296196139707418   T   T   T
  0.8345624011420389  0.6292784521998344  0.6116760034949112   T   T   T
  0.0003281267025918  0.8770554348927120  0.6261125660634463   T   T   T
  0.3345383059957153  0.1233947041067512  0.6280597121483995   T   T   T
  0.3325056408574744  0.6253211794728127  0.5986881413413238   T   T   T
  0.3311984844248981  0.3757933444222963  0.5969771233643252   T   T   T
  0.6696856351947211  0.3760779001976255  0.5997117275285681   T   T   T
  0.6681475203778485  0.1228576932710869  0.6146271368775186   T   T   T
  0.3334903638910790  0.8794257388414797  0.6062603916570024   T   T   T
  0.1645545772332361  0.6257348619480400  0.6135408228518591   T   T   T
  0.1665601377539731  0.8762763365148706  0.6188870328148599   T   T   T
  0.4989509643908838  0.3751144883201118  0.5946993613616957   T   T   T
  0.4985858372566103  0.1216989901105935  0.6065066868453740   T   T   T
  0.1661121860074362  0.1221097091559625  0.6324860128875908   T   T   T
  0.1646575752188104  0.3736509450944384  0.6125351759256118   T   T   T
  0.6668263319560804  0.8824960911367169  0.6100199975477548   T   T   T
  0.6665738717796041  0.6260087192434928  0.6022829295380960   T   T   T
 -0.0001149031304020  0.3775371148454659  0.6320780316717705   T   T   T
  0.9995780558462201  0.6271222741931637  0.6355887626252669   T   T   T
  0.8347691884765135  0.1245642059711521  0.6258775857615376   T   T   T
  0.5020669996281915  0.8766803229749626  0.6186857991596089   T   T   T
  0.0000000000000000  0.1249999999871179  0.4070133268666680   F   F   F
  0.4999574427860405  0.6230855046502777  0.5983884876783984   T   T   T
  0.9171415446189491  0.0001161080318365  0.6054756023350764   T   T   T
  0.5827225554293490  0.7518652042870313  0.5975851262098316   T   T   T
  0.5841056003495269  0.4987764907987857  0.5962885026662823   T   T   T
  0.2478046626285597  0.5002553752372958  0.5978072421412611   T   T   T
  0.2478554640997638  0.7521165000145005  0.6001470206731705   T   T   T
  0.5836291602099407  0.2530366010531500  0.5932591479608340   T   T   T
  0.5832973021211226  0.0028284167836851  0.6057586804764071   T   T   T
  0.2502950931062281  0.0027354269140931  0.6060377338567168   T   T   T
  0.2477089678473711  0.2423499543313345  0.6033601155188283   T   T   T
  0.4171294906554686  0.0004208163587566  0.6054874625885373   T   T   T
  0.4148931540243376  0.2486779349266122  0.5956487791423012   T   T   T
  0.4151117907153393  0.7510864741157905  0.5927232954974386   T   T   T
  0.7537163144935735  0.5016788609596770  0.5969610901146911   T   T   T
  0.7486770530880927  0.7553823256328149  0.6048188921780929   T   T   T
  0.7512885283152038  0.2432436744479752  0.6036058065142481   T   T   T
  0.7510731774346744  0.0019522508643347  0.6054707928384422   T   T   T
  0.0824887632951968  0.2494899970032086  0.6059752066351800   T   T   T
  0.0821491288224863  0.5015490305237661  0.6056229345660987   T   T   T
  0.0810483083524505  0.7507616788643878  0.6054766179208543   T   T   T
  0.0831229675792038  0.0013006770486518  0.6058606777232580   T   T   T