C  H 
 1.0000000000000000
    23.6707801818999997    0.0000000000000000    0.0000000000000000
     0.0000000000000000   27.8962826732999716    0.0000000000000000
     0.0000000000000000    0.0000000000000000   30.0000000000000000
 C   H  
   6  14
Cartesian
 11.8345666709485364 13.5204134375252458 13.0837572704606888
 11.8362302281739744 13.5191479054990431 18.1895691479535131
 11.8360956543970275 13.5424176751626337 15.6429332317044043
 11.8366482064455472 14.3817220599221720 16.9246148154273683
 11.8348675387212534 14.3706299162621782 14.3564467469368857
 11.8340146809342315 14.3578522488664593 11.8031488814098946
 11.8339250295912901 13.7265638337070861 10.9105878784790740
 11.8357532527747491 14.1253424842288595 19.0977962693972856
 12.7199658240949436 12.8746882186781750 18.2226232908683201
 10.9527691172212656 12.8742761532202756 18.2211732453011166
 10.9609936187036734 15.0420238018963435 16.9250508034522085
 12.7125419316644575 15.0415183670303847 16.9248338480386025
 12.7132616692575908 12.8817392141488956 15.6490952603231754
 10.9591334622181975 12.8810020098884994 15.6503460085880537
 10.9575513385017871 12.8615108655387935 13.0903851839318381
 12.7167510610336887 15.0023238842868256 11.7550687128974172
 10.9513021712439400 15.0021965870996929 11.7554528672563467
 10.9568426041884628 15.0294057436512656 14.3517077752381166
 12.7124108114222700 15.0302391397809814 14.3505496063737699
 12.7112771256095716 12.8614069739214258 13.0897277639955263
