Sr1 Ti1 O3                              
   1.00000000000000     
    23.6707801818999997    0.0000000000000000    0.0000000000000000
     0.0000000000000000   22.3170261383000010    0.0000000000000000
     0.0000000000000000    0.0000000000000000   30.0000000000000000
   Sr   Ti   O 
    72    72   264
Selective dynamics
Direct
  0.0000000000000000  0.1249999999871179  0.4070133268666680   F   F   F
  0.0000000000000000  0.3750000000061604  0.4070133268666680   F   F   F
  0.0000000000000000  0.6249999999803961  0.4070133268666680   F   F   F
  0.0000000000000000  0.8749999404036828  0.4070133268666680   F   F   F
  0.3333333432766779  0.1249999999871179  0.4070133268666680   F   F   F
  0.3333333432766779  0.3750000000061604  0.4070133268666680   F   F   F
  0.3333333432766779  0.6249999999803961  0.4070133268666680   F   F   F
  0.3333333432766779  0.8749999404036828  0.4070133268666680   F   F   F
  0.6666666865533486  0.1249999999871179  0.4070133268666680   F   F   F
  0.6666666865533486  0.3750000000061604  0.4070133268666680   F   F   F
  0.6666666865533486  0.6249999999803961  0.4070133268666680   F   F   F
  0.6666666865533486  0.8749999404036828  0.4070133268666680   F   F   F
  0.1666666716383389  0.1249999999871179  0.4070133268666680   F   F   F
  0.1666666716383389  0.3750000000061604  0.4070133268666680   F   F   F
  0.1666666716383389  0.6249999999803961  0.4070133268666680   F   F   F
  0.1666666716383389  0.8749999404036828  0.4070133268666680   F   F   F
  0.5000000000021103  0.1249999999871179  0.4070133268666680   F   F   F
  0.5000000000021103  0.3750000000061604  0.4070133268666680   F   F   F
  0.5000000000021103  0.6249999999803961  0.4070133268666680   F   F   F
  0.5000000000021103  0.8749999404036828  0.4070133268666680   F   F   F
  0.8333332538436267  0.1249999999871179  0.4070133268666680   F   F   F
  0.8333332538436267  0.3750000000061604  0.4070133268666680   F   F   F
  0.8333332538436267  0.6249999999803961  0.4070133268666680   F   F   F
  0.8333332538436267  0.8749999404036828  0.4070133268666680   F   F   F
 -0.0000000000000000  0.0000000000000000  0.5045127242138224   T   T   T
 -0.0000000000000000  0.2500000000190425  0.5045127242138224   T   T   T
 -0.0000000000000000  0.7500000000123208  0.5045127242138224   T   T   T
 -0.0000000000000000  0.4999999999932783  0.5045127242138224   T   T   T
  0.3333333432766779  0.4999999999932783  0.5045127242138224   T   T   T
  0.3333333432766779  0.2500000000190425  0.5045127242138224   T   T   T
  0.3333333432766779  0.0000000000000000  0.5045127242138224   T   T   T
  0.3333333432766779  0.7500000000123208  0.5045127242138224   T   T   T
  0.6666666865533486  0.0000000000000000  0.5045127242138224   T   T   T
  0.6666666865533486  0.4999999999932783  0.5045127242138224   T   T   T
  0.6666666865533486  0.2500000000190425  0.5045127242138224   T   T   T
  0.6666666865533486  0.7500000000123208  0.5045127242138224   T   T   T
  0.1666666716383389  0.0000000000000000  0.5045127242138224   T   T   T
  0.1666666716383389  0.2500000000190425  0.5045127242138224   T   T   T
  0.1666666716383389  0.4999999999932783  0.5045127242138224   T   T   T
  0.5000000000021103  0.0000000000000000  0.5045127242138224   T   T   T
  0.1666666716383389  0.7500000000123208  0.5045127242138224   T   T   T
  0.5000000000021103  0.7500000000123208  0.5045127242138224   T   T   T
  0.8333332538436267  0.0000000000000000  0.5045127242138224   T   T   T
  0.5000000000021103  0.4999999999932783  0.5045127242138224   T   T   T
  0.5000000000021103  0.2500000000190425  0.5045127242138224   T   T   T
  0.8333332538436267  0.2500000000190425  0.5045127242138224   T   T   T
  0.8333332538436267  0.4999999999932783  0.5045127242138224   T   T   T
  0.8333332538436267  0.7500000000123208  0.5045127242138224   T   T   T
 -0.0000000000000000  0.1249999999871179  0.6205404456337218   T   T   T
 -0.0000000000000000  0.6249999999803961  0.6205404456337218   T   T   T
 -0.0000000000000000  0.3750000000061604  0.6205404456337218   T   T   T
  0.6666666865533486  0.6249999999803961  0.6205404456337218   T   T   T
  0.6666666865533486  0.8749999404036828  0.6205404456337218   T   T   T
  0.1666666716383389  0.3750000000061604  0.6205404456337218   T   T   T
  0.1666666716383389  0.1249999999871179  0.6205404456337218   T   T   T
  0.5000000000021103  0.1249999999871179  0.6205404456337218   T   T   T
  0.5000000000021103  0.3750000000061604  0.6205404456337218   T   T   T
  0.1666666716383389  0.8749999404036828  0.6205404456337218   T   T   T
  0.1666666716383389  0.6249999999803961  0.6205404456337218   T   T   T
  0.3333333432766779  0.8749999404036828  0.6205404456337218   T   T   T
  0.6666666865533486  0.1249999999871179  0.6205404456337218   T   T   T
  0.6666666865533486  0.3750000000061604  0.6205404456337218   T   T   T
  0.3333333432766779  0.3750000000061604  0.6205404456337218   T   T   T
  0.3333333432766779  0.6249999999803961  0.6205404456337218   T   T   T
  0.3333333432766779  0.1249999999871179  0.6205404456337218   T   T   T
  0.0000000000000000  0.8749999404036828  0.6205404456337218   T   T   T
  0.8333332538436267  0.6249999999803961  0.6205404456337218   T   T   T
  0.8333332538436267  0.8749999404036828  0.6205404456337218   T   T   T
  0.8333332538436267  0.1249999999871179  0.6205404456337218   T   T   T
  0.8333332538436267  0.3750000000061604  0.6205404456337218   T   T   T
  0.5000000000021103  0.8749999404036828  0.6205404456337218   T   T   T
  0.5000000000021103  0.6249999999803961  0.6205404456337218   T   T   T
  0.0833333358191695  0.0000000000000000  0.4070133268666680   F   F   F
  0.0833333358191695  0.2500000000190425  0.4070133268666680   F   F   F
  0.0833333358191695  0.4999999999932783  0.4070133268666680   F   F   F
  0.0833333358191695  0.7500000000123208  0.4070133268666680   F   F   F
  0.4166666269218169  0.0000000000000000  0.4070133268666680   F   F   F
  0.4166666269218169  0.2500000000190425  0.4070133268666680   F   F   F
  0.4166666269218169  0.4999999999932783  0.4070133268666680   F   F   F
  0.4166666269218169  0.7500000000123208  0.4070133268666680   F   F   F
  0.7499999404149307  0.0000000000000000  0.4070133268666680   F   F   F
  0.7499999404149307  0.2500000000190425  0.4070133268666680   F   F   F
  0.7499999404149307  0.4999999999932783  0.4070133268666680   F   F   F
  0.7499999404149307  0.7500000000123208  0.4070133268666680   F   F   F
  0.2499999999799343  0.0000000000000000  0.4070133268666680   F   F   F
  0.2499999999799343  0.2500000000190425  0.4070133268666680   F   F   F
  0.2499999999799343  0.4999999999932783  0.4070133268666680   F   F   F
  0.2499999999799343  0.7500000000123208  0.4070133268666680   F   F   F
  0.5833333134730552  0.0000000000000000  0.4070133268666680   F   F   F
  0.5833333134730552  0.2500000000190425  0.4070133268666680   F   F   F
  0.5833333134730552  0.4999999999932783  0.4070133268666680   F   F   F
  0.5833333134730552  0.7500000000123208  0.4070133268666680   F   F   F
  0.9166666865332829  0.0000000000000000  0.4070133268666680   F   F   F
  0.9166666865332829  0.2500000000190425  0.4070133268666680   F   F   F
  0.9166666865332829  0.4999999999932783  0.4070133268666680   F   F   F
  0.9166666865332829  0.7500000000123208  0.4070133268666680   F   F   F
  0.0833333358191695  0.1249999999871179  0.5055654832037768   T   T   T
  0.0833333358191695  0.3750000000061604  0.5055654832037768   T   T   T
  0.0833333358191695  0.8749999404036828  0.5055654832037768   T   T   T
  0.0833333358191695  0.6249999999803961  0.5055654832037768   T   T   T
  0.4166666269218169  0.6249999999803961  0.5055654832037768   T   T   T
  0.4166666269218169  0.3750000000061604  0.5055654832037768   T   T   T
  0.4166666269218169  0.1249999999871179  0.5055654832037768   T   T   T
  0.7499999404149307  0.8749999404036828  0.5055654832037768   T   T   T
  0.2499999999799343  0.1249999999871179  0.5055654832037768   T   T   T
  0.2499999999799343  0.6249999999803961  0.5055654832037768   T   T   T
  0.2499999999799343  0.3750000000061604  0.5055654832037768   T   T   T
  0.7499999404149307  0.3750000000061604  0.5055654832037768   T   T   T
  0.7499999404149307  0.6249999999803961  0.5055654832037768   T   T   T
  0.7499999404149307  0.1249999999871179  0.5055654832037768   T   T   T
  0.4166666269218169  0.8749999404036828  0.5055654832037768   T   T   T
  0.2499999999799343  0.8749999404036828  0.5055654832037768   T   T   T
  0.5833333134730552  0.1249999999871179  0.5055654832037768   T   T   T
  0.5833333134730552  0.6249999999803961  0.5055654832037768   T   T   T
  0.5833333134730552  0.3750000000061604  0.5055654832037768   T   T   T
  0.9166666865332829  0.3750000000061604  0.5055654832037768   T   T   T
  0.9166666865332829  0.1249999999871179  0.5055654832037768   T   T   T
  0.5833333134730552  0.8749999404036828  0.5055654832037768   T   T   T
  0.9166666865332829  0.6249999999803961  0.5055654832037768   T   T   T
  0.9166666865332829  0.8749999404036828  0.5055654832037768   T   T   T
  0.0833333358191695  0.0000000000000000  0.6016135651969319   T   T   T
  0.0833333358191695  0.7500000000123208  0.6016135651969319   T   T   T
  0.0833333358191695  0.4999999999932783  0.6016135651969319   T   T   T
  0.0833333358191695  0.2500000000190425  0.6016135651969319   T   T   T
  0.7499999404149307  0.0000000000000000  0.6016135651969319   T   T   T
  0.7499999404149307  0.2500000000190425  0.6016135651969319   T   T   T
  0.7499999404149307  0.7500000000123208  0.6016135651969319   T   T   T
  0.7499999404149307  0.4999999999932783  0.6016135651969319   T   T   T
  0.4166666269218169  0.4999999999932783  0.6016135651969319   T   T   T
  0.4166666269218169  0.7500000000123208  0.6016135651969319   T   T   T
  0.4166666269218169  0.2500000000190425  0.6016135651969319   T   T   T
  0.4166666269218169  0.0000000000000000  0.6016135651969319   T   T   T
  0.2499999999799343  0.2500000000190425  0.6016135651969319   T   T   T
  0.2499999999799343  0.0000000000000000  0.6016135651969319   T   T   T
  0.5833333134730552  0.0000000000000000  0.6016135651969319   T   T   T
  0.5833333134730552  0.2500000000190425  0.6016135651969319   T   T   T
  0.2499999999799343  0.7500000000123208  0.6016135651969319   T   T   T
  0.2499999999799343  0.4999999999932783  0.6016135651969319   T   T   T
  0.5833333134730552  0.4999999999932783  0.6016135651969319   T   T   T
  0.5833333134730552  0.7500000000123208  0.6016135651969319   T   T   T
  0.9166666865332829  0.2500000000190425  0.6016135651969319   T   T   T
  0.9166666865332829  0.0000000000000000  0.6016135651969319   T   T   T
  0.9166666865332829  0.7500000000123208  0.6016135651969319   T   T   T
  0.9166666865332829  0.4999999999932783  0.6016135651969319   T   T   T
  0.0833333358191695  0.1875000000030838  0.3605200052333331   F   F   F
  0.0833333358191695  0.4374999701794380  0.3605200052333331   F   F   F
  0.0833333358191695  0.6874999999963620  0.3605200052333331   F   F   F
  0.0833333358191695  0.9375000000154046  0.3605200052333331   F   F   F
  0.4166666269218169  0.1875000000030838  0.3605200052333331   F   F   F
  0.4166666269218169  0.4374999701794380  0.3605200052333331   F   F   F
  0.4166666269218169  0.6874999999963620  0.3605200052333331   F   F   F
  0.4166666269218169  0.9375000000154046  0.3605200052333331   F   F   F
  0.7499999404149307  0.1875000000030838  0.3605200052333331   F   F   F
  0.7499999404149307  0.4374999701794380  0.3605200052333331   F   F   F
  0.7499999404149307  0.6874999999963620  0.3605200052333331   F   F   F
  0.7499999404149307  0.9375000000154046  0.3605200052333331   F   F   F
  0.2499999999799343  0.1875000000030838  0.3605200052333331   F   F   F
  0.2499999999799343  0.4374999701794380  0.3605200052333331   F   F   F
  0.2499999999799343  0.6874999999963620  0.3605200052333331   F   F   F
  0.2499999999799343  0.9375000000154046  0.3605200052333331   F   F   F
  0.5833333134730552  0.1875000000030838  0.3605200052333331   F   F   F
  0.5833333134730552  0.4374999701794380  0.3605200052333331   F   F   F
  0.5833333134730552  0.6874999999963620  0.3605200052333331   F   F   F
  0.5833333134730552  0.9375000000154046  0.3605200052333331   F   F   F
  0.9166666865332829  0.1875000000030838  0.3605200052333331   F   F   F
  0.9166666865332829  0.4374999701794380  0.3605200052333331   F   F   F
  0.9166666865332829  0.6874999999963620  0.3605200052333331   F   F   F
  0.9166666865332829  0.9375000000154046  0.3605200052333331   F   F   F
  0.0833333358191695  0.0625000000159659  0.3605200052333331   F   F   F
  0.0833333358191695  0.3124999999901945  0.3605200052333331   F   F   F
  0.0833333358191695  0.5625000000092442  0.3605200052333331   F   F   F
  0.0833333358191695  0.8124999999834799  0.3605200052333331   F   F   F
  0.4166666269218169  0.0625000000159659  0.3605200052333331   F   F   F
  0.4166666269218169  0.3124999999901945  0.3605200052333331   F   F   F
  0.4166666269218169  0.5625000000092442  0.3605200052333331   F   F   F
  0.4166666269218169  0.8124999999834799  0.3605200052333331   F   F   F
  0.7499999404149307  0.0625000000159659  0.3605200052333331   F   F   F
  0.7499999404149307  0.3124999999901945  0.3605200052333331   F   F   F
  0.7499999404149307  0.5625000000092442  0.3605200052333331   F   F   F
  0.7499999404149307  0.8124999999834799  0.3605200052333331   F   F   F
  0.2499999999799343  0.0625000000159659  0.3605200052333331   F   F   F
  0.2499999999799343  0.3124999999901945  0.3605200052333331   F   F   F
  0.2499999999799343  0.5625000000092442  0.3605200052333331   F   F   F
  0.2499999999799343  0.8124999999834799  0.3605200052333331   F   F   F
  0.5833333134730552  0.0625000000159659  0.3605200052333331   F   F   F
  0.5833333134730552  0.3124999999901945  0.3605200052333331   F   F   F
  0.5833333134730552  0.5625000000092442  0.3605200052333331   F   F   F
  0.5833333134730552  0.8124999999834799  0.3605200052333331   F   F   F
  0.9166666865332829  0.0625000000159659  0.3605200052333331   F   F   F
  0.9166666865332829  0.3124999999901945  0.3605200052333331   F   F   F
  0.9166666865332829  0.5625000000092442  0.3605200052333331   F   F   F
  0.9166666865332829  0.8124999999834799  0.3605200052333331   F   F   F
  0.0000000000000000  0.0000000000000000  0.4070133268666680   F   F   F
  0.0000000000000000  0.2500000000190425  0.4070133268666680   F   F   F
  0.0000000000000000  0.4999999999932783  0.4070133268666680   F   F   F
  0.0000000000000000  0.7500000000123208  0.4070133268666680   F   F   F
  0.3333333432766779  0.0000000000000000  0.4070133268666680   F   F   F
  0.3333333432766779  0.2500000000190425  0.4070133268666680   F   F   F
  0.3333333432766779  0.4999999999932783  0.4070133268666680   F   F   F
  0.3333333432766779  0.7500000000123208  0.4070133268666680   F   F   F
  0.6666666865533486  0.0000000000000000  0.4070133268666680   F   F   F
  0.6666666865533486  0.2500000000190425  0.4070133268666680   F   F   F
  0.6666666865533486  0.4999999999932783  0.4070133268666680   F   F   F
  0.6666666865533486  0.7500000000123208  0.4070133268666680   F   F   F
  0.1666666716383389  0.0000000000000000  0.4070133268666680   F   F   F
  0.1666666716383389  0.2500000000190425  0.4070133268666680   F   F   F
  0.1666666716383389  0.4999999999932783  0.4070133268666680   F   F   F
  0.1666666716383389  0.7500000000123208  0.4070133268666680   F   F   F
  0.5000000000021103  0.0000000000000000  0.4070133268666680   F   F   F
  0.5000000000021103  0.2500000000190425  0.4070133268666680   F   F   F
  0.5000000000021103  0.4999999999932783  0.4070133268666680   F   F   F
  0.5000000000021103  0.7500000000123208  0.4070133268666680   F   F   F
  0.8333332538436267  0.0000000000000000  0.4070133268666680   F   F   F
  0.8333332538436267  0.2500000000190425  0.4070133268666680   F   F   F
  0.8333332538436267  0.4999999999932783  0.4070133268666680   F   F   F
  0.8333332538436267  0.7500000000123208  0.4070133268666680   F   F   F
  0.0833333358191695  0.0626800064094713  0.4530146392226185   T   T   T
  0.0833333358191695  0.3126800063836999  0.4530146392226185   T   T   T
  0.0833333358191695  0.5626800064027496  0.4530146392226185   T   T   T
  0.0833333358191695  0.8126800063769853  0.4530146392226185   T   T   T
  0.4166666269218169  0.0626800064094713  0.4530146392226185   T   T   T
  0.4166666269218169  0.3126800063836999  0.4530146392226185   T   T   T
  0.4166666269218169  0.5626800064027496  0.4530146392226185   T   T   T
  0.4166666269218169  0.8126800063769853  0.4530146392226185   T   T   T
  0.7499999404149307  0.0626800064094713  0.4530146392226185   T   T   T
  0.7499999404149307  0.3126800063836999  0.4530146392226185   T   T   T
  0.7499999404149307  0.5626800064027496  0.4530146392226185   T   T   T
  0.7499999404149307  0.8126800063769853  0.4530146392226185   T   T   T
  0.2499999999799343  0.0626800064094713  0.4530146392226185   T   T   T
  0.2499999999799343  0.3126800063836999  0.4530146392226185   T   T   T
  0.2499999999799343  0.5626800064027496  0.4530146392226185   T   T   T
  0.2499999999799343  0.8126800063769853  0.4530146392226185   T   T   T
  0.5833333134730552  0.0626800064094713  0.4530146392226185   T   T   T
  0.5833333134730552  0.3126800063836999  0.4530146392226185   T   T   T
  0.5833333134730552  0.5626800064027496  0.4530146392226185   T   T   T
  0.5833333134730552  0.8126800063769853  0.4530146392226185   T   T   T
  0.9166666865332829  0.0626800064094713  0.4530146392226185   T   T   T
  0.9166666865332829  0.3126800063836999  0.4530146392226185   T   T   T
  0.9166666865332829  0.5626800064027496  0.4530146392226185   T   T   T
  0.9166666865332829  0.8126800063769853  0.4530146392226185   T   T   T
  0.0833333358191695  0.1873199936095783  0.4530146392226185   T   T   T
  0.0833333358191695  0.4373199637859326  0.4530146392226185   T   T   T
  0.0833333358191695  0.6873199936028495  0.4530146392226185   T   T   T
  0.0833333358191695  0.9373199936218920  0.4530146392226185   T   T   T
  0.4166666269218169  0.1873199936095783  0.4530146392226185   T   T   T
  0.4166666269218169  0.4373199637859326  0.4530146392226185   T   T   T
  0.4166666269218169  0.6873199936028495  0.4530146392226185   T   T   T
  0.4166666269218169  0.9373199936218920  0.4530146392226185   T   T   T
  0.7499999404149307  0.1873199936095783  0.4530146392226185   T   T   T
  0.7499999404149307  0.4373199637859326  0.4530146392226185   T   T   T
  0.7499999404149307  0.6873199936028495  0.4530146392226185   T   T   T
  0.7499999404149307  0.9373199936218920  0.4530146392226185   T   T   T
  0.2499999999799343  0.1873199936095783  0.4530146392226185   T   T   T
  0.2499999999799343  0.4373199637859326  0.4530146392226185   T   T   T
  0.2499999999799343  0.6873199936028495  0.4530146392226185   T   T   T
  0.2499999999799343  0.9373199936218920  0.4530146392226185   T   T   T
  0.5833333134730552  0.1873199936095783  0.4530146392226185   T   T   T
  0.5833333134730552  0.4373199637859326  0.4530146392226185   T   T   T
  0.5833333134730552  0.6873199936028495  0.4530146392226185   T   T   T
  0.5833333134730552  0.9373199936218920  0.4530146392226185   T   T   T
  0.9166666865332829  0.1873199936095783  0.4530146392226185   T   T   T
  0.9166666865332829  0.4373199637859326  0.4530146392226185   T   T   T
  0.9166666865332829  0.6873199936028495  0.4530146392226185   T   T   T
  0.9166666865332829  0.9373199936218920  0.4530146392226185   T   T   T
 -0.0000000000000000  0.1249999999871179  0.4977047388259866   T   T   T
 -0.0000000000000000  0.3750000000061604  0.4977047388259866   T   T   T
  0.0000000000000000  0.6249999999803961  0.4977047388259866   T   T   T
  0.3333333432766779  0.1249999999871179  0.4977047388259866   T   T   T
  0.0000000000000000  0.8749999404036828  0.4977047388259866   T   T   T
  0.3333333432766779  0.8749999404036828  0.4977047388259866   T   T   T
  0.6666666865533486  0.1249999999871179  0.4977047388259866   T   T   T
  0.3333333432766779  0.6249999999803961  0.4977047388259866   T   T   T
  0.3333333432766779  0.3750000000061604  0.4977047388259866   T   T   T
  0.6666666865533486  0.3750000000061604  0.4977047388259866   T   T   T
  0.6666666865533486  0.6249999999803961  0.4977047388259866   T   T   T
  0.1666666716383389  0.1249999999871179  0.4977047388259866   T   T   T
  0.6666666865533486  0.8749999404036828  0.4977047388259866   T   T   T
  0.1666666716383389  0.8749999404036828  0.4977047388259866   T   T   T
  0.1666666716383389  0.6249999999803961  0.4977047388259866   T   T   T
  0.1666666716383389  0.3750000000061604  0.4977047388259866   T   T   T
  0.8333332538436267  0.1249999999871179  0.4977047388259866   T   T   T
  0.8333332538436267  0.3750000000061604  0.4977047388259866   T   T   T
  0.8333332538436267  0.8749999404036828  0.4977047388259866   T   T   T
  0.8333332538436267  0.6249999999803961  0.4977047388259866   T   T   T
  0.5000000000021103  0.6249999999803961  0.4977047388259866   T   T   T
  0.5000000000021103  0.8749999404036828  0.4977047388259866   T   T   T
  0.5000000000021103  0.3750000000061604  0.4977047388259866   T   T   T
  0.5000000000021103  0.1249999999871179  0.4977047388259866   T   T   T
  0.0833333358191695  0.1881134498298409  0.5451915035134316   T   T   T
  0.0833333358191695  0.4381134200061951  0.5451915035134316   T   T   T
  0.0833333358191695  0.6881134498231192  0.5451915035134316   T   T   T
  0.4166666269218169  0.1881134498298409  0.5451915035134316   T   T   T
  0.0833333358191695  0.9381134498421617  0.5451915035134316   T   T   T
  0.4166666269218169  0.9381134498421617  0.5451915035134316   T   T   T
  0.7499999404149307  0.1881134498298409  0.5451915035134316   T   T   T
  0.4166666269218169  0.6881134498231192  0.5451915035134316   T   T   T
  0.4166666269218169  0.4381134200061951  0.5451915035134316   T   T   T
  0.7499999404149307  0.4381134200061951  0.5451915035134316   T   T   T
  0.7499999404149307  0.6881134498231192  0.5451915035134316   T   T   T
  0.7499999404149307  0.9381134498421617  0.5451915035134316   T   T   T
  0.2499999999799343  0.1881134498298409  0.5451915035134316   T   T   T
  0.2499999999799343  0.4381134200061951  0.5451915035134316   T   T   T
  0.2499999999799343  0.6881134498231192  0.5451915035134316   T   T   T
  0.2499999999799343  0.9381134498421617  0.5451915035134316   T   T   T
  0.5833333134730552  0.1881134498298409  0.5451915035134316   T   T   T
  0.5833333134730552  0.6881134498231192  0.5451915035134316   T   T   T
  0.5833333134730552  0.4381134200061951  0.5451915035134316   T   T   T
  0.9166666865332829  0.4381134200061951  0.5451915035134316   T   T   T
  0.9166666865332829  0.1881134498298409  0.5451915035134316   T   T   T
  0.5833333134730552  0.9381134498421617  0.5451915035134316   T   T   T
  0.9166666865332829  0.6881134498231192  0.5451915035134316   T   T   T
  0.9166666865332829  0.9381134498421617  0.5451915035134316   T   T   T
  0.0833333358191695  0.0618865501892087  0.5451915035134316   T   T   T
  0.0833333358191695  0.3118865501634374  0.5451915035134316   T   T   T
  0.0833333358191695  0.5618865501824870  0.5451915035134316   T   T   T
  0.0833333358191695  0.8118865501567227  0.5451915035134316   T   T   T
  0.4166666269218169  0.0618865501892087  0.5451915035134316   T   T   T
  0.4166666269218169  0.5618865501824870  0.5451915035134316   T   T   T
  0.4166666269218169  0.3118865501634374  0.5451915035134316   T   T   T
  0.7499999404149307  0.3118865501634374  0.5451915035134316   T   T   T
  0.7499999404149307  0.0618865501892087  0.5451915035134316   T   T   T
  0.4166666269218169  0.8118865501567227  0.5451915035134316   T   T   T
  0.7499999404149307  0.5618865501824870  0.5451915035134316   T   T   T
  0.7499999404149307  0.8118865501567227  0.5451915035134316   T   T   T
  0.2499999999799343  0.0618865501892087  0.5451915035134316   T   T   T
  0.2499999999799343  0.3118865501634374  0.5451915035134316   T   T   T
  0.2499999999799343  0.5618865501824870  0.5451915035134316   T   T   T
  0.2499999999799343  0.8118865501567227  0.5451915035134316   T   T   T
  0.5833333134730552  0.0618865501892087  0.5451915035134316   T   T   T
  0.5833333134730552  0.3118865501634374  0.5451915035134316   T   T   T
  0.5833333134730552  0.8118865501567227  0.5451915035134316   T   T   T
  0.5833333134730552  0.5618865501824870  0.5451915035134316   T   T   T
  0.9166666865332829  0.5618865501824870  0.5451915035134316   T   T   T
  0.9166666865332829  0.8118865501567227  0.5451915035134316   T   T   T
  0.9166666865332829  0.3118865501634374  0.5451915035134316   T   T   T
  0.9166666865332829  0.0618865501892087  0.5451915035134316   T   T   T
 -0.0000000000000000  0.4999999999932783  0.5906714634172113   T   T   T
  0.0000000000000000  0.7500000000123208  0.5906714634172113   T   T   T
  0.3333333432766779  0.2500000000190425  0.5906714634172113   T   T   T
  0.3333333432766779  0.0000000000000000  0.5906714634172113   T   T   T
  0.0000000000000000  0.0000000000000000  0.5906714634172113   T   T   T
  0.0000000000000000  0.2500000000190425  0.5906714634172113   T   T   T
  0.3333333432766779  0.4999999999932783  0.5906714634172113   T   T   T
  0.3333333432766779  0.7500000000123208  0.5906714634172113   T   T   T
  0.6666666865533486  0.2500000000190425  0.5906714634172113   T   T   T
  0.6666666865533486  0.0000000000000000  0.5906714634172113   T   T   T
  0.6666666865533486  0.7500000000123208  0.5906714634172113   T   T   T
  0.6666666865533486  0.4999999999932783  0.5906714634172113   T   T   T
  0.1666666716383389  0.0000000000000000  0.5906714634172113   T   T   T
  0.1666666716383389  0.2500000000190425  0.5906714634172113   T   T   T
  0.1666666716383389  0.7500000000123208  0.5906714634172113   T   T   T
  0.1666666716383389  0.4999999999932783  0.5906714634172113   T   T   T
  0.5000000000021103  0.4999999999932783  0.5906714634172113   T   T   T
  0.5000000000021103  0.2500000000190425  0.5906714634172113   T   T   T
  0.5000000000021103  0.0000000000000000  0.5906714634172113   T   T   T
  0.8333332538436267  0.7500000000123208  0.5906714634172113   T   T   T
  0.8333332538436267  0.2500000000190425  0.5906714634172113   T   T   T
  0.8333332538436267  0.4999999999932783  0.5906714634172113   T   T   T
  0.8333332538436267  0.0000000000000000  0.5906714634172113   T   T   T
  0.5000000000021103  0.7500000000123208  0.5906714634172113   T   T   T
  0.4166666269218169  0.0623354984492934  0.6396934981012455   T   T   T
  0.4166666269218169  0.3123354984235220  0.6396934981012455   T   T   T
  0.4166666269218169  0.8123354984168073  0.6396934981012455   T   T   T
  0.4166666269218169  0.5623354984425716  0.6396934981012455   T   T   T
  0.7499999404149307  0.5623354984425716  0.6396934981012455   T   T   T
  0.7499999404149307  0.8123354984168073  0.6396934981012455   T   T   T
  0.7499999404149307  0.3123354984235220  0.6396934981012455   T   T   T
  0.7499999404149307  0.0623354984492934  0.6396934981012455   T   T   T
  0.0833333358191695  0.3123354984235220  0.6396934981012455   T   T   T
  0.0833333358191695  0.5623354984425716  0.6396934981012455   T   T   T
  0.0833333358191695  0.8123354984168073  0.6396934981012455   T   T   T
  0.0833333358191695  0.0623354984492934  0.6396934981012455   T   T   T
  0.0833333358191695  0.4376644717461105  0.6396934981012455   T   T   T
  0.0833333358191695  0.1876645015697563  0.6396934981012455   T   T   T
  0.4166666269218169  0.1876645015697563  0.6396934981012455   T   T   T
  0.4166666269218169  0.4376644717461105  0.6396934981012455   T   T   T
  0.0833333358191695  0.9376645015820771  0.6396934981012455   T   T   T
  0.0833333358191695  0.6876645015630346  0.6396934981012455   T   T   T
  0.9166666865332829  0.4376644717461105  0.6396934981012455   T   T   T
  0.9166666865332829  0.6876645015630346  0.6396934981012455   T   T   T
  0.9166666865332829  0.9376645015820771  0.6396934981012455   T   T   T
  0.2499999999799343  0.4376644717461105  0.6396934981012455   T   T   T
  0.2499999999799343  0.6876645015630346  0.6396934981012455   T   T   T
  0.5833333134730552  0.1876645015697563  0.6396934981012455   T   T   T
  0.2499999999799343  0.9376645015820771  0.6396934981012455   T   T   T
  0.5833333134730552  0.9376645015820771  0.6396934981012455   T   T   T
  0.9166666865332829  0.1876645015697563  0.6396934981012455   T   T   T
  0.5833333134730552  0.6876645015630346  0.6396934981012455   T   T   T
  0.5833333134730552  0.4376644717461105  0.6396934981012455   T   T   T
  0.7499999404149307  0.6876645015630346  0.6396934981012455   T   T   T
  0.7499999404149307  0.9376645015820771  0.6396934981012455   T   T   T
  0.2499999999799343  0.1876645015697563  0.6396934981012455   T   T   T
  0.7499999404149307  0.1876645015697563  0.6396934981012455   T   T   T
  0.7499999404149307  0.4376644717461105  0.6396934981012455   T   T   T
  0.4166666269218169  0.9376645015820771  0.6396934981012455   T   T   T
  0.4166666269218169  0.6876645015630346  0.6396934981012455   T   T   T
  0.5833333134730552  0.8123354984168073  0.6396934981012455   T   T   T
  0.9166666865332829  0.0623354984492934  0.6396934981012455   T   T   T
  0.9166666865332829  0.5623354984425716  0.6396934981012455   T   T   T
  0.9166666865332829  0.3123354984235220  0.6396934981012455   T   T   T
  0.9166666865332829  0.8123354984168073  0.6396934981012455   T   T   T
  0.5833333134730552  0.0623354984492934  0.6396934981012455   T   T   T
  0.5833333134730552  0.3123354984235220  0.6396934981012455   T   T   T
  0.5833333134730552  0.5623354984425716  0.6396934981012455   T   T   T
  0.2499999999799343  0.5623354984425716  0.6396934981012455   T   T   T
  0.2499999999799343  0.8123354984168073  0.6396934981012455   T   T   T