Sr1 Ti1 O3                              
   1.00000000000000     
    23.6707801818999997    0.0000000000000000    0.0000000000000000
     0.0000000000000000   22.3170261383000010    0.0000000000000000
     0.0000000000000000    0.0000000000000000   30.0000000000000000
   Sr   Ti   O 
    72    72   264
Selective dynamics
Direct
  0.0000000000000000  0.1249999999871179  0.4070133268666680   F   F   F
  0.0000000000000000  0.3750000000061604  0.4070133268666680   F   F   F
  0.0000000000000000  0.6249999999803961  0.4070133268666680   F   F   F
  0.0000000000000000  0.8749999404036828  0.4070133268666680   F   F   F
  0.3333333432766779  0.1249999999871179  0.4070133268666680   F   F   F
  0.3333333432766779  0.3750000000061604  0.4070133268666680   F   F   F
  0.3333333432766779  0.6249999999803961  0.4070133268666680   F   F   F
  0.3333333432766779  0.8749999404036828  0.4070133268666680   F   F   F
  0.6666666865533486  0.1249999999871179  0.4070133268666680   F   F   F
  0.6666666865533486  0.3750000000061604  0.4070133268666680   F   F   F
  0.6666666865533486  0.6249999999803961  0.4070133268666680   F   F   F
  0.6666666865533486  0.8749999404036828  0.4070133268666680   F   F   F
  0.1666666716383389  0.1249999999871179  0.4070133268666680   F   F   F
  0.1666666716383389  0.3750000000061604  0.4070133268666680   F   F   F
  0.1666666716383389  0.6249999999803961  0.4070133268666680   F   F   F
  0.1666666716383389  0.8749999404036828  0.4070133268666680   F   F   F
  0.5000000000021103  0.1249999999871179  0.4070133268666680   F   F   F
  0.5000000000021103  0.3750000000061604  0.4070133268666680   F   F   F
  0.5000000000021103  0.6249999999803961  0.4070133268666680   F   F   F
  0.5000000000021103  0.8749999404036828  0.4070133268666680   F   F   F
  0.8333332538436267  0.1249999999871179  0.4070133268666680   F   F   F
  0.8333332538436267  0.3750000000061604  0.4070133268666680   F   F   F
  0.8333332538436267  0.6249999999803961  0.4070133268666680   F   F   F
  0.8333332538436267  0.8749999404036828  0.4070133268666680   F   F   F
 -0.0000000000000000 -0.0000000000000000  0.5041854926921053   T   T   T
  0.0000000000000000  0.2500000000190425  0.5041854926921053   T   T   T
 -0.0000000000000000  0.7500000000123208  0.5041854926921053   T   T   T
 -0.0000000000000000  0.4999999999932783  0.5041854926921053   T   T   T
  0.3333333432766779  0.4999999999932783  0.5041854926921053   T   T   T
  0.3333333432766779  0.2500000000190425  0.5041854926921053   T   T   T
  0.3333333432766779 -0.0000000000000000  0.5041854926921053   T   T   T
  0.3333333432766779  0.7500000000123208  0.5041854926921053   T   T   T
  0.6666666865533486 -0.0000000000000000  0.5041854926921053   T   T   T
  0.6666666865533486  0.4999999999932783  0.5041854926921053   T   T   T
  0.6666666865533486  0.2500000000190425  0.5041854926921053   T   T   T
  0.6666666865533486  0.7500000000123208  0.5041854926921053   T   T   T
  0.1666666716383389 -0.0000000000000000  0.5041854926921053   T   T   T
  0.1666666716383389  0.2500000000190425  0.5041854926921053   T   T   T
  0.1666666716383389  0.4999999999932783  0.5041854926921053   T   T   T
  0.5000000000021103 -0.0000000000000000  0.5041854926921053   T   T   T
  0.1666666716383389  0.7500000000123208  0.5041854926921053   T   T   T
  0.5000000000021103  0.7500000000123208  0.5041854926921053   T   T   T
  0.8333332538436267 -0.0000000000000000  0.5041854926921053   T   T   T
  0.5000000000021103  0.4999999999932783  0.5041854926921053   T   T   T
  0.5000000000021103  0.2500000000190425  0.5041854926921053   T   T   T
  0.8333332538436267  0.2500000000190425  0.5041854926921053   T   T   T
  0.8333332538436267  0.4999999999932783  0.5041854926921053   T   T   T
  0.8333332538436267  0.7500000000123208  0.5041854926921053   T   T   T
  0.0000000000000000  0.1249999999871179  0.6206010671956899   T   T   T
  0.0000000000000000  0.6249999999803961  0.6206010671956899   T   T   T
  0.0000000000000000  0.3750000000061604  0.6206010671956899   T   T   T
  0.6666666865533486  0.6249999999803961  0.6206010671956899   T   T   T
  0.6666666865533486  0.8749999404036828  0.6206010671956899   T   T   T
  0.1666666716383389  0.3750000000061604  0.6206010671956899   T   T   T
  0.1666666716383389  0.1249999999871179  0.6206010671956899   T   T   T
  0.5000000000021103  0.1249999999871179  0.6206010671956899   T   T   T
  0.5000000000021103  0.3750000000061604  0.6206010671956899   T   T   T
  0.1666666716383389  0.8749999404036828  0.6206010671956899   T   T   T
  0.1666666716383389  0.6249999999803961  0.6206010671956899   T   T   T
  0.3333333432766779  0.8749999404036828  0.6206010671956899   T   T   T
  0.6666666865533486  0.1249999999871179  0.6206010671956899   T   T   T
  0.6666666865533486  0.3750000000061604  0.6206010671956899   T   T   T
  0.3333333432766779  0.3750000000061604  0.6206010671956899   T   T   T
  0.3333333432766779  0.6249999999803961  0.6206010671956899   T   T   T
  0.3333333432766779  0.1249999999871179  0.6206010671956899   T   T   T
 -0.0000000000000000  0.8749999404036828  0.6206010671956899   T   T   T
  0.8333332538436267  0.6249999999803961  0.6206010671956899   T   T   T
  0.8333332538436267  0.8749999404036828  0.6206010671956899   T   T   T
  0.8333332538436267  0.1249999999871179  0.6206010671956899   T   T   T
  0.8333332538436267  0.3750000000061604  0.6206010671956899   T   T   T
  0.5000000000021103  0.8749999404036828  0.6206010671956899   T   T   T
  0.5000000000021103  0.6249999999803961  0.6206010671956899   T   T   T
  0.0833333358191695  0.0000000000000000  0.4070133268666680   F   F   F
  0.0833333358191695  0.2500000000190425  0.4070133268666680   F   F   F
  0.0833333358191695  0.4999999999932783  0.4070133268666680   F   F   F
  0.0833333358191695  0.7500000000123208  0.4070133268666680   F   F   F
  0.4166666269218169  0.0000000000000000  0.4070133268666680   F   F   F
  0.4166666269218169  0.2500000000190425  0.4070133268666680   F   F   F
  0.4166666269218169  0.4999999999932783  0.4070133268666680   F   F   F
  0.4166666269218169  0.7500000000123208  0.4070133268666680   F   F   F
  0.7499999404149307  0.0000000000000000  0.4070133268666680   F   F   F
  0.7499999404149307  0.2500000000190425  0.4070133268666680   F   F   F
  0.7499999404149307  0.4999999999932783  0.4070133268666680   F   F   F
  0.7499999404149307  0.7500000000123208  0.4070133268666680   F   F   F
  0.2499999999799343  0.0000000000000000  0.4070133268666680   F   F   F
  0.2499999999799343  0.2500000000190425  0.4070133268666680   F   F   F
  0.2499999999799343  0.4999999999932783  0.4070133268666680   F   F   F
  0.2499999999799343  0.7500000000123208  0.4070133268666680   F   F   F
  0.5833333134730552  0.0000000000000000  0.4070133268666680   F   F   F
  0.5833333134730552  0.2500000000190425  0.4070133268666680   F   F   F
  0.5833333134730552  0.4999999999932783  0.4070133268666680   F   F   F
  0.5833333134730552  0.7500000000123208  0.4070133268666680   F   F   F
  0.9166666865332829  0.0000000000000000  0.4070133268666680   F   F   F
  0.9166666865332829  0.2500000000190425  0.4070133268666680   F   F   F
  0.9166666865332829  0.4999999999932783  0.4070133268666680   F   F   F
  0.9166666865332829  0.7500000000123208  0.4070133268666680   F   F   F
  0.0833333358191695  0.1249999999871179  0.5054324410262648   T   T   T
  0.0833333358191695  0.3750000000061604  0.5054324410262648   T   T   T
  0.0833333358191695  0.8749999404036828  0.5054324410262648   T   T   T
  0.0833333358191695  0.6249999999803961  0.5054324410262648   T   T   T
  0.4166666269218169  0.6249999999803961  0.5054324410262648   T   T   T
  0.4166666269218169  0.3750000000061604  0.5054324410262648   T   T   T
  0.4166666269218169  0.1249999999871179  0.5054324410262648   T   T   T
  0.7499999404149307  0.8749999404036828  0.5054324410262648   T   T   T
  0.2499999999799343  0.1249999999871179  0.5054324410262648   T   T   T
  0.2499999999799343  0.6249999999803961  0.5054324410262648   T   T   T
  0.2499999999799343  0.3750000000061604  0.5054324410262648   T   T   T
  0.7499999404149307  0.3750000000061604  0.5054324410262648   T   T   T
  0.7499999404149307  0.6249999999803961  0.5054324410262648   T   T   T
  0.7499999404149307  0.1249999999871179  0.5054324410262648   T   T   T
  0.4166666269218169  0.8749999404036828  0.5054324410262648   T   T   T
  0.2499999999799343  0.8749999404036828  0.5054324410262648   T   T   T
  0.5833333134730552  0.1249999999871179  0.5054324410262648   T   T   T
  0.5833333134730552  0.6249999999803961  0.5054324410262648   T   T   T
  0.5833333134730552  0.3750000000061604  0.5054324410262648   T   T   T
  0.9166666865332829  0.3750000000061604  0.5054324410262648   T   T   T
  0.9166666865332829  0.1249999999871179  0.5054324410262648   T   T   T
  0.5833333134730552  0.8749999404036828  0.5054324410262648   T   T   T
  0.9166666865332829  0.6249999999803961  0.5054324410262648   T   T   T
  0.9166666865332829  0.8749999404036828  0.5054324410262648   T   T   T
  0.0833333358191695 -0.0000000000000000  0.6015233957016869   T   T   T
  0.0833333358191695  0.7500000000123208  0.6015233957016869   T   T   T
  0.0833333358191695  0.4999999999932783  0.6015233957016869   T   T   T
  0.0833333358191695  0.2500000000190425  0.6015233957016869   T   T   T
  0.7499999404149307 -0.0000000000000000  0.6015233957016869   T   T   T
  0.7499999404149307  0.2500000000190425  0.6015233957016869   T   T   T
  0.7499999404149307  0.7500000000123208  0.6015233957016869   T   T   T
  0.7499999404149307  0.4999999999932783  0.6015233957016869   T   T   T
  0.4166666269218169  0.4999999999932783  0.6015233957016869   T   T   T
  0.4166666269218169  0.7500000000123208  0.6015233957016869   T   T   T
  0.4166666269218169  0.2500000000190425  0.6015233957016869   T   T   T
  0.4166666269218169 -0.0000000000000000  0.6015233957016869   T   T   T
  0.2499999999799343  0.2500000000190425  0.6015233957016869   T   T   T
  0.2499999999799343 -0.0000000000000000  0.6015233957016869   T   T   T
  0.5833333134730552 -0.0000000000000000  0.6015233957016869   T   T   T
  0.5833333134730552  0.2500000000190425  0.6015233957016869   T   T   T
  0.2499999999799343  0.7500000000123208  0.6015233957016869   T   T   T
  0.2499999999799343  0.4999999999932783  0.6015233957016869   T   T   T
  0.5833333134730552  0.4999999999932783  0.6015233957016869   T   T   T
  0.5833333134730552  0.7500000000123208  0.6015233957016869   T   T   T
  0.9166666865332829  0.2500000000190425  0.6015233957016869   T   T   T
  0.9166666865332829 -0.0000000000000000  0.6015233957016869   T   T   T
  0.9166666865332829  0.7500000000123208  0.6015233957016869   T   T   T
  0.9166666865332829  0.4999999999932783  0.6015233957016869   T   T   T
  0.0833333358191695  0.1875000000030838  0.3605200052333331   F   F   F
  0.0833333358191695  0.4374999701794380  0.3605200052333331   F   F   F
  0.0833333358191695  0.6874999999963620  0.3605200052333331   F   F   F
  0.0833333358191695  0.9375000000154046  0.3605200052333331   F   F   F
  0.4166666269218169  0.1875000000030838  0.3605200052333331   F   F   F
  0.4166666269218169  0.4374999701794380  0.3605200052333331   F   F   F
  0.4166666269218169  0.6874999999963620  0.3605200052333331   F   F   F
  0.4166666269218169  0.9375000000154046  0.3605200052333331   F   F   F
  0.7499999404149307  0.1875000000030838  0.3605200052333331   F   F   F
  0.7499999404149307  0.4374999701794380  0.3605200052333331   F   F   F
  0.7499999404149307  0.6874999999963620  0.3605200052333331   F   F   F
  0.7499999404149307  0.9375000000154046  0.3605200052333331   F   F   F
  0.2499999999799343  0.1875000000030838  0.3605200052333331   F   F   F
  0.2499999999799343  0.4374999701794380  0.3605200052333331   F   F   F
  0.2499999999799343  0.6874999999963620  0.3605200052333331   F   F   F
  0.2499999999799343  0.9375000000154046  0.3605200052333331   F   F   F
  0.5833333134730552  0.1875000000030838  0.3605200052333331   F   F   F
  0.5833333134730552  0.4374999701794380  0.3605200052333331   F   F   F
  0.5833333134730552  0.6874999999963620  0.3605200052333331   F   F   F
  0.5833333134730552  0.9375000000154046  0.3605200052333331   F   F   F
  0.9166666865332829  0.1875000000030838  0.3605200052333331   F   F   F
  0.9166666865332829  0.4374999701794380  0.3605200052333331   F   F   F
  0.9166666865332829  0.6874999999963620  0.3605200052333331   F   F   F
  0.9166666865332829  0.9375000000154046  0.3605200052333331   F   F   F
  0.0833333358191695  0.0625000000159659  0.3605200052333331   F   F   F
  0.0833333358191695  0.3124999999901945  0.3605200052333331   F   F   F
  0.0833333358191695  0.5625000000092442  0.3605200052333331   F   F   F
  0.0833333358191695  0.8124999999834799  0.3605200052333331   F   F   F
  0.4166666269218169  0.0625000000159659  0.3605200052333331   F   F   F
  0.4166666269218169  0.3124999999901945  0.3605200052333331   F   F   F
  0.4166666269218169  0.5625000000092442  0.3605200052333331   F   F   F
  0.4166666269218169  0.8124999999834799  0.3605200052333331   F   F   F
  0.7499999404149307  0.0625000000159659  0.3605200052333331   F   F   F
  0.7499999404149307  0.3124999999901945  0.3605200052333331   F   F   F
  0.7499999404149307  0.5625000000092442  0.3605200052333331   F   F   F
  0.7499999404149307  0.8124999999834799  0.3605200052333331   F   F   F
  0.2499999999799343  0.0625000000159659  0.3605200052333331   F   F   F
  0.2499999999799343  0.3124999999901945  0.3605200052333331   F   F   F
  0.2499999999799343  0.5625000000092442  0.3605200052333331   F   F   F
  0.2499999999799343  0.8124999999834799  0.3605200052333331   F   F   F
  0.5833333134730552  0.0625000000159659  0.3605200052333331   F   F   F
  0.5833333134730552  0.3124999999901945  0.3605200052333331   F   F   F
  0.5833333134730552  0.5625000000092442  0.3605200052333331   F   F   F
  0.5833333134730552  0.8124999999834799  0.3605200052333331   F   F   F
  0.9166666865332829  0.0625000000159659  0.3605200052333331   F   F   F
  0.9166666865332829  0.3124999999901945  0.3605200052333331   F   F   F
  0.9166666865332829  0.5625000000092442  0.3605200052333331   F   F   F
  0.9166666865332829  0.8124999999834799  0.3605200052333331   F   F   F
  0.0000000000000000  0.0000000000000000  0.4070133268666680   F   F   F
  0.0000000000000000  0.2500000000190425  0.4070133268666680   F   F   F
  0.0000000000000000  0.4999999999932783  0.4070133268666680   F   F   F
  0.0000000000000000  0.7500000000123208  0.4070133268666680   F   F   F
  0.3333333432766779  0.0000000000000000  0.4070133268666680   F   F   F
  0.3333333432766779  0.2500000000190425  0.4070133268666680   F   F   F
  0.3333333432766779  0.4999999999932783  0.4070133268666680   F   F   F
  0.3333333432766779  0.7500000000123208  0.4070133268666680   F   F   F
  0.6666666865533486  0.0000000000000000  0.4070133268666680   F   F   F
  0.6666666865533486  0.2500000000190425  0.4070133268666680   F   F   F
  0.6666666865533486  0.4999999999932783  0.4070133268666680   F   F   F
  0.6666666865533486  0.7500000000123208  0.4070133268666680   F   F   F
  0.1666666716383389  0.0000000000000000  0.4070133268666680   F   F   F
  0.1666666716383389  0.2500000000190425  0.4070133268666680   F   F   F
  0.1666666716383389  0.4999999999932783  0.4070133268666680   F   F   F
  0.1666666716383389  0.7500000000123208  0.4070133268666680   F   F   F
  0.5000000000021103  0.0000000000000000  0.4070133268666680   F   F   F
  0.5000000000021103  0.2500000000190425  0.4070133268666680   F   F   F
  0.5000000000021103  0.4999999999932783  0.4070133268666680   F   F   F
  0.5000000000021103  0.7500000000123208  0.4070133268666680   F   F   F
  0.8333332538436267  0.0000000000000000  0.4070133268666680   F   F   F
  0.8333332538436267  0.2500000000190425  0.4070133268666680   F   F   F
  0.8333332538436267  0.4999999999932783  0.4070133268666680   F   F   F
  0.8333332538436267  0.7500000000123208  0.4070133268666680   F   F   F
  0.0833333358191695  0.0626132570213555  0.4529079434181723   T   T   T
  0.0833333358191695  0.3126132569955842  0.4529079434181723   T   T   T
  0.0833333358191695  0.5626132570146338  0.4529079434181723   T   T   T
  0.0833333358191695  0.8126132569888695  0.4529079434181723   T   T   T
  0.4166666269218169  0.0626132570213555  0.4529079434181723   T   T   T
  0.4166666269218169  0.3126132569955842  0.4529079434181723   T   T   T
  0.4166666269218169  0.5626132570146338  0.4529079434181723   T   T   T
  0.4166666269218169  0.8126132569888695  0.4529079434181723   T   T   T
  0.7499999404149307  0.0626132570213555  0.4529079434181723   T   T   T
  0.7499999404149307  0.3126132569955842  0.4529079434181723   T   T   T
  0.7499999404149307  0.5626132570146338  0.4529079434181723   T   T   T
  0.7499999404149307  0.8126132569888695  0.4529079434181723   T   T   T
  0.2499999999799343  0.0626132570213555  0.4529079434181723   T   T   T
  0.2499999999799343  0.3126132569955842  0.4529079434181723   T   T   T
  0.2499999999799343  0.5626132570146338  0.4529079434181723   T   T   T
  0.2499999999799343  0.8126132569888695  0.4529079434181723   T   T   T
  0.5833333134730552  0.0626132570213555  0.4529079434181723   T   T   T
  0.5833333134730552  0.3126132569955842  0.4529079434181723   T   T   T
  0.5833333134730552  0.5626132570146338  0.4529079434181723   T   T   T
  0.5833333134730552  0.8126132569888695  0.4529079434181723   T   T   T
  0.9166666865332829  0.0626132570213555  0.4529079434181723   T   T   T
  0.9166666865332829  0.3126132569955842  0.4529079434181723   T   T   T
  0.9166666865332829  0.5626132570146338  0.4529079434181723   T   T   T
  0.9166666865332829  0.8126132569888695  0.4529079434181723   T   T   T
  0.0833333358191695  0.1873867429976941  0.4529079434181723   T   T   T
  0.0833333358191695  0.4373867131740483  0.4529079434181723   T   T   T
  0.0833333358191695  0.6873867429909652  0.4529079434181723   T   T   T
  0.0833333358191695  0.9373867430100078  0.4529079434181723   T   T   T
  0.4166666269218169  0.1873867429976941  0.4529079434181723   T   T   T
  0.4166666269218169  0.4373867131740483  0.4529079434181723   T   T   T
  0.4166666269218169  0.6873867429909652  0.4529079434181723   T   T   T
  0.4166666269218169  0.9373867430100078  0.4529079434181723   T   T   T
  0.7499999404149307  0.1873867429976941  0.4529079434181723   T   T   T
  0.7499999404149307  0.4373867131740483  0.4529079434181723   T   T   T
  0.7499999404149307  0.6873867429909652  0.4529079434181723   T   T   T
  0.7499999404149307  0.9373867430100078  0.4529079434181723   T   T   T
  0.2499999999799343  0.1873867429976941  0.4529079434181723   T   T   T
  0.2499999999799343  0.4373867131740483  0.4529079434181723   T   T   T
  0.2499999999799343  0.6873867429909652  0.4529079434181723   T   T   T
  0.2499999999799343  0.9373867430100078  0.4529079434181723   T   T   T
  0.5833333134730552  0.1873867429976941  0.4529079434181723   T   T   T
  0.5833333134730552  0.4373867131740483  0.4529079434181723   T   T   T
  0.5833333134730552  0.6873867429909652  0.4529079434181723   T   T   T
  0.5833333134730552  0.9373867430100078  0.4529079434181723   T   T   T
  0.9166666865332829  0.1873867429976941  0.4529079434181723   T   T   T
  0.9166666865332829  0.4373867131740483  0.4529079434181723   T   T   T
  0.9166666865332829  0.6873867429909652  0.4529079434181723   T   T   T
  0.9166666865332829  0.9373867430100078  0.4529079434181723   T   T   T
 -0.0000000000000000  0.1249999999871179  0.4975266849225500   T   T   T
 -0.0000000000000000  0.3750000000061604  0.4975266849225500   T   T   T
 -0.0000000000000000  0.6249999999803961  0.4975266849225500   T   T   T
  0.3333333432766779  0.1249999999871179  0.4975266849225500   T   T   T
  0.0000000000000000  0.8749999404036828  0.4975266849225500   T   T   T
  0.3333333432766779  0.8749999404036828  0.4975266849225500   T   T   T
  0.6666666865533486  0.1249999999871179  0.4975266849225500   T   T   T
  0.3333333432766779  0.6249999999803961  0.4975266849225500   T   T   T
  0.3333333432766779  0.3750000000061604  0.4975266849225500   T   T   T
  0.6666666865533486  0.3750000000061604  0.4975266849225500   T   T   T
  0.6666666865533486  0.6249999999803961  0.4975266849225500   T   T   T
  0.1666666716383389  0.1249999999871179  0.4975266849225500   T   T   T
  0.6666666865533486  0.8749999404036828  0.4975266849225500   T   T   T
  0.1666666716383389  0.8749999404036828  0.4975266849225500   T   T   T
  0.1666666716383389  0.6249999999803961  0.4975266849225500   T   T   T
  0.1666666716383389  0.3750000000061604  0.4975266849225500   T   T   T
  0.8333332538436267  0.1249999999871179  0.4975266849225500   T   T   T
  0.8333332538436267  0.3750000000061604  0.4975266849225500   T   T   T
  0.8333332538436267  0.8749999404036828  0.4975266849225500   T   T   T
  0.8333332538436267  0.6249999999803961  0.4975266849225500   T   T   T
  0.5000000000021103  0.6249999999803961  0.4975266849225500   T   T   T
  0.5000000000021103  0.8749999404036828  0.4975266849225500   T   T   T
  0.5000000000021103  0.3750000000061604  0.4975266849225500   T   T   T
  0.5000000000021103  0.1249999999871179  0.4975266849225500   T   T   T
  0.0833333358191695  0.1881936760631444  0.5451308012565798   T   T   T
  0.0833333358191695  0.4381936462394986  0.5451308012565798   T   T   T
  0.0833333358191695  0.6881936760564226  0.5451308012565798   T   T   T
  0.4166666269218169  0.1881936760631444  0.5451308012565798   T   T   T
  0.0833333358191695  0.9381936760754651  0.5451308012565798   T   T   T
  0.4166666269218169  0.9381936760754651  0.5451308012565798   T   T   T
  0.7499999404149307  0.1881936760631444  0.5451308012565798   T   T   T
  0.4166666269218169  0.6881936760564226  0.5451308012565798   T   T   T
  0.4166666269218169  0.4381936462394986  0.5451308012565798   T   T   T
  0.7499999404149307  0.4381936462394986  0.5451308012565798   T   T   T
  0.7499999404149307  0.6881936760564226  0.5451308012565798   T   T   T
  0.7499999404149307  0.9381936760754651  0.5451308012565798   T   T   T
  0.2499999999799343  0.1881936760631444  0.5451308012565798   T   T   T
  0.2499999999799343  0.4381936462394986  0.5451308012565798   T   T   T
  0.2499999999799343  0.6881936760564226  0.5451308012565798   T   T   T
  0.2499999999799343  0.9381936760754651  0.5451308012565798   T   T   T
  0.5833333134730552  0.1881936760631444  0.5451308012565798   T   T   T
  0.5833333134730552  0.6881936760564226  0.5451308012565798   T   T   T
  0.5833333134730552  0.4381936462394986  0.5451308012565798   T   T   T
  0.9166666865332829  0.4381936462394986  0.5451308012565798   T   T   T
  0.9166666865332829  0.1881936760631444  0.5451308012565798   T   T   T
  0.5833333134730552  0.9381936760754651  0.5451308012565798   T   T   T
  0.9166666865332829  0.6881936760564226  0.5451308012565798   T   T   T
  0.9166666865332829  0.9381936760754651  0.5451308012565798   T   T   T
  0.0833333358191695  0.0618063239559052  0.5451308012565798   T   T   T
  0.0833333358191695  0.3118063239301339  0.5451308012565798   T   T   T
  0.0833333358191695  0.5618063239491836  0.5451308012565798   T   T   T
  0.0833333358191695  0.8118063239234193  0.5451308012565798   T   T   T
  0.4166666269218169  0.0618063239559052  0.5451308012565798   T   T   T
  0.4166666269218169  0.5618063239491836  0.5451308012565798   T   T   T
  0.4166666269218169  0.3118063239301339  0.5451308012565798   T   T   T
  0.7499999404149307  0.3118063239301339  0.5451308012565798   T   T   T
  0.7499999404149307  0.0618063239559052  0.5451308012565798   T   T   T
  0.4166666269218169  0.8118063239234193  0.5451308012565798   T   T   T
  0.7499999404149307  0.5618063239491836  0.5451308012565798   T   T   T
  0.7499999404149307  0.8118063239234193  0.5451308012565798   T   T   T
  0.2499999999799343  0.0618063239559052  0.5451308012565798   T   T   T
  0.2499999999799343  0.3118063239301339  0.5451308012565798   T   T   T
  0.2499999999799343  0.5618063239491836  0.5451308012565798   T   T   T
  0.2499999999799343  0.8118063239234193  0.5451308012565798   T   T   T
  0.5833333134730552  0.0618063239559052  0.5451308012565798   T   T   T
  0.5833333134730552  0.3118063239301339  0.5451308012565798   T   T   T
  0.5833333134730552  0.8118063239234193  0.5451308012565798   T   T   T
  0.5833333134730552  0.5618063239491836  0.5451308012565798   T   T   T
  0.9166666865332829  0.5618063239491836  0.5451308012565798   T   T   T
  0.9166666865332829  0.8118063239234193  0.5451308012565798   T   T   T
  0.9166666865332829  0.3118063239301339  0.5451308012565798   T   T   T
  0.9166666865332829  0.0618063239559052  0.5451308012565798   T   T   T
 -0.0000000000000000  0.4999999999932783  0.5905747208274715   T   T   T
 -0.0000000000000000  0.7500000000123208  0.5905747208274715   T   T   T
  0.3333333432766779  0.2500000000190425  0.5905747208274715   T   T   T
  0.3333333432766779 -0.0000000000000000  0.5905747208274715   T   T   T
  0.0000000000000000 -0.0000000000000000  0.5905747208274715   T   T   T
  0.0000000000000000  0.2500000000190425  0.5905747208274715   T   T   T
  0.3333333432766779  0.4999999999932783  0.5905747208274715   T   T   T
  0.3333333432766779  0.7500000000123208  0.5905747208274715   T   T   T
  0.6666666865533486  0.2500000000190425  0.5905747208274715   T   T   T
  0.6666666865533486 -0.0000000000000000  0.5905747208274715   T   T   T
  0.6666666865533486  0.7500000000123208  0.5905747208274715   T   T   T
  0.6666666865533486  0.4999999999932783  0.5905747208274715   T   T   T
  0.1666666716383389 -0.0000000000000000  0.5905747208274715   T   T   T
  0.1666666716383389  0.2500000000190425  0.5905747208274715   T   T   T
  0.1666666716383389  0.7500000000123208  0.5905747208274715   T   T   T
  0.1666666716383389  0.4999999999932783  0.5905747208274715   T   T   T
  0.5000000000021103  0.4999999999932783  0.5905747208274715   T   T   T
  0.5000000000021103  0.2500000000190425  0.5905747208274715   T   T   T
  0.5000000000021103 -0.0000000000000000  0.5905747208274715   T   T   T
  0.8333332538436267  0.7500000000123208  0.5905747208274715   T   T   T
  0.8333332538436267  0.2500000000190425  0.5905747208274715   T   T   T
  0.8333332538436267  0.4999999999932783  0.5905747208274715   T   T   T
  0.8333332538436267 -0.0000000000000000  0.5905747208274715   T   T   T
  0.5000000000021103  0.7500000000123208  0.5905747208274715   T   T   T
  0.4166666269218169  0.0622727501901562  0.6397255295513418   T   T   T
  0.4166666269218169  0.3122727501643848  0.6397255295513418   T   T   T
  0.4166666269218169  0.8122727501576703  0.6397255295513418   T   T   T
  0.4166666269218169  0.5622727501834346  0.6397255295513418   T   T   T
  0.7499999404149307  0.5622727501834346  0.6397255295513418   T   T   T
  0.7499999404149307  0.8122727501576703  0.6397255295513418   T   T   T
  0.7499999404149307  0.3122727501643848  0.6397255295513418   T   T   T
  0.7499999404149307  0.0622727501901562  0.6397255295513418   T   T   T
  0.0833333358191695  0.3122727501643848  0.6397255295513418   T   T   T
  0.0833333358191695  0.5622727501834346  0.6397255295513418   T   T   T
  0.0833333358191695  0.8122727501576703  0.6397255295513418   T   T   T
  0.0833333358191695  0.0622727501901562  0.6397255295513418   T   T   T
  0.0833333358191695  0.4377272200052477  0.6397255295513418   T   T   T
  0.0833333358191695  0.1877272498288935  0.6397255295513418   T   T   T
  0.4166666269218169  0.1877272498288935  0.6397255295513418   T   T   T
  0.4166666269218169  0.4377272200052477  0.6397255295513418   T   T   T
  0.0833333358191695  0.9377272498412141  0.6397255295513418   T   T   T
  0.0833333358191695  0.6877272498221716  0.6397255295513418   T   T   T
  0.9166666865332829  0.4377272200052477  0.6397255295513418   T   T   T
  0.9166666865332829  0.6877272498221716  0.6397255295513418   T   T   T
  0.9166666865332829  0.9377272498412141  0.6397255295513418   T   T   T
  0.2499999999799343  0.4377272200052477  0.6397255295513418   T   T   T
  0.2499999999799343  0.6877272498221716  0.6397255295513418   T   T   T
  0.5833333134730552  0.1877272498288935  0.6397255295513418   T   T   T
  0.2499999999799343  0.9377272498412141  0.6397255295513418   T   T   T
  0.5833333134730552  0.9377272498412141  0.6397255295513418   T   T   T
  0.9166666865332829  0.1877272498288935  0.6397255295513418   T   T   T
  0.5833333134730552  0.6877272498221716  0.6397255295513418   T   T   T
  0.5833333134730552  0.4377272200052477  0.6397255295513418   T   T   T
  0.7499999404149307  0.6877272498221716  0.6397255295513418   T   T   T
  0.7499999404149307  0.9377272498412141  0.6397255295513418   T   T   T
  0.2499999999799343  0.1877272498288935  0.6397255295513418   T   T   T
  0.7499999404149307  0.1877272498288935  0.6397255295513418   T   T   T
  0.7499999404149307  0.4377272200052477  0.6397255295513418   T   T   T
  0.4166666269218169  0.9377272498412141  0.6397255295513418   T   T   T
  0.4166666269218169  0.6877272498221716  0.6397255295513418   T   T   T
  0.5833333134730552  0.8122727501576703  0.6397255295513418   T   T   T
  0.9166666865332829  0.0622727501901562  0.6397255295513418   T   T   T
  0.9166666865332829  0.5622727501834346  0.6397255295513418   T   T   T
  0.9166666865332829  0.3122727501643848  0.6397255295513418   T   T   T
  0.9166666865332829  0.8122727501576703  0.6397255295513418   T   T   T
  0.5833333134730552  0.0622727501901562  0.6397255295513418   T   T   T
  0.5833333134730552  0.3122727501643848  0.6397255295513418   T   T   T
  0.5833333134730552  0.5622727501834346  0.6397255295513418   T   T   T
  0.2499999999799343  0.5622727501834346  0.6397255295513418   T   T   T
  0.2499999999799343  0.8122727501576703  0.6397255295513418   T   T   T