Au  C  H  O Sr Ti                       
   1.00000000000000     
    23.6707801818999997    0.0000000000000000    0.0000000000000000
     0.0000000000000000   22.3170261383000010    0.0000000000000000
     0.0000000000000000    0.0000000000000000   30.0000000000000000
   Au   C    H    O    Sr   Ti
    50     3     5   265    72    72
Selective dynamics
Direct
  0.7160311850330641  0.5239697295363941  0.7527241389228277   T   T   T
  0.5543613359377222  0.2126756544466182  0.7098559970394429   T   T   T
  0.7182175244788380  0.2550667577201221  0.6914805618627756   T   T   T
  0.2939317770677244  0.7464639144373532  0.6968797607406236   T   T   T
  0.5118815730911268  0.6035238741731246  0.7767918505314272   T   T   T
  0.5783763539431805  0.7256339773946379  0.7939405731953971   T   T   T
  0.2405425754925129  0.4695025304994037  0.7091169885574563   T   T   T
  0.2856314131311627  0.6623806986245128  0.7646266096660900   T   T   T
  0.6027354583837302  0.2831438052796409  0.7835556032382130   T   T   T
  0.5144258724878226  0.4845339185993928  0.6780514790561958   T   T   T
  0.5631606571097507  0.4855862158106434  0.7623809004671529   T   T   T
  0.2895258025492236  0.5381612890892687  0.7774769050247100   T   T   T
  0.5491037947558044  0.3809353352319573  0.8263839088890811   T   T   T
  0.3917062705688460  0.8170358816728002  0.7066895289445798   T   T   T
  0.4639323596796160  0.6950532526755798  0.8308984721250644   T   T   T
  0.4383091035853882  0.2282848092597618  0.6975692828049725   T   T   T
  0.3699084392997342  0.2986579374080454  0.7553723543411328   T   T   T
  0.3496174386081254  0.4995211755377698  0.6977914928744315   T   T   T
  0.4280990270626736  0.3710512177583792  0.8154431331712082   T   T   T
  0.5963937791476289  0.7845815143985511  0.7130842230823247   T   T   T
  0.6353227636850832  0.5837672263810681  0.7997452374688747   T   T   T
  0.7326737947211001  0.6145055590160206  0.6940783245800054   T   T   T
  0.4856913070346739  0.7764081741717418  0.7554400069808258   T   T   T
  0.7632451322618110  0.4294293301261052  0.7038342000833216   T   T   T
  0.4859495010539407  0.2705420383596061  0.7749620183184571   T   T   T
  0.6210927053722980  0.5709225649880838  0.7042118615258885   T   T   T
  0.4632536417068798  0.5724385275463526  0.8643197235901450   T   T   T
  0.7064220199288251  0.7568918529604414  0.6883592483335658   T   T   T
  0.6559706135412540  0.4403231497669530  0.8125373925935286   T   T   T
  0.3687658913316612  0.6188473849907280  0.8205394883693136   T   T   T
  0.5706941184587518  0.5089332245421174  0.8561965265305231   T   T   T
  0.6637461509719634  0.1801906333702622  0.7463350674739468   T   T   T
  0.4723577768773222  0.4491289637458129  0.8774643861602035   T   T   T
  0.5172156673447027  0.3772914636763773  0.7317841458591998   T   T   T
  0.2819150186210176  0.3399969372629658  0.7023178891274643   T   T   T
  0.4522815040230035  0.5797055095510129  0.7027661958139425   T   T   T
  0.3975874729964792  0.3817129102145191  0.6903735304772112   T   T   T
  0.6161112188621723  0.3210268762968200  0.6959655206233654   T   T   T
  0.6693871103974189  0.6812113557655506  0.7487791908789287   T   T   T
  0.3253189893716673  0.4148116878593815  0.7692873930945737   T   T   T
  0.3745411623695007  0.7394473336294753  0.7791191871441568   T   T   T
  0.3756534748866349  0.4930419304500110  0.8328316655803145   T   T   T
  0.5404685168313869  0.6678049026326470  0.7015216557467471   T   T   T
  0.5648195644640293  0.6389663291319326  0.8608119497701122   T   T   T
  0.4440788213600623  0.4738220016581617  0.7565369611870698   T   T   T
  0.2569034342982573  0.5929897970409637  0.6946167019067271   T   T   T
  0.7739856284144613  0.4277242240850272  0.7938932990529053   T   T   T
  0.6996696782283780  0.3437758125502998  0.7569537913213281   T   T   T
  0.4173021722660328  0.6960919639276010  0.6996472235395678   T   T   T
  0.6484178724308930  0.4455229408523114  0.6945319633204184   T   T   T
  0.6449936925502432  0.0385052346354477  0.7623897299010389   T   T   T
  0.7280913671737468  0.1142537797943955  0.7516405278132520   T   T   T
  0.7075152426999590  0.0494644672298183  0.7529872057014884   T   T   T
  0.6181686663475524  0.0532652720589083  0.7348624610681289   T   T   T
  0.6313893016228518  0.0602315693061513  0.7932985827127573   T   T   T
  0.6382669784906682  0.9903772294818912  0.7663950048721337   T   T   T
  0.7347216543112851  0.0284253875610229  0.7780828004006202   T   T   T
  0.7199316108175832  0.0314034945288118  0.7203254535935757   T   T   T
  0.5834768938148774  0.0626788446257551  0.5461593966825182   T   T   T
  0.4164195992153674  0.4354414195010041  0.4538333883118403   T   T   T
  0.0845631052150432  0.6869065272567269  0.4530617789462965   T   T   T
  0.0838903949559394  0.9366725898802014  0.4534847170104170   T   T   T
  0.0827340292013385  0.4367391744171542  0.4528151157127151   T   T   T
  0.0838670209507685  0.1865834596267000  0.4529779732445334   T   T   T
  0.9165782920558277  0.8121299194745333  0.4540645161757258   T   T   T
  0.0833333358191695  0.3124999999901945  0.3605200052333331   F   F   F
  0.9162023279543963  0.5623141912377955  0.4539524049288360   T   T   T
  0.5824543744846634  0.3111600370328510  0.5448990798723921   T   T   T
  0.9161094288740325  0.3121583010547801  0.4539068047711978   T   T   T
  0.4171862865603528  0.1871097337377100  0.4535551713148336   T   T   T
  0.2520724577741283  0.6876481332061649  0.4560841689449461   T   T   T
  0.9164437268185801  0.9371053324021015  0.4536432627782218   T   T   T
  0.5826710612986982  0.1902329257505828  0.4555125384536342   T   T   T
  0.0000323934008321  0.1250551022314679  0.4983982519261583   T   T   T
  0.5832814056888568  0.8104701849101205  0.4553377029926990   T   T   T
 -0.0000021834655640  0.3733976476447572  0.4984364827653466   T   T   T
  0.9998435127675962  0.6270771892111686  0.4976822881367706   T   T   T
  0.3335777086915532  0.1255892265645829  0.4985424832284430   T   T   T
  0.0000180964832925  0.8751344710452994  0.4995091159356753   T   T   T
  0.3334646248776756  0.8740009318814833  0.4993541695568660   T   T   T
  0.6661983853856704  0.1267624090058144  0.4991100011400688   T   T   T
  0.2511832400608413  0.4392840626638780  0.4549108610358953   T   T   T
  0.0833333358191695  0.5625000000092442  0.3605200052333331   F   F   F
  0.7758568371028098  0.1308871491738131  0.7541092533748456   T   T   T
  0.9166666865332829  0.0625000000159659  0.3605200052333331   F   F   F
  0.7492804160433283  0.8132017043266203  0.4530278975309626   T   T   T
  0.2504684196056601  0.0619874486349958  0.4542711029301086   T   T   T
  0.9154170136517327  0.3127490928268877  0.5467646530954712   T   T   T
  0.4171326691029875  0.6848091186121791  0.4547283665147057   T   T   T
  0.2522709092415089  0.3141216150045857  0.4541401790117269   T   T   T
  0.4171848331629946  0.9359105314221277  0.4540489823427751   T   T   T
  0.7495190978825944  0.4382695521746410  0.4557365872779972   T   T   T
  0.5833056448300158  0.0635188062859852  0.4541276873078418   T   T   T
  0.9166666865332829  0.6874999999963620  0.3605200052333331   F   F   F
  0.9166666865332829  0.4374999701794380  0.3605200052333331   F   F   F
  0.9166666865332829  0.1875000000030838  0.3605200052333331   F   F   F
  0.5833333134730552  0.9375000000154046  0.3605200052333331   F   F   F
  0.5833333134730552  0.6874999999963620  0.3605200052333331   F   F   F
  0.5833333134730552  0.4374999701794380  0.3605200052333331   F   F   F
  0.5833333134730552  0.1875000000030838  0.3605200052333331   F   F   F
  0.2499999999799343  0.9375000000154046  0.3605200052333331   F   F   F
  0.9166666865332829  0.9375000000154046  0.3605200052333331   F   F   F
  0.2499999999799343  0.6874999999963620  0.3605200052333331   F   F   F
  0.2499999999799343  0.1875000000030838  0.3605200052333331   F   F   F
  0.7499999404149307  0.9375000000154046  0.3605200052333331   F   F   F
  0.7499999404149307  0.6874999999963620  0.3605200052333331   F   F   F
  0.7499999404149307  0.4374999701794380  0.3605200052333331   F   F   F
  0.7499999404149307  0.1875000000030838  0.3605200052333331   F   F   F
  0.4166666269218169  0.9375000000154046  0.3605200052333331   F   F   F
  0.4166666269218169  0.6874999999963620  0.3605200052333331   F   F   F
  0.4166666269218169  0.4374999701794380  0.3605200052333331   F   F   F
  0.2499999999799343  0.4374999701794380  0.3605200052333331   F   F   F
  0.0833333358191695  0.0625000000159659  0.3605200052333331   F   F   F
  0.9153154601478498  0.6867403182869480  0.4531591002042453   T   T   T
  0.6654237589414835  0.3785477140454228  0.5032707155126857   T   T   T
  0.3343103633667665  0.3784460366028740  0.5030243277255652   T   T   T
  0.3355798966567058  0.6257654832310535  0.5037950491029973   T   T   T
  0.9177355664446926  0.0633749861971901  0.5475568482669635   T   T   T
  0.2498617018648357  0.1885044425345424  0.4541105361895729   T   T   T
  0.7494977589285979  0.9384356449699369  0.4553395226393137   T   T   T
  0.7490880788777096  0.6886524347142919  0.4573856752549629   T   T   T
  0.7507754654846689  0.1897192513582075  0.4555675309167583   T   T   T
  0.2518934766931125  0.5645992801079073  0.4537593003910910   T   T   T
  0.2505154268895310  0.8108064039541732  0.4553670241799576   T   T   T
  0.8333332538436267  0.2500000000190425  0.4070133268666680   F   F   F
  0.2499999999799343  0.3124999999901945  0.3605200052333331   F   F   F
  0.2499999999799343  0.0625000000159659  0.3605200052333331   F   F   F
  0.7499999404149307  0.5625000000092442  0.3605200052333331   F   F   F
  0.7499999404149307  0.3124999999901945  0.3605200052333331   F   F   F
  0.7499999404149307  0.0625000000159659  0.3605200052333331   F   F   F
  0.4166666269218169  0.8124999999834799  0.3605200052333331   F   F   F
  0.4166666269218169  0.5625000000092442  0.3605200052333331   F   F   F
  0.4166666269218169  0.3124999999901945  0.3605200052333331   F   F   F
  0.7499999404149307  0.8124999999834799  0.3605200052333331   F   F   F
  0.0834999086448385  0.3119431102015746  0.4540293353186317   T   T   T
  0.4166666269218169  0.0625000000159659  0.3605200052333331   F   F   F
  0.4169133263077260  0.0615705768564935  0.4553495075785903   T   T   T
  0.0834812200607036  0.8121003338820637  0.4542069859946712   T   T   T
  0.0839490119344003  0.5624597642617505  0.4538835005168282   T   T   T
  0.4160857035875841  0.5595342507466807  0.4578675323218273   T   T   T
  0.0837225996688444  0.0618579168279507  0.4541970139326702   T   T   T
  0.4155106948153016  0.3113022793920590  0.4573424723220217   T   T   T
  0.8333332538436267  0.7500000000123208  0.4070133268666680   F   F   F
  0.0833333358191695  0.4374999701794380  0.3605200052333331   F   F   F
  0.0833333358191695  0.6874999999963620  0.3605200052333331   F   F   F
  0.0833333358191695  0.9375000000154046  0.3605200052333331   F   F   F
  0.4166666269218169  0.1875000000030838  0.3605200052333331   F   F   F
  0.0833333358191695  0.8124999999834799  0.3605200052333331   F   F   F
  0.8333332538436267  0.4999999999932783  0.4070133268666680   F   F   F
  0.2492719347958009  0.3137366389499292  0.5459171784046317   T   T   T
  0.7482826665960043  0.8081420975432244  0.5457182108020631   T   T   T
  0.7465458541511911  0.5581166595820222  0.5447148962205980   T   T   T
  0.2510773301918733  0.0625384424926264  0.5472642109374196   T   T   T
  0.4145746267615175  0.8118310196382568  0.5479538538617497   T   T   T
  0.2499999999799343  0.5625000000092442  0.3605200052333331   F   F   F
  0.2499999999799343  0.8124999999834799  0.3605200052333331   F   F   F
  0.5833333134730552  0.0625000000159659  0.3605200052333331   F   F   F
  0.5833333134730552  0.3124999999901945  0.3605200052333331   F   F   F
  0.5843510074295537  0.3154320882501746  0.4535679680732893   T   T   T
  0.8333332538436267  0.0000000000000000  0.4070133268666680   F   F   F
  0.5000000000021103  0.4999999999932783  0.4070133268666680   F   F   F
  0.0833333358191695  0.1875000000030838  0.3605200052333331   F   F   F
  0.2531208756182848  0.8125627382231184  0.5507670020007538   T   T   T
  0.0000000000000000  0.2500000000190425  0.4070133268666680   F   F   F
  0.0000000000000000  0.4999999999932783  0.4070133268666680   F   F   F
  0.7482026381770340  0.5642534649280018  0.4537932002857479   T   T   T
  0.3333333432766779  0.0000000000000000  0.4070133268666680   F   F   F
  0.3333333432766779  0.4999999999932783  0.4070133268666680   F   F   F
  0.3333333432766779  0.7500000000123208  0.4070133268666680   F   F   F
  0.6666666865533486  0.0000000000000000  0.4070133268666680   F   F   F
  0.6666666865533486  0.2500000000190425  0.4070133268666680   F   F   F
  0.6666666865533486  0.4999999999932783  0.4070133268666680   F   F   F
  0.5844798092842020  0.5628220193143477  0.4548504176980545   T   T   T
  0.6666666865533486  0.7500000000123208  0.4070133268666680   F   F   F
  0.1666666716383389  0.2500000000190425  0.4070133268666680   F   F   F
  0.1666666716383389  0.4999999999932783  0.4070133268666680   F   F   F
  0.1666666716383389  0.7500000000123208  0.4070133268666680   F   F   F
  0.5000000000021103  0.0000000000000000  0.4070133268666680   F   F   F
  0.5000000000021103  0.2500000000190425  0.4070133268666680   F   F   F
  0.5000000000021103  0.7500000000123208  0.4070133268666680   F   F   F
  0.9166666865332829  0.3124999999901945  0.3605200052333331   F   F   F
  0.3333333432766779  0.2500000000190425  0.4070133268666680   F   F   F
  0.7473175280372627  0.3139916512240336  0.4551395276230473   T   T   T
  0.0000000000000000  0.7500000000123208  0.4070133268666680   F   F   F
  0.4167327323089527  0.8101444206038942  0.4550872369709591   T   T   T
  0.5833333134730552  0.5625000000092442  0.3605200052333331   F   F   F
  0.7495864698376682  0.0638810299588548  0.4536490871050766   T   T   T
  0.5833333134730552  0.8124999999834799  0.3605200052333331   F   F   F
  0.1666666716383389  0.0000000000000000  0.4070133268666680   F   F   F
  0.6653903155020183  0.6258798069844200  0.5029715533647130   T   T   T
  0.0000000000000000  0.0000000000000000  0.4070133268666680   F   F   F
  0.5827670165556450  0.4396411613492671  0.4563474550904112   T   T   T
  0.0860290461346953  0.6894168342866566  0.5453440373852653   T   T   T
  0.0826975253801066  0.4389159566440674  0.5448287689229946   T   T   T
  0.0835960539193858  0.1889526348868756  0.5454678881672201   T   T   T
  0.4995854227658680  0.1255258456825268  0.4996201262717824   T   T   T
  0.9997860080036379  0.5000398805480841  0.5940206524487024   T   T   T
  0.5807862681939555  0.1855415262078630  0.5496885693845946   T   T   T
  0.9995440172858864  0.7532443102373277  0.5924895701187972   T   T   T
  0.3340246532979108  0.9998267353743427  0.5920216474379657   T   T   T
  0.9997783356778184  0.9992931663462999  0.5932182954104466   T   T   T
  0.0010769221517465  0.2498938945233048  0.5919768810860181   T   T   T
  0.3332394001807630  0.4963130551046077  0.5909397754421147   T   T   T
  0.3357162798695854  0.7411674281818191  0.5903256856591382   T   T   T
  0.6634001696045287  0.2480090172988423  0.5902918761840484   T   T   T
  0.6660266933095621  0.0003663155229344  0.5921846949295098   T   T   T
  0.6658282620146825  0.7415898413979751  0.5902511356818867   T   T   T
  0.6667584012734896  0.4943805010853550  0.5912701699969882   T   T   T
  0.1674498550052897  0.9983586578196527  0.5923137301216826   T   T   T
  0.1684950881002022  0.2480479267824652  0.5931181615310226   T   T   T
  0.1707661512370753  0.7501321645398844  0.5949810199067510   T   T   T
  0.2483816803508093  0.4358591944130927  0.5490919362943072   T   T   T
  0.1655812472328511  0.5027427240304618  0.5874071050984293   T   T   T
  0.3346477927844788  0.2545224974627535  0.5927227263435710   T   T   T
  0.4998366673389759  0.0001642242784100  0.5911307279274112   T   T   T
  0.8326793892913771  0.8742020451612444  0.4985906653113337   T   T   T
  0.7485586797955331  0.9375031206683870  0.6409018439625618   T   T   T
  0.8320333606912880  0.0030852193864932  0.5925211979800222   T   T   T
  0.5011094774377720  0.7563635885024576  0.5931207804324233   T   T   T
  0.4178468440956809  0.0651737924038661  0.6400904012505235   T   T   T
  0.4273360330064669  0.3048097079798299  0.6552208645203976   T   T   T
  0.4156841620166481  0.1913338226984326  0.5464670502004690   T   T   T
  0.4984647210018428  0.2528967416257437  0.5905604307509339   T   T   T
  0.4160004743646020  0.9371544264303651  0.5461162974075269   T   T   T
  0.7485830947783739  0.1844902161093306  0.5505448683324040   T   T   T
  0.5860139560907768  0.8144889128627358  0.5504109491358087   T   T   T
  0.7478497604915759  0.3125023020239285  0.5491657002341404   T   T   T
  0.5811694650414361  0.5600327825662952  0.5489315711245449   T   T   T
  0.2524397630916031  0.5590145725507505  0.5439036253439198   T   T   T
  0.4159754588351710  0.3194672327362059  0.5524277310613673   T   T   T
  0.2500187714516803  0.9360251912962108  0.4540520236056134   T   T   T
  0.5765753529989307  0.4357551877682783  0.5521076401162882   T   T   T
  0.4165284435683466  0.0653163638021607  0.5473291341076663   T   T   T
  0.0848897306096973  0.8128854682552105  0.5473397033552292   T   T   T
  0.0820985557072419  0.5644353212659795  0.5462870065497760   T   T   T
  0.0867017253522789  0.3135244282399415  0.5471250204744521   T   T   T
  0.0823278901933973  0.0632673979146074  0.5475890790586619   T   T   T
  0.9155233455069931  0.9385426136487630  0.5463524644237773   T   T   T
  0.9140385140127871  0.6890987042755159  0.5453671696114621   T   T   T
  0.4125821491092747  0.8128328817340205  0.6396115498975868   T   T   T
  0.5838834603784394  0.9378533585910176  0.5461442927876645   T   T   T
  0.9157671876711622  0.4375918754176321  0.5457039574415770   T   T   T
  0.5795402062516157  0.6861081750962417  0.5473887351118867   T   T   T
  0.2515108877303869  0.9372768602305779  0.5452617670295976   T   T   T
  0.4974183112870558  0.5043793069262760  0.6089676362215366   T   T   T
  0.9174173837386498  0.5637390927973382  0.5469056499077947   T   T   T
  0.4199493828941387  0.5649873652434467  0.5553509799970638   T   T   T
  0.9154695749571388  0.8128960430423137  0.5468784327266417   T   T   T
  0.0836234227101963  0.9388774819163951  0.5458364612961845   T   T   T
  0.2492688619261339  0.6831858863232000  0.5520527656778806   T   T   T
  0.7494360783344631  0.9340714796018157  0.5476931732472768   T   T   T
  0.7518212921556763  0.6803701262938818  0.5531428369294757   T   T   T
  0.7520633071350861  0.4356964489571017  0.5487221788489515   T   T   T
  0.4231662808408574  0.4437236851941874  0.5457065035844978   T   T   T
  0.4231937316453969  0.6879799124415447  0.5467354720266655   T   T   T
  0.9169681286035728  0.1890951394852165  0.5453072918653997   T   T   T
  0.3972127375295021  0.5505736185922272  0.6519767013238479   T   T   T
  0.9161282742272551  0.0621887176221988  0.4540839577122049   T   T   T
  0.7411050494480603  0.8098812433897017  0.6399596055216417   T   T   T
  0.9138081417002798  0.8132648526055929  0.6416036492047943   T   T   T
  0.5828886896151998  0.0660406929828923  0.6398449695204634   T   T   T
  0.5832388454824631  0.3208158083906107  0.6333620032858904   T   T   T
  0.5909683655077407  0.5653536789080382  0.6389696878861449   T   T   T
  0.2475223933505676  0.5737236774497360  0.6288288699400786   T   T   T
  0.7536790453815075  0.6919511246032420  0.6570887154352780   T   T   T
  0.2622284809315420  0.7993803909473551  0.6463938987203129   T   T   T
  0.2510634605206918  0.0593409923957044  0.6423279066137241   T   T   T
  0.9166666865332829  0.5625000000092442  0.3605200052333331   F   F   F
  0.4995252964703096  0.3742934396490238  0.4996456144028906   T   T   T
  0.5000434656635480  0.8734229651921199  0.5009494051969211   T   T   T
  0.5002886479968233  0.6211232151958541  0.5000307565793763   T   T   T
  0.8323723447535375  0.6231087561540007  0.5000112820587999   T   T   T
  0.8323936064699251  0.3731430389315922  0.4998306682553350   T   T   T
  0.8329288318672013  0.1244766750386199  0.4998592925133418   T   T   T
  0.1667285577655548  0.3761976958579122  0.4976938381440230   T   T   T
  0.1677830501608141  0.6243279918696304  0.5000424058149590   T   T   T
  0.5812195938111333  0.4387144638506826  0.6462167015336255   T   T   T
  0.5791230010520914  0.6856333359947029  0.6395064139276820   T   T   T
  0.9169091482105746  0.1860593954603891  0.6400767708049996   T   T   T
  0.2490362361703480  0.3162260463767237  0.6412125324809783   T   T   T
  0.1677512172593455  0.8732629745497807  0.4998886900128021   T   T   T
  0.5828189662262927  0.6861070209531827  0.4545988209401518   T   T   T
  0.5827347601143497  0.9370663574895550  0.4542878586765644   T   T   T
  0.9158173740958718  0.1868722105141005  0.4531480584498822   T   T   T
  0.9157747653799422  0.4369451514707377  0.4536438054747455   T   T   T
  0.1670858263458776  0.1243205621197647  0.4993212791839718   T   T   T
  0.7477390248590864  0.0605503710594273  0.5450569671301019   T   T   T
  0.7533489155210661  0.5680641480312573  0.6358207587317944   T   T   T
  0.9152420298994137  0.3117213068971124  0.6396731108656559   T   T   T
  0.9129554777880093  0.5618904322533661  0.6414175216274476   T   T   T
  0.2519830888603484  0.1881709274549501  0.5472424999214451   T   T   T
  0.5911950497261472  0.8101584967437840  0.6461061892883104   T   T   T
  0.7470217473289900  0.0669993534046701  0.6405579638796883   T   T   T
  0.7457587366566969  0.3104865932942560  0.6428270760729534   T   T   T
  0.9160836180696421  0.0621387293520303  0.6422124236883104   T   T   T
  0.0843262181058193  0.3110852910257538  0.6406347624313419   T   T   T
  0.6665812296659394  0.8743734215846226  0.4989235335774462   T   T   T
  0.0869594043969097  0.5626788755191254  0.6404651321436815   T   T   T
  0.0842458538533198  0.0603532230653750  0.6423088050127875   T   T   T
  0.0868109841275146  0.4364179031020255  0.6394519815545247   T   T   T
  0.0836058201422361  0.1853255744739697  0.6411873880522040   T   T   T
  0.4180577874670967  0.1874478176070127  0.6397428737875764   T   T   T
  0.0842510500645774  0.9355761654465757  0.6406961932702405   T   T   T
  0.0831869488744749  0.6871113859233346  0.6391392273670785   T   T   T
  0.9127036073758761  0.4358534665277283  0.6395485873863566   T   T   T
  0.9161557849083650  0.6874713044127627  0.6393175773529255   T   T   T
  0.9139180963056659  0.9369072256630476  0.6408079537151021   T   T   T
  0.4150590314696363  0.4187362387244433  0.6300433160827800   T   T   T
  0.7551593255879646  0.4326967648734216  0.6372058067920339   T   T   T
  0.4175523780096104  0.9349690688731067  0.6397616528901580   T   T   T
  0.2404913633205601  0.4419803797489621  0.6415960484111554   T   T   T
  0.7454417395612007  0.1932365437193001  0.6459353605692646   T   T   T
  0.2535980109121573  0.1864051690958498  0.6413780571543888   T   T   T
  0.8304302591995958  0.7507117923006623  0.5927974512723354   T   T   T
  0.8314955408489361  0.2489607876665742  0.5915367728593575   T   T   T
  0.5821895370956123  0.9357897701498274  0.6396391134321552   T   T   T
  0.9166666865332829  0.8124999999834799  0.3605200052333331   F   F   F
  0.0842146570321076  0.8125293471966599  0.6421786933129137   T   T   T
  0.2519766195435758  0.9301866127672798  0.6373932419712962   T   T   T
  0.5794077626709342  0.1914669337114482  0.6443358730014124   T   T   T
  0.2549850468305200  0.6774185365780973  0.6630272783449782   T   T   T
  0.8332772514211044  0.5029827215004273  0.5887791832160880   T   T   T
  0.4205613535711038  0.6759232998486644  0.6337167974070108   T   T   T
  0.6660323961738313  0.9999479649466616  0.5056828198079303   T   T   T
  0.8333332538436267  0.6249999999803961  0.4070133268666680   F   F   F
  0.5011492112279909  0.7528622246303187  0.5040097814160404   T   T   T
  0.1643345952630191  0.7515211949491988  0.5033684863750273   T   T   T
  0.1666666716383389  0.3750000000061604  0.4070133268666680   F   F   F
  0.0006522786079990  0.1222850417668797  0.6199791904242761   T   T   T
  0.6669886082427214  0.2481523870157742  0.5026029892950448   T   T   T
  0.3300579899137041  0.2480593533630691  0.5028190191137706   T   T   T
  0.3331301341152000  0.0010452536343428  0.5058008047842512   T   T   T
  0.3338810318289099  0.7511568029321964  0.5015488630027052   T   T   T
  0.6686425633802912  0.4999149394799425  0.5007045370243862   T   T   T
  0.5012062466813624  0.4998493830516137  0.5002431612240610   T   T   T
  0.9997068867078707  0.5003675773707182  0.5068565196792407   T   T   T
  0.8361570265102266  0.5000436897242545  0.5027692687332463   T   T   T
  0.5009548908572500  0.2479505336481947  0.5019797081539674   T   T   T
  0.6666666865533486  0.3750000000061604  0.4070133268666680   F   F   F
  0.6654055657525233  0.7519183778494873  0.5022293284211068   T   T   T
  0.0000000000000000  0.8749999404036828  0.4070133268666680   F   F   F
  0.8356974721325804  0.2483764987240143  0.5030153849989031   T   T   T
  0.9998353332831124  0.7509504775651764  0.5066628747294689   T   T   T
  0.0008557841377743  0.2497707046236721  0.5059300016158189   T   T   T
  0.9999724129025302  0.9999705420646011  0.5067065826193370   T   T   T
  0.6666666865533486  0.6249999999803961  0.4070133268666680   F   F   F
  0.8333332538436267  0.8749999404036828  0.4070133268666680   F   F   F
  0.3333333432766779  0.6249999999803961  0.4070133268666680   F   F   F
  0.3333333432766779  0.1249999999871179  0.4070133268666680   F   F   F
  0.3333333432766779  0.3750000000061604  0.4070133268666680   F   F   F
  0.8339977851686139  0.0004473481387266  0.5067505364146294   T   T   T
  0.3333333432766779  0.8749999404036828  0.4070133268666680   F   F   F
  0.6666666865533486  0.1249999999871179  0.4070133268666680   F   F   F
  0.0000000000000000  0.6249999999803961  0.4070133268666680   F   F   F
  0.1659765938641078  0.0011399458034426  0.5065532381644535   T   T   T
  0.3311577453189898  0.4992324043574414  0.5009444354020860   T   T   T
  0.1635368352060496  0.4998122958177312  0.5020411069071696   T   T   T
  0.5008685466790327  0.8768066721805139  0.6095898625913458   T   T   T
  0.3259030605604324  0.3734569874603261  0.5927487543807499   T   T   T
  0.0000000000000000  0.3750000000061604  0.4070133268666680   F   F   F
  0.5000000000021103  0.8749999404036828  0.4070133268666680   F   F   F
  0.8333332538436267  0.1249999999871179  0.4070133268666680   F   F   F
  0.8333332538436267  0.3750000000061604  0.4070133268666680   F   F   F
  0.1666666716383389  0.1249999999871179  0.4070133268666680   F   F   F
  0.6653618812235417  0.1241153019239954  0.6085409459275399   T   T   T
  0.5000000000021103  0.6249999999803961  0.4070133268666680   F   F   F
  0.8395487602021066  0.6268206844876038  0.6038795208665124   T   T   T
  0.1663567312939580  0.2481753494810091  0.5061833217496444   T   T   T
  0.3316570783806317  0.1197181214288274  0.6132591953673483   T   T   T
  0.9989221594311397  0.8751045269698156  0.6223173962044094   T   T   T
  0.5000000000021103  0.1249999999871179  0.4070133268666680   F   F   F
  0.8317335595351107  0.8761655839677938  0.6176138917585731   T   T   T
  0.8379717836351417  0.3722475968487796  0.6032502085479601   T   T   T
  0.8360084707509288  0.7516684503384189  0.5026215861115405   T   T   T
  0.1666666716383389  0.8749999404036828  0.4070133268666680   F   F   F
  0.3340906206658153  0.6244019418547166  0.5951461719167218   T   T   T
  0.0000000000000000  0.1249999999871179  0.4070133268666680   F   F   F
  0.3345495892037304  0.8786485295475442  0.6029913885823708   T   T   T
  0.5038203248055281  0.6250601085519333  0.5940838261084781   T   T   T
  0.1666666716383389  0.6249999999803961  0.4070133268666680   F   F   F
  0.5000000000021103  0.3750000000061604  0.4070133268666680   F   F   F
  0.6666666865533486  0.8749999404036828  0.4070133268666680   F   F   F
  0.5003641273668374  0.9993473424291595  0.5056597120149628   T   T   T
  0.1594345706254968  0.6273578282494794  0.6014886850881047   T   T   T
  0.1661541153024751  0.8735188902444975  0.6178506140565057   T   T   T
  0.6709368856643256  0.3724121337019204  0.5935923301100761   T   T   T
  0.5004575657238106  0.1221393478199652  0.6064055727954901   T   T   T
  0.1678341132558922  0.1226933247494382  0.6220403602691646   T   T   T
  0.1632461031253095  0.3712523231754676  0.6075549656133976   T   T   T
  0.6654887376131040  0.8812138403980546  0.6070699560160701   T   T   T
  0.6665156970096854  0.6261838023925499  0.5935455454345999   T   T   T
  0.0003242239181510  0.3744224705165853  0.6237127455570740   T   T   T
  0.8335979130889947  0.1241866799602871  0.6197785175449642   T   T   T
  0.9995933333755489  0.6225993588570348  0.6288830419283384   T   T   T
  0.5015118861600427  0.3714018392574162  0.5948067034396388   T   T   T
  0.0837577287954312  0.2476138830756231  0.6036783633840271   T   T   T
  0.7495773871259523  0.0020422694885398  0.6049277721798856   T   T   T
  0.5826604123313421  0.0011024271218301  0.6046355823185408   T   T   T
  0.9162712366006152  0.0003692853086299  0.6039060620417962   T   T   T
  0.5847182908651474  0.7499538952387675  0.5998382326033529   T   T   T
  0.5843437109414802  0.2477496905878052  0.5964055256167144   T   T   T
  0.2424524553158681  0.4978383816400890  0.5940040350654774   T   T   T
  0.2493732596261200  0.7527341265864571  0.5920021019411447   T   T   T
  0.2497038244417689  0.9976641264916299  0.6042293183295068   T   T   T
  0.7539072793773451  0.2482071095102441  0.5933281753877295   T   T   T