Au  C  H  O Sr Ti                       
   1.00000000000000     
    23.6707801818999997    0.0000000000000000    0.0000000000000000
     0.0000000000000000   22.3170261383000010    0.0000000000000000
     0.0000000000000000    0.0000000000000000   30.0000000000000000
   Au   C    H    O    Sr   Ti
    50     3     5   265    72    72
Selective dynamics
Direct
  0.7163813076733990  0.5245772447953067  0.7528220625907304   T   T   T
  0.5547712381275699  0.2125105257211097  0.7100454396045190   T   T   T
  0.7180163199553105  0.2549005845995460  0.6916251610619008   T   T   T
  0.2939915497082338  0.7461785464326850  0.6972255265912217   T   T   T
  0.5117802479481501  0.6035481642411300  0.7768074828941531   T   T   T
  0.5783234401307930  0.7255504466144720  0.7938521521296111   T   T   T
  0.2405893732605377  0.4694722593704448  0.7091021529170061   T   T   T
  0.2852141199261853  0.6620085949542747  0.7648254690100171   T   T   T
  0.6029895885702249  0.2832666028107576  0.7837772709672959   T   T   T
  0.5143284524215614  0.4844160333273902  0.6781106639424235   T   T   T
  0.5631668408867732  0.4856831961501586  0.7623593161071304   T   T   T
  0.2894225811641605  0.5378868986504058  0.7775209929631566   T   T   T
  0.5500029977554316  0.3812785596309998  0.8269633588442907   T   T   T
  0.3916673753507234  0.8170988821446107  0.7066703479655595   T   T   T
  0.4637052029614588  0.6950498593455189  0.8307022026489050   T   T   T
  0.4385533011692018  0.2283182653083743  0.6975441734793136   T   T   T
  0.3703611130158810  0.2985678279332222  0.7553521767020528   T   T   T
  0.3496184218707122  0.4994912454592884  0.6977717106206931   T   T   T
  0.4294376062495857  0.3707989533073083  0.8151520109074096   T   T   T
  0.5963419244252058  0.7845220965665977  0.7130217794990399   T   T   T
  0.6352078705836348  0.5839638930163490  0.7999275216972667   T   T   T
  0.7332810370599817  0.6150100956699156  0.6939321695047085   T   T   T
  0.4857519198603958  0.7770198357733191  0.7556650231157259   T   T   T
  0.7637511376471370  0.4303518548377352  0.7039948841013357   T   T   T
  0.4864809117267755  0.2701585204380669  0.7750730960999055   T   T   T
  0.6223242519450279  0.5703417901771546  0.7041710283624170   T   T   T
  0.4631931951355265  0.5725511228356094  0.8643712822427297   T   T   T
  0.7064205450202834  0.7569368767745602  0.6882017031621828   T   T   T
  0.6560622292792972  0.4405885078032211  0.8123929170687221   T   T   T
  0.3686407145100122  0.6187575445639538  0.8204525616830712   T   T   T
  0.5705352982725000  0.5091036979821861  0.8561158253845833   T   T   T
  0.6639261926255235  0.1797259675620208  0.7468505036150878   T   T   T
  0.4722123582425757  0.4493913556701180  0.8773070778160267   T   T   T
  0.5172782351033934  0.3772098728068147  0.7320619347467496   T   T   T
  0.2822247233949810  0.3399215212007894  0.7022869822009256   T   T   T
  0.4522791751627210  0.5797006826892809  0.7027614258027057   T   T   T
  0.3977186632968953  0.3816137458833799  0.6903579046514572   T   T   T
  0.6161749132844965  0.3210784879245739  0.6961103128956959   T   T   T
  0.6694968425895206  0.6811940953229368  0.7487238870991582   T   T   T
  0.3258242204842049  0.4146043058684595  0.7691605256425121   T   T   T
  0.3743741435977733  0.7393295402651532  0.7789206514754811   T   T   T
  0.3755816632555965  0.4928847511515505  0.8327959372217587   T   T   T
  0.5413319923103129  0.6667779017765130  0.7014122593051446   T   T   T
  0.5646583474735934  0.6392333538758679  0.8609293911115620   T   T   T
  0.4440751895251250  0.4738808378896001  0.7565541816125505   T   T   T
  0.2568712613327754  0.5928235149510245  0.6945440787009733   T   T   T
  0.7740093502047353  0.4282579080058733  0.7941522263855317   T   T   T
  0.7000746356169217  0.3440955698842239  0.7568872033867257   T   T   T
  0.4186170611466491  0.6965007278071821  0.6996417917000397   T   T   T
  0.6485525037726647  0.4451437000120940  0.6945408978123147   T   T   T
  0.6456319941653206  0.0375590269966808  0.7665353161447391   T   T   T
  0.7282513591586857  0.1138726601623537  0.7532413810652790   T   T   T
  0.7081037364447804  0.0491429587582232  0.7571976085447102   T   T   T
  0.6188284490577023  0.0510159743298801  0.7387217221452551   T   T   T
  0.6315154804625484  0.0599273932645008  0.7968937938779258   T   T   T
  0.6395511299706060  0.9894273524219862  0.7713295639494946   T   T   T
  0.7352135108226068  0.0303150583642148  0.7834103163580239   T   T   T
  0.7213305141162740  0.0287064362646233  0.7254398519142353   T   T   T
  0.5832559092330466  0.0626042649607289  0.5460508620856868   T   T   T
  0.4164366360166424  0.4354694906171320  0.4538192246409120   T   T   T
  0.0845989701291037  0.6868556200127245  0.4530145721461488   T   T   T
  0.0838932629712930  0.9366683796679348  0.4534823352402228   T   T   T
  0.0827841365114775  0.4367757136421322  0.4528475156567799   T   T   T
  0.0838468776081504  0.1865643047885631  0.4529615830368539   T   T   T
  0.9165734013156522  0.8121289263525150  0.4540483163085611   T   T   T
  0.0833333358191695  0.3124999999901945  0.3605200052333331   F   F   F
  0.9161877033302837  0.5623089756631076  0.4539471355508731   T   T   T
  0.5824371954532674  0.3111811912940368  0.5449146031254087   T   T   T
  0.9160295409026822  0.3121281486372666  0.4539303922682308   T   T   T
  0.4171379346327201  0.1871200408675403  0.4535493806390322   T   T   T
  0.2521639329618092  0.6876279913203199  0.4561047253382935   T   T   T
  0.9164467049500048  0.9371281238824365  0.4536546530678889   T   T   T
  0.5826006179260020  0.1902472679045636  0.4555011401870482   T   T   T
  0.0000059752706207  0.1251470307526096  0.4984779239012644   T   T   T
  0.5832739571454852  0.8104695518758172  0.4553433450802473   T   T   T
 -0.0001016161220684  0.3733563284487927  0.4983410736777273   T   T   T
  0.9999229520546902  0.6271093176013202  0.4976952916242925   T   T   T
  0.3336244352677128  0.1256351132283589  0.4985727717621399   T   T   T
  0.0000388566003743  0.8751511794184758  0.4995372491287837   T   T   T
  0.3334120402606665  0.8738416608891459  0.4994276556784604   T   T   T
  0.6660498096985381  0.1266743517405265  0.4991285392322991   T   T   T
  0.2511872912228035  0.4392625663437751  0.4549245640503782   T   T   T
  0.0833333358191695  0.5625000000092442  0.3605200052333331   F   F   F
  0.7760405493794374  0.1304247481412945  0.7542830386794056   T   T   T
  0.9166666865332829  0.0625000000159659  0.3605200052333331   F   F   F
  0.7492772193879630  0.8132048408250198  0.4530173347288490   T   T   T
  0.2505209443450263  0.0620270261683915  0.4542556552958316   T   T   T
  0.9153027136722864  0.3127166011064846  0.5467974669904647   T   T   T
  0.4171231190374219  0.6847427303131198  0.4546974389562788   T   T   T
  0.2522702678342549  0.3141498587549643  0.4541667727461969   T   T   T
  0.4171616524021211  0.9358264947504623  0.4540294011026048   T   T   T
  0.7495907799838172  0.4382987618302143  0.4557483216836586   T   T   T
  0.5832750685600170  0.0635108403795901  0.4541044066626814   T   T   T
  0.9166666865332829  0.6874999999963620  0.3605200052333331   F   F   F
  0.9166666865332829  0.4374999701794380  0.3605200052333331   F   F   F
  0.9166666865332829  0.1875000000030838  0.3605200052333331   F   F   F
  0.5833333134730552  0.9375000000154046  0.3605200052333331   F   F   F
  0.5833333134730552  0.6874999999963620  0.3605200052333331   F   F   F
  0.5833333134730552  0.4374999701794380  0.3605200052333331   F   F   F
  0.5833333134730552  0.1875000000030838  0.3605200052333331   F   F   F
  0.2499999999799343  0.9375000000154046  0.3605200052333331   F   F   F
  0.9166666865332829  0.9375000000154046  0.3605200052333331   F   F   F
  0.2499999999799343  0.6874999999963620  0.3605200052333331   F   F   F
  0.2499999999799343  0.1875000000030838  0.3605200052333331   F   F   F
  0.7499999404149307  0.9375000000154046  0.3605200052333331   F   F   F
  0.7499999404149307  0.6874999999963620  0.3605200052333331   F   F   F
  0.7499999404149307  0.4374999701794380  0.3605200052333331   F   F   F
  0.7499999404149307  0.1875000000030838  0.3605200052333331   F   F   F
  0.4166666269218169  0.9375000000154046  0.3605200052333331   F   F   F
  0.4166666269218169  0.6874999999963620  0.3605200052333331   F   F   F
  0.4166666269218169  0.4374999701794380  0.3605200052333331   F   F   F
  0.2499999999799343  0.4374999701794380  0.3605200052333331   F   F   F
  0.0833333358191695  0.0625000000159659  0.3605200052333331   F   F   F
  0.9153734880740410  0.6867627470276965  0.4531323160645991   T   T   T
  0.6654464512767565  0.3785079433851943  0.5033304810352400   T   T   T
  0.3343540029635646  0.3784816248676139  0.5030100744190459   T   T   T
  0.3356186824406552  0.6255654715449791  0.5037925581283474   T   T   T
  0.9177407741102527  0.0633254923754765  0.5475650329025075   T   T   T
  0.2498875219561647  0.1884868037078384  0.4540660283146896   T   T   T
  0.7494762795341160  0.9384262803200654  0.4553461000161956   T   T   T
  0.7490763235905825  0.6886560973856692  0.4573880828247404   T   T   T
  0.7507299518475777  0.1898015369153580  0.4556024313448332   T   T   T
  0.2519202434152890  0.5645638617295501  0.4538091253263100   T   T   T
  0.2505186058227173  0.8107955275485186  0.4553716445925411   T   T   T
  0.8333332538436267  0.2500000000190425  0.4070133268666680   F   F   F
  0.2499999999799343  0.3124999999901945  0.3605200052333331   F   F   F
  0.2499999999799343  0.0625000000159659  0.3605200052333331   F   F   F
  0.7499999404149307  0.5625000000092442  0.3605200052333331   F   F   F
  0.7499999404149307  0.3124999999901945  0.3605200052333331   F   F   F
  0.7499999404149307  0.0625000000159659  0.3605200052333331   F   F   F
  0.4166666269218169  0.8124999999834799  0.3605200052333331   F   F   F
  0.4166666269218169  0.5625000000092442  0.3605200052333331   F   F   F
  0.4166666269218169  0.3124999999901945  0.3605200052333331   F   F   F
  0.7499999404149307  0.8124999999834799  0.3605200052333331   F   F   F
  0.0835021085634264  0.3120576247806394  0.4539716293927464   T   T   T
  0.4166666269218169  0.0625000000159659  0.3605200052333331   F   F   F
  0.4168548974049284  0.0615511001836198  0.4553750798587697   T   T   T
  0.0834998904149761  0.8120765460854588  0.4541864829623138   T   T   T
  0.0839696641003778  0.5624738985914163  0.4538668780229338   T   T   T
  0.4160673785328438  0.5595162089372360  0.4578549332417725   T   T   T
  0.0836597338422693  0.0618366906150459  0.4542372708141223   T   T   T
  0.4155377242870151  0.3113481068566638  0.4573751107248364   T   T   T
  0.8333332538436267  0.7500000000123208  0.4070133268666680   F   F   F
  0.0833333358191695  0.4374999701794380  0.3605200052333331   F   F   F
  0.0833333358191695  0.6874999999963620  0.3605200052333331   F   F   F
  0.0833333358191695  0.9375000000154046  0.3605200052333331   F   F   F
  0.4166666269218169  0.1875000000030838  0.3605200052333331   F   F   F
  0.0833333358191695  0.8124999999834799  0.3605200052333331   F   F   F
  0.8333332538436267  0.4999999999932783  0.4070133268666680   F   F   F
  0.2493150136347192  0.3137492424197286  0.5459064254053634   T   T   T
  0.7482703809229933  0.8081270645040706  0.5456442528411412   T   T   T
  0.7465268711753038  0.5581740223299760  0.5447304480905520   T   T   T
  0.2510652061562646  0.0625455303282224  0.5472722824131586   T   T   T
  0.4145501532629386  0.8117968065817303  0.5479532995829780   T   T   T
  0.2499999999799343  0.5625000000092442  0.3605200052333331   F   F   F
  0.2499999999799343  0.8124999999834799  0.3605200052333331   F   F   F
  0.5833333134730552  0.0625000000159659  0.3605200052333331   F   F   F
  0.5833333134730552  0.3124999999901945  0.3605200052333331   F   F   F
  0.5843720910108782  0.3154654508276873  0.4535946210493993   T   T   T
  0.8333332538436267  0.0000000000000000  0.4070133268666680   F   F   F
  0.5000000000021103  0.4999999999932783  0.4070133268666680   F   F   F
  0.0833333358191695  0.1875000000030838  0.3605200052333331   F   F   F
  0.2530783559948004  0.8126603055149254  0.5510296299232551   T   T   T
  0.0000000000000000  0.2500000000190425  0.4070133268666680   F   F   F
  0.0000000000000000  0.4999999999932783  0.4070133268666680   F   F   F
  0.7481960203601057  0.5642648362274869  0.4538034849699313   T   T   T
  0.3333333432766779  0.0000000000000000  0.4070133268666680   F   F   F
  0.3333333432766779  0.4999999999932783  0.4070133268666680   F   F   F
  0.3333333432766779  0.7500000000123208  0.4070133268666680   F   F   F
  0.6666666865533486  0.0000000000000000  0.4070133268666680   F   F   F
  0.6666666865533486  0.2500000000190425  0.4070133268666680   F   F   F
  0.6666666865533486  0.4999999999932783  0.4070133268666680   F   F   F
  0.5844907275012465  0.5628166943414193  0.4548737643765041   T   T   T
  0.6666666865533486  0.7500000000123208  0.4070133268666680   F   F   F
  0.1666666716383389  0.2500000000190425  0.4070133268666680   F   F   F
  0.1666666716383389  0.4999999999932783  0.4070133268666680   F   F   F
  0.1666666716383389  0.7500000000123208  0.4070133268666680   F   F   F
  0.5000000000021103  0.0000000000000000  0.4070133268666680   F   F   F
  0.5000000000021103  0.2500000000190425  0.4070133268666680   F   F   F
  0.5000000000021103  0.7500000000123208  0.4070133268666680   F   F   F
  0.9166666865332829  0.3124999999901945  0.3605200052333331   F   F   F
  0.3333333432766779  0.2500000000190425  0.4070133268666680   F   F   F
  0.7472861053920372  0.3139988093004183  0.4551980617259312   T   T   T
  0.0000000000000000  0.7500000000123208  0.4070133268666680   F   F   F
  0.4166316574256669  0.8099533096531711  0.4551656602080217   T   T   T
  0.5833333134730552  0.5625000000092442  0.3605200052333331   F   F   F
  0.7495458002638004  0.0641142418394185  0.4534804898375757   T   T   T
  0.5833333134730552  0.8124999999834799  0.3605200052333331   F   F   F
  0.1666666716383389  0.0000000000000000  0.4070133268666680   F   F   F
  0.6653797634695815  0.6260308876059626  0.5029820710372582   T   T   T
  0.0000000000000000  0.0000000000000000  0.4070133268666680   F   F   F
  0.5827717778338973  0.4396492038899558  0.4563958976232113   T   T   T
  0.0863098488691959  0.6895750732954795  0.5451814275728228   T   T   T
  0.0824728894176841  0.4388440051848959  0.5448897031275916   T   T   T
  0.0836528195194942  0.1889728396975855  0.5454875622412630   T   T   T
  0.4995361222396842  0.1255810938755599  0.4996085934643675   T   T   T
  0.9996635600534183  0.5005226787626981  0.5943324872778875   T   T   T
  0.5807801492165924  0.1855109385921931  0.5497055089530388   T   T   T
  0.9995232032882587  0.7532798383406943  0.5924258083702267   T   T   T
  0.3340238692382004  0.9998010639624852  0.5920490457450203   T   T   T
  0.9997822333522858  0.9992937329996875  0.5932038399569620   T   T   T
  0.0008370142078777  0.2499337051006184  0.5918822641267730   T   T   T
  0.3332783822617126  0.4963871084146134  0.5909131885732043   T   T   T
  0.3357277253134314  0.7411987403858860  0.5904201405879688   T   T   T
  0.6633611083383991  0.2480543329090312  0.5903445586465281   T   T   T
  0.6660079993824162  0.0003153459047414  0.5921110876204714   T   T   T
  0.6658382864776055  0.7415825664786733  0.5902273560883934   T   T   T
  0.6667696641085434  0.4943622490883463  0.5913133809445070   T   T   T
  0.1674573556469904  0.9983614769974408  0.5922959301103539   T   T   T
  0.1683585713303698  0.2486491144342856  0.5931061803135078   T   T   T
  0.1707317926952977  0.7499800031131387  0.5950200075209597   T   T   T
  0.2484226169028192  0.4358592130756710  0.5491178394112813   T   T   T
  0.1655475955548539  0.5026893898439276  0.5874348562709867   T   T   T
  0.3346539785281485  0.2545727471506070  0.5926920372124417   T   T   T
  0.4997588048810147  0.0001484811359803  0.5911251869851708   T   T   T
  0.8327004438032575  0.8742280639913196  0.4985879229641200   T   T   T
  0.7482875507871523  0.9372922032980765  0.6408747416373821   T   T   T
  0.8319436625283412  0.0027109801936494  0.5924935793555488   T   T   T
  0.5011267835725940  0.7562582301362692  0.5930017174089761   T   T   T
  0.4177849547485297  0.0651757931467040  0.6401149599533223   T   T   T
  0.4276256462419187  0.3048840384219466  0.6550630602537416   T   T   T
  0.4156907434007316  0.1914582255887150  0.5464914983684710   T   T   T
  0.4984725100017851  0.2529763898658052  0.5906453068146236   T   T   T
  0.4159787713138599  0.9371207451348339  0.5461089060526463   T   T   T
  0.7485517946238111  0.1847199175607821  0.5504758005106303   T   T   T
  0.5860210674543358  0.8144760115552808  0.5504061345321388   T   T   T
  0.7477891166224078  0.3125238084269867  0.5493210750642619   T   T   T
  0.5811534030613319  0.5601060299475822  0.5490971978641302   T   T   T
  0.2523742805560701  0.5590096004282651  0.5439137626626401   T   T   T
  0.4159600452893497  0.3197046735842613  0.5525644347121448   T   T   T
  0.2500840298313140  0.9360404372926296  0.4541168948850337   T   T   T
  0.5766362485487921  0.4358103608802579  0.5521315622226468   T   T   T
  0.4165320810404400  0.0654128206876896  0.5473892882195175   T   T   T
  0.0848909116863080  0.8128974015240111  0.5473368974422714   T   T   T
  0.0823265771189735  0.5643729483583000  0.5462926785652146   T   T   T
  0.0864239692464429  0.3134896633750038  0.5468883376669051   T   T   T
  0.0823098839427853  0.0632557660134163  0.5475954110646019   T   T   T
  0.9156087866582089  0.9385376365864931  0.5464441219970841   T   T   T
  0.9138892474766093  0.6891854294795663  0.5452560719837439   T   T   T
  0.4127609926502967  0.8127852080137739  0.6396086039007869   T   T   T
  0.5838668747012288  0.9378630137749480  0.5461215057017904   T   T   T
  0.9159413512460333  0.4374905211093352  0.5457334847864510   T   T   T
  0.5795177432865305  0.6862221375429163  0.5473080664886396   T   T   T
  0.2515230145944063  0.9373212349843485  0.5452964234809001   T   T   T
  0.4975051153078274  0.5044379982151794  0.6089906768321036   T   T   T
  0.9173251421229205  0.5637683675757529  0.5469406856036886   T   T   T
  0.4200965554534192  0.5650651032059569  0.5554589851265104   T   T   T
  0.9155403119335227  0.8128954807352892  0.5468524960225030   T   T   T
  0.0836706792842925  0.9388125244832383  0.5458607089333134   T   T   T
  0.2492822409560830  0.6832103644665282  0.5520326714529684   T   T   T
  0.7493483433936933  0.9340030093625786  0.5476938577843197   T   T   T
  0.7518881015929536  0.6803361817702108  0.5532233657025362   T   T   T
  0.7520071730864015  0.4357183251654809  0.5487517546095424   T   T   T
  0.4231385641753438  0.4439410313939394  0.5455933500876075   T   T   T
  0.4231755733279252  0.6880560659317912  0.5466573364729717   T   T   T
  0.9165351967752078  0.1892841783432380  0.5452553287896456   T   T   T
  0.3972405388498771  0.5505876861000306  0.6519757022175282   T   T   T
  0.9161543488913506  0.0622501041496892  0.4541198139047780   T   T   T
  0.7410673965978538  0.8099936166609665  0.6399294937044444   T   T   T
  0.9138088076876678  0.8132962345763501  0.6415398370394841   T   T   T
  0.5827460351455757  0.0659848175162877  0.6397344127956827   T   T   T
  0.5832474591748302  0.3207306172956231  0.6334488826479330   T   T   T
  0.5912721997301387  0.5649142441411562  0.6392968720886559   T   T   T
  0.2475070561954366  0.5737989039100990  0.6287397224292047   T   T   T
  0.7541552848779134  0.6923241371807112  0.6569285263222890   T   T   T
  0.2620763068100760  0.7989187642745018  0.6466031596459656   T   T   T
  0.2510096997647326  0.0594206779207036  0.6423173469482305   T   T   T
  0.9166666865332829  0.5625000000092442  0.3605200052333331   F   F   F
  0.4994831220366310  0.3743250792866764  0.4996635931535369   T   T   T
  0.4999996047470593  0.8734395408817111  0.5008968142999943   T   T   T
  0.5002881177671662  0.6211173223510614  0.5000115015592994   T   T   T
  0.8323601557546231  0.6231347112053784  0.5000173419246544   T   T   T
  0.8323406871597899  0.3731326107102612  0.4998424809709435   T   T   T
  0.8327997247858592  0.1242937898387097  0.4998944956590184   T   T   T
  0.1666978626935669  0.3762834353462980  0.4978076435193887   T   T   T
  0.1677942210658271  0.6243525833892946  0.4999938933713393   T   T   T
  0.5811371505694471  0.4386008650904363  0.6463062778558403   T   T   T
  0.5796326453752955  0.6853452371014156  0.6393689171299319   T   T   T
  0.9168618763940088  0.1860744920115385  0.6401055543628804   T   T   T
  0.2490696768920851  0.3162633352435224  0.6412230416861248   T   T   T
  0.1677872038229573  0.8732675080259763  0.4999026842213617   T   T   T
  0.5827783623230914  0.6861193520931953  0.4545867359842692   T   T   T
  0.5827645318670814  0.9370934216342697  0.4542926384802629   T   T   T
  0.9157870815020011  0.1868215966185393  0.4531846365157685   T   T   T
  0.9157712846109305  0.4369435211330220  0.4536667617063173   T   T   T
  0.1670375270833949  0.1242475140710702  0.4993306349529888   T   T   T
  0.7475629265470241  0.0605749500243509  0.5450047456371768   T   T   T
  0.7533939304212445  0.5681159138220039  0.6357827785399969   T   T   T
  0.9151596708065999  0.3117715709319585  0.6396446070128411   T   T   T
  0.9126369533278667  0.5617203652745117  0.6418488081026025   T   T   T
  0.2518066387743374  0.1883255508689978  0.5470875435993720   T   T   T
  0.5911390901439101  0.8101026164817393  0.6460676572660089   T   T   T
  0.7469757044426337  0.0668892630543284  0.6406106538749922   T   T   T
  0.7456880294948426  0.3103616215267171  0.6429129369025512   T   T   T
  0.9159507259250458  0.0623221726401185  0.6420768113341243   T   T   T
  0.0839423634083662  0.3115623042491284  0.6404240777075785   T   T   T
  0.6665097716403603  0.8743226326734029  0.4988999090362564   T   T   T
  0.0872313016801497  0.5622539164462147  0.6409382859597446   T   T   T
  0.0843456039946967  0.0604619129300716  0.6422279095239798   T   T   T
  0.0867771650358539  0.4364280054105371  0.6394100805907876   T   T   T
  0.0835117103352374  0.1855966050838183  0.6409880942621159   T   T   T
  0.4181221868287563  0.1874995860027786  0.6397426537140614   T   T   T
  0.0842408487414349  0.9355476833711767  0.6407334917776477   T   T   T
  0.0830833657294892  0.6869973641648953  0.6391756766754895   T   T   T
  0.9125745173678093  0.4359176931536097  0.6396311292778089   T   T   T
  0.9160725332887441  0.6874470712326947  0.6393035387847965   T   T   T
  0.9142054575198830  0.9371478799436637  0.6409846089460358   T   T   T
  0.4150500848380779  0.4188221625055379  0.6300347197157734   T   T   T
  0.7552668947834793  0.4327386107378713  0.6373417469026835   T   T   T
  0.4174806640208881  0.9349090246027846  0.6398005537008011   T   T   T
  0.2405854397618148  0.4420295010799331  0.6416014149139315   T   T   T
  0.7452188849663546  0.1931405204012778  0.6460986473879884   T   T   T
  0.2535416982219408  0.1864432843512429  0.6411040236535492   T   T   T
  0.8304863201899779  0.7508400972828138  0.5927723474810904   T   T   T
  0.8313567478261809  0.2489422356213777  0.5916688073821862   T   T   T
  0.5821385404484203  0.9358311043785632  0.6396137168868579   T   T   T
  0.9166666865332829  0.8124999999834799  0.3605200052333331   F   F   F
  0.0842008372399819  0.8122703438707133  0.6420936324033248   T   T   T
  0.2519267022742601  0.9301555099307699  0.6374000316955200   T   T   T
  0.5794378294078869  0.1914192831562861  0.6443651551752320   T   T   T
  0.2550633908292189  0.6772675637962674  0.6630661577218754   T   T   T
  0.8332944148324010  0.5030347641816740  0.5887608060814170   T   T   T
  0.4206918102255416  0.6759498743616218  0.6336818649871119   T   T   T
  0.6659698097941245 -0.0000351858423446  0.5056429152159876   T   T   T
  0.8333332538436267  0.6249999999803961  0.4070133268666680   F   F   F
  0.5011018457095645  0.7528514979714390  0.5039661338142714   T   T   T
  0.1644216829567459  0.7515296811557185  0.5033647825969794   T   T   T
  0.1666666716383389  0.3750000000061604  0.4070133268666680   F   F   F
  0.0006814701212348  0.1223830643090532  0.6199999708702169   T   T   T
  0.6669403126490547  0.2481073457452767  0.5026448893039452   T   T   T
  0.3300398461427363  0.2480625131829448  0.5028216390241103   T   T   T
  0.3331036180895053  0.0010376073206521  0.5058449993677467   T   T   T
  0.3339035121209905  0.7511530126446473  0.5016091007542023   T   T   T
  0.6685883474695976  0.4999263636448699  0.5007105205335936   T   T   T
  0.5012380007370424  0.4998950678911103  0.5002434133206040   T   T   T
  0.9996325707329823  0.5004792245548139  0.5069714043282121   T   T   T
  0.8361427621256614  0.5000384859084792  0.5027460334153346   T   T   T
  0.5009216491255748  0.2479816434518798  0.5019846218437580   T   T   T
  0.6666666865533486  0.3750000000061604  0.4070133268666680   F   F   F
  0.6653931944461435  0.7519139966732609  0.5022165892588935   T   T   T
  0.0000000000000000  0.8749999404036828  0.4070133268666680   F   F   F
  0.8354852288223369  0.2484075286921962  0.5030862859217291   T   T   T
  0.9998414373951618  0.7508910301608133  0.5066223630867008   T   T   T
  0.0007439012809279  0.2498156501052820  0.5059050448550605   T   T   T
 -0.0000235005034365 -0.0000026204834551  0.5067185038307144   T   T   T
  0.6666666865533486  0.6249999999803961  0.4070133268666680   F   F   F
  0.8333332538436267  0.8749999404036828  0.4070133268666680   F   F   F
  0.3333333432766779  0.6249999999803961  0.4070133268666680   F   F   F
  0.3333333432766779  0.1249999999871179  0.4070133268666680   F   F   F
  0.3333333432766779  0.3750000000061604  0.4070133268666680   F   F   F
  0.8340279533919973  0.0004012788793247  0.5067993406165570   T   T   T
  0.3333333432766779  0.8749999404036828  0.4070133268666680   F   F   F
  0.6666666865533486  0.1249999999871179  0.4070133268666680   F   F   F
  0.0000000000000000  0.6249999999803961  0.4070133268666680   F   F   F
  0.1659539734588007  0.0011451413993880  0.5065791164032644   T   T   T
  0.3312137262062974  0.4992474568949041  0.5009440832668878   T   T   T
  0.1635712813367069  0.4998690188655599  0.5020593750607630   T   T   T
  0.5008227337722959  0.8767790762961100  0.6095725169882819   T   T   T
  0.3259472721288733  0.3735601804587947  0.5927428651090623   T   T   T
  0.0000000000000000  0.3750000000061604  0.4070133268666680   F   F   F
  0.5000000000021103  0.8749999404036828  0.4070133268666680   F   F   F
  0.8333332538436267  0.1249999999871179  0.4070133268666680   F   F   F
  0.8333332538436267  0.3750000000061604  0.4070133268666680   F   F   F
  0.1666666716383389  0.1249999999871179  0.4070133268666680   F   F   F
  0.6652845130538116  0.1240487200753934  0.6087387839436043   T   T   T
  0.5000000000021103  0.6249999999803961  0.4070133268666680   F   F   F
  0.8396419733210531  0.6267766012615560  0.6036463000885136   T   T   T
  0.1662984231179228  0.2482358347060585  0.5061484900652992   T   T   T
  0.3316221625999554  0.1197767001616737  0.6132317141937732   T   T   T
  0.9989892386953162  0.8750434456636002  0.6221405652861062   T   T   T
  0.5000000000021103  0.1249999999871179  0.4070133268666680   F   F   F
  0.8317995418679207  0.8763268851559113  0.6178454926490926   T   T   T
  0.8378817538333896  0.3722692907016394  0.6033069131289417   T   T   T
  0.8360127442951707  0.7517227190547312  0.5025945028700831   T   T   T
  0.1666666716383389  0.8749999404036828  0.4070133268666680   F   F   F
  0.3341734395406719  0.6244292500149546  0.5952555825089823   T   T   T
  0.0000000000000000  0.1249999999871179  0.4070133268666680   F   F   F
  0.3345021353617421  0.8785378323506984  0.6030355776311169   T   T   T
  0.5037659374917424  0.6251264930463877  0.5940026427983216   T   T   T
  0.1666666716383389  0.6249999999803961  0.4070133268666680   F   F   F
  0.5000000000021103  0.3750000000061604  0.4070133268666680   F   F   F
  0.6666666865533486  0.8749999404036828  0.4070133268666680   F   F   F
  0.5002908591930934  0.9992973223273423  0.5056253458667623   T   T   T
  0.1593052628517628  0.6272664228896542  0.6014389541140376   T   T   T
  0.1661044849070903  0.8733964615855044  0.6178600305564546   T   T   T
  0.6708586194008784  0.3723993179093375  0.5936246540494232   T   T   T
  0.5003566503130683  0.1221328768668573  0.6063914519479475   T   T   T
  0.1677181051746643  0.1227803146324558  0.6218013801651173   T   T   T
  0.1632685729991591  0.3713397669842025  0.6076091970116519   T   T   T
  0.6653696623648364  0.8811725545921452  0.6069654693931685   T   T   T
  0.6664966268452105  0.6261627549937446  0.5935112386799827   T   T   T
  0.0000858569177850  0.3746352741446458  0.6234143256550095   T   T   T
  0.8334420529617508  0.1243727279234734  0.6198132982085633   T   T   T
  0.9995231565891846  0.6221506588990567  0.6313188721988952   T   T   T
  0.5015703178409594  0.3714364415903088  0.5948324762145155   T   T   T
  0.0834802073821632  0.2479371606823325  0.6035512288575449   T   T   T
  0.7495387854398281  0.0019966422967856  0.6049777650793475   T   T   T
  0.5824925574658841  0.0010380774410477  0.6044878803443423   T   T   T
  0.9162448865707652  0.0003604577286175  0.6039383720601835   T   T   T
  0.5847290450017111  0.7498860467988628  0.5997971834498939   T   T   T
  0.5843349973830002  0.2476927155046116  0.5964100078832411   T   T   T
  0.2424240006220425  0.4978611744031908  0.5940259989802753   T   T   T
  0.2493263817542911  0.7526523069371083  0.5921197040619071   T   T   T
  0.2496766273940372  0.9976342799048010  0.6042637211756960   T   T   T
  0.7537357127168559  0.2483344026675906  0.5934397315575585   T   T   T