Au  C  H  O Sr Ti                       
   1.00000000000000     
    23.6707801818999997    0.0000000000000000    0.0000000000000000
     0.0000000000000000   22.3170261383000010    0.0000000000000000
     0.0000000000000000    0.0000000000000000   30.0000000000000000
   Au   C    H    O    Sr   Ti
    50     1     2   264    72    72
Selective dynamics
Direct
  0.7153513999377917  0.5245548565359289  0.7530272848907558   T   T   T
  0.6207287244311958  0.5714807225797660  0.7040739979684522   T   T   T
  0.7233696330521792  0.2582599130610324  0.6918491398043908   T   T   T
  0.2936756246903417  0.7469112709300407  0.6971489443085249   T   T   T
  0.5122860734303594  0.6032847104286231  0.7770147611000698   T   T   T
  0.5783206778713365  0.7257980231792479  0.7937554097354282   T   T   T
  0.2403005483473011  0.4695296134211481  0.7088777906517519   T   T   T
  0.2848061994770624  0.6626180883695737  0.7646636102448784   T   T   T
  0.5951720655496440  0.2938192890586677  0.7859516674702107   T   T   T
  0.5140941197439661  0.4844526299041012  0.6782831781510672   T   T   T
  0.5636715276558953  0.4859282434568357  0.7622256234790652   T   T   T
  0.5552473037605339  0.2154237780342814  0.7111141903732844   T   T   T
  0.5472450886574364  0.3889194559941248  0.8303676944627038   T   T   T
  0.3915013749282825  0.8180339108268435  0.7065063691845946   T   T   T
  0.4638790712825069  0.6956277065701577  0.8297804087509638   T   T   T
  0.4371327282126826  0.2278136962368957  0.6974160246732111   T   T   T
  0.3691566618588681  0.2992595110498582  0.7558747373252068   T   T   T
  0.3494192975481220  0.4996210309233390  0.6977752325017809   T   T   T
  0.4282428754367897  0.3730139678894147  0.8160578471080954   T   T   T
  0.5964720810806327  0.7845998030476669  0.7129706821180383   T   T   T
  0.6346620420559037  0.5840744748693000  0.8002687505249066   T   T   T
  0.7326715409549412  0.6145168163993855  0.6940220374736914   T   T   T
  0.4857456106948675  0.7770522406776070  0.7549757842345347   T   T   T
  0.7639424171008651  0.4311183379944583  0.7042834344236076   T   T   T
  0.4822627026670347  0.2699435497796185  0.7750912448620151   T   T   T
  0.2890437944345354  0.5384050125820864  0.7772754049759562   T   T   T
  0.6186802227048758  0.3216923711812512  0.6960899304601899   T   T   T
  0.3680814752815983  0.6193056836503714  0.8201664224964373   T   T   T
  0.5688549730605501  0.5113516953260634  0.8572233926238388   T   T   T
  0.6620286822991547  0.2013002118723472  0.7540672840570051   T   T   T
  0.4690689695622557  0.4524191124673883  0.8807749433045614   T   T   T
  0.5178790717816856  0.3770780809538951  0.7334243619364005   T   T   T
  0.2818979302469430  0.3398493535323828  0.7023904915370879   T   T   T
  0.6694233329957991  0.6811332399180988  0.7488007221786949   T   T   T
  0.3976775390223823  0.3816985090539013  0.6904515338906577   T   T   T
  0.4521576620669522  0.5801706402993563  0.7028901687061213   T   T   T
  0.3749669797569842  0.4934212258648731  0.8323692266067366   T   T   T
  0.3246654521369609  0.4149410056218364  0.7692386242566095   T   T   T
  0.4175948435947947  0.6969153626652179  0.6994293483549109   T   T   T
  0.6996854230258919  0.3447190335367093  0.7579946859226940   T   T   T
  0.7736621507114805  0.4286805531889530  0.7945820570422280   T   T   T
  0.2567250603870390  0.5930266456884782  0.6945297697951264   T   T   T
  0.6496052259956359  0.4471834613930200  0.6928979234822383   T   T   T
  0.5646061837489029  0.6404218170086103  0.8615976110290239   T   T   T
  0.5401159497588619  0.6678776717085477  0.7019327198487409   T   T   T
  0.4440755328928150  0.4740074535354938  0.7562218261020587   T   T   T
  0.3740731745236061  0.7399108934631377  0.7786915268540512   T   T   T
  0.4621458076223842  0.5744022845261079  0.8639004380490728   T   T   T
  0.6555839659863693  0.4414012349708578  0.8134004523579108   T   T   T
  0.7065276471967151  0.7568364620624278  0.6883555756960184   T   T   T
  0.7179755582045388  0.1475509163694955  0.7785223933780400   T   T   T
  0.7470681414449321  0.1633239320012669  0.8043438175769605   T   T   T
  0.7236781956468935  0.1018732522841231  0.7666120879516514   T   T   T
  0.2492867582696478  0.3137575899533417  0.5459635530732396   T   T   T
  0.7504944879420734  0.1900648767588393  0.4559064080384295   T   T   T
  0.4173747080661370  0.9358212745369142  0.4539072341737607   T   T   T
  0.4172513817333381  0.6847356729560502  0.4547565362660227   T   T   T
  0.4166347194710255  0.4355618211910376  0.4539567872303563   T   T   T
  0.0844458909138283  0.6869538521315173  0.4531264931603676   T   T   T
  0.0841511067090829  0.9367460838686851  0.4536523881399546   T   T   T
  0.0827515251820430  0.4368202774790039  0.4528366498444769   T   T   T
  0.0838403603624092  0.1865516613598926  0.4529775044484947   T   T   T
  0.9165363749181167  0.8121735470418331  0.4540641766858698   T   T   T
  0.7464829210902028  0.5577850397050336  0.5446506988658403   T   T   T
  0.9161434749660606  0.5622221876662818  0.4540649084666932   T   T   T
  0.9160621900771554  0.0622871500432908  0.4541071603385688   T   T   T
  0.9161937822237228  0.3122228891356240  0.4538821822387007   T   T   T
  0.4169585072277163  0.1872664108395206  0.4535228330595159   T   T   T
  0.2520554028284381  0.6876081767955998  0.4560669971332397   T   T   T
  0.9164027303316467  0.9371022758440517  0.4536619444337834   T   T   T
  0.5829523823988780  0.1903906039284385  0.4556651664984323   T   T   T
  0.0000740403171977  0.1250423183070046  0.4983350805913324   T   T   T
  0.5833073990812626  0.8104866023225358  0.4553562739367911   T   T   T
  0.0000909926254802  0.3733901082270860  0.4983960433339796   T   T   T
  0.9998027343682445  0.6271658273276498  0.4976708998036556   T   T   T
  0.3335482874505498  0.1257008744163784  0.4984846182273052   T   T   T
  0.0001718607655722  0.8752604037684963  0.4996024104271170   T   T   T
  0.3334137380620095  0.8741170489402297  0.4991574540188797   T   T   T
  0.6659023370806794  0.1268202760561805  0.4995451558595418   T   T   T
  0.2511337938787210  0.4392613991160604  0.4549126677954217   T   T   T
  0.0833333358191695  0.5625000000092442  0.3605200052333331   F   F   F
  0.9166666865332829  0.0625000000159659  0.3605200052333331   F   F   F
  0.7492891841240988  0.8131991430354342  0.4530374357358066   T   T   T
  0.7498401392212101  0.4383470514001498  0.4557599045388579   T   T   T
  0.2505017550436214  0.0620461533009270  0.4542604152078555   T   T   T
  0.7490920470583963  0.6885568059113062  0.4574686184789544   T   T   T
  0.2498704446840877  0.1884786121955682  0.4541089775775821   T   T   T
  0.2500124963499299  0.9360441024647750  0.4540322803126449   T   T   T
  0.6653357504428851  0.6260155977809072  0.5030050666431068   T   T   T
  0.5844876135294634  0.5628135289518792  0.4548485437149021   T   T   T
  0.5834308234761012  0.0641014321583319  0.4537476415470268   T   T   T
  0.9166666865332829  0.6874999999963620  0.3605200052333331   F   F   F
  0.9166666865332829  0.4374999701794380  0.3605200052333331   F   F   F
  0.9166666865332829  0.1875000000030838  0.3605200052333331   F   F   F
  0.5833333134730552  0.9375000000154046  0.3605200052333331   F   F   F
  0.5833333134730552  0.6874999999963620  0.3605200052333331   F   F   F
  0.5833333134730552  0.4374999701794380  0.3605200052333331   F   F   F
  0.5833333134730552  0.1875000000030838  0.3605200052333331   F   F   F
  0.2499999999799343  0.9375000000154046  0.3605200052333331   F   F   F
  0.9166666865332829  0.9375000000154046  0.3605200052333331   F   F   F
  0.2499999999799343  0.6874999999963620  0.3605200052333331   F   F   F
  0.2499999999799343  0.1875000000030838  0.3605200052333331   F   F   F
  0.7499999404149307  0.9375000000154046  0.3605200052333331   F   F   F
  0.7499999404149307  0.6874999999963620  0.3605200052333331   F   F   F
  0.7499999404149307  0.4374999701794380  0.3605200052333331   F   F   F
  0.7499999404149307  0.1875000000030838  0.3605200052333331   F   F   F
  0.4166666269218169  0.9375000000154046  0.3605200052333331   F   F   F
  0.4166666269218169  0.6874999999963620  0.3605200052333331   F   F   F
  0.4166666269218169  0.4374999701794380  0.3605200052333331   F   F   F
  0.2499999999799343  0.4374999701794380  0.3605200052333331   F   F   F
  0.0833333358191695  0.0625000000159659  0.3605200052333331   F   F   F
  0.9153560066598192  0.6868916256216014  0.4533182979426550   T   T   T
  0.6654818344619170  0.3785672818271586  0.5031119987968757   T   T   T
  0.3343159266018328  0.3785263567449605  0.5029882091763913   T   T   T
  0.3356297782352121  0.6258259841528295  0.5037762193158036   T   T   T
  0.9177016225962558  0.0633872590857100  0.5475130272816531   T   T   T
  0.7495172102302582  0.9385212535434281  0.4553359609532360   T   T   T
  0.5827924661860044  0.4394999768699946  0.4564341812386498   T   T   T
  0.9154134384212258  0.3126552299847111  0.5466740463781629   T   T   T
  0.2519253472052531  0.5646386573600294  0.4537125038088101   T   T   T
  0.5833333134730552  0.0625000000159659  0.3605200052333331   F   F   F
  0.2499999999799343  0.8124999999834799  0.3605200052333331   F   F   F
  0.2499999999799343  0.5625000000092442  0.3605200052333331   F   F   F
  0.2499999999799343  0.3124999999901945  0.3605200052333331   F   F   F
  0.2499999999799343  0.0625000000159659  0.3605200052333331   F   F   F
  0.7499999404149307  0.5625000000092442  0.3605200052333331   F   F   F
  0.7499999404149307  0.3124999999901945  0.3605200052333331   F   F   F
  0.7499999404149307  0.0625000000159659  0.3605200052333331   F   F   F
  0.4166666269218169  0.8124999999834799  0.3605200052333331   F   F   F
  0.4166666269218169  0.5625000000092442  0.3605200052333331   F   F   F
  0.4166666269218169  0.3124999999901945  0.3605200052333331   F   F   F
  0.7499999404149307  0.8124999999834799  0.3605200052333331   F   F   F
  0.0835087480875678  0.3119713225524023  0.4540576741312514   T   T   T
  0.4166666269218169  0.0625000000159659  0.3605200052333331   F   F   F
  0.4167396319801149  0.0615750486497239  0.4553542258950564   T   T   T
  0.0835781135279980  0.8121122597172115  0.4542103063282954   T   T   T
  0.0839222567538004  0.5624933277275495  0.4539523804918086   T   T   T
  0.4159590452058920  0.5594695127194175  0.4578963796870803   T   T   T
  0.0837490840908190  0.0618586074059949  0.4541604681638837   T   T   T
  0.4156001440567524  0.3113944135603413  0.4573640266931243   T   T   T
  0.8333332538436267  0.7500000000123208  0.4070133268666680   F   F   F
  0.0833333358191695  0.4374999701794380  0.3605200052333331   F   F   F
  0.0833333358191695  0.6874999999963620  0.3605200052333331   F   F   F
  0.0833333358191695  0.9375000000154046  0.3605200052333331   F   F   F
  0.4166666269218169  0.1875000000030838  0.3605200052333331   F   F   F
  0.0833333358191695  0.8124999999834799  0.3605200052333331   F   F   F
  0.8333332538436267  0.4999999999932783  0.4070133268666680   F   F   F
  0.2510946804445065  0.0625834127941939  0.5472900454355787   T   T   T
  0.4141034873852386  0.8117986207645207  0.5478522901802595   T   T   T
  0.5833333134730552  0.3124999999901945  0.3605200052333331   F   F   F
  0.2522697839056153  0.3141367933156230  0.4541588884258928   T   T   T
  0.5833333134730552  0.8124999999834799  0.3605200052333331   F   F   F
  0.5833333134730552  0.5625000000092442  0.3605200052333331   F   F   F
  0.2505067339524106  0.8108520388469550  0.4553374492288795   T   T   T
  0.8333332538436267  0.2500000000190425  0.4070133268666680   F   F   F
  0.5841402369612442  0.3154399568161863  0.4538017865250802   T   T   T
  0.7478176630346848  0.8078858242348915  0.5456163320197811   T   T   T
  0.5000000000021103  0.4999999999932783  0.4070133268666680   F   F   F
  0.0833333358191695  0.1875000000030838  0.3605200052333331   F   F   F
  0.0000000000000000  0.0000000000000000  0.4070133268666680   F   F   F
  0.0000000000000000  0.2500000000190425  0.4070133268666680   F   F   F
  0.0000000000000000  0.4999999999932783  0.4070133268666680   F   F   F
  0.7480929115986669  0.5642824595117777  0.4538089140882647   T   T   T
  0.3333333432766779  0.0000000000000000  0.4070133268666680   F   F   F
  0.3333333432766779  0.4999999999932783  0.4070133268666680   F   F   F
  0.3333333432766779  0.7500000000123208  0.4070133268666680   F   F   F
  0.6666666865533486  0.0000000000000000  0.4070133268666680   F   F   F
  0.6666666865533486  0.2500000000190425  0.4070133268666680   F   F   F
  0.6666666865533486  0.4999999999932783  0.4070133268666680   F   F   F
  0.6666666865533486  0.7500000000123208  0.4070133268666680   F   F   F
  0.1666666716383389  0.0000000000000000  0.4070133268666680   F   F   F
  0.1666666716383389  0.2500000000190425  0.4070133268666680   F   F   F
  0.1666666716383389  0.4999999999932783  0.4070133268666680   F   F   F
  0.1666666716383389  0.7500000000123208  0.4070133268666680   F   F   F
  0.5000000000021103  0.0000000000000000  0.4070133268666680   F   F   F
  0.5000000000021103  0.2500000000190425  0.4070133268666680   F   F   F
  0.5000000000021103  0.7500000000123208  0.4070133268666680   F   F   F
  0.9166666865332829  0.3124999999901945  0.3605200052333331   F   F   F
  0.3333333432766779  0.2500000000190425  0.4070133268666680   F   F   F
  0.7473928717981078  0.3141826456475712  0.4548014240453558   T   T   T
  0.0000000000000000  0.7500000000123208  0.4070133268666680   F   F   F
  0.4166653989820959  0.8099294204375416  0.4550699029388302   T   T   T
  0.7492766540238537  0.0643589277696503  0.4534581008412104   T   T   T
  0.5826895458062347  0.6861472630243880  0.4546637614551252   T   T   T
  0.8333332538436267  0.0000000000000000  0.4070133268666680   F   F   F
  0.9158289002793296  0.1869253913808865  0.4532081708602937   T   T   T
  0.4159380770320432  0.9371087476890998  0.5460779374768471   T   T   T
  0.4984649142966742  0.2530356961335921  0.5905313801956298   T   T   T
  0.4156611833888123  0.1914355568536042  0.5464591426643011   T   T   T
  0.0858767795008738  0.6892855113604969  0.5453706570167942   T   T   T
  0.0829150084138338  0.4390292962235801  0.5447973113582267   T   T   T
  0.0835941939016431  0.1888330604359650  0.5456179109134608   T   T   T
  0.4994089670983634  0.1259615720858035  0.4991127428650362   T   T   T
  0.9996958138813707  0.4993278340668725  0.5941198305766563   T   T   T
  0.5799289054993835  0.1849552299547240  0.5505516725898081   T   T   T
  0.9997628503177528  0.7532327529162294  0.5923694830894420   T   T   T
  0.3340181010008221  0.9998939362000415  0.5919737583405026   T   T   T
  0.9998513507712039  0.9989070913792757  0.5930746255883314   T   T   T
  0.0011995564848363  0.2502312212348858  0.5920278455603771   T   T   T
  0.3332279143349522  0.4963474740003843  0.5909936832535791   T   T   T
  0.3353302980300434  0.7412907476646218  0.5904473967187795   T   T   T
  0.6632183052708648  0.2468399758582329  0.5911294946431123   T   T   T
  0.6658594149936202  0.0006226374322100  0.5918143495041106   T   T   T
  0.6656039083544200  0.7412197351307231  0.5908782582915000   T   T   T
  0.6666564582890195  0.4947149720159741  0.5915374465917100   T   T   T
  0.1674956026848675  0.9982705835935556  0.5922672020169941   T   T   T
  0.1684901131748685  0.2482566685000848  0.5931472785709426   T   T   T
  0.1707890101375898  0.7502061358465265  0.5950498371444382   T   T   T
  0.2483248887666592  0.4359925660240470  0.5490279756538556   T   T   T
  0.1655884642392834  0.5029472058216226  0.5873248808649764   T   T   T
  0.3347457623785053  0.2549313074199075  0.5929332099819019   T   T   T
  0.4996034253259410 -0.0000043603453169  0.5909983696544824   T   T   T
  0.8326928179790519  0.8741760174574652  0.4986350397630278   T   T   T
  0.7484473816996091  0.9373121673849674  0.6402487895389445   T   T   T
  0.8322092179313124  0.0020724105564301  0.5922022952985710   T   T   T
  0.7484893197186417  0.1835304755491821  0.5509122815159628   T   T   T
  0.4230244583181114  0.6879836887696134  0.5467436720143087   T   T   T
  0.4230990946677471  0.4436056977508874  0.5459585862750892   T   T   T
  0.7518717565522179  0.4351284521757302  0.5490578693493280   T   T   T
  0.5830751286851014  0.3109897033926917  0.5451953005651754   T   T   T
  0.2531304077208850  0.8125383987968454  0.5506533485962788   T   T   T
  0.5825374725031633  0.9373434525803520  0.4545742884346576   T   T   T
  0.5825477756834496  0.0617409624605544  0.5452416268012624   T   T   T
  0.5859226315239543  0.8142865117973271  0.5504177277771173   T   T   T
  0.7478352164976673  0.3112861264842091  0.5482027490374574   T   T   T
  0.5811949248961225  0.5600975278195893  0.5489051713019980   T   T   T
  0.2525275268492409  0.5590833953513364  0.5438680045456166   T   T   T
  0.4159253276312823  0.3195688688882842  0.5523860307090911   T   T   T
  0.5767339648962273  0.4357393530327011  0.5522079512169160   T   T   T
  0.4166287389025936  0.0654860690512958  0.5473436161708934   T   T   T
  0.0851205987427951  0.8126033944672117  0.5473478676158191   T   T   T
  0.0816362210710639  0.5644087683474867  0.5463263917051704   T   T   T
  0.0867855586498139  0.3134817566132338  0.5471780958182094   T   T   T
  0.5005275712881987  0.7568089086457086  0.5925590505925159   T   T   T
  0.0824207003145166  0.0630984334996513  0.5475874501279897   T   T   T
  0.9140360235913800  0.6889791945556590  0.5454327098634298   T   T   T
  0.5837602637470695  0.9374982090721297  0.5463037539823518   T   T   T
  0.9170231884138034  0.1890627824070408  0.5452834215779709   T   T   T
  0.9156995405254111  0.4376117197796469  0.5456387864367551   T   T   T
  0.5793323131858963  0.6860685381505561  0.5475524499532112   T   T   T
  0.2514743526560378  0.9373202509733155  0.5452751628734180   T   T   T
  0.4975437578660266  0.5043201537337086  0.6090008941595506   T   T   T
  0.9178746837518253  0.5638926963430329  0.5471567230742572   T   T   T
  0.4199831736053184  0.5648455526213331  0.5554938233235559   T   T   T
  0.9155520249641338  0.8128330610835405  0.5467642758438251   T   T   T
  0.0841196938999661  0.9383565452694359  0.5461266318837549   T   T   T
  0.2490878974501053  0.6833033812352741  0.5519366148907849   T   T   T
  0.7493104279522285  0.9338785483666834  0.5477373109126503   T   T   T
  0.7517757704426558  0.6801582941083643  0.5534238102052111   T   T   T
  0.9156813923835367  0.9385572936796472  0.5463955552164653   T   T   T
  0.4176704526814513  0.0651403596271143  0.6401008069982904   T   T   T
  0.0833333358191695  0.3124999999901945  0.3605200052333331   F   F   F
  0.4125148708179728  0.8130198214152511  0.6395994029700430   T   T   T
  0.9160836011355398  0.0623904147320462  0.6416166321239467   T   T   T
  0.9133235331041725  0.5625238375814996  0.6410837779145603   T   T   T
  0.9151054457608532  0.3117987238374765  0.6396227030786946   T   T   T
  0.9138542680154595  0.8132584185238801  0.6416480841764999   T   T   T
  0.5823993468818182  0.0668045331517579  0.6384762575103871   T   T   T
  0.5835124934321682  0.3208230469922041  0.6338387704455197   T   T   T
  0.5905861623297292  0.5661056223785152  0.6388525473069137   T   T   T
  0.2475841557059157  0.5740148726330071  0.6287595079040738   T   T   T
  0.7539723985801681  0.6918670089839968  0.6572367762494908   T   T   T
  0.2619902273221884  0.7996499182506431  0.6463366581507519   T   T   T
  0.2510032501071787  0.0594789871452110  0.6423072319856199   T   T   T
  0.9166666865332829  0.5625000000092442  0.3605200052333331   F   F   F
  0.4996214786283287  0.3743046050135634  0.5000696975311272   T   T   T
  0.5002758328622533  0.6210706765224251  0.5000573988856712   T   T   T
  0.8322860683936031  0.6230971047990396  0.4999845592473537   T   T   T
  0.2520911197349224  0.1882212439863787  0.5472442621554571   T   T   T
  0.8323377949860478  0.3731790228614906  0.4998568661957822   T   T   T
  0.8327872759329809  0.1244903840910907  0.5001217018226658   T   T   T
  0.1667719894550865  0.3761804157113122  0.4977513518790135   T   T   T
  0.1677504171256881  0.6242339856045477  0.5000294809319772   T   T   T
  0.5813292930864231  0.4389468818418831  0.6465919971444645   T   T   T
  0.5770357812115192  0.6863021591214185  0.6395969857586533   T   T   T
  0.9168595298533815  0.1860638227092389  0.6398027042206639   T   T   T
  0.2490512878544921  0.3163638883553619  0.6411994082938667   T   T   T
  0.1677286380003801  0.8732617276779230  0.4999131133878777   T   T   T
  0.9159212944563012  0.4369776675468217  0.4536333649486435   T   T   T
  0.1671159150624922  0.1242970094234222  0.4993491341806384   T   T   T
  0.7481731893702687  0.0598606626697784  0.5445230230144695   T   T   T
  0.4293997798620196  0.3052066773706252  0.6555017251216957   T   T   T
  0.5909839234373838  0.8103075314489896  0.6460740674329334   T   T   T
  0.4204844195177826  0.6761270564354681  0.6336103832071092   T   T   T
  0.5000223252253384  0.8731358307854349  0.5009198294666271   T   T   T
  0.7549849303807197  0.4331153439226075  0.6376064140373727   T   T   T
  0.7533739412210975  0.5681473622935649  0.6358161285353368   T   T   T
  0.3972620970141345  0.5506230765810551  0.6521283433147967   T   T   T
  0.4173939610887669  0.9349360089162836  0.6397696487536803   T   T   T
  0.7411390835233794  0.8098217559556478  0.6399988064148547   T   T   T
  0.7467270820495617  0.3116739063115647  0.6404182319550117   T   T   T
  0.7476797934150491  0.0679735396440220  0.6389597380445967   T   T   T
  0.0844311364102182  0.3112699690675833  0.6408420556444692   T   T   T
  0.6664322621738429  0.8744663853306452  0.4988885436843494   T   T   T
  0.0866637469062107  0.5629183598681518  0.6400339293181664   T   T   T
  0.0872471588492917  0.4366033621669790  0.6396500975251114   T   T   T
  0.0835491740022628  0.1854486844818096  0.6411907055552246   T   T   T
  0.4178501467520580  0.1871744803092004  0.6395343783917981   T   T   T
  0.4150685472435725  0.4187488042456027  0.6300452695781351   T   T   T
  0.0844570471608842  0.9356019460620687  0.6409924454035962   T   T   T
  0.0831534800703906  0.6871332362127528  0.6389076973768261   T   T   T
  0.0841497007947930  0.0602522339433565  0.6421553250659113   T   T   T
  0.8333510008475105  0.5029720972853465  0.5887853767056340   T   T   T
  0.9124707406123546  0.4361333631579718  0.6398695398511954   T   T   T
  0.8303975080679407  0.7509547379718687  0.5928150562225073   T   T   T
  0.8318080068200993  0.2484703216956132  0.5909836009864413   T   T   T
  0.7467473548196730  0.1942988129336167  0.6467835427242994   T   T   T
  0.9166666865332829  0.8124999999834799  0.3605200052333331   F   F   F
  0.5820969401955416  0.9361702246348478  0.6395115577106993   T   T   T
  0.0843100875642502  0.8125554922970387  0.6423404549086124   T   T   T
  0.5777274746327836  0.1926120328044995  0.6458212394478423   T   T   T
  0.2545328591086897  0.6776614364536254  0.6634267318751100   T   T   T
  0.2405955975945852  0.4420753882631190  0.6414607699974932   T   T   T
  0.9143128383363162  0.9370134659814481  0.6412268507640188   T   T   T
  0.9163947293592095  0.6875665243531641  0.6389403399129381   T   T   T
  0.2520456016571392  0.9302446224462373  0.6374442753845170   T   T   T
  0.2535110042910910  0.1865310224186314  0.6411902972905681   T   T   T
  0.0008182399124078  0.1225058530212918  0.6194178403497971   T   T   T
  0.1666666716383389  0.3750000000061604  0.4070133268666680   F   F   F
  0.6653651527292558  0.7518778199818517  0.5022385573959310   T   T   T
  0.5011495870809400  0.7528545974897602  0.5038484436219524   T   T   T
  0.6658705117487220 -0.0000181510551519  0.5055121250923271   T   T   T
  0.1645002299007656  0.7514528043993465  0.5034365974081498   T   T   T
  0.8333332538436267  0.6249999999803961  0.4070133268666680   F   F   F
  0.6684629483442096  0.4998761076850062  0.5006349625643384   T   T   T
  0.3311993516787670  0.4992627370833334  0.5009566452286711   T   T   T
  0.3300711568744715  0.2480699168541828  0.5028005925801710   T   T   T
  0.3330626024330618  0.0010903884616994  0.5058174675383017   T   T   T
  0.6669529495997109  0.2480216733405474  0.5027184996316453   T   T   T
  0.5011366233609262  0.4997682964045316  0.5002390663107183   T   T   T
  0.9996869022449187  0.5001474807744285  0.5067925075673603   T   T   T
  0.8362302641550811  0.5000977629048361  0.5027520565755720   T   T   T
  0.8359696569233331  0.2485401515729302  0.5026451865215933   T   T   T
  0.6666666865533486  0.3750000000061604  0.4070133268666680   F   F   F
  0.1660312794665899  0.0011119842815729  0.5066016091629009   T   T   T
  0.0000000000000000  0.8749999404036828  0.4070133268666680   F   F   F
  0.5010301924127698  0.2480541104307797  0.5020504618184211   T   T   T
 -0.0000606448215283  0.7510961310544021  0.5065592293937106   T   T   T
  0.0010566695370777  0.2498420288967998  0.5059978017094622   T   T   T
  0.0001166779736144  0.9998776954181940  0.5067187471524323   T   T   T
  0.6666666865533486  0.6249999999803961  0.4070133268666680   F   F   F
  0.8333332538436267  0.8749999404036828  0.4070133268666680   F   F   F
  0.3333333432766779  0.6249999999803961  0.4070133268666680   F   F   F
  0.3333333432766779  0.1249999999871179  0.4070133268666680   F   F   F
  0.3333333432766779  0.3750000000061604  0.4070133268666680   F   F   F
  0.8343011429163407  0.0002426958088033  0.5065393187604033   T   T   T
  0.3333333432766779  0.8749999404036828  0.4070133268666680   F   F   F
  0.6666666865533486  0.1249999999871179  0.4070133268666680   F   F   F
  0.0000000000000000  0.6249999999803961  0.4070133268666680   F   F   F
  0.1663923514609001  0.2481506183617646  0.5062765031166884   T   T   T
  0.3338908030270961  0.7511585119788132  0.5015170523145591   T   T   T
  0.5002223380654924  0.9992930488568094  0.5054737470945257   T   T   T
  0.5009144544917832  0.8770579870793226  0.6095831390372787   T   T   T
  0.3258405529755378  0.3736538511209611  0.5927600433108764   T   T   T
  0.0000000000000000  0.3750000000061604  0.4070133268666680   F   F   F
  0.3341096555253808  0.6246269368709945  0.5950406701575494   T   T   T
  0.5000000000021103  0.8749999404036828  0.4070133268666680   F   F   F
  0.8333332538436267  0.1249999999871179  0.4070133268666680   F   F   F
  0.1666666716383389  0.1249999999871179  0.4070133268666680   F   F   F
  0.6653107720647645  0.1248031142435586  0.6103015838079240   T   T   T
  0.5000000000021103  0.6249999999803961  0.4070133268666680   F   F   F
  0.8394770936359101  0.6270290008486094  0.6040636390739252   T   T   T
  0.3315387541342770  0.1197383588824367  0.6130665961281649   T   T   T
  0.9991006022691552  0.8750793475276555  0.6229071737404024   T   T   T
  0.5000000000021103  0.1249999999871179  0.4070133268666680   F   F   F
  0.1635164078337106  0.4998647045510283  0.5019902467952949   T   T   T
  0.8318912762721153  0.8763922122320673  0.6182344849582528   T   T   T
  0.8380398906662451  0.3725334035050973  0.6029853275221589   T   T   T
  0.8360580870923477  0.7516765606628262  0.5026141448005833   T   T   T
  0.1666666716383389  0.8749999404036828  0.4070133268666680   F   F   F
  0.8333332538436267  0.3750000000061604  0.4070133268666680   F   F   F
  0.0000000000000000  0.1249999999871179  0.4070133268666680   F   F   F
  0.5036430641899148  0.6249964540953136  0.5940680366334471   T   T   T
  0.1666666716383389  0.6249999999803961  0.4070133268666680   F   F   F
  0.5000000000021103  0.3750000000061604  0.4070133268666680   F   F   F
  0.6666666865533486  0.8749999404036828  0.4070133268666680   F   F   F
  0.6707508543581213  0.3723961317303376  0.5929998686329031   T   T   T
  0.3345283132778843  0.8787193148983267  0.6028101850180363   T   T   T
  0.1663080839186415  0.8735020296406778  0.6180224819933161   T   T   T
  0.5016395785711537  0.3715060692438782  0.5948724746785092   T   T   T
  0.1596388509355453  0.6275231791559835  0.6015788802360827   T   T   T
  0.1677282288835618  0.1228545611358704  0.6222748356233657   T   T   T
  0.1633466455346657  0.3713577571886590  0.6075342628176227   T   T   T
  0.6653501379651908  0.8813483601466122  0.6074764596095501   T   T   T
  0.6665196494714697  0.6259695784155105  0.5932899248134480   T   T   T
  0.0003825248960740  0.3748499505401311  0.6244550874390941   T   T   T
  0.9996281697990794  0.6230482309113859  0.6252517579166555   T   T   T
  0.8344142704835058  0.1242133473905601  0.6168167822865585   T   T   T
  0.5001183194000933  0.1223989775986378  0.6064566141456638   T   T   T
  0.5847926730846520  0.7500618164316304  0.5997256039465341   T   T   T
  0.0838533919612503  0.2479063879338907  0.6038522651070546   T   T   T
  0.7496202837894012  0.0020776662923357  0.6042220867828597   T   T   T
  0.5825331701894106  0.0011432969132009  0.6041594366819641   T   T   T
  0.9164703145111947 -0.0001012451908099  0.6038305253403486   T   T   T
  0.5901857120697553  0.5014986365849119  0.5935311327381966   T   T   T
  0.4147290661366244  0.2483255532730018  0.5911905138873675   T   T   T
  0.2497088126142888  0.7529299352862165  0.5920023921503133   T   T   T
  0.5843600541185556  0.2483195752908842  0.5968468235824508   T   T   T
  0.2497689857858075  0.9977064991037164  0.6041817672223251   T   T   T
  0.7544391680914073  0.2480544502150595  0.5927991167276958   T   T   T
  0.2492111648933129  0.2457053788661364  0.6037476519072245   T   T   T
  0.4170542297628940  0.0000319704728976  0.6046995753863622   T   T   T
  0.2423497398537548  0.4980547451222972  0.5939144372634253   T   T   T
  0.0815284083442373  0.4998172064443876  0.6030688777817783   T   T   T
  0.0812346382710321  0.6258776139358526  0.5054729924416530   T   T   T