Au  O Sr Ti  H                          
   1.00000000000000     
    23.6707801818999997    0.0000000000000000    0.0000000000000000
     0.0000000000000000   22.3170261383000010    0.0000000000000000
     0.0000000000000000    0.0000000000000000   30.0000000000000000
   Au   O    Sr   Ti   H 
    50   264    72    72     1
Selective dynamics
Direct
  0.7190494377093422  0.5279912027815393  0.7533460031720304   T   T   T
  0.6245080037220310  0.5679116513781812  0.7039502009364619   T   T   T
  0.7187269111283596  0.2589054759551903  0.6917340178195702   T   T   T
  0.2918219700874699  0.7455123516459595  0.6982737814508718   T   T   T
  0.5126454413029806  0.6043613919826571  0.7766361577894774   T   T   T
  0.5775455307982267  0.7208476614248186  0.7911330902547846   T   T   T
  0.5503780890262130  0.3846124412274053  0.8292912997207554   T   T   T
  0.2427172787322079  0.4676282003911247  0.7094775130969571   T   T   T
  0.2820380223023332  0.6606124284382776  0.7663090681288777   T   T   T
  0.6030242734628963  0.2894632571149834  0.7877655519932523   T   T   T
  0.5146485957872966  0.4830861848407025  0.6777788264082190   T   T   T
  0.5622876437422746  0.4864945913670218  0.7624201718090249   T   T   T
  0.4628299167606828  0.6945393292510023  0.8306995061985056   T   T   T
  0.7641912851554553  0.4322173704703491  0.7045385733461067   T   T   T
  0.7335693626775883  0.6168939963816010  0.6926316879578817   T   T   T
  0.6348170759751817  0.5860888478295389  0.7988778242183325   T   T   T
  0.5841118147758004  0.7851634926740598  0.7125314740399815   T   T   T
  0.4825629483204788  0.7782421867958973  0.7590364996515910   T   T   T
  0.3500848744534351  0.5010942236941168  0.6972222323278138   T   T   T
  0.4309811506201706  0.3721627788503651  0.8154363716729802   T   T   T
  0.3728418375711466  0.2982853663793389  0.7557416307203644   T   T   T
  0.4413370544908830  0.2280460789818720  0.6969921862324657   T   T   T
  0.3896857720713044  0.8157018842772904  0.7066197284046176   T   T   T
  0.2910839300865041  0.5362490290348744  0.7776562691031196   T   T   T
  0.5558966156179332  0.2083257420780448  0.7114481353225283   T   T   T
  0.4543286998674949  0.5798074807136628  0.7022965901222485   T   T   T
  0.6134366522734843  0.3191910363118670  0.6977716731613498   T   T   T
  0.7245588911278548  0.7564583583011870  0.6934580767491902   T   T   T
  0.6564193515319762  0.4434273557321858  0.8110678675797448   T   T   T
  0.3679117714564071  0.6178324273274161  0.8202967815707487   T   T   T
  0.5711225716423604  0.5106368855903897  0.8563516411132882   T   T   T
  0.6645367294628778  0.1939169584056555  0.7523118574070211   T   T   T
  0.4726637109467365  0.4507907792898471  0.8795369636614883   T   T   T
  0.5161374377788210  0.3774102829330799  0.7341045216464646   T   T   T
  0.2837487818127293  0.3373033735650172  0.7025322580620715   T   T   T
  0.6776593539906675  0.6833971105098182  0.7517369907240457   T   T   T
  0.3977537375517406  0.3818674467378190  0.6903091875024813   T   T   T
  0.3761239750907316  0.4919212146296419  0.8338698296072303   T   T   T
  0.4631093707687785  0.5730363715661604  0.8638796471363375   T   T   T
  0.3268773373965600  0.4138418879176705  0.7694552783191750   T   T   T
  0.4877516112259841  0.2684310315037797  0.7750413754425678   T   T   T
  0.4228233051829096  0.6970169169849182  0.6997483285228880   T   T   T
  0.7005549003641017  0.3468515957333353  0.7560343526802402   T   T   T
  0.7744382473567479  0.4308849139132961  0.7948387769077637   T   T   T
  0.2573912189700718  0.5924003468483615  0.6948513683262435   T   T   T
  0.6474605943423239  0.4415909229249853  0.6969819076909890   T   T   T
  0.5650439587759102  0.6396421324682323  0.8616012074667343   T   T   T
  0.5462189101509780  0.6651869524970360  0.7012221729217130   T   T   T
  0.4430933146028458  0.4748619878774291  0.7561189522604509   T   T   T
  0.3725890715569183  0.7372432653264933  0.7784263578554457   T   T   T
  0.2500075330596936  0.1886984062559604  0.4543727897545157   T   T   T
  0.7494570637232620  0.9377517907893360  0.4549868675285275   T   T   T
  0.7487399521071942  0.6875666298744908  0.4560246964980583   T   T   T
  0.7493928716750707  0.4379085695105015  0.4555394915008576   T   T   T
  0.7501164612162877  0.1896669289494891  0.4555855804907132   T   T   T
  0.4173025942276963  0.9357421124576117  0.4538991648628700   T   T   T
  0.4168785889267504  0.6846083977494900  0.4547501462789784   T   T   T
  0.4165884507357617  0.4353933134538486  0.4538918936279132   T   T   T
  0.0844991951708532  0.6868608424347228  0.4530144242980153   T   T   T
  0.0838845002289762  0.9366705003388376  0.4534618232451486   T   T   T
  0.0827754953196451  0.4368098495763345  0.4528808873536254   T   T   T
  0.0838708062709642  0.1865599328437977  0.4529889827580442   T   T   T
  0.9165639228893238  0.8120948733333216  0.4540740295100613   T   T   T
  0.9161415881831533  0.5623807402966167  0.4536833315658575   T   T   T
  0.2511483345217264  0.4392460048375209  0.4549057783270712   T   T   T
  0.9161237435652463  0.0621284409510342  0.4541143558202051   T   T   T
  0.9162035768322101  0.3122301588503503  0.4538097174547899   T   T   T
  0.4171132458021766  0.1871006889506479  0.4536307648074053   T   T   T
  0.2522912852855474  0.6873878157055737  0.4560547556918941   T   T   T
  0.9165752012242833  0.9367983964471837  0.4533840447293445   T   T   T
  0.5826161682544314  0.1890689409363258  0.4551165761902934   T   T   T
  0.0001003518264658  0.1250911030739253  0.4984249924809952   T   T   T
  0.5835725370463390  0.8100479899064319  0.4553420036517400   T   T   T
 -0.0000134522354178  0.3733758388825156  0.4984411773050956   T   T   T
  0.9997748792233966  0.6269202825210983  0.4976549866177653   T   T   T
  0.3334872257872621  0.1250220202971126  0.4983764162850557   T   T   T
  0.0000489349465855  0.8751280372419601  0.4995495747592684   T   T   T
  0.3334477835342348  0.8738963738142529  0.4988042739161895   T   T   T
  0.6659599216436098  0.1259456763492653  0.4991531890819900   T   T   T
  0.3355200465660123  0.6249731754463779  0.5041160529490272   T   T   T
  0.3343324597874302  0.3784559554371723  0.5030083685279303   T   T   T
  0.6654145802876785  0.3784722765337770  0.5032640182399283   T   T   T
  0.9154059917931718  0.6867777877901684  0.4530973882086653   T   T   T
  0.9159483000719462  0.4369856249692456  0.4536897231789812   T   T   T
  0.9158513040597516  0.1869407364049184  0.4532156624050512   T   T   T
  0.5828410402397716  0.9362193917996425  0.4540918266168953   T   T   T
  0.5827276272474734  0.6859690105012007  0.4546561338417231   T   T   T
  0.5826850044340310  0.4387011253457253  0.4559118283210616   T   T   T
  0.2499976038810345  0.9360141661690128  0.4540331383578944   T   T   T
  0.6652632966094086  0.6252895209879054  0.5026214880484965   T   T   T
  0.5843550099893671  0.5623662374478736  0.4550421568091926   T   T   T
  0.5828782327142510  0.0624247667955355  0.4547624855289513   T   T   T
  0.9166666865332829  0.6874999999963620  0.3605200052333331   F   F   F
  0.9166666865332829  0.4374999701794380  0.3605200052333331   F   F   F
  0.9166666865332829  0.1875000000030838  0.3605200052333331   F   F   F
  0.5833333134730552  0.9375000000154046  0.3605200052333331   F   F   F
  0.5833333134730552  0.6874999999963620  0.3605200052333331   F   F   F
  0.5833333134730552  0.4374999701794380  0.3605200052333331   F   F   F
  0.5833333134730552  0.1875000000030838  0.3605200052333331   F   F   F
  0.2499999999799343  0.9375000000154046  0.3605200052333331   F   F   F
  0.9166666865332829  0.9375000000154046  0.3605200052333331   F   F   F
  0.2499999999799343  0.6874999999963620  0.3605200052333331   F   F   F
  0.2499999999799343  0.1875000000030838  0.3605200052333331   F   F   F
  0.7499999404149307  0.9375000000154046  0.3605200052333331   F   F   F
  0.7499999404149307  0.6874999999963620  0.3605200052333331   F   F   F
  0.7499999404149307  0.4374999701794380  0.3605200052333331   F   F   F
  0.7499999404149307  0.1875000000030838  0.3605200052333331   F   F   F
  0.4166666269218169  0.9375000000154046  0.3605200052333331   F   F   F
  0.4166666269218169  0.6874999999963620  0.3605200052333331   F   F   F
  0.4166666269218169  0.4374999701794380  0.3605200052333331   F   F   F
  0.2499999999799343  0.4374999701794380  0.3605200052333331   F   F   F
  0.0833333358191695  0.0625000000159659  0.3605200052333331   F   F   F
  0.0833333358191695  0.3124999999901945  0.3605200052333331   F   F   F
  0.0833333358191695  0.5625000000092442  0.3605200052333331   F   F   F
  0.9166666865332829  0.3124999999901945  0.3605200052333331   F   F   F
  0.9166666865332829  0.0625000000159659  0.3605200052333331   F   F   F
  0.5833333134730552  0.8124999999834799  0.3605200052333331   F   F   F
  0.5833333134730552  0.5625000000092442  0.3605200052333331   F   F   F
  0.5833333134730552  0.3124999999901945  0.3605200052333331   F   F   F
  0.5833333134730552  0.0625000000159659  0.3605200052333331   F   F   F
  0.2499999999799343  0.8124999999834799  0.3605200052333331   F   F   F
  0.2499999999799343  0.5625000000092442  0.3605200052333331   F   F   F
  0.2499999999799343  0.3124999999901945  0.3605200052333331   F   F   F
  0.2499999999799343  0.0625000000159659  0.3605200052333331   F   F   F
  0.7499999404149307  0.8124999999834799  0.3605200052333331   F   F   F
  0.7499999404149307  0.5625000000092442  0.3605200052333331   F   F   F
  0.7499999404149307  0.3124999999901945  0.3605200052333331   F   F   F
  0.7499999404149307  0.0625000000159659  0.3605200052333331   F   F   F
  0.4166666269218169  0.8124999999834799  0.3605200052333331   F   F   F
  0.4166666269218169  0.5625000000092442  0.3605200052333331   F   F   F
  0.4166666269218169  0.3124999999901945  0.3605200052333331   F   F   F
  0.4166666269218169  0.0625000000159659  0.3605200052333331   F   F   F
  0.0833333358191695  0.8124999999834799  0.3605200052333331   F   F   F
  0.4166666269218169  0.1875000000030838  0.3605200052333331   F   F   F
  0.0833333358191695  0.9375000000154046  0.3605200052333331   F   F   F
  0.0833333358191695  0.6874999999963620  0.3605200052333331   F   F   F
  0.0833333358191695  0.4374999701794380  0.3605200052333331   F   F   F
  0.8333332538436267  0.4999999999932783  0.4070133268666680   F   F   F
  0.8333332538436267  0.7500000000123208  0.4070133268666680   F   F   F
  0.0837409392575022  0.0618808252918581  0.4541859718753610   T   T   T
  0.0834689506448007  0.3119896531934520  0.4539917460827407   T   T   T
  0.0839726485772079  0.5624949551154098  0.4538807767797853   T   T   T
  0.0834911899412635  0.8121545847905114  0.4541817507305559   T   T   T
  0.4169944480385508  0.0615624230380004  0.4553286814902714   T   T   T
  0.4153224221370531  0.3112854961185880  0.4573392325967817   T   T   T
  0.4160154420500537  0.5594165540103962  0.4578062153831613   T   T   T
  0.4167787388851902  0.8097960339732707  0.4551049051877251   T   T   T
  0.7495743019857428  0.0638683987899077  0.4534237059996811   T   T   T
  0.7473769117112485  0.3139936901842176  0.4546744469996425   T   T   T
  0.7484249596996334  0.5634554960554149  0.4539176349717192   T   T   T
  0.7493598720970980  0.8121982372057653  0.4538214649859245   T   T   T
  0.2500847546469999  0.0619946410358438  0.4541603016635092   T   T   T
  0.9154334552640678  0.3124064061207986  0.5467043469680027   T   T   T
  0.2522694910137108  0.3142043685104294  0.4541514413302802   T   T   T
  0.2517609371367172  0.5644049826706379  0.4540105716588137   T   T   T
  0.2501941273837500  0.8104505677728399  0.4555273723589011   T   T   T
  0.8333332538436267  0.2500000000190425  0.4070133268666680   F   F   F
  0.5842294526708248  0.3144938325508532  0.4541430524688118   T   T   T
  0.8333332538436267  0.0000000000000000  0.4070133268666680   F   F   F
  0.5000000000021103  0.4999999999932783  0.4070133268666680   F   F   F
  0.0833333358191695  0.1875000000030838  0.3605200052333331   F   F   F
  0.0000000000000000  0.0000000000000000  0.4070133268666680   F   F   F
  0.0000000000000000  0.2500000000190425  0.4070133268666680   F   F   F
  0.0000000000000000  0.4999999999932783  0.4070133268666680   F   F   F
  0.0000000000000000  0.7500000000123208  0.4070133268666680   F   F   F
  0.3333333432766779  0.0000000000000000  0.4070133268666680   F   F   F
  0.3333333432766779  0.2500000000190425  0.4070133268666680   F   F   F
  0.3333333432766779  0.4999999999932783  0.4070133268666680   F   F   F
  0.3333333432766779  0.7500000000123208  0.4070133268666680   F   F   F
  0.6666666865533486  0.0000000000000000  0.4070133268666680   F   F   F
  0.6666666865533486  0.2500000000190425  0.4070133268666680   F   F   F
  0.6666666865533486  0.4999999999932783  0.4070133268666680   F   F   F
  0.6666666865533486  0.7500000000123208  0.4070133268666680   F   F   F
  0.1666666716383389  0.0000000000000000  0.4070133268666680   F   F   F
  0.1666666716383389  0.2500000000190425  0.4070133268666680   F   F   F
  0.1666666716383389  0.4999999999932783  0.4070133268666680   F   F   F
  0.1666666716383389  0.7500000000123208  0.4070133268666680   F   F   F
  0.5000000000021103  0.0000000000000000  0.4070133268666680   F   F   F
  0.5000000000021103  0.2500000000190425  0.4070133268666680   F   F   F
  0.5000000000021103  0.7500000000123208  0.4070133268666680   F   F   F
  0.1670421275760478  0.1243514137069208  0.4993643113619398   T   T   T
  0.9177031916098197  0.0632736204603327  0.5474212920548859   T   T   T
  0.1677900241534900  0.8732954715138306  0.4998987955019356   T   T   T
  0.2519230070906937  0.1880410445371645  0.5473041522696204   T   T   T
  0.7495110998364160  0.9349798286604867  0.5472995006610943   T   T   T
  0.7502847097702769  0.6828729589150112  0.5506561863389320   T   T   T
  0.7522790521457778  0.4354687733472558  0.5486404121149574   T   T   T
  0.4232770858353932  0.4435694976215172  0.5456938725027994   T   T   T
  0.4224128205642846  0.6874105654132324  0.5467441332278300   T   T   T
  0.7484769009283087  0.1836065239243616  0.5507241876879684   T   T   T
  0.4159152574117687  0.9369585547440894  0.5460130297447393   T   T   T
  0.0836126655059758  0.9389468238317784  0.5456888481374369   T   T   T
  0.4156324583911268  0.1912244435714870  0.5464526695924015   T   T   T
  0.0866001818502571  0.6897256948421304  0.5450864715300714   T   T   T
  0.0824876203908609  0.4385906584090384  0.5450499622388296   T   T   T
  0.0837384292610342  0.1888553760032283  0.5457048646575168   T   T   T
  0.4994423883735819  0.1254922486744693  0.4996717384601879   T   T   T
  0.9994263147896454  0.5005126478840960  0.5944072520819398   T   T   T
  0.9996347698858737  0.7536198432081419  0.5923852406261744   T   T   T
  0.3347109484125020  0.2542019023025336  0.5926673655021751   T   T   T
  0.3340025930091143  0.9997942900633571  0.5920206334004351   T   T   T
  0.9997191375621143  0.9987454437701782  0.5927644753746589   T   T   T
  0.0010643268752482  0.2497592446798462  0.5919001334344369   T   T   T
  0.3334251909660089  0.4965065330326928  0.5910776059024064   T   T   T
  0.3348143684754437  0.7397907716537163  0.5908475280797371   T   T   T
  0.6634922428054500  0.2472041996079043  0.5907586051918214   T   T   T
  0.6658666217357738  0.0000267493108876  0.5919280585911705   T   T   T
  0.6653917190626629  0.7451897258886060  0.5911528678558959   T   T   T
  0.6669048162466544  0.4930529524363647  0.5906004076351170   T   T   T
  0.1673917951630365  0.9983637835317588  0.5922822562718577   T   T   T
  0.1685200231678215  0.2493219137152116  0.5931526668958661   T   T   T
  0.1708639363536836  0.7498356916822685  0.5951197606952192   T   T   T
  0.2484397510737193  0.4361651632614782  0.5490263669911011   T   T   T
  0.1654572812115805  0.5031640721828867  0.5876865270373023   T   T   T
  0.2488214766028966  0.6833921589861831  0.5517325441075696   T   T   T
  0.5808244266324475  0.1858605934028598  0.5493889529468287   T   T   T
  0.9155273696515275  0.8129339569118152  0.5467953873769573   T   T   T
  0.9165828796088195  0.5629952276474757  0.5462164755054993   T   T   T
  0.5811545686327320  0.5602287703330908  0.5493470333832898   T   T   T
  0.5846020119308617  0.8135215591252519  0.5496719559654810   T   T   T
  0.5830157203162920  0.3116854297464063  0.5457108416774449   T   T   T
  0.5826942557411927  0.0631792357027281  0.5469641801307897   T   T   T
  0.2534528584592341  0.8129775454532477  0.5514043255725550   T   T   T
  0.2520376851107711  0.5595231255439389  0.5446000359224303   T   T   T
  0.2495508655434314  0.3137092163616550  0.5459575875509345   T   T   T
  0.2510429188765133  0.0624454120970541  0.5472877373910910   T   T   T
  0.7486280581455963  0.8098173082136757  0.5469867777173044   T   T   T
  0.7465670013785639  0.5591389931684455  0.5452738401516173   T   T   T
  0.4133860058573975  0.8116072459644355  0.5479184111380339   T   T   T
  0.7482077072844168  0.0598322765032759  0.5445371671316341   T   T   T
  0.7480621885432900  0.3114801836958131  0.5480787338301265   T   T   T
  0.4160184093720269  0.3193778476090255  0.5525201919285690   T   T   T
  0.4204592577797345  0.5646195548303071  0.5552415798875456   T   T   T
  0.4165689741272198  0.0651743208284229  0.5473131094500601   T   T   T
  0.0849206575494071  0.8129343765463696  0.5473620637431169   T   T   T
  0.0825448688608629  0.5641161988782379  0.5463283707819626   T   T   T
  0.0863339793621104  0.3134081894060297  0.5468896540186101   T   T   T
  0.0822859527366265  0.0632213269082961  0.5475245110596975   T   T   T
  0.9155878348877831  0.9386036795004582  0.5461579520533286   T   T   T
  0.9140257234333420  0.6890685561638943  0.5451932991827121   T   T   T
  0.5835302081737468  0.9376050696520979  0.5461910309508796   T   T   T
  0.9170216322719706  0.1888466638416228  0.5455179226739332   T   T   T
  0.9158364007596218  0.4372933597144316  0.5459166369000209   T   T   T
  0.5762672387872116  0.4361548446849551  0.5514936052616801   T   T   T
  0.5801980128900140  0.6860559540481260  0.5474555605315675   T   T   T
  0.2516854798886826  0.9374095520187935  0.5451234145440331   T   T   T
  0.4978715800153364  0.5044792828532048  0.6089828709086302   T   T   T
  0.4986408053481561  0.2528812184016599  0.5903353079274850   T   T   T
  0.4997015908656848  0.9998370906512530  0.5911206625848856   T   T   T
  0.7516319943536358  0.6880451577483563  0.6496695958335404   T   T   T
  0.7488010354823633  0.9373155933872570  0.6401637651824164   T   T   T
  0.2532486656823497  0.1862404668378199  0.6410974108943250   T   T   T
  0.7456582048706282  0.1942517786818463  0.6468212638975558   T   T   T
  0.7553076573005055  0.4339914790741484  0.6378517837426138   T   T   T
  0.4173042179623460  0.9350040137846303  0.6398351422728474   T   T   T
  0.4211164966571143  0.6756439863582484  0.6339795533851206   T   T   T
  0.5867795640601114  0.8102049969746156  0.6451465098493276   T   T   T
  0.9162044151271543  0.0626770208153133  0.6416079247641743   T   T   T
  0.9123196201038118  0.5618631683431712  0.6424196067733831   T   T   T
  0.9153504264632636  0.3119943209990977  0.6394662498262473   T   T   T
  0.9133868180038566  0.8127088734452208  0.6410768764583780   T   T   T
  0.5823743174206342  0.0650877688755748  0.6396804463549460   T   T   T
  0.5833781003861449  0.3193367398475001  0.6343101666126452   T   T   T
  0.5932376527691867  0.5646857053114471  0.6392853935975873   T   T   T
  0.2477663215821488  0.5737615137407042  0.6292711667501341   T   T   T
  0.2620526863474391  0.7986270542733344  0.6471772385638170   T   T   T
  0.2496106885548653  0.3161669705475650  0.6414043362803765   T   T   T
  0.2509408299438016  0.0592961227839704  0.6422400974614920   T   T   T
  0.9166666865332829  0.5625000000092442  0.3605200052333331   F   F   F
  0.4994757282134772  0.3737531267468415  0.4997332402002675   T   T   T
  0.4998008485966960  0.8730994906227864  0.5007251101845669   T   T   T
  0.5003352953543775  0.6211574941094363  0.5000875849880495   T   T   T
  0.8322873822174131  0.6232365668066969  0.4999270042589218   T   T   T
  0.8326992599930361  0.8744678815759139  0.4986368339740769   T   T   T
  0.8324826362506713  0.3730956176317236  0.4996852394328818   T   T   T
  0.8329001073842536  0.1245725926682912  0.4996493244293533   T   T   T
  0.1667664269219360  0.3762066230951951  0.4978411132504452   T   T   T
  0.1676434754104750  0.6242125376363598  0.4999423731756351   T   T   T
  0.5818679897170069  0.4383521137278051  0.6457158656902549   T   T   T
  0.5795863366759807  0.6845113899640916  0.6380031100564688   T   T   T
  0.9171102553984226  0.1867464810253255  0.6407128724007191   T   T   T
  0.5824000550383748  0.9350793984961331  0.6396112204762295   T   T   T
  0.8311654241730851  0.7493209746915742  0.5915967995196912   T   T   T
  0.8316814218435377  0.2478412399859585  0.5914906712635052   T   T   T
  0.8329199929408613  0.5032916695030546  0.5890293992925878   T   T   T
  0.8322585335015743  0.0020875034661679  0.5922639964620847   T   T   T
  0.4993734974052752  0.7557485734344798  0.5923201772443505   T   T   T
  0.4178044283639629  0.0652068286498393  0.6400157186940933   T   T   T
  0.4270540243240191  0.3048207706539042  0.6549237326551376   T   T   T
  0.4117305284240446  0.8124444252032497  0.6397725920137558   T   T   T
  0.3987505511699176  0.5506288302090531  0.6517296002249123   T   T   T
  0.7518990955876758  0.5663288137251005  0.6368713706773780   T   T   T
  0.7464833785710251  0.8100117472563939  0.6405769685319922   T   T   T
  0.7468839154691042  0.3123504890640696  0.6402454219479811   T   T   T
  0.7474973513958428  0.0671495863318803  0.6390582403169516   T   T   T
  0.0836545836122164  0.3119479852898552  0.6404305594317311   T   T   T
  0.6664086279321566  0.8743393994037276  0.4992256409678580   T   T   T
  0.0870861338285349  0.5620950274622540  0.6418797382114285   T   T   T
  0.0835720210817094  0.0604585639815418  0.6415859088398987   T   T   T
  0.0863932961667314  0.4367360682310600  0.6390615814404762   T   T   T
  0.0837833196265317  0.1855796965943669  0.6410560068544354   T   T   T
  0.4185301710114313  0.1877249396124221  0.6398133828127934   T   T   T
  0.4151451275337450  0.4188584629239454  0.6299425960763486   T   T   T
  0.0840970633116462  0.9352068904987939  0.6406082517139676   T   T   T
  0.0830197914454114  0.6870575576894997  0.6398601542747013   T   T   T
  0.9126086172492229  0.4364110570474471  0.6394993543288625   T   T   T
  0.9162456539937205  0.6875754980447415  0.6402049323329484   T   T   T
  0.9148072613897964  0.9369688523317767  0.6406560923895653   T   T   T
  0.2403494212665893  0.4419589448674991  0.6416483301092754   T   T   T
  0.2542285883541048  0.6770715231885681  0.6635461577723349   T   T   T
  0.5787041199479529  0.1902319995549723  0.6441625458220047   T   T   T
  0.2519679972453516  0.9299544770120393  0.6372762777718003   T   T   T
  0.0840566393915615  0.8118112206922146  0.6419065356891955   T   T   T
  0.9166666865332829  0.8124999999834799  0.3605200052333331   F   F   F
  0.0006788197261638  0.1229570808637420  0.6192416603784396   T   T   T
  0.8333332538436267  0.6249999999803961  0.4070133268666680   F   F   F
  0.9994802134710399  0.5005724064134691  0.5070352216045566   T   T   T
  0.3310217350184247  0.4993046531404303  0.5010837197603950   T   T   T
  0.3300866255685950  0.2480346500301511  0.5027755144736833   T   T   T
  0.3331657823826619  0.0009712715226348  0.5057332013009298   T   T   T
  0.3339287228534328  0.7508689474331369  0.5018660943703487   T   T   T
  0.6659519392148205 -0.0000680912140325  0.5058202133889320   T   T   T
  0.6688232341092168  0.4997942899301276  0.5008009371816887   T   T   T
  0.6670435003603652  0.2477340152076202  0.5030196725596560   T   T   T
  0.6663617387032309  0.7520623169045813  0.5025505959202129   T   T   T
  0.1660062180900242  0.0010189154850001  0.5064839514913220   T   T   T
  0.1664079427806902  0.2483079200041255  0.5062531904448917   T   T   T
  0.1634591807734929  0.4998417689235622  0.5022242904933890   T   T   T
  0.5000864936273366  0.9992432782250452  0.5055435030539491   T   T   T
  0.1645195520010431  0.7514202932812371  0.5035682421365814   T   T   T
  0.5009910652949533  0.7526847163778245  0.5038397399989037   T   T   T
  0.8341904631846663  0.0005128952100736  0.5064310607195404   T   T   T
  0.5012194076773461  0.4997455106230657  0.5002881909149222   T   T   T
  0.5010220879692753  0.2478691713367096  0.5019590414818628   T   T   T
  0.8354554635671493  0.2483418947272969  0.5033094420032759   T   T   T
  0.9997783056220858  0.7507082443174278  0.5065955680378439   T   T   T
  0.0008751304823923  0.2497873916607684  0.5059303936964846   T   T   T
  0.0000155284792653  0.9998995959673364  0.5064449092689249   T   T   T
  0.8333332538436267  0.8749999404036828  0.4070133268666680   F   F   F
  0.0000000000000000  0.6249999999803961  0.4070133268666680   F   F   F
  0.0000000000000000  0.8749999404036828  0.4070133268666680   F   F   F
  0.3333333432766779  0.1249999999871179  0.4070133268666680   F   F   F
  0.3333333432766779  0.3750000000061604  0.4070133268666680   F   F   F
  0.3333333432766779  0.6249999999803961  0.4070133268666680   F   F   F
  0.3333333432766779  0.8749999404036828  0.4070133268666680   F   F   F
  0.6666666865533486  0.1249999999871179  0.4070133268666680   F   F   F
  0.6666666865533486  0.3750000000061604  0.4070133268666680   F   F   F
  0.6666666865533486  0.6249999999803961  0.4070133268666680   F   F   F
  0.8359981538685951  0.4999179890929537  0.5029903145602043   T   T   T
  0.6666666865533486  0.8749999404036828  0.4070133268666680   F   F   F
  0.1666666716383389  0.3750000000061604  0.4070133268666680   F   F   F
  0.1666666716383389  0.6249999999803961  0.4070133268666680   F   F   F
  0.1666666716383389  0.8749999404036828  0.4070133268666680   F   F   F
  0.5000000000021103  0.1249999999871179  0.4070133268666680   F   F   F
  0.5000000000021103  0.3750000000061604  0.4070133268666680   F   F   F
  0.5000000000021103  0.6249999999803961  0.4070133268666680   F   F   F
  0.5000000000021103  0.8749999404036828  0.4070133268666680   F   F   F
  0.8333332538436267  0.1249999999871179  0.4070133268666680   F   F   F
  0.8333332538436267  0.3750000000061604  0.4070133268666680   F   F   F
  0.1666666716383389  0.1249999999871179  0.4070133268666680   F   F   F
  0.0000000000000000  0.3750000000061604  0.4070133268666680   F   F   F
  0.8355739159161747  0.7515248443130447  0.5027689847383230   T   T   T
  0.8373215956571385  0.3723701742215618  0.6040809598468767   T   T   T
  0.8324879855877295  0.8766522879455027  0.6170109596640965   T   T   T
  0.8386057069499333  0.6272730820319353  0.6046904979868096   T   T   T
  0.9989185711679076  0.8745193313242173  0.6217904609527241   T   T   T
  0.3315658817604622  0.1197183547662101  0.6134180011301438   T   T   T
  0.3344809944368470  0.6241695965885546  0.5951666921197925   T   T   T
  0.3259675646951993  0.3735656388582199  0.5927959540489481   T   T   T
  0.6710664219074515  0.3718372085281866  0.5942856740621913   T   T   T
  0.6653253173518626  0.1244194214225541  0.6115041689330787   T   T   T
  0.3346376911767155  0.8785571612065309  0.6028547924072934   T   T   T
  0.1589829894266685  0.6271395208485151  0.6016080668785151   T   T   T
  0.1660869701159546  0.8728231926897124  0.6180466689517858   T   T   T
  0.5017825609421164  0.3710985679294704  0.5950375438708972   T   T   T
  0.5003068592805597  0.1215822659198114  0.6059314456337783   T   T   T
  0.1675237250744102  0.1222888022066236  0.6215400205566511   T   T   T
  0.1632419879768492  0.3715344401456799  0.6079647877932549   T   T   T
  0.6666946492168326  0.8794008957296361  0.6101965419778476   T   T   T
  0.6671044962844728  0.6282866157531785  0.5940506472488554   T   T   T
 -0.0000154093673353  0.3750344843479915  0.6222136212209770   T   T   T
  0.9995031658770968  0.6220916186933949  0.6421894909324306   T   T   T
  0.8335794156966199  0.1251022967133402  0.6198519910216890   T   T   T
  0.5004990274007441  0.8764084563582183  0.6100079728212875   T   T   T
  0.0000000000000000  0.1249999999871179  0.4070133268666680   F   F   F
  0.5038137806806091  0.6250724520301987  0.5936925767519787   T   T   T
  0.9163070624716965  0.0003353124648898  0.6036888570159014   T   T   T
  0.5852880692414825  0.7517184761945245  0.5992870566010507   T   T   T
  0.5908119006884064  0.5010860075237361  0.5936486593662542   T   T   T
  0.2423347195691453  0.4975735274795719  0.5942207618250746   T   T   T
  0.2500803747837112  0.7525258985433770  0.5922375979969572   T   T   T
  0.5842254530119798  0.2470684754675031  0.5969710247634891   T   T   T
  0.5828719613138277  0.0002556386462133  0.6042820680600117   T   T   T
  0.2495064573871985  0.9974631661349637  0.6041913926231504   T   T   T
  0.2491241597662189  0.2456640874433040  0.6036177383646709   T   T   T
  0.4170987934531978  0.0000388342574878  0.6046806071538033   T   T   T
  0.4147342639938477  0.2486071325342473  0.5911278498226809   T   T   T
  0.4175167377633388  0.7500468633772134  0.5946980718094392   T   T   T
  0.7559357095526766  0.5018954389000871  0.5954380418458376   T   T   T
  0.7527451531267230  0.7526019839554556  0.5914550061483695   T   T   T
  0.7539040062308002  0.2480811483531959  0.5942975996894709   T   T   T
  0.7495701554907244  0.0017408783617320  0.6041281375811360   T   T   T
  0.0837546678544960  0.2480856161745277  0.6037813775682677   T   T   T
  0.0811717946378511  0.5009065699325627  0.6032180008456963   T   T   T
  0.0806112290481282  0.7507118532896806  0.6032358486124432   T   T   T
  0.0832558437452071  0.9983243196772169  0.6034656847148534   T   T   T