Au  C  H  O Sr Ti                       
   1.00000000000000     
    23.6707801818999997    0.0000000000000000    0.0000000000000000
     0.0000000000000000   27.8962826732999716    0.0000000000000000
     0.0000000000000000    0.0000000000000000   30.0000000000000000
   Au   C    H    O    Sr   Ti
    50     6    13   330    90    90
Selective dynamics
Direct
  0.7118593425313341  0.6256453921249203  0.7549744426354146   T   T   T
  0.2943123136268777  0.7975827574047150  0.6964674306468334   T   T   T
  0.5077297300776467  0.6854400468574785  0.7785437121014749   T   T   T
  0.5775735559742896  0.7788210667364337  0.7943919464536339   T   T   T
  0.2404263521077602  0.5752169076328559  0.7092433824139897   T   T   T
  0.2857951448894054  0.7298194840278376  0.7642546065061613   T   T   T
  0.5137742437361950  0.5881326753264486  0.6783182913135535   T   T   T
  0.5669234045510343  0.6117404467768633  0.8587074297393379   T   T   T
  0.4857258850188229  0.4166456656010227  0.7744322543474144   T   T   T
  0.6190483787232791  0.4564190115671978  0.6977546102296320   T   T   T
  0.4608385346310537  0.7585102297058406  0.8329889713359646   T   T   T
  0.5525352128821776  0.5086610068042718  0.8272791210076051   T   T   T
  0.5620516232369331  0.5919498569031758  0.7633401462714788   T   T   T
  0.5540328675340463  0.3711944953825108  0.7095873103750554   T   T   T
  0.7374038780003287  0.3975296640410344  0.6940655568641804   T   T   T
  0.7608389586858844  0.5515742834615617  0.7045767341104940   T   T   T
  0.4858289365593608  0.8206707001103254  0.7554060990675474   T   T   T
  0.6201635243891406  0.6582179945510752  0.7037475084908151   T   T   T
  0.6293226302937364  0.6726577887453071  0.8012755492683963   T   T   T
  0.4303395218485020  0.4967231046829413  0.8152852349483267   T   T   T
  0.3491168739731024  0.5999936407379034  0.6979800029401438   T   T   T
  0.3700029012950640  0.4390855871702846  0.7558790975960052   T   T   T
  0.7323955692054501  0.6934013894654657  0.6932397426585363   T   T   T
  0.4369276585467743  0.3812787693188110  0.6982776327973683   T   T   T
  0.5201730330378758  0.5032817600572305  0.7333156984528393   T   T   T
  0.6016850743856326  0.4271985663396761  0.7846304481176505   T   T   T
  0.2571567693325441  0.6744017186267460  0.6945834363518394   T   T   T
  0.6640034334499393  0.3464840500684449  0.7416467839721568   T   T   T
  0.4715793132752787  0.5597739525487218  0.8775699874654262   T   T   T
  0.2823301579582624  0.4712633299826000  0.7023933197621427   T   T   T
  0.6697318805557042  0.7462890471361583  0.7485320064418322   T   T   T
  0.3921393204806092  0.8544625365336163  0.7065730327258968   T   T   T
  0.4512252272292526  0.6641313995651211  0.7037479877567157   T   T   T
  0.3750023023099481  0.5939242027676049  0.8332692040949916   T   T   T
  0.2892402904494135  0.6301703734432345  0.7778192518948865   T   T   T
  0.3677971185539204  0.6951797359544414  0.8202778517959985   T   T   T
  0.5964630699979266  0.8273529442456878  0.7134251837162908   T   T   T
  0.7748591151377786  0.5535190223868565  0.7947330727862120   T   T   T
  0.3978799031119787  0.5057849478881230  0.6907693412275447   T   T   T
  0.6456546276812465  0.5569283176896390  0.6955840299622167   T   T   T
  0.6943088152959211  0.4867846915822620  0.7640425975535271   T   T   T
  0.3253051736078115  0.5316981844198795  0.7693456571878987   T   T   T
  0.7070539614252501  0.8059496914613107  0.6877863188977943   T   T   T
  0.6557941737687835  0.5628086569852612  0.8173394745760544   T   T   T
  0.4600099273672778  0.6589419203233496  0.8655606978680406   T   T   T
  0.4152727578535219  0.7570468158037099  0.6998545702847617   T   T   T
  0.3737104929346165  0.7931954723880967  0.7791333930426926   T   T   T
  0.4436166242547502  0.5786450618693295  0.7566846215052444   T   T   T
  0.5389815904746991  0.7350766955991437  0.7024482032116860   T   T   T
  0.5602298234545010  0.7145912201107034  0.8649582314729237   T   T   T
  0.7560248231104324  0.4339549548371268  0.7504668605885381   T   T   T
  0.6515668163270202  0.2502496046533464  0.8052787407051504   T   T   T
  0.5803977660243700  0.2143385127597363  0.8590908937518100   T   T   T
  0.6130032598450461  0.2077361735247386  0.8155309409229052   T   T   T
  0.6841000082874936  0.2456519158316748  0.7612724407087684   T   T   T
  0.7206046152584914  0.2884947091563783  0.7503921143444815   T   T   T
  0.7482181508184725  0.2998901702959406  0.7775849477548488   T   T   T
  0.7131884038284325  0.2147584359695159  0.7630977823684817   T   T   T
  0.6091199696058407  0.2179459736032890  0.8874707808102358   T   T   T
  0.6255287133002260  0.2829748467627339  0.8043437170278313   T   T   T
  0.6555212045536988  0.2374690412072865  0.7335330390839936   T   T   T
  0.5832922661200625  0.2028323615112414  0.7878787287154552   T   T   T
  0.6383640982844453  0.1748958696357660  0.8171706858917942   T   T   T
  0.5541426032633852  0.2466288967689189  0.8578987499258873   T   T   T
  0.6817201388892199  0.2554688210486015  0.8326704909123455   T   T   T
  0.7433385140537628  0.2852815523910771  0.7189700700053105   T   T   T
  0.5526156385161169  0.1838617231010608  0.8655933309362438   T   T   T
  0.7550433271687000  0.4120355409297350  0.7806548976749991   T   T   T
  0.7957840874513796  0.4534741733319010  0.7470965492948035   T   T   T
  0.4164584696991547  0.4551679563342156  0.5526462802290159   T   T   T
  0.9166666865332829  0.4500000000005357  0.3605200052333331   F   F   F
  0.5000000000021103  0.6000000000007191  0.4070133268666680   F   F   F
  0.7493044166311313  0.4517411808989755  0.5503266184899194   T   T   T
  0.6666666865533486  0.4000000000243773  0.4070133268666680   F   F   F
  0.2516140265145381  0.7500939822702454  0.4561014658926797   T   T   T
  0.3333333432766779  0.8000000000129006  0.4070133268666680   F   F   F
  0.3337821221657142  0.3009933442376550  0.4988483452126040   T   T   T
  0.9998040753286350  0.7019939169895208  0.4972562026200619   T   T   T
  0.9160921514381898  0.6497822650743221  0.4542367405260793   T   T   T
  0.5833333134730552  0.9500000000130839  0.3605200052333331   F   F   F
  0.9163651959303443  0.9496190127182979  0.4537375356705506   T   T   T
  0.7499999404149307  0.4500000000005357  0.3605200052333331   F   F   F
  0.4166666269218169  0.8499999999890662  0.3605200052333331   F   F   F
  0.4166666269218169  0.4500000000005357  0.3605200052333331   F   F   F
  0.4166666269218169  0.6500000000127244  0.3605200052333331   F   F   F
  0.5000000000021103  0.8000000000129006  0.4070133268666680   F   F   F
  0.0833333358191695  0.3500000000123720  0.3605200052333331   F   F   F
  0.5000000000021103  0.4000000000243773  0.4070133268666680   F   F   F
  0.7499999404149307  0.6500000000127244  0.3605200052333331   F   F   F
  0.0000000000000000  0.2000000000121887  0.4070133268666680   F   F   F
  0.5833333134730552  0.8499999999890662  0.3605200052333331   F   F   F
  0.7499999404149307  0.1500000000001833  0.3605200052333331   F   F   F
  0.2519184523376560  0.4517750799707610  0.4538440420486569   T   T   T
  0.2499999999799343  0.1500000000001833  0.3605200052333331   F   F   F
  0.9166666865332829  0.1500000000001833  0.3605200052333331   F   F   F
  0.5835096568512785  0.0495492301671869  0.4542515035591800   T   T   T
  0.2501350655880525  0.0491033978854309  0.4542315214508585   T   T   T
  0.7499265721494107  0.0499696449254493  0.4536660431940266   T   T   T
  0.4163447185965695  0.0491351455265967  0.4543912964381591   T   T   T
  0.0832791871047032  0.0497585800169812  0.4538955775487234   T   T   T
  0.8333332538436267  0.0000000000000000  0.4070133268666680   F   F   F
  0.4999481149531093  0.1000740213788004  0.4989764329108748   T   T   T
  0.9995366203199419  0.5990662906034085  0.5941837116589416   T   T   T
  0.0836327686989615  0.1505931956763170  0.5462816941886637   T   T   T
  0.7499999404149307  0.2500000000242011  0.3605200052333331   F   F   F
  0.2499999999799343  0.2500000000242011  0.3605200052333331   F   F   F
  0.1666666716383389  0.2000000000121887  0.4070133268666680   F   F   F
  0.5833333134730552  0.6500000000127244  0.3605200052333331   F   F   F
  0.5832745421862071  0.0503797868682464  0.6418711636836647   T   T   T
  0.7472982321449387  0.8467934718487692  0.5457944038455317   T   T   T
  0.6666666865533486  0.8000000000129006  0.4070133268666680   F   F   F
  0.7499327194304909  0.8499363156611164  0.4536749863076062   T   T   T
  0.9166666865332829  0.2500000000242011  0.3605200052333331   F   F   F
  0.0833333358191695  0.6500000000127244  0.3605200052333331   F   F   F
  0.6661766217110210  0.3015381846763932  0.4996403454453149   T   T   T
  0.5833333134730552  0.4500000000005357  0.3605200052333331   F   F   F
  0.0000000000000000  0.0000000000000000  0.4070133268666680   F   F   F
  0.4166666269218169  0.2500000000242011  0.3605200052333331   F   F   F
  0.7489994573061517  0.5502864296868017  0.4556127549630584   T   T   T
  0.0837488408842602  0.0497651299206250  0.5465128910849560   T   T   T
  0.5828691683288381  0.1498356041571805  0.5476186734057773   T   T   T
  0.2501869957626411  0.1503845357657197  0.5464344002632461   T   T   T
  0.7499498378427685  0.1499601490254578  0.5467752725687391   T   T   T
  0.5829276596457511  0.8475294046708329  0.4557586960827072   T   T   T
  0.2524225098155664  0.6470885938697438  0.5440413876284693   T   T   T
  0.4994649529055503  0.4027882545785796  0.5914259743751580   T   T   T
  0.2499999999799343  0.6500000000127244  0.3605200052333331   F   F   F
  0.9163746834586721  0.1506436637132290  0.5463013720966475   T   T   T
  0.2503124515570752  0.2502633299610911  0.4544928337468955   T   T   T
  0.5828624540635610  0.3530626621413330  0.4561509835845615   T   T   T
  0.2519617934220298  0.6518903915484104  0.4537635346990637   T   T   T
  0.1666666716383389  0.4000000000243773  0.4070133268666680   F   F   F
  0.5844130593349394  0.4525032618408678  0.4538493843111797   T   T   T
  0.3333333432766779  0.4000000000243773  0.4070133268666680   F   F   F
  0.0833333358191695  0.4500000000005357  0.3605200052333331   F   F   F
  0.8333332538436267  0.4000000000243773  0.4070133268666680   F   F   F
  0.4172412729993557  0.2505666127814701  0.4550017232097369   T   T   T
  0.5000000000021103  0.2000000000121887  0.4070133268666680   F   F   F
  0.6666666865533486  0.6000000000007191  0.4070133268666680   F   F   F
  0.0840039914126054  0.6498971020531568  0.4542358352674138   T   T   T
  0.0838036202714477  0.8495954571905355  0.4541703559915122   T   T   T
  0.0835218073134083  0.4496017665517713  0.4541253648001019   T   T   T
  0.7499999404149307  0.8499999999890662  0.3605200052333331   F   F   F
  0.9151395732450718  0.4499434814113998  0.5467315129475231   T   T   T
  0.4169043286902981  0.3504698539502755  0.4542282575544706   T   T   T
  0.4166115811731271  0.1510176881478236  0.5464050803036834   T   T   T
  0.8333332538436267  0.2000000000121887  0.4070133268666680   F   F   F
  0.9999430450831037  0.4992405979020446  0.4983620255360736   T   T   T
  0.2505197232679992  0.8483668097181017  0.4554832908368850   T   T   T
  0.4158813050160891  0.6470170467064049  0.4582133227851904   T   T   T
  0.0833333358191695  0.9500000000130839  0.3605200052333331   F   F   F
  0.0841069815233411  0.2498182099135306  0.4543028017267340   T   T   T
  0.4166194558980081  0.1502983613593958  0.4538597498875913   T   T   T
  0.0833918152610206  0.1500002840128784  0.4537733596576025   T   T   T
  0.9166497862312840  0.0497634574943217  0.4538882607436638   T   T   T
  0.4166666269218169  0.1500000000001833  0.3605200052333331   F   F   F
  0.0833333358191695  0.1500000000001833  0.3605200052333331   F   F   F
  0.0833333358191695  0.7500000000008953  0.3605200052333331   F   F   F
  0.7497162860323371  0.0500777119805131  0.6409430464804728   T   T   T
  0.4144515031713066  0.8487220423364678  0.5479667298829318   T   T   T
  0.2515546594754074  0.2509965007420416  0.5477766018084607   T   T   T
  0.4174236709705337  0.0494046497221468  0.6426971162402454   T   T   T
  0.9159713829006514  0.0499949776119529  0.6402979795530584   T   T   T
  0.0837069848890443  0.0497510831603349  0.6403487976329332   T   T   T
  0.0833286236367235  0.1486526340252439  0.6404338080220324   T   T   T
  0.6664623156942906  0.1001117643261633  0.4990446498506326   T   T   T
  0.1667857028217117  0.0998889324766388  0.4987712895552954   T   T   T
  0.8333332538436267  0.6000000000007191  0.4070133268666680   F   F   F
  0.0833333358191695  0.8499999999890662  0.3605200052333331   F   F   F
  0.9163504576070262  0.0498847910392952  0.5465086360377883   T   T   T
  0.7499373904889096  0.1502654933596629  0.4538997543835038   T   T   T
  0.4997157514416174  0.0002006356523978  0.5916121104814206   T   T   T
  0.1666666716383389  0.8000000000129006  0.4070133268666680   F   F   F
  0.5820256253240467  0.3478650213998760  0.5508913319725302   T   T   T
  0.0001015970796691  0.8019839153975626  0.5926458551546131   T   T   T
  0.3339037562535145  0.2000899080478660  0.5921210630246447   T   T   T
  0.9998019621116087  0.2000190107294126  0.5923734851434375   T   T   T
  0.0006637806559791  0.3983954634573156  0.5923966617726102   T   T   T
  0.0841723598003248  0.9502875230729878  0.5461406539666539   T   T   T
  0.4197720635709044  0.6517720118961874  0.5557586686056766   T   T   T
  0.0839119064397206  0.3481468233477747  0.6421382486277714   T   T   T
  0.9177887162367621  0.6509956356031137  0.5470254417200426   T   T   T
  0.2530906846143056  0.8499144793940230  0.5506564903391503   T   T   T
  0.5855818923471768  0.8518248751789697  0.5508584700653585   T   T   T
  0.6660253901928443  0.0001969775455882  0.5919031778352990   T   T   T
  0.3340548265465940 -0.0000682199955974  0.5919080506014380   T   T   T
  0.0000055879963252  0.9991464012730662  0.5920670455070118   T   T   T
  0.8325395445155748  0.9985550994634407  0.5920272826733046   T   T   T
  0.1674245975050667  0.9984783609336570  0.5921504420850050   T   T   T
  0.3335031770390983  0.0999733282129594  0.4989664420625321   T   T   T
  0.9161467277007175  0.2498237947096477  0.4541719511329275   T   T   T
  0.0000321569954350  0.1000455377997489  0.4991359521328531   T   T   T
  0.5833379704551435  0.1510229719034286  0.4545809683759361   T   T   T
  0.7476975634891196  0.9478879466325236  0.6393552269986034   T   T   T
  0.8325651693553868  0.2007070772418147  0.5919062615168571   T   T   T
  0.7491475651440532  0.3501855729734615  0.5470763038064702   T   T   T
  0.4229752917247318  0.7501165925867024  0.5467329836169381   T   T   T
  0.4230568650957656  0.5546657295098966  0.5461337953770231   T   T   T
  0.7520897241111950  0.5492539638917181  0.5487211399425242   T   T   T
  0.2499999999799343  0.8499999999890662  0.3605200052333331   F   F   F
  0.5833333134730552  0.1500000000001833  0.3605200052333331   F   F   F
  0.1666666716383389  0.6000000000007191  0.4070133268666680   F   F   F
  0.4170835637120292  0.0501807267969518  0.5472515986906984   T   T   T
  0.5809424715583862  0.6475727323855425  0.5488904739969098   T   T   T
  0.6666666865533486  0.0000000000000000  0.4070133268666680   F   F   F
  0.0833333358191695  0.5499999761504029  0.3605200052333331   F   F   F
  0.1666666716383389  0.0000000000000000  0.4070133268666680   F   F   F
  0.8333332538436267  0.8000000000129006  0.4070133268666680   F   F   F
  0.2499999999799343  0.4500000000005357  0.3605200052333331   F   F   F
  0.4172080371570063  0.5480015707009676  0.4540984861173998   T   T   T
  0.0833333358191695  0.0500000000120124  0.3605200052333331   F   F   F
  0.4166666269218169  0.0500000000120124  0.3605200052333331   F   F   F
  0.7499999404149307  0.0500000000120124  0.3605200052333331   F   F   F
  0.2500484532321940  0.1498688150556924  0.4536582276508559   T   T   T
  0.8332658422035449  0.1001108030060369  0.4988492199131251   T   T   T
  0.7499987053941565  0.0492614343083082  0.5462065724368292   T   T   T
  0.2500591172032512  0.0499545609063606  0.5468995419740716   T   T   T
  0.5827766704176681  0.0501711942043624  0.5472709081572759   T   T   T
  0.7498958351320186  0.1501145062368872  0.6417353399564597   T   T   T
  0.2509603898998667  0.1483834835210882  0.6410645536411520   T   T   T
  0.9160146337159131  0.1497057318248682  0.6407161642592133   T   T   T
  0.5827067611992526  0.1503240637705101  0.6428471705702948   T   T   T
  0.4165755498319045  0.1500262249854521  0.6414996512783381   T   T   T
  0.4166666269218169  0.3500000000123720  0.3605200052333331   F   F   F
  0.5000000000021103  0.0000000000000000  0.4070133268666680   F   F   F
  0.4155175624344608  0.4490155492805841  0.4573065427633278   T   T   T
  0.3333333432766779  0.0000000000000000  0.4070133268666680   F   F   F
  0.9166666865332829  0.0500000000120124  0.3605200052333331   F   F   F
  0.5833333134730552  0.0500000000120124  0.3605200052333331   F   F   F
  0.2499999999799343  0.0500000000120124  0.3605200052333331   F   F   F
  0.9165798627592295  0.1499849480524316  0.4537289870581985   T   T   T
  0.0002933445565199  0.2996515743268788  0.4985982603894615   T   T   T
  0.0845091823123461  0.7500303582733643  0.4536483360906626   T   T   T
  0.9162327903022318  0.8496962784331273  0.4540530783637417   T   T   T
  0.0858053225981911  0.7507893024479291  0.5459965890495136   T   T   T
  0.6661840011966904  0.1998180568908607  0.5921320857900718   T   T   T
  0.6650954119734790  0.3997071523457172  0.5898367629056603   T   T   T
  0.3353774977225855  0.7928033251211617  0.5906624557163929   T   T   T
  0.3331182137659536  0.5967646330167002  0.5914245906326568   T   T   T
  0.4971833613978053  0.6035283430436467  0.6091195812660264   T   T   T
  0.2517398319557560  0.9498912200974529  0.5450431323278360   T   T   T
  0.5792654476075250  0.7483337895636849  0.5477061400829778   T   T   T
  0.9157653812440950  0.5500479464238166  0.5458675104527543   T   T   T
  0.9173342985151467  0.3508034134857288  0.5452863699381076   T   T   T
  0.9143040599092582  0.7506902150912061  0.5459376033319427   T   T   T
  0.0835261867335203  0.4487299762111009  0.6406506096490501   T   T   T
  0.6662296820217903  0.8991153344959922  0.4988204020031949   T   T   T
  0.0866925546173123  0.6500226912989678  0.6402231143243454   T   T   T
  0.5830104344479553  0.4486968602817312  0.5456133462930958   T   T   T
  0.2483475306913949  0.5486344539928891  0.5491231351173280   T   T   T
  0.1683032540069804  0.3979489351624076  0.5933316636036873   T   T   T
  0.9143243743854149  0.8506456364280095  0.6413294170017401   T   T   T
  0.4127074314053267  0.8501566838224806  0.6395191712995619   T   T   T
  0.7490531056560014  0.7505758001418609  0.4570483980964938   T   T   T
  0.4172875002476012  0.9473408056558843  0.6392689711188821   T   T   T
  0.5899511945815384  0.8477408676612123  0.6465698521404343   T   T   T
  0.9123388680797504  0.5482239360040547  0.6398039713923623   T   T   T
  0.7538927098421002  0.5468863481296288  0.6380984313945088   T   T   T
  0.9166666865332829  0.8499999999890662  0.3605200052333331   F   F   F
  0.4159359688977864  0.3528553272792881  0.5474589935051318   T   T   T
  0.9139740221611815  0.6498808822731198  0.6410326831612080   T   T   T
  0.1676868874819347  0.6996170127426872  0.5002012508766450   T   T   T
  0.5000243755293045  0.8982077492328210  0.5007912050371733   T   T   T
  0.9146782424822937  0.3479927177439911  0.6399847515187019   T   T   T
  0.4166666269218169  0.7500000000008953  0.3605200052333331   F   F   F
  0.2500117837417828  0.3511150951032988  0.4544750630703893   T   T   T
  0.2499999999799343  0.7500000000008953  0.3605200052333331   F   F   F
  0.9166666865332829  0.9500000000130839  0.3605200052333331   F   F   F
  0.2499999999799343  0.9500000000130839  0.3605200052333331   F   F   F
  0.5833333134730552  0.3500000000123720  0.3605200052333331   F   F   F
  0.7486320200162175  0.2521273028946286  0.6395531919490614   T   T   T
  0.7536159469420911  0.4463401726669970  0.6446523283886088   T   T   T
  0.5832811320274250  0.2524243973775746  0.6386582974940699   T   T   T
  0.4274223753225650  0.4436758011057281  0.6572473376122460   T   T   T
  0.1672711720649135  0.1997305740162289  0.5923999075014542   T   T   T
  0.6651514384963488  0.7932084365849691  0.5909842109905704   T   T   T
  0.2494541257743444  0.7463640325325200  0.5521423559903920   T   T   T
  0.9157080869621266  0.8497031669357402  0.5463633926199578   T   T   T
  0.7466590154629054  0.6468562227725771  0.5451464046888901   T   T   T
  0.2395509298328151  0.5534411287969371  0.6417180860348637   T   T   T
  0.2504752621925266  0.0483931025455530  0.6416834510362694   T   T   T
  0.2521213027146748  0.9453414340818304  0.6373713916031940   T   T   T
  0.9166666865332829  0.5499999761504029  0.3605200052333331   F   F   F
  0.9166666865332829  0.3500000000123720  0.3605200052333331   F   F   F
  0.0857176654471527  0.4508925326494529  0.5471682058206259   T   T   T
  0.5833333134730552  0.7500000000008953  0.3605200052333331   F   F   F
  0.5833333134730552  0.5499999761504029  0.3605200052333331   F   F   F
  0.0853515952216902  0.8496029156746839  0.5468535927458078   T   T   T
  0.4161111902247711  0.9483155535061322  0.5468314852065127   T   T   T
  0.4998126974182157  0.3014846792771348  0.5002980575796365   T   T   T
  0.0000000000000000  0.8000000000129006  0.4070133268666680   F   F   F
  0.4165998313621106  0.2524442025659888  0.5472695136890298   T   T   T
  0.5766693857765012  0.5483436494895744  0.5522820489382310   T   T   T
  0.7481943506576345  0.9478034539753345  0.5470830582815150   T   T   T
  0.6665108619328205  0.5956177533948375  0.5915431070073075   T   T   T
  0.7511302627452671  0.7448792016884253  0.5526207319297801   T   T   T
  0.4182496128555395  0.2522024979648404  0.6391714059835707   T   T   T
  0.3352022735693881  0.4041088216248108  0.5933047286191863   T   T   T
  0.5826234935179925  0.9486480300233676  0.4539163539462206   T   T   T
  0.0868085661924688  0.5489066348669921  0.6395645523065662   T   T   T
  0.1709308724099994  0.7996324885618213  0.5945689121941874   T   T   T
  0.8331897805151912  0.6022023554001401  0.5895774539169838   T   T   T
  0.0839025361272944  0.2484240420363986  0.6421546373113425   T   T   T
  0.0840565641551789  0.7496303929135020  0.6396683312397677   T   T   T
  0.0844966237171832  0.9493870350638787  0.6409762204629964   T   T   T
  0.4156945174752447  0.5344370715962129  0.6301575941689852   T   T   T
  0.4183815626430780  0.3496296657461950  0.6398795799457992   T   T   T
  0.5007897443463649  0.8049431778977747  0.5927624363341135   T   T   T
  0.2491597284674619  0.4509649050404587  0.5460478680413124   T   T   T
  0.0812634656623988  0.6515913102357723  0.5466388069999455   T   T   T
  0.5834483524811519  0.2497418979205432  0.5458364562373073   T   T   T
  0.4173908704762581  0.9481096604360483  0.4542521985173795   T   T   T
  0.0828738908049904  0.2500120640553107  0.5473685269726128   T   T   T
  0.5837260213660312  0.9506507270782278  0.5457056304573848   T   T   T
  0.9160814404876442  0.9504814102796082  0.5462556998110497   T   T   T
  0.7486824060281319  0.2505328709051752  0.5464581862460991   T   T   T
  0.5844401750878430  0.6499125242950167  0.4548825819275503   T   T   T
  0.9158959618825034  0.5497612839180473  0.4537181416456925   T   T   T
  0.9152135938445962  0.2499863291257741  0.6407906143723239   T   T   T
  0.5878305451547593  0.4563272608909237  0.6345066545672909   T   T   T
  0.2473997052532919  0.6587472477168214  0.6290018911449660   T   T   T
  0.2617256480939796  0.8403153427557046  0.6460617853521611   T   T   T
  0.2514195464567399  0.2485375252946868  0.6417108687533588   T   T   T
  0.9166666865332829  0.6500000000127244  0.3605200052333331   F   F   F
  0.4997564654971248  0.4985819945895086  0.5001722617907913   T   T   T
  0.5002835079580580  0.6963374436237282  0.5000814410711631   T   T   T
  0.8323766239238661  0.6985363022245171  0.5005269490227561   T   T   T
  0.2528124530755113  0.3510359043606123  0.5474113639802602   T   T   T
  0.8327841398883300  0.4992566778819191  0.4995463977553442   T   T   T
  0.9151025520573094  0.4484180353034825  0.6396332570513584   T   T   T
  0.1665293788628223  0.5008785589161551  0.4978353593253876   T   T   T
  0.4166666269218169  0.9500000000130839  0.3605200052333331   F   F   F
  0.2506036266888273  0.9483195355100834  0.4536214252171759   T   T   T
  0.6653604639834624  0.7001604057634268  0.5030238770321107   T   T   T
  0.4166666269218169  0.5499999761504029  0.3605200052333331   F   F   F
  0.0828380105497688  0.5509842126976549  0.5452202065702833   T   T   T
  0.2499999999799343  0.3500000000123720  0.3605200052333331   F   F   F
  0.7543313038973158  0.7545177505467955  0.6555097103838973   T   T   T
  0.8328401386574712  0.3000818647885297  0.4998690629790454   T   T   T
  0.1673304514895406  0.3003363706060092  0.4999670876033059   T   T   T
  0.9166666865332829  0.7500000000008953  0.3605200052333331   F   F   F
  0.8324091130645592  0.8996030824661448  0.4996534964949651   T   T   T
  0.0000000000000000  0.4000000000243773  0.4070133268666680   F   F   F
  0.0000000000000000  0.6000000000007191  0.4070133268666680   F   F   F
  0.7484187909357474  0.6509938191943915  0.4541144949469054   T   T   T
  0.3333333432766779  0.2000000000121887  0.4070133268666680   F   F   F
  0.3333333432766779  0.6000000000007191  0.4070133268666680   F   F   F
  0.2510724229151519  0.5517983017953998  0.4552643918023521   T   T   T
  0.3336440230593680  0.8984339043296835  0.4993457623572677   T   T   T
  0.6666666865533486  0.2000000000121887  0.4070133268666680   F   F   F
  0.0001089250280776  0.8999310735464615  0.4991466993070278   T   T   T
  0.5902998123297983  0.6525500161399986  0.6387574665048207   T   T   T
  0.0838504308726294  0.9495342078323673  0.4536667649786101   T   T   T
  0.0829716845830810  0.5498189562103991  0.4531808413883461   T   T   T
  0.0836916608696643  0.3498008570357890  0.4536588052085608   T   T   T
  0.5001159513207212  0.2001291203922717  0.5916103056942409   T   T   T
  0.9160561805055170  0.4496316775171288  0.4540698133743800   T   T   T
  0.7499999404149307  0.9500000000130839  0.3605200052333331   F   F   F
  0.7500829356955878  0.3506347654206211  0.4541647086137202   T   T   T
  0.7499999404149307  0.5499999761504029  0.3605200052333331   F   F   F
  0.3972807344000924  0.6404268340433678  0.6523608846982690   T   T   T
  0.9158884801318907  0.9497884106933049  0.6410129619812439   T   T   T
  0.9156391560432219  0.7500801662629168  0.6393408730496146   T   T   T
  0.7414755370195346  0.8484690076730288  0.6396747623774330   T   T   T
  0.0853434501332236  0.8500355375433779  0.6418980404201449   T   T   T
  0.7527172704994514  0.6549852033666288  0.6357825828137694   T   T   T
  0.4171169312418077  0.8470848038531107  0.4554590497396043   T   T   T
  0.7496544766030754  0.2505833380568759  0.4542679513686567   T   T   T
  0.9161339733234167  0.3497035304045439  0.4534848932822973   T   T   T
  0.5829652719904218  0.2520119445386025  0.4538180970705396   T   T   T
  0.5829008740959631  0.7485714380120458  0.4547723787453964   T   T   T
  0.5833333134730552  0.2500000000242011  0.3605200052333331   F   F   F
  0.7424107694313218  0.3520189534674733  0.6412866839227572   T   T   T
  0.8320677940776839  0.3969764828196052  0.5904440239713634   T   T   T
  0.7499999404149307  0.7500000000008953  0.3605200052333331   F   F   F
  0.4202171175086775  0.7409201363016175  0.6339410757415789   T   T   T
  0.1677942554457051  0.8990104847602942  0.4994985874729006   T   T   T
  0.2554103645220629  0.7419215756267930  0.6629656245209565   T   T   T
  0.2540881784023954  0.3489909254656955  0.6408444706927431   T   T   T
  0.8302833493671263  0.8006443703856826  0.5923715235957260   T   T   T
  0.5817404710927293  0.9477148698508412  0.6379344919257478   T   T   T
  0.5809245470491419  0.3531826816181209  0.6448984075224310   T   T   T
  0.7499999404149307  0.3500000000123720  0.3605200052333331   F   F   F
  0.2499999999799343  0.5499999761504029  0.3605200052333331   F   F   F
  0.5827829168311632  0.5515217506375004  0.4565939323428473   T   T   T
  0.0833333358191695  0.2500000000242011  0.3605200052333331   F   F   F
  0.9146022937089343  0.7498466899313395  0.4536957700855312   T   T   T
  0.4171663632242215  0.7469945741994226  0.4544825729300669   T   T   T
  0.3343557168883389  0.5023346484335243  0.5030913546722386   T   T   T
  0.6657211313910812  0.5024226130227516  0.5036241435509341   T   T   T
  0.9163317230028962  0.2505297529941156  0.5469621102137591   T   T   T
  0.7495206489796632  0.9497316494709782  0.4547285104221759   T   T   T
  0.5795789310016741  0.5505402330920834  0.6459077289449486   T   T   T
  0.5772874403086729  0.7485066438915473  0.6399906755539182   T   T   T
  0.1654256267468201  0.6023071628794852  0.5873434178417544   T   T   T
  0.2488562157608972  0.4527853624799084  0.6413678867064361   T   T   T
  0.0836145043844317  0.3506694408865693  0.5463010874776126   T   T   T
  0.3355558282463368  0.7004035010845341  0.5039854279798286   T   T   T
  0.7482514231597547  0.4502416205239024  0.4559178194811174   T   T   T
  0.6662411028496485  0.7007869169083807  0.5931479359615000   T   T   T
  0.1666666716383389  0.5000000000125482  0.4070133268666680   F   F   F
  0.9996528193142601  0.0994603938798435  0.6191368875501874   T   T   T
  0.8338384805702680  0.0007236326465485  0.5060405333782191   T   T   T
  0.8362415625005392  0.5998934954036211  0.5030007479625317   T   T   T
  0.5000000000021103  0.6999999999888900  0.4070133268666680   F   F   F