Au  C  H  O Sr Ti                       
   1.00000000000000     
    23.6707801818999997    0.0000000000000000    0.0000000000000000
     0.0000000000000000   27.8962826732999716    0.0000000000000000
     0.0000000000000000    0.0000000000000000   30.0000000000000000
   Au   C    H    O    Sr   Ti
    50     6    13   330    90    90
Selective dynamics
Direct
  0.7127138751486134  0.6251807485377221  0.7545441427311239   T   T   T
  0.2938389382471819  0.7975484032274099  0.6967385294724402   T   T   T
  0.5084672079997868  0.6853066479657173  0.7779818317421929   T   T   T
  0.5776643485763684  0.7794670380071921  0.7941620117540928   T   T   T
  0.2403903360805304  0.5753608987091271  0.7092697367504466   T   T   T
  0.2853750939719110  0.7297671711238131  0.7644304203687412   T   T   T
  0.5137082154306709  0.5881154597563242  0.6781512611110992   T   T   T
  0.5673520012338056  0.6113787540185440  0.8585243352241888   T   T   T
  0.4858384293488088  0.4167332829436626  0.7741075076638941   T   T   T
  0.6190387501008346  0.4563011009070255  0.6975170920789507   T   T   T
  0.4613522052337404  0.7582326303907591  0.8323008948822559   T   T   T
  0.5518847931545890  0.5078925575602802  0.8268623678094693   T   T   T
  0.5614918370857610  0.5916591320708764  0.7632422611118361   T   T   T
  0.5541557532813124  0.3712169070340817  0.7093474194274674   T   T   T
  0.7373998157915514  0.3966768216529036  0.6937915761689738   T   T   T
  0.7611709293524948  0.5511338589015999  0.7039660043177907   T   T   T
  0.4857992269396800  0.8210466442307963  0.7551055608598997   T   T   T
  0.6204624677523922  0.6577685889440004  0.7038435193886992   T   T   T
  0.6302208278056075  0.6720034416109468  0.8011589238372598   T   T   T
  0.4300677656192801  0.4967919548460991  0.8151165698153799   T   T   T
  0.3490120381016074  0.6000909069823611  0.6977949263210447   T   T   T
  0.3699563674189681  0.4391122797446232  0.7556192340018361   T   T   T
  0.7324916628801825  0.6934486729156624  0.6932389062393559   T   T   T
  0.4366714774714113  0.3813361860318669  0.6980762134960414   T   T   T
  0.5198802241628682  0.5031028519526993  0.7328725561691648   T   T   T
  0.6019709296402724  0.4267921775554514  0.7842842365364719   T   T   T
  0.2571001416870270  0.6744834624333103  0.6945686848953214   T   T   T
  0.6644955102569492  0.3459803412993797  0.7420325818192083   T   T   T
  0.4717275701567871  0.5597718040829966  0.8772894592897907   T   T   T
  0.2822055716061461  0.4718390087730701  0.7023058215318608   T   T   T
  0.6696342065509902  0.7462103442279377  0.7484974578545529   T   T   T
  0.3918201899626525  0.8543162545756573  0.7065902023179373   T   T   T
  0.4514473157774164  0.6642210438657535  0.7033256332376853   T   T   T
  0.3751025308359868  0.5940784223474724  0.8332096520038147   T   T   T
  0.2892700337670206  0.6301326591337033  0.7778407782207781   T   T   T
  0.3679838492909913  0.6952565197663669  0.8202568503324154   T   T   T
  0.5964523486027735  0.8274881392871236  0.7132817351911771   T   T   T
  0.7752486352652515  0.5526956602512593  0.7940223396866976   T   T   T
  0.3980301937861733  0.5056831789776176  0.6906186234684802   T   T   T
  0.6457322675134124  0.5566719679754708  0.6956872472014970   T   T   T
  0.6947836800169351  0.4860999433014613  0.7636651662255552   T   T   T
  0.3253809484819761  0.5317695290883487  0.7693333284677242   T   T   T
  0.7068660280949972  0.8060282263256348  0.6877900225790873   T   T   T
  0.6553620653138522  0.5618852946931019  0.8163933318125400   T   T   T
  0.4606301753465061  0.6588630031222202  0.8651875325298921   T   T   T
  0.4167115463078760  0.7573939248974122  0.6996408501726948   T   T   T
  0.3736131684884478  0.7926797276118038  0.7789571306222365   T   T   T
  0.4431778208926010  0.5787201458541036  0.7563518914555789   T   T   T
  0.5399633290981544  0.7347445563804752  0.7021095430612405   T   T   T
  0.5609160052542022  0.7145166785268131  0.8641245979341493   T   T   T
  0.7558764997444409  0.4326539219399522  0.7504459793747907   T   T   T
  0.6519064167928458  0.2505044304963330  0.8050643587955464   T   T   T
  0.5810900732862961  0.2148091344103182  0.8583233136956721   T   T   T
  0.6133909665070689  0.2078825702288680  0.8149586520942487   T   T   T
  0.6848114787674009  0.2461699142115070  0.7612694081437167   T   T   T
  0.7220776571701397  0.2887268501632366  0.7508652460282150   T   T   T
  0.7494920278884709  0.3001504951196874  0.7784264171080216   T   T   T
  0.7127737565361386  0.2146623238834541  0.7626598862657105   T   T   T
  0.6098036066801620  0.2184746716470959  0.8867618020987210   T   T   T
  0.6255519430869012  0.2829820480690551  0.8042250152587554   T   T   T
  0.6561403587343757  0.2390546568321809  0.7333357286227954   T   T   T
  0.5834443857549992  0.2029143472105412  0.7872960614688083   T   T   T
  0.6385194280622043  0.1748013134665435  0.8168727613403941   T   T   T
  0.5550072950559229  0.2472505839344545  0.8572152947086077   T   T   T
  0.6814844310082369  0.2553383728337615  0.8329337377787244   T   T   T
  0.7450072695592074  0.2852266678333029  0.7196846500599148   T   T   T
  0.5529021350112110  0.1847176282700469  0.8649758135750696   T   T   T
  0.7545029320683363  0.4106119100759292  0.7805178404813468   T   T   T
  0.7960135947102589  0.4515949353575405  0.7470996033193837   T   T   T
  0.4164877269990274  0.4553878301684569  0.5526181239635946   T   T   T
  0.9166666865332829  0.4500000000005357  0.3605200052333331   F   F   F
  0.5000000000021103  0.6000000000007191  0.4070133268666680   F   F   F
  0.7491587855697256  0.4516496690896938  0.5502918931882244   T   T   T
  0.6666666865533486  0.4000000000243773  0.4070133268666680   F   F   F
  0.2516708518008922  0.7501132574191568  0.4561169413053641   T   T   T
  0.3333333432766779  0.8000000000129006  0.4070133268666680   F   F   F
  0.3337032044569173  0.3009293400602792  0.4988722275673517   T   T   T
  0.9998147398120312  0.7018209734945003  0.4973062114616686   T   T   T
  0.9162021460943024  0.6496625527426690  0.4542469586363091   T   T   T
  0.5833333134730552  0.9500000000130839  0.3605200052333331   F   F   F
  0.9165757314823724  0.9498684283423008  0.4537387125049311   T   T   T
  0.7499999404149307  0.4500000000005357  0.3605200052333331   F   F   F
  0.4166666269218169  0.8499999999890662  0.3605200052333331   F   F   F
  0.4166666269218169  0.4500000000005357  0.3605200052333331   F   F   F
  0.4166666269218169  0.6500000000127244  0.3605200052333331   F   F   F
  0.5000000000021103  0.8000000000129006  0.4070133268666680   F   F   F
  0.0833333358191695  0.3500000000123720  0.3605200052333331   F   F   F
  0.5000000000021103  0.4000000000243773  0.4070133268666680   F   F   F
  0.7499999404149307  0.6500000000127244  0.3605200052333331   F   F   F
  0.0000000000000000  0.2000000000121887  0.4070133268666680   F   F   F
  0.5833333134730552  0.8499999999890662  0.3605200052333331   F   F   F
  0.7499999404149307  0.1500000000001833  0.3605200052333331   F   F   F
  0.2518525870382927  0.4517528624007985  0.4538335185577994   T   T   T
  0.2499999999799343  0.1500000000001833  0.3605200052333331   F   F   F
  0.9166666865332829  0.1500000000001833  0.3605200052333331   F   F   F
  0.5833679060613656  0.0497559594874871  0.4538224236907005   T   T   T
  0.2501278238532926  0.0492985590424760  0.4539352576515950   T   T   T
  0.7499885905451245  0.0500156122542296  0.4534278745356938   T   T   T
  0.4164191786182895  0.0493880327287511  0.4539115961229067   T   T   T
  0.0832636509261528  0.0498381638636756  0.4536962637886586   T   T   T
  0.8333332538436267  0.0000000000000000  0.4070133268666680   F   F   F
  0.4999652755569346  0.1002086393475389  0.4985432508707905   T   T   T
  0.9995617735293882  0.5993874842959070  0.5941857972394976   T   T   T
  0.0835557419884814  0.1505731255032547  0.5459556138080950   T   T   T
  0.7499999404149307  0.2500000000242011  0.3605200052333331   F   F   F
  0.2499999999799343  0.2500000000242011  0.3605200052333331   F   F   F
  0.1666666716383389  0.2000000000121887  0.4070133268666680   F   F   F
  0.5833333134730552  0.6500000000127244  0.3605200052333331   F   F   F
  0.5833575807281823  0.0504013152226293  0.6411214224993148   T   T   T
  0.7474653390805971  0.8467414197149222  0.5456750562175625   T   T   T
  0.6666666865533486  0.8000000000129006  0.4070133268666680   F   F   F
  0.7499103542545866  0.8499855401899407  0.4535288820314431   T   T   T
  0.9166666865332829  0.2500000000242011  0.3605200052333331   F   F   F
  0.0833333358191695  0.6500000000127244  0.3605200052333331   F   F   F
  0.6660639317275859  0.3013627536138972  0.4992950763335208   T   T   T
  0.5833333134730552  0.4500000000005357  0.3605200052333331   F   F   F
  0.0000000000000000  0.0000000000000000  0.4070133268666680   F   F   F
  0.4166666269218169  0.2500000000242011  0.3605200052333331   F   F   F
  0.7490336600074649  0.5502578727095142  0.4555653704360836   T   T   T
  0.0836605613141342  0.0498126441703718  0.5461432317379297   T   T   T
  0.5833840302913316  0.1500659211893293  0.5466259090691525   T   T   T
  0.2500942124436286  0.1501510331558846  0.5464132963945684   T   T   T
  0.7499608054333577  0.1498018392193403  0.5468119884801647   T   T   T
  0.5830648276897495  0.8476703543261841  0.4556091128661374   T   T   T
  0.2524450163039681  0.6471832679786786  0.5440571985086284   T   T   T
  0.4994726025986170  0.4027645885796672  0.5914509408984472   T   T   T
  0.2499999999799343  0.6500000000127244  0.3605200052333331   F   F   F
  0.9161787343480439  0.1506666170451086  0.5460371020368281   T   T   T
  0.2503074177173353  0.2501533021470008  0.4544490890890713   T   T   T
  0.5829038221350555  0.3528855754949897  0.4560262389902071   T   T   T
  0.2519752772955148  0.6518925593919953  0.4537916582495293   T   T   T
  0.1666666716383389  0.4000000000243773  0.4070133268666680   F   F   F
  0.5844565489636699  0.4522629440713234  0.4539196976561966   T   T   T
  0.3333333432766779  0.4000000000243773  0.4070133268666680   F   F   F
  0.0833333358191695  0.4500000000005357  0.3605200052333331   F   F   F
  0.8333332538436267  0.4000000000243773  0.4070133268666680   F   F   F
  0.4166916173942465  0.2502346628567568  0.4550883493129711   T   T   T
  0.5000000000021103  0.2000000000121887  0.4070133268666680   F   F   F
  0.6666666865533486  0.6000000000007191  0.4070133268666680   F   F   F
  0.0840399377809365  0.6499013867171043  0.4542410743744190   T   T   T
  0.0837928937761550  0.8494302874090497  0.4542410576669206   T   T   T
  0.0835156617077941  0.4496055018378152  0.4541583412502869   T   T   T
  0.7499999404149307  0.8499999999890662  0.3605200052333331   F   F   F
  0.9152567520381465  0.4499883020871825  0.5467206741133454   T   T   T
  0.4168633861494562  0.3504417280060831  0.4540281173426321   T   T   T
  0.4166712552189943  0.1510858392460576  0.5458230712200424   T   T   T
  0.8333332538436267  0.2000000000121887  0.4070133268666680   F   F   F
  0.9999670011223825  0.4992709048682261  0.4982854582503791   T   T   T
  0.2506018718431824  0.8485446212409374  0.4554102660259332   T   T   T
  0.4158882649088929  0.6472983072890945  0.4579970202227481   T   T   T
  0.0833333358191695  0.9500000000130839  0.3605200052333331   F   F   F
  0.0839970365911979  0.2495889287988186  0.4543096670410496   T   T   T
  0.4167323047020554  0.1500181630129163  0.4535513522172985   T   T   T
  0.0832122901365828  0.1496488565117882  0.4533330670065222   T   T   T
  0.9165688672311172  0.0499711455980106  0.4536223598520823   T   T   T
  0.4166666269218169  0.1500000000001833  0.3605200052333331   F   F   F
  0.0833333358191695  0.1500000000001833  0.3605200052333331   F   F   F
  0.0833333358191695  0.7500000000008953  0.3605200052333331   F   F   F
  0.7497559108241751  0.0502835777208920  0.6407689382241024   T   T   T
  0.4145785169792333  0.8489050443456884  0.5479834915208178   T   T   T
  0.2511992911146440  0.2506711617337437  0.5475865301987830   T   T   T
  0.4168490178830522  0.0497675721311795  0.6412954577950533   T   T   T
  0.9160750565050467  0.0500709445754903  0.6402681508816718   T   T   T
  0.0834117450689240  0.0497584636328914  0.6401649430474513   T   T   T
  0.0833493931346312  0.1489519201646783  0.6406382209711108   T   T   T
  0.6666675953695221  0.1001047913840649  0.4984690438519289   T   T   T
  0.1668376514252863  0.1000556533828221  0.4984305608473171   T   T   T
  0.8333332538436267  0.6000000000007191  0.4070133268666680   F   F   F
  0.0833333358191695  0.8499999999890662  0.3605200052333331   F   F   F
  0.9164641567566753  0.0498077815454025  0.5460986972961105   T   T   T
  0.7499676284230515  0.1502921831079609  0.4538386958231713   T   T   T
  0.4997993323645369  0.0000792130423358  0.5909297489083237   T   T   T
  0.1666666716383389  0.8000000000129006  0.4070133268666680   F   F   F
  0.5818958424650210  0.3480611501059322  0.5506540069349504   T   T   T
  0.9999108499367773  0.8020282922699369  0.5924330314448062   T   T   T
  0.3338472942907677  0.1998883674160647  0.5921075609723351   T   T   T
  0.9998575481763691  0.1998028479933694  0.5924209131807189   T   T   T
  0.0006432897357337  0.3984655611409759  0.5922986259524219   T   T   T
  0.0840370550196007  0.9504223212739573  0.5457566226135914   T   T   T
  0.4198578661927510  0.6518900400972163  0.5556270854181521   T   T   T
  0.0838192821712284  0.3481360779655295  0.6416449320405034   T   T   T
  0.9175785156480326  0.6510750913083563  0.5470427133607270   T   T   T
  0.2531606041482202  0.8499749901080815  0.5506545780268488   T   T   T
  0.5860599505570896  0.8515718814860623  0.5506717447513483   T   T   T
  0.6662890853193378  0.0001184321788319  0.5913580181910381   T   T   T
  0.3338077022026741 -0.0001945126974372  0.5910654520410562   T   T   T
 -0.0000781000799445 -0.0005506457505292  0.5916814342310934   T   T   T
  0.8327261773875574 -0.0005932964145086  0.5915596722460187   T   T   T
  0.1671994045011386 -0.0009492763618655  0.5916054738276803   T   T   T
  0.3333117134351831  0.1000225823021339  0.4984812593881865   T   T   T
  0.9161858487983443  0.2495984032078417  0.4542640911415374   T   T   T
 -0.0000447747229514  0.1001768295471935  0.4987759968162619   T   T   T
  0.5833387241122269  0.1506082000010962  0.4540262549280105   T   T   T
  0.7484756651253585  0.9485658894800584  0.6395772330280310   T   T   T
  0.8326057182279367  0.2009074351722798  0.5917385067464006   T   T   T
  0.7489304954451906  0.3500951979382700  0.5469891618596667   T   T   T
  0.4230848004293181  0.7503903417170796  0.5465900235030055   T   T   T
  0.4231556892569440  0.5547146732915567  0.5460244675081440   T   T   T
  0.7522092054199825  0.5492620368943614  0.5483818988857180   T   T   T
  0.2499999999799343  0.8499999999890662  0.3605200052333331   F   F   F
  0.5833333134730552  0.1500000000001833  0.3605200052333331   F   F   F
  0.1666666716383389  0.6000000000007191  0.4070133268666680   F   F   F
  0.4166743002485134  0.0497838208995897  0.5461720530462132   T   T   T
  0.5809092818070399  0.6476491705631133  0.5489221041129355   T   T   T
  0.6666666865533486  0.0000000000000000  0.4070133268666680   F   F   F
  0.0833333358191695  0.5499999761504029  0.3605200052333331   F   F   F
  0.1666666716383389  0.0000000000000000  0.4070133268666680   F   F   F
  0.8333332538436267  0.8000000000129006  0.4070133268666680   F   F   F
  0.2499999999799343  0.4500000000005357  0.3605200052333331   F   F   F
  0.4169133147922521  0.5482581194203214  0.4541356500968537   T   T   T
  0.0833333358191695  0.0500000000120124  0.3605200052333331   F   F   F
  0.4166666269218169  0.0500000000120124  0.3605200052333331   F   F   F
  0.7499999404149307  0.0500000000120124  0.3605200052333331   F   F   F
  0.2500736943499118  0.1498862203543542  0.4536896495351985   T   T   T
  0.8331799940114500  0.1001932643409511  0.4984894725249736   T   T   T
  0.7499248101817846  0.0491250229360136  0.5458632966774464   T   T   T
  0.2500701810241870  0.0497890294563005  0.5464085725094090   T   T   T
  0.5831780081286924  0.0499635641811584  0.5462614834355743   T   T   T
  0.7498059894931642  0.1502220943191978  0.6416255287768134   T   T   T
  0.2505843079827746  0.1486048751218995  0.6411348310635316   T   T   T
  0.9159978779709103  0.1498184946680056  0.6407506578083820   T   T   T
  0.5831943970362496  0.1501503148565237  0.6418014913560330   T   T   T
  0.4168217847491257  0.1501676096376848  0.6412084573720305   T   T   T
  0.4166666269218169  0.3500000000123720  0.3605200052333331   F   F   F
  0.5000000000021103  0.0000000000000000  0.4070133268666680   F   F   F
  0.4154948134484832  0.4490146363427235  0.4573345755244937   T   T   T
  0.3333333432766779  0.0000000000000000  0.4070133268666680   F   F   F
  0.9166666865332829  0.0500000000120124  0.3605200052333331   F   F   F
  0.5833333134730552  0.0500000000120124  0.3605200052333331   F   F   F
  0.2499999999799343  0.0500000000120124  0.3605200052333331   F   F   F
  0.9167407423485116  0.1497517173589273  0.4534151810068680   T   T   T
  0.0002829215072292  0.2997151855198188  0.4981263274110391   T   T   T
  0.0847310441942639  0.7498535614535711  0.4534868505393506   T   T   T
  0.9162713263426787  0.8495744195793902  0.4540722368900501   T   T   T
  0.0856918565264397  0.7509916144963209  0.5457826550761133   T   T   T
  0.6661852836009333  0.1998555482743861  0.5917909044792807   T   T   T
  0.6650810663766480  0.3994174431660580  0.5897851320127458   T   T   T
  0.3354671438543793  0.7928161693438662  0.5906855255696204   T   T   T
  0.3331985752956733  0.5968552700636335  0.5912727660829625   T   T   T
  0.4972265901374785  0.6037487182261326  0.6090331313756657   T   T   T
  0.2515133893388699  0.9498826044010056  0.5450566075432282   T   T   T
  0.5792861093908689  0.7482996164215278  0.5477462670615086   T   T   T
  0.9157568673156672  0.5500332152315228  0.5457098396472421   T   T   T
  0.9174501729167296  0.3508029413686321  0.5451544559282229   T   T   T
  0.9143094007837804  0.7507359728778936  0.5458534729776867   T   T   T
  0.0836003085299112  0.4487366162435268  0.6404665044911269   T   T   T
  0.6663899068316806  0.8992435374435294  0.4987105869221553   T   T   T
  0.0867457721579790  0.6500211838192882  0.6402391437175778   T   T   T
  0.5828766669352826  0.4488265143041739  0.5456551792931236   T   T   T
  0.2483699419172360  0.5486335632055515  0.5491407701694428   T   T   T
  0.1683801081023282  0.3980582814039113  0.5932013491403748   T   T   T
  0.9144209945289375  0.8505065455258755  0.6414485636680582   T   T   T
  0.4127607424112636  0.8503071139422766  0.6395537851837140   T   T   T
  0.7490264261553506  0.7508011339396614  0.4572115126543001   T   T   T
  0.4170349245267356  0.9477287568213283  0.6388033854111883   T   T   T
  0.5901542427611868  0.8479863123567053  0.6463710913348394   T   T   T
  0.9125465015056174  0.5482715651648291  0.6397687854442153   T   T   T
  0.7540897271024097  0.5464320655245449  0.6375227443867016   T   T   T
  0.9166666865332829  0.8499999999890662  0.3605200052333331   F   F   F
  0.4162797401734184  0.3531841569240459  0.5470608085964458   T   T   T
  0.9136245440893298  0.6498287676457648  0.6410724834722843   T   T   T
  0.1676791269692717  0.6996331971776687  0.5001801317499297   T   T   T
  0.5000419759111046  0.8982403256048009  0.5005397152389588   T   T   T
  0.9146499255838316  0.3479949510510721  0.6398821418359392   T   T   T
  0.4166666269218169  0.7500000000008953  0.3605200052333331   F   F   F
  0.2499979787680293  0.3511677972683778  0.4544035801659759   T   T   T
  0.2499999999799343  0.7500000000008953  0.3605200052333331   F   F   F
  0.9166666865332829  0.9500000000130839  0.3605200052333331   F   F   F
  0.2499999999799343  0.9500000000130839  0.3605200052333331   F   F   F
  0.5833333134730552  0.3500000000123720  0.3605200052333331   F   F   F
  0.7486845914056148  0.2518092999315088  0.6395408711317245   T   T   T
  0.7539916525973482  0.4458711182402852  0.6447436564852922   T   T   T
  0.5830694986436347  0.2521886956953124  0.6386547457291999   T   T   T
  0.4274332829239019  0.4436689918539883  0.6565545970841765   T   T   T
  0.1670483395386262  0.1996418973360824  0.5921064521786499   T   T   T
  0.6654533851897892  0.7931412723095583  0.5907583500733683   T   T   T
  0.2491952632146208  0.7464485451988174  0.5522216134421767   T   T   T
  0.9154376755924336  0.8499207228771417  0.5465227874045927   T   T   T
  0.7467071880038154  0.6468970374597156  0.5451137045380158   T   T   T
  0.2398877353209211  0.5535279324658452  0.6417780904372080   T   T   T
  0.2502886206550076  0.0489120828025575  0.6410241753684933   T   T   T
  0.2518504039706634  0.9457348262929623  0.6368799888119028   T   T   T
  0.9166666865332829  0.5499999761504029  0.3605200052333331   F   F   F
  0.9166666865332829  0.3500000000123720  0.3605200052333331   F   F   F
  0.0857151519342106  0.4508728831681743  0.5471548085938372   T   T   T
  0.5833333134730552  0.7500000000008953  0.3605200052333331   F   F   F
  0.5833333134730552  0.5499999761504029  0.3605200052333331   F   F   F
  0.0852689682842947  0.8498469113905341  0.5470031094451416   T   T   T
  0.4161508063642704  0.9483596890287828  0.5467382374257705   T   T   T
  0.4997713303557687  0.3014182640657214  0.4998942278151358   T   T   T
  0.0000000000000000  0.8000000000129006  0.4070133268666680   F   F   F
  0.4165165877722218  0.2526801622432050  0.5473795651463697   T   T   T
  0.5766683235791352  0.5484030428387600  0.5522611707476470   T   T   T
  0.7488084984427178  0.9474555829285363  0.5472711535282334   T   T   T
  0.6666387409320638  0.5956461238707726  0.5914613710154388   T   T   T
  0.7514826345240602  0.7447751096728331  0.5527213081721710   T   T   T
  0.4180876506163241  0.2520283663802501  0.6394075868368326   T   T   T
  0.3352072389419386  0.4038281126417763  0.5930114213229180   T   T   T
  0.5827199059319693  0.9489101089754260  0.4541309182809330   T   T   T
  0.0867540943596344  0.5488856436316989  0.6395622425506445   T   T   T
  0.1708349594143502  0.8002399671607825  0.5946193598901161   T   T   T
  0.8332314465155508  0.6020954743903154  0.5893724057273896   T   T   T
  0.0838800896473342  0.2484958675800756  0.6421136152404379   T   T   T
  0.0839246496067117  0.7495836097024055  0.6391578045936060   T   T   T
  0.0844842549437846  0.9494145738999605  0.6402889447682137   T   T   T
  0.4156027071752532  0.5347473535327383  0.6301359680793533   T   T   T
  0.4182551122318713  0.3494953871690600  0.6396891994713297   T   T   T
  0.5009728670584536  0.8049357440820120  0.5929561295526328   T   T   T
  0.2492612845875269  0.4509546171233916  0.5460259576281233   T   T   T
  0.0814752070869060  0.6516432263516762  0.5466508285776828   T   T   T
  0.5833672284808040  0.2500983908055928  0.5460507566524677   T   T   T
  0.4171595527593348  0.9483497460889336  0.4542492654028503   T   T   T
  0.0825220035840454  0.2503594539130916  0.5475222942999285   T   T   T
  0.5837893392060527  0.9503664535112548  0.5458098024977985   T   T   T
  0.9160712354384637  0.9504886582161829  0.5459828812507934   T   T   T
  0.7485540153379465  0.2503471642505188  0.5463278475413019   T   T   T
  0.5843843895662384  0.6499798224969880  0.4548829159785001   T   T   T
  0.9158429950479349  0.5497019246469536  0.4536837009643487   T   T   T
  0.9152932611395503  0.2498906003722262  0.6409648219799547   T   T   T
  0.5879662421116271  0.4564013552100102  0.6342821203442071   T   T   T
  0.2473988514805334  0.6589207476444943  0.6289311232890857   T   T   T
  0.2617351806163886  0.8402951469389344  0.6462222251297433   T   T   T
  0.2510206393115716  0.2484724846516788  0.6415937016145944   T   T   T
  0.9166666865332829  0.6500000000127244  0.3605200052333331   F   F   F
  0.4998007293594244  0.4986144547653543  0.4999098125103674   T   T   T
  0.5003028186941635  0.6966428174232938  0.5000211019795175   T   T   T
  0.8324344349503829  0.6985642625207141  0.5001234348636078   T   T   T
  0.2526814973996253  0.3509898161686010  0.5473942348122466   T   T   T
  0.8327497248690939  0.4988749912966199  0.4993360097761114   T   T   T
  0.9149236045671437  0.4483623922652785  0.6396624084036372   T   T   T
  0.1665011733463414  0.5008702874065672  0.4978290518090627   T   T   T
  0.4166666269218169  0.9500000000130839  0.3605200052333331   F   F   F
  0.2503553450558507  0.9486973648578458  0.4538257324954175   T   T   T
  0.6653882853241646  0.7001598058094234  0.5029952133369674   T   T   T
  0.4166666269218169  0.5499999761504029  0.3605200052333331   F   F   F
  0.0828109567115241  0.5509654727525661  0.5451741733811155   T   T   T
  0.2499999999799343  0.3500000000123720  0.3605200052333331   F   F   F
  0.7542255338147983  0.7546788401581059  0.6555326409809220   T   T   T
  0.8329109842550528  0.2998315793555952  0.4999881184206069   T   T   T
  0.1672096973667720  0.3001046480504975  0.4997881239267868   T   T   T
  0.9166666865332829  0.7500000000008953  0.3605200052333331   F   F   F
  0.8326619490323406  0.8994191174323993  0.4987851214262161   T   T   T
  0.0000000000000000  0.4000000000243773  0.4070133268666680   F   F   F
  0.0000000000000000  0.6000000000007191  0.4070133268666680   F   F   F
  0.7483441143055304  0.6511321282081881  0.4539918815397425   T   T   T
  0.3333333432766779  0.2000000000121887  0.4070133268666680   F   F   F
  0.3333333432766779  0.6000000000007191  0.4070133268666680   F   F   F
  0.2511145872379650  0.5517729886120317  0.4552590742904279   T   T   T
  0.3336414447502467  0.8985752611877211  0.4992676570282012   T   T   T
  0.6666666865533486  0.2000000000121887  0.4070133268666680   F   F   F
  0.0001956014582539  0.8997267745959195  0.4989998399364585   T   T   T
  0.5904638503823015  0.6523533921584881  0.6388434644784904   T   T   T
  0.0839380158271535  0.9496363388187316  0.4536860642141713   T   T   T
  0.0829757577853271  0.5498174302520146  0.4531384477202807   T   T   T
  0.0838232904936889  0.3497768322438085  0.4534591429520363   T   T   T
  0.5000680666903283  0.2002482039490376  0.5910895732214472   T   T   T
  0.9161732070581837  0.4495084429138448  0.4541244180005173   T   T   T
  0.7499999404149307  0.9500000000130839  0.3605200052333331   F   F   F
  0.7502167084521234  0.3506146156012856  0.4542013479656306   T   T   T
  0.7499999404149307  0.5499999761504029  0.3605200052333331   F   F   F
  0.3971793172850689  0.6404986835409192  0.6521691438287828   T   T   T
  0.9156697850967926  0.9498166734062006  0.6404509384176538   T   T   T
  0.9157629485879635  0.7500747061696915  0.6392182379661570   T   T   T
  0.7415117296908017  0.8484885252374000  0.6396759452450498   T   T   T
  0.0848251974650287  0.8500572566344207  0.6420155703265022   T   T   T
  0.7530786854811706  0.6548575155485822  0.6359045723380575   T   T   T
  0.4170368390875561  0.8473754652585901  0.4553264853604093   T   T   T
  0.7496449569635421  0.2505971936754025  0.4541913589271670   T   T   T
  0.9158793566823142  0.3496019133088037  0.4533835290181663   T   T   T
  0.5830226852482034  0.2514327682227625  0.4541100865505909   T   T   T
  0.5828770619082677  0.7488107404164382  0.4548934339978731   T   T   T
  0.5833333134730552  0.2500000000242011  0.3605200052333331   F   F   F
  0.7428087050113754  0.3513428054421414  0.6408094206655475   T   T   T
  0.8321272826084971  0.3968806324862591  0.5902804649934519   T   T   T
  0.7499999404149307  0.7500000000008953  0.3605200052333331   F   F   F
  0.4202322666334604  0.7409389102042415  0.6337551077923901   T   T   T
  0.1677975774842566  0.8988390488614114  0.4994245313381233   T   T   T
  0.2550005607972281  0.7420202376458011  0.6630377943802528   T   T   T
  0.2538196377190265  0.3491115615331337  0.6410699946870746   T   T   T
  0.8303703250467830  0.8007983714383863  0.5924562582114697   T   T   T
  0.5818342027488355  0.9483128132778204  0.6380536678839024   T   T   T
  0.5809142759909826  0.3531045402548080  0.6447660261013871   T   T   T
  0.7499999404149307  0.3500000000123720  0.3605200052333331   F   F   F
  0.2499999999799343  0.5499999761504029  0.3605200052333331   F   F   F
  0.5828677658797331  0.5515046804585469  0.4565179690195497   T   T   T
  0.0833333358191695  0.2500000000242011  0.3605200052333331   F   F   F
  0.9150501353614455  0.7496816464638550  0.4535131650164727   T   T   T
  0.4171300398019988  0.7472856128694850  0.4545001132799191   T   T   T
  0.3343485243751063  0.5023215874103040  0.5030634536451090   T   T   T
  0.6656723967382540  0.5023421161552356  0.5034969347342794   T   T   T
  0.9171234442785490  0.2506722254721052  0.5472970878457055   T   T   T
  0.7495171854586464  0.9499264761641231  0.4548573975410916   T   T   T
  0.5795978973948055  0.5505396991146205  0.6459042056679806   T   T   T
  0.5782948769267984  0.7484715090092151  0.6398283583098325   T   T   T
  0.1655145818680057  0.6021982687027785  0.5873518014261998   T   T   T
  0.2492295066027483  0.4528674452375095  0.6411849155667050   T   T   T
  0.0836426136920401  0.3510043482487997  0.5458379338556727   T   T   T
  0.3355871862306247  0.7005448560148724  0.5039610253490842   T   T   T
  0.7481947071942434  0.4502012628530692  0.4557310897980105   T   T   T
  0.6663012175629036  0.7008158855287715  0.5931937323062019   T   T   T
  0.1666666716383389  0.5000000000125482  0.4070133268666680   F   F   F
 -0.0003080622082444  0.0996315184666828  0.6195949401981935   T   T   T
  0.8338694206564952  0.0008217185833005  0.5056202027983476   T   T   T
  0.8362462042218386  0.5998762572424841  0.5028915368299626   T   T   T
  0.5000000000021103  0.6999999999888900  0.4070133268666680   F   F   F