Au  C  H  O Sr Ti                       
   1.00000000000000     
    23.6707801818999997    0.0000000000000000    0.0000000000000000
     0.0000000000000000   27.8962826732999716    0.0000000000000000
     0.0000000000000000    0.0000000000000000   30.0000000000000000
   Au   C    H    O    Sr   Ti
    50     5    11   330    90    90
Selective dynamics
Direct
  0.7121511611170664  0.6255452202837803  0.7547939642755092   T   T   T
  0.2941533079462323  0.7977013186335163  0.6966037719558142   T   T   T
  0.5081075949587983  0.6854754878498724  0.7784181058826223   T   T   T
  0.5775302354094279  0.7790084946713708  0.7943479990639407   T   T   T
  0.2403764460806941  0.5752705472910105  0.7092355619983183   T   T   T
  0.6017753808901198  0.4271269087073498  0.7845696399889580   T   T   T
  0.5137280275025252  0.5881242725709412  0.6782535814645648   T   T   T
  0.5669784654481782  0.6116218378025969  0.8586129943716841   T   T   T
  0.4856637844397004  0.4167397830443534  0.7743190158073906   T   T   T
  0.6190272855293376  0.4563640123711168  0.6976920397921607   T   T   T
  0.4609625580237952  0.7584588859581783  0.8328310762452044   T   T   T
  0.5523372108716696  0.5084697988778198  0.8271264604111982   T   T   T
  0.5619846551696734  0.5918723382874008  0.7632933996857585   T   T   T
  0.5539801572704142  0.3712208530058304  0.7095164978270755   T   T   T
  0.7375586600906977  0.3973680298788076  0.6939948128212645   T   T   T
  0.7609849190637282  0.5514419517337064  0.7043742276551030   T   T   T
  0.4858273148186599  0.8208899100429016  0.7552614903713536   T   T   T
  0.6203366249604332  0.6580024056426966  0.7037246255722528   T   T   T
  0.6295527862773890  0.6724573520905285  0.8010882598615224   T   T   T
  0.4302040555812941  0.4967606965596103  0.8152431207441873   T   T   T
  0.3490806907418888  0.6000188205812504  0.6979815336484005   T   T   T
  0.3699093189306423  0.4391509869916452  0.7557500612363203   T   T   T
  0.7323965507707375  0.6934761351677485  0.6932316287869624   T   T   T
  0.4367240298024845  0.3813573681736255  0.6981755236019451   T   T   T
  0.5199178007704341  0.5032122843276219  0.7331190423616283   T   T   T
  0.2856513584087453  0.7298189608119723  0.7642755871281135   T   T   T
  0.2571412215376882  0.6744618223714285  0.6945767368073059   T   T   T
  0.6639451777659449  0.3465786865471188  0.7416463399400181   T   T   T
  0.4716197614432883  0.5597762357144220  0.8774960230010960   T   T   T
  0.2821573635391909  0.4716221620970619  0.7023877305329597   T   T   T
  0.6699051723306811  0.7463958985296181  0.7487279060239181   T   T   T
  0.3978639489930025  0.5058177709902311  0.6907241830866581   T   T   T
  0.3920974341329191  0.8544015944905113  0.7065129989517580   T   T   T
  0.3750304602041987  0.5939480303531980  0.8332164103810532   T   T   T
  0.2892555452278228  0.6301992579489175  0.7778181658603636   T   T   T
  0.3678679574320706  0.6951980084840031  0.8201682521609307   T   T   T
  0.5965424882763701  0.8274135475900937  0.7133981030404257   T   T   T
  0.7750772434420161  0.5532271727720433  0.7944892181426538   T   T   T
  0.4513362155814897  0.6641962318253228  0.7036690826912154   T   T   T
  0.6456948523430295  0.5567952904636977  0.6955886090315286   T   T   T
  0.5604824080554280  0.7145374474787403  0.8646691029488760   T   T   T
  0.5395074946460513  0.7348916284161676  0.7024256473875755   T   T   T
  0.4435842491188204  0.5786913100426296  0.7565879730440273   T   T   T
  0.3736888159328205  0.7930806243295228  0.7790260505954865   T   T   T
  0.4602214927530040  0.6589937210632176  0.8653779970531164   T   T   T
  0.6557090512131081  0.5626123949107262  0.8171154806258389   T   T   T
  0.7071070806938783  0.8059796743368666  0.6877689899784709   T   T   T
  0.4158130376818894  0.7571430421910280  0.6998472634347398   T   T   T
  0.3252805345056655  0.5317506489325923  0.7693658924357252   T   T   T
  0.6944787614950061  0.4866008236489509  0.7640241386254429   T   T   T
  0.6516605175897922  0.2495794539092308  0.8052891193777001   T   T   T
  0.6145443777313996  0.2057730138969724  0.8139572882664350   T   T   T
  0.6845152134640964  0.2460592499784596  0.7613418795587410   T   T   T
  0.7561295475727419  0.4336606488156761  0.7504797354028335   T   T   T
  0.7209507220965654  0.2890159361885400  0.7506401448449662   T   T   T
  0.6249321296001128  0.2818796817855067  0.8047124430574008   T   T   T
  0.6815275387323300  0.2548099016238002  0.8328304240215546   T   T   T
  0.7136967769493477  0.2152126499512693  0.7628630776984766   T   T   T
  0.7485507011644988  0.3004709157141814  0.7778246402795479   T   T   T
  0.5834629027492966  0.2013581714763922  0.7873228844229355   T   T   T
  0.6399614116064858  0.1730711308637301  0.8153755119532270   T   T   T
  0.6560035074193843  0.2380682047718885  0.7334966591438102   T   T   T
  0.5918267361685234  0.2091230058457086  0.8454967613158162   T   T   T
  0.7437797482949527  0.2857614097343723  0.7192344188911901   T   T   T
  0.7549952436121586  0.4116528401648169  0.7805852281737615   T   T   T
  0.7960274291588001  0.4529951291177890  0.7471665628842952   T   T   T
  0.5858229840756813  0.8518440589121946  0.5507838812238914   T   T   T
  0.6666666865533486  0.4000000000243773  0.4070133268666680   F   F   F
  0.9177888411841706  0.6510007929696617  0.5470143303829244   T   T   T
  0.3333333432766779  0.8000000000129006  0.4070133268666680   F   F   F
  0.3337702519499854  0.3009832039800944  0.4988122321690689   T   T   T
  0.9998010756497321  0.7020166165166125  0.4972306651407221   T   T   T
  0.9160992519755895  0.6497749571841643  0.4542300904782552   T   T   T
  0.5833333134730552  0.9500000000130839  0.3605200052333331   F   F   F
  0.9164138394153551  0.9496421401774848  0.4537414861091697   T   T   T
  0.7499999404149307  0.4500000000005357  0.3605200052333331   F   F   F
  0.4166666269218169  0.8499999999890662  0.3605200052333331   F   F   F
  0.4166666269218169  0.4500000000005357  0.3605200052333331   F   F   F
  0.4166666269218169  0.6500000000127244  0.3605200052333331   F   F   F
  0.5000000000021103  0.8000000000129006  0.4070133268666680   F   F   F
  0.0000000000000000  0.2000000000121887  0.4070133268666680   F   F   F
  0.5833689161518258  0.0504153756822710  0.6415770008372632   T   T   T
  0.7473094479319050  0.8468204061962753  0.5457376631913718   T   T   T
  0.5844344371922507  0.6499179767272092  0.4548866317512177   T   T   T
  0.5000000000021103  0.6000000000007191  0.4070133268666680   F   F   F
  0.0833333358191695  0.3500000000123720  0.3605200052333331   F   F   F
  0.6666666865533486  0.8000000000129006  0.4070133268666680   F   F   F
  0.2499999999799343  0.1500000000001833  0.3605200052333331   F   F   F
  0.9166666865332829  0.1500000000001833  0.3605200052333331   F   F   F
  0.5835047842892145  0.0495822790002150  0.4541759091679065   T   T   T
  0.2501552078992240  0.0491187609725922  0.4542173544636996   T   T   T
  0.7499548791790638  0.0499769623951538  0.4536717496214836   T   T   T
  0.4164506809883172  0.0490604310479541  0.4543586279779559   T   T   T
  0.0832980161642082  0.0497201387444022  0.4539194366559163   T   T   T
  0.8333332538436267  0.0000000000000000  0.4070133268666680   F   F   F
  0.4999335581490094  0.1000789670661342  0.4987579501111480   T   T   T
  0.9995430568711156  0.5990503226808221  0.5941832959842536   T   T   T
  0.0836545297421883  0.1505795738478742  0.5463181887792944   T   T   T
  0.7499999404149307  0.2500000000242011  0.3605200052333331   F   F   F
  0.2499999999799343  0.2500000000242011  0.3605200052333331   F   F   F
  0.1666666716383389  0.2000000000121887  0.4070133268666680   F   F   F
  0.7499999404149307  0.6500000000127244  0.3605200052333331   F   F   F
  0.5833333134730552  0.6500000000127244  0.3605200052333331   F   F   F
  0.5000000000021103  0.4000000000243773  0.4070133268666680   F   F   F
  0.9166666865332829  0.4500000000005357  0.3605200052333331   F   F   F
  0.1666666716383389  0.4000000000243773  0.4070133268666680   F   F   F
  0.5844001580291709  0.4524874353728849  0.4538408516604785   T   T   T
  0.3333333432766779  0.4000000000243773  0.4070133268666680   F   F   F
  0.6661728797422346  0.3016318273298549  0.4997360636564014   T   T   T
  0.5833333134730552  0.4500000000005357  0.3605200052333331   F   F   F
  0.0000000000000000  0.0000000000000000  0.4070133268666680   F   F   F
  0.4166666269218169  0.2500000000242011  0.3605200052333331   F   F   F
  0.0837561613194426  0.0498367785260371  0.5465652597572560   T   T   T
  0.9163307772017778  0.1506966438285164  0.5463342410605755   T   T   T
  0.5828480281509857  0.1498378009114316  0.5475011352673805   T   T   T
  0.0833333358191695  0.6500000000127244  0.3605200052333331   F   F   F
  0.2501218853618091  0.1503084823798217  0.5464955316212825   T   T   T
  0.5829146469533650  0.8475927135983601  0.4557054400646618   T   T   T
  0.2524538148558123  0.6470982474398616  0.5440434234952362   T   T   T
  0.4994760428347595  0.4027611053772318  0.5914674759966175   T   T   T
  0.2499999999799343  0.6500000000127244  0.3605200052333331   F   F   F
  0.9161778293645044  0.2497840121126579  0.4541799719533872   T   T   T
  0.0002575600421081  0.2996813467158382  0.4984880430823582   T   T   T
  0.7466356981371778  0.6468825806893684  0.5451339102696349   T   T   T
  0.7497651715438162  0.1497977232738178  0.5469304342909820   T   T   T
  0.9166666865332829  0.2500000000242011  0.3605200052333331   F   F   F
  0.7499475779839995  0.8499294871224385  0.4536872396544007   T   T   T
  0.7490095745771334  0.5502727198512711  0.4555912738694571   T   T   T
  0.0833333358191695  0.4500000000005357  0.3605200052333331   F   F   F
  0.8333332538436267  0.4000000000243773  0.4070133268666680   F   F   F
  0.4170680361063568  0.2504938353487786  0.4550371014954957   T   T   T
  0.5000000000021103  0.2000000000121887  0.4070133268666680   F   F   F
  0.6666666865533486  0.6000000000007191  0.4070133268666680   F   F   F
  0.0839825996287416  0.6499096515092371  0.4542419877972374   T   T   T
  0.0838129071326840  0.8495932481166767  0.4541685334841372   T   T   T
  0.0835021840571990  0.4496140948924793  0.4541051226047494   T   T   T
  0.7499999404149307  0.8499999999890662  0.3605200052333331   F   F   F
  0.9151638311093057  0.4499149762862897  0.5467119265888072   T   T   T
  0.4168961661992842  0.3504530509184380  0.4541714105133561   T   T   T
  0.4166435882852519  0.1510787256085212  0.5463129139841684   T   T   T
  0.8333332538436267  0.2000000000121887  0.4070133268666680   F   F   F
  0.9999441571193651  0.4992420063746306  0.4983467095211735   T   T   T
  0.2519752360744247  0.6519040541586708  0.4537693583344591   T   T   T
  0.5828564370583095  0.3530351973114352  0.4561520998775325   T   T   T
  0.2501548546791356  0.2503116910326929  0.4543915463451585   T   T   T
  0.2519024442887404  0.4517930643310566  0.4538026765892247   T   T   T
  0.7499999404149307  0.1500000000001833  0.3605200052333331   F   F   F
  0.5833333134730552  0.8499999999890662  0.3605200052333331   F   F   F
  0.2505358429015521  0.8483853349838723  0.4554672530202752   T   T   T
  0.4166666269218169  0.1500000000001833  0.3605200052333331   F   F   F
  0.0833333358191695  0.1500000000001833  0.3605200052333331   F   F   F
  0.0833333358191695  0.7500000000008953  0.3605200052333331   F   F   F
  0.7497712214522272  0.0501832151523727  0.6408614529165836   T   T   T
  0.2514429025570926  0.2507957974048731  0.5475610124516489   T   T   T
  0.0833333358191695  0.8499999999890662  0.3605200052333331   F   F   F
  0.4171171417340706  0.0494921751448926  0.6423029902272632   T   T   T
  0.9166044098385888  0.0497394701972518  0.4538824054655328   T   T   T
  0.9159589137618775  0.0499733562187732  0.6402695110339069   T   T   T
  0.0833328435807786  0.1486737068531283  0.6404384379141767   T   T   T
  0.6664329666581216  0.1001374058862980  0.4989313296993154   T   T   T
  0.1667555461793382  0.0998690560085744  0.4987343934071933   T   T   T
  0.8333332538436267  0.6000000000007191  0.4070133268666680   F   F   F
  0.3335126844690343  0.0999835472834873  0.4989457249601672   T   T   T
  0.0000125397801768  0.1000270170793814  0.4991488652624592   T   T   T
  0.9165916740769743  0.1499053037556085  0.4537191306836270   T   T   T
  0.0836122625062646  0.0497713245057905  0.6403588014449005   T   T   T
  0.0833693135515086  0.1499255044475459  0.4537275899287600   T   T   T
  0.4166286166765069  0.1502858988960942  0.4538452515726730   T   T   T
  0.4144696179867877  0.8487438439549660  0.5479506202203582   T   T   T
  0.1666666716383389  0.8000000000129006  0.4070133268666680   F   F   F
  0.5819810204694768  0.3478730371759459  0.5508733703806921   T   T   T
  0.0000142763853781  0.8020322438957076  0.5926021770138286   T   T   T
  0.3338748761404188  0.2000723818522735  0.5921056625450889   T   T   T
  0.9998291112828868  0.2000160793050443  0.5923878442960203   T   T   T
  0.0006934065347672  0.3984148394242916  0.5923463596142453   T   T   T
  0.0841557768688217  0.9503189200067752  0.5461290338043238   T   T   T
  0.4197740179880387  0.6518354709297264  0.5557278476174272   T   T   T
  0.0838919723673301  0.3481011771053069  0.6420242954683981   T   T   T
  0.6660757417945493  0.0001636345275455  0.5918265935095832   T   T   T
  0.3340373260424394  0.9999786587347685  0.5917391632287681   T   T   T
  0.9999642789718660  0.9992211436610795  0.5919927733945023   T   T   T
  0.8325511622456691  0.9987349075191113  0.5919320384539229   T   T   T
  0.1674317100693352  0.9987070928189959  0.5920840157733420   T   T   T
  0.4997066353381185  0.0000574516283096  0.5914070076129991   T   T   T
  0.7499310116589589  0.1505172474265995  0.4541567447283658   T   T   T
  0.9163456470791257  0.0499331552160866  0.5465224056116935   T   T   T
  0.5831685064100178  0.1511378291408167  0.4545434720403274   T   T   T
  0.9162428755388853  0.8497008493979075  0.4540194355695287   T   T   T
  0.2500894955393197  0.1498857667098601  0.4536779166268580   T   T   T
  0.7499917939641878  0.0491746076513314  0.5461347314979916   T   T   T
  0.4230091873307081  0.7502226834074995  0.5466531167055941   T   T   T
  0.4230632115050415  0.5546603346637252  0.5461385844069769   T   T   T
  0.7521407367863743  0.5492581051623660  0.5486816372225766   T   T   T
  0.2499999999799343  0.8499999999890662  0.3605200052333331   F   F   F
  0.1666666716383389  0.6000000000007191  0.4070133268666680   F   F   F
  0.4172228686724772  0.5480566412780160  0.4541302467038967   T   T   T
  0.4170194582626284  0.0502273789290558  0.5471128948873830   T   T   T
  0.7491792645479214  0.3501963020335989  0.5470700776745075   T   T   T
  0.0847116462686505  0.7499742075407790  0.4535721086864362   T   T   T
  0.0833333358191695  0.5499999761504029  0.3605200052333331   F   F   F
  0.2531079709977168  0.8499081037158065  0.5506884271301734   T   T   T
  0.8333332538436267  0.8000000000129006  0.4070133268666680   F   F   F
  0.2499999999799343  0.4500000000005357  0.3605200052333331   F   F   F
  0.0840839883361259  0.2497653314199488  0.4543268357225765   T   T   T
  0.0833333358191695  0.9500000000130839  0.3605200052333331   F   F   F
  0.4158980149963309  0.6470877554245194  0.4581665001943201   T   T   T
  0.6666666865533486  0.0000000000000000  0.4070133268666680   F   F   F
  0.8325565415713178  0.2006993853740466  0.5918886274065841   T   T   T
  0.7479494369985951  0.9481090239009756  0.6394886821699219   T   T   T
  0.5833333134730552  0.1500000000001833  0.3605200052333331   F   F   F
  0.2500466209666092  0.0499543417222614  0.5468708741132694   T   T   T
  0.5828483743187504  0.0501611082343781  0.5470360036082101   T   T   T
  0.7498590800657897  0.1501504314086560  0.6417960742241640   T   T   T
  0.2507635664629743  0.1484027406847408  0.6410351981217703   T   T   T
  0.9159889808655963  0.1497353794804335  0.6407035850477939   T   T   T
  0.5828012422460573  0.1502673627826774  0.6426101238466052   T   T   T
  0.4166726818499660  0.1500017448480741  0.6413993007844913   T   T   T
  0.4166666269218169  0.3500000000123720  0.3605200052333331   F   F   F
  0.5000000000021103  0.0000000000000000  0.4070133268666680   F   F   F
  0.4155430610718358  0.4489880877295806  0.4573034356491119   T   T   T
  0.3333333432766779  0.0000000000000000  0.4070133268666680   F   F   F
  0.9166666865332829  0.0500000000120124  0.3605200052333331   F   F   F
  0.5833333134730552  0.0500000000120124  0.3605200052333331   F   F   F
  0.2499999999799343  0.0500000000120124  0.3605200052333331   F   F   F
  0.7499999404149307  0.0500000000120124  0.3605200052333331   F   F   F
  0.4166666269218169  0.0500000000120124  0.3605200052333331   F   F   F
  0.0833333358191695  0.0500000000120124  0.3605200052333331   F   F   F
  0.8332339868105560  0.1001376008198688  0.4988564548606208   T   T   T
  0.0837190790534345  0.3497706801340479  0.4536021743499741   T   T   T
  0.1666666716383389  0.0000000000000000  0.4070133268666680   F   F   F
  0.0838558462718314  0.9495209469920237  0.4536600107790730   T   T   T
  0.3354234101942610  0.7928310229256702  0.5906665555297603   T   T   T
  0.3330936107829525  0.5967996322469689  0.5914228773637344   T   T   T
  0.4971696961393789  0.6035634179884500  0.6090935088231030   T   T   T
  0.2517444962349617  0.9499454458505909  0.5450334208676382   T   T   T
  0.5792775847379686  0.7483366314073941  0.5476930627859800   T   T   T
  0.9157261910314938  0.5500321774861719  0.5458580906042942   T   T   T
  0.9173213100744501  0.3508443550614989  0.5453244964305261   T   T   T
  0.9143022508911359  0.7506892761465187  0.5459484594988588   T   T   T
  0.0836262830834028  0.4487536481561646  0.6405647959196663   T   T   T
  0.6663056668732107  0.8991694467269011  0.4987843152634687   T   T   T
  0.0866949447412441  0.6500109383057938  0.6402469718491334   T   T   T
  0.5829851593637275  0.4486649636027657  0.5455786931345999   T   T   T
  0.2483541960705373  0.5486527175395198  0.5491272315351776   T   T   T
  0.1683284868228482  0.3978927893782074  0.5933008927275715   T   T   T
  0.4127369063300847  0.8501701475869053  0.6395073953270579   T   T   T
  0.1671762458365187  0.1998072143056893  0.5923204162991230   T   T   T
  0.6665292526405492  0.5955998520791848  0.5914763986047963   T   T   T
  0.6651069555150509  0.3996851959236039  0.5898506147119091   T   T   T
  0.6652000104806058  0.7932192262524667  0.5909617418938230   T   T   T
  0.6661752282831142  0.1998440948737551  0.5920963544397803   T   T   T
  0.9143525708475568  0.8505845071169811  0.6413824786590556   T   T   T
  0.9166666865332829  0.8499999999890662  0.3605200052333331   F   F   F
  0.4159797873802643  0.3528941359114602  0.5474277330202210   T   T   T
  0.9138465802206970  0.6499319733421460  0.6409586513800015   T   T   T
  0.1676749879519331  0.6995774508152512  0.5002148905468196   T   T   T
  0.5000561481682819  0.8982061189338996  0.5007788638964948   T   T   T
  0.9146685358797452  0.3479800647894205  0.6399950140433580   T   T   T
  0.4166666269218169  0.7500000000008953  0.3605200052333331   F   F   F
  0.2500371841694507  0.3511194509394669  0.4544788700596146   T   T   T
  0.2499999999799343  0.7500000000008953  0.3605200052333331   F   F   F
  0.9166666865332829  0.9500000000130839  0.3605200052333331   F   F   F
  0.2499999999799343  0.9500000000130839  0.3605200052333331   F   F   F
  0.5833333134730552  0.3500000000123720  0.3605200052333331   F   F   F
  0.7486027087796349  0.2520909338741175  0.6395522610990717   T   T   T
  0.7536546306743575  0.4462944944928006  0.6446086905667887   T   T   T
  0.4172410222584745  0.9474012255649883  0.6391948488265020   T   T   T
  0.5832691129447397  0.2524314964892937  0.6386512371170325   T   T   T
  0.7490605347413274  0.7505914142780699  0.4570403907837142   T   T   T
  0.0857567510449750  0.7508991325524130  0.5459354649698643   T   T   T
  0.7537824206263842  0.5467792602656624  0.6379598787617392   T   T   T
  0.3352489423953153  0.4041178743883291  0.5932797429759019   T   T   T
  0.0868174434080481  0.5489129044518456  0.6395695864018834   T   T   T
  0.2505184512259294  0.0485097890525976  0.6415886201065402   T   T   T
  0.2521535783911505  0.9454656553241846  0.6372816779728658   T   T   T
  0.9166666865332829  0.5499999761504029  0.3605200052333331   F   F   F
  0.9166666865332829  0.3500000000123720  0.3605200052333331   F   F   F
  0.0858272199658691  0.4508075554900382  0.5470878389240873   T   T   T
  0.0829577335838470  0.5498237120984767  0.4531691795517629   T   T   T
  0.5833333134730552  0.7500000000008953  0.3605200052333331   F   F   F
  0.5833333134730552  0.5499999761504029  0.3605200052333331   F   F   F
  0.0853598898215393  0.8496384277567769  0.5468226733116458   T   T   T
  0.4160702977111801  0.9484433286768535  0.5466763972757382   T   T   T
  0.4997851348349490  0.3014269100777577  0.5001914703172167   T   T   T
  0.0000000000000000  0.8000000000129006  0.4070133268666680   F   F   F
  0.4165441974874275  0.2524661673099896  0.5472718524045406   T   T   T
  0.5766959844398215  0.5483409116719429  0.5522967758021269   T   T   T
  0.4164643627600766  0.4551578747467309  0.5525923593463101   T   T   T
  0.5809209664936473  0.6475644454077134  0.5488865193217263   T   T   T
  0.7492718021040879  0.4517354579778040  0.5503224944951262   T   T   T
  0.2395545042432318  0.5534301823334328  0.6417171505980066   T   T   T
  0.5826790872332340  0.9486369178105818  0.4538754387775951   T   T   T
  0.9156438768489535  0.8497483724813194  0.5463648050266712   T   T   T
  0.7482876326386263  0.9477144149261991  0.5471534612628928   T   T   T
  0.1708595305558774  0.7998152023543054  0.5945910240267996   T   T   T
  0.8331915365178688  0.6021783095557982  0.5895549482159397   T   T   T
  0.0839180163542992  0.2484254558441377  0.6421943860224897   T   T   T
  0.0840251376903022  0.7496707173995926  0.6396092057760295   T   T   T
  0.0844061123005789  0.9494966539622838  0.6408353136761283   T   T   T
  0.4157093119286686  0.5344400485067554  0.6301436419664254   T   T   T
  0.4182993680191367  0.3495635892493725  0.6398275447412761   T   T   T
  0.5008432954460924  0.8049385578150019  0.5927398256084567   T   T   T
  0.2491731051497484  0.4509323236837571  0.5460145916307881   T   T   T
  0.0811737995130815  0.6516521758208436  0.5466560956478950   T   T   T
  0.5833829005003492  0.2496903162038636  0.5457718257829840   T   T   T
  0.4172899571290547  0.9479823680382742  0.4541226089958956   T   T   T
  0.0828240570219812  0.2501359869956923  0.5474322191477283   T   T   T
  0.5837361792349109  0.9506721763352509  0.5456382735252059   T   T   T
  0.4182110841966390  0.2521978923236613  0.6391889579709296   T   T   T
  0.9160575587515901  0.9504938267444472  0.5462094943603628   T   T   T
  0.7511829048890154  0.7449228185989468  0.5526125850395526   T   T   T
  0.2492335712137133  0.7463420751456942  0.5522854268393664   T   T   T
  0.9124252334465347  0.5483116369307929  0.6399051668763306   T   T   T
  0.2516019188019096  0.7501120850975763  0.4561478505994080   T   T   T
  0.4274358591766070  0.4436577630657035  0.6572041571739738   T   T   T
  0.2473967330396509  0.6588310178201822  0.6289888492049395   T   T   T
  0.2512506181798150  0.2485286929755809  0.6416658530309649   T   T   T
  0.9166666865332829  0.6500000000127244  0.3605200052333331   F   F   F
  0.4997755232750850  0.4986034744190403  0.5002030308266150   T   T   T
  0.5002764262386955  0.6964282412903821  0.5000364005243551   T   T   T
  0.8323612108294893  0.6985863541430493  0.5005138597452600   T   T   T
  0.2529843766269853  0.3508902233491641  0.5475021050230358   T   T   T
  0.8327656336508510  0.4992183274485762  0.4995452913700372   T   T   T
  0.9151282354938630  0.4484435207855801  0.6396338899810120   T   T   T
  0.1665446786507254  0.5008956388314495  0.4978268358698628   T   T   T
  0.4166666269218169  0.9500000000130839  0.3605200052333331   F   F   F
  0.2506635181900002  0.9483090843781457  0.4536150872088034   T   T   T
  0.6653614502635647  0.7001867365218164  0.5030035874479581   T   T   T
  0.4166666269218169  0.5499999761504029  0.3605200052333331   F   F   F
  0.2499999999799343  0.3500000000123720  0.3605200052333331   F   F   F
  0.7499999404149307  0.9500000000130839  0.3605200052333331   F   F   F
  0.7499999404149307  0.7500000000008953  0.3605200052333331   F   F   F
  0.7500951463614528  0.3506274117393235  0.4541729094052498   T   T   T
  0.7499999404149307  0.5499999761504029  0.3605200052333331   F   F   F
  0.5878138111654373  0.4562938630440931  0.6344354545351832   T   T   T
  0.0828520668892033  0.5509629681437713  0.5452160804672351   T   T   T
  0.5899221125811368  0.8478116395449791  0.6465208548124940   T   T   T
  0.9166666865332829  0.7500000000008953  0.3605200052333331   F   F   F
  0.8325039746825965  0.8996440291208737  0.4994541381528927   T   T   T
  0.0000000000000000  0.4000000000243773  0.4070133268666680   F   F   F
  0.0000000000000000  0.6000000000007191  0.4070133268666680   F   F   F
  0.7483975626718886  0.6510313194263089  0.4540954116533094   T   T   T
  0.3333333432766779  0.2000000000121887  0.4070133268666680   F   F   F
  0.3333333432766779  0.6000000000007191  0.4070133268666680   F   F   F
  0.2510765007666396  0.5517931686934723  0.4552691908304839   T   T   T
  0.3336364497558604  0.8983026156631594  0.4994283550766180   T   T   T
  0.6666666865533486  0.2000000000121887  0.4070133268666680   F   F   F
  0.0001255830966233  0.8998981735665050  0.4991399913183719   T   T   T
  0.5903792730675135  0.6524730828566795  0.6387627518231869   T   T   T
  0.5000615592376284  0.2002493288096991  0.5915731220506228   T   T   T
  0.8328700132131484  0.3000376120279348  0.4999197141532877   T   T   T
  0.9160615198615968  0.4495854043605999  0.4540937411074397   T   T   T
  0.7543627708509508  0.7545570822065520  0.6555085184608668   T   T   T
  0.9152046242196712  0.2499943091059590  0.6408526421079885   T   T   T
  0.4171124097059967  0.7470047060100657  0.4544693430291226   T   T   T
  0.2617085689638787  0.8403458887743653  0.6461118795306690   T   T   T
  0.7499999404149307  0.3500000000123720  0.3605200052333331   F   F   F
  0.7415081522965408  0.8485060271445979  0.6396544329206872   T   T   T
  0.0851817826490206  0.8500273307363709  0.6418723490320822   T   T   T
  0.7527238602487751  0.6549421268156642  0.6358288648944828   T   T   T
  0.4171272563309770  0.8471152072518489  0.4554503655622383   T   T   T
  0.7495449062385668  0.2506628963709744  0.4542273011863999   T   T   T
  0.5831079987295441  0.2520605494354172  0.4537893620940867   T   T   T
  0.5829741978940447  0.7486405367610806  0.4547928151522220   T   T   T
  0.5833333134730552  0.2500000000242011  0.3605200052333331   F   F   F
  0.7427567081773052  0.3519134270859086  0.6411884653625985   T   T   T
  0.8321423215855144  0.3971330472193538  0.5904200479266829   T   T   T
  0.8303006001880987  0.8006535435541254  0.5923489486639211   T   T   T
  0.4201850484251216  0.7409231677642122  0.6338973648426597   T   T   T
  0.1678166679773618  0.8990105034346070  0.4994697255820088   T   T   T
  0.9158973065841778  0.5497389134690978  0.4537233077289628   T   T   T
  0.7483061553173106  0.4502779375268492  0.4558484953487447   T   T   T
  0.1673230741485455  0.3003566407809143  0.4999712100899940   T   T   T
  0.7486318804789442  0.2504370402042900  0.5463933166209530   T   T   T
  0.9156466149806610  0.7500989514777286  0.6393410533114768   T   T   T
  0.9157724370006830  0.9497983348731101  0.6408739544812720   T   T   T
  0.9160409655460204  0.3496539218067690  0.4534889167347271   T   T   T
  0.2553190698718090  0.7420124973124290  0.6630425886557980   T   T   T
  0.2499999999799343  0.5499999761504029  0.3605200052333331   F   F   F
  0.5828096599315532  0.5514885565270475  0.4565766484701030   T   T   T
  0.3972829992226217  0.6404496632424226  0.6523860629442046   T   T   T
  0.9146156868900184  0.7498584211647640  0.4536783002623345   T   T   T
  0.6657401063323480  0.5023669670000656  0.5036321127884967   T   T   T
  0.3343549925583762  0.5023388069970770  0.5030792893329863   T   T   T
  0.3355144054753448  0.7004856285485904  0.5040601099573315   T   T   T
  0.9165011646735047  0.2506118082412727  0.5470697785263976   T   T   T
  0.7494447285892888  0.9497383653684278  0.4547536449959313   T   T   T
  0.0833333358191695  0.2500000000242011  0.3605200052333331   F   F   F
  0.5774143204053859  0.7484816668521994  0.6399105708293187   T   T   T
  0.1654268179126846  0.6023763741422569  0.5873001886317039   T   T   T
  0.2489237851627206  0.4528200978327991  0.6413286065354359   T   T   T
  0.0835982168571642  0.3507668614646864  0.5461975071102567   T   T   T
  0.5818553725981400  0.9477997108256453  0.6378413528782979   T   T   T
  0.5809119187874306  0.3531788317421318  0.6448645243516342   T   T   T
  0.5796105649928710  0.5505439224323038  0.6458950684428044   T   T   T
  0.2541080932971141  0.3490319149291564  0.6408448801034270   T   T   T
  0.1666666716383389  0.5000000000125482  0.4070133268666680   F   F   F
  0.9996419075594313  0.0994966317267129  0.6191269993677845   T   T   T
  0.8338518453700371  0.0007441936792622  0.5059867124988577   T   T   T
  0.8362533774516565  0.5998930225341407  0.5029873302449726   T   T   T
  0.1672146870788623  0.0987368126465141  0.6190158700317238   T   T   T
  0.8329283171762598  0.9009853583420282  0.6179086523519272   T   T   T
  0.1635983161751178  0.5997878978900488  0.5020877574591323   T   T   T
  0.5010660882757760  0.2979237825559311  0.6057470628316809   T   T   T
  0.9999340464783771  0.4995994463150412  0.6236708486232005   T   T   T