Au  C  H  O Sr Ti                       
   1.00000000000000     
    23.6707801818999997    0.0000000000000000    0.0000000000000000
     0.0000000000000000   27.8962826732999716    0.0000000000000000
     0.0000000000000000    0.0000000000000000   30.0000000000000000
   Au   C    H    O    Sr   Ti
    50     5    11   330    90    90
Selective dynamics
Direct
  0.7124086132252084  0.6254651860662485  0.7547001487300953   T   T   T
  0.2940362096033547  0.7976978423417572  0.6966921328469928   T   T   T
  0.5082529775042638  0.6854193162400617  0.7783323406592145   T   T   T
  0.5775525177090276  0.7790435931693899  0.7943875087802846   T   T   T
  0.2403490545270853  0.5752301520221553  0.7092678044412608   T   T   T
  0.6017576918558495  0.4269881453055251  0.7844556030403570   T   T   T
  0.5137263043144660  0.5881033214614241  0.6782337902437001   T   T   T
  0.5671971288906089  0.6115338911397702  0.8586659002013483   T   T   T
  0.4857366728009888  0.4167015316542502  0.7742664730782572   T   T   T
  0.6190919179735275  0.4563480550194983  0.6976354168944329   T   T   T
  0.4609914040911024  0.7584951110912544  0.8326928798127056   T   T   T
  0.5520917746533460  0.5082976216810290  0.8271053184156588   T   T   T
  0.5618669408702326  0.5918748689604471  0.7632948424467665   T   T   T
  0.5540414916615748  0.3711823441913936  0.7095121849374831   T   T   T
  0.7376835338155386  0.3972524828463995  0.6939443427857509   T   T   T
  0.7609957776726632  0.5513814271944898  0.7043488001281151   T   T   T
  0.4857789046095072  0.8209617713810256  0.7553045313260842   T   T   T
  0.6203526504565446  0.6579703012547531  0.7037777093381798   T   T   T
  0.6297251973744558  0.6723487443919234  0.8011223216214720   T   T   T
  0.4301729651175345  0.4967069026801705  0.8152730652277160   T   T   T
  0.3490404766026872  0.6000323259309238  0.6979263986544617   T   T   T
  0.3699455606463278  0.4391056385223914  0.7557609581494648   T   T   T
  0.7324283307711601  0.6934491295193814  0.6932349811429683   T   T   T
  0.4368746219685133  0.3812659157576643  0.6981948220278905   T   T   T
  0.5198778985718583  0.5031454932332619  0.7330683222301388   T   T   T
  0.2854752527145897  0.7298642246495327  0.7643226042325366   T   T   T
  0.2571468459385206  0.6744371977244653  0.6945773568460153   T   T   T
  0.6639233827130271  0.3465647014779888  0.7414872989452663   T   T   T
  0.4716916503501871  0.5597610946320094  0.8774849850373363   T   T   T
  0.2821932962743632  0.4715871443988980  0.7023876105284194   T   T   T
  0.6697568239876399  0.7463108580449659  0.7485663210009715   T   T   T
  0.3978819438487854  0.5057549047883390  0.6907692278678161   T   T   T
  0.3919464067712847  0.8544091182929243  0.7065668800197494   T   T   T
  0.3750924959062208  0.5940022464559511  0.8332865181443608   T   T   T
  0.2892202404967215  0.6301716288632238  0.7778292620474859   T   T   T
  0.3678002185071379  0.6952266248056725  0.8202200646719844   T   T   T
  0.5965481721575522  0.8274353523658232  0.7134254001883674   T   T   T
  0.7752167396321221  0.5530087047533028  0.7942232053774810   T   T   T
  0.4514738253063332  0.6642159669344901  0.7034983370478324   T   T   T
  0.6456414229346902  0.5567123717403655  0.6956695989525855   T   T   T
  0.5605948107391807  0.7144333761355774  0.8647348889360943   T   T   T
  0.5395468436072660  0.7349282338688718  0.7023783981422962   T   T   T
  0.4434864485734308  0.5786355238984191  0.7565290875441240   T   T   T
  0.3736021750440708  0.7929520246952153  0.7790969531098916   T   T   T
  0.4602282033455141  0.6589702877074024  0.8654126881291201   T   T   T
  0.6558618617414604  0.5625178404643353  0.8171257566683888   T   T   T
  0.7071090186994894  0.8059748160355057  0.6877847780342424   T   T   T
  0.4157886557585003  0.7571495770106278  0.6998304458236642   T   T   T
  0.3252993136900347  0.5317234810689635  0.7693837726209741   T   T   T
  0.6945400393562744  0.4865193818868580  0.7639618177673447   T   T   T
  0.6518142813806704  0.2497379156065280  0.8052828626253028   T   T   T
  0.6145493628304541  0.2058529499130747  0.8139280788306796   T   T   T
  0.6845556303478058  0.2461647392888859  0.7613459944212391   T   T   T
  0.7561492437597428  0.4334950400124928  0.7504565364525091   T   T   T
  0.7211200823724474  0.2890703883803367  0.7506190669279669   T   T   T
  0.6250738118945229  0.2819690276528539  0.8046945418147902   T   T   T
  0.6816720210788210  0.2550167267459652  0.8328717276820349   T   T   T
  0.7137302585431607  0.2152234855209995  0.7628405000052723   T   T   T
  0.7486628800167856  0.3004465640873581  0.7779181208949140   T   T   T
  0.5834724013331205  0.2014851339759831  0.7872975486609484   T   T   T
  0.6400223017334454  0.1732608037423445  0.8152390737379224   T   T   T
  0.6561172463484739  0.2381725975213255  0.7334603577351093   T   T   T
  0.5917550046834790  0.2091992157106927  0.8454184300303014   T   T   T
  0.7439769776398846  0.2858152428210598  0.7192664923685215   T   T   T
  0.7549336783663361  0.4114963216093745  0.7805579979365320   T   T   T
  0.7960892789572123  0.4527738116018393  0.7471971661900272   T   T   T
  0.5858786549539255  0.8518385151084512  0.5508083945511247   T   T   T
  0.6666666865533486  0.4000000000243773  0.4070133268666680   F   F   F
  0.9177884156439026  0.6509913657878088  0.5470126721881784   T   T   T
  0.3333333432766779  0.8000000000129006  0.4070133268666680   F   F   F
  0.3337994759326724  0.3009598461228788  0.4988029132860004   T   T   T
  0.9998257081809906  0.7019968115281351  0.4972650439844301   T   T   T
  0.9161468338657829  0.6498031309084216  0.4542388441983030   T   T   T
  0.5833333134730552  0.9500000000130839  0.3605200052333331   F   F   F
  0.9164326659651306  0.9496284160668130  0.4537507640116883   T   T   T
  0.7499999404149307  0.4500000000005357  0.3605200052333331   F   F   F
  0.4166666269218169  0.8499999999890662  0.3605200052333331   F   F   F
  0.4166666269218169  0.4500000000005357  0.3605200052333331   F   F   F
  0.4166666269218169  0.6500000000127244  0.3605200052333331   F   F   F
  0.5000000000021103  0.8000000000129006  0.4070133268666680   F   F   F
  0.0000000000000000  0.2000000000121887  0.4070133268666680   F   F   F
  0.5834368020863081  0.0504236067153068  0.6415164929903073   T   T   T
  0.7473518061127111  0.8468442742445307  0.5457433890731208   T   T   T
  0.5844623550799009  0.6499369242603694  0.4549141864565089   T   T   T
  0.5000000000021103  0.6000000000007191  0.4070133268666680   F   F   F
  0.0833333358191695  0.3500000000123720  0.3605200052333331   F   F   F
  0.6666666865533486  0.8000000000129006  0.4070133268666680   F   F   F
  0.2499999999799343  0.1500000000001833  0.3605200052333331   F   F   F
  0.9166666865332829  0.1500000000001833  0.3605200052333331   F   F   F
  0.5835193307755592  0.0496151388544479  0.4541696097933392   T   T   T
  0.2501539889425258  0.0490556167025311  0.4541979673639153   T   T   T
  0.7499755204080433  0.0499613844564523  0.4536666712760543   T   T   T
  0.4162911842751842  0.0491288259961015  0.4543777504506525   T   T   T
  0.0832940047073482  0.0496180435965146  0.4539186859695087   T   T   T
  0.8333332538436267  0.0000000000000000  0.4070133268666680   F   F   F
  0.4999434578967802  0.1000544463263832  0.4987105731436788   T   T   T
  0.9995376065665023  0.5989824274452575  0.5941541459876459   T   T   T
  0.0835897179672654  0.1506292067640195  0.5462709666389434   T   T   T
  0.7499999404149307  0.2500000000242011  0.3605200052333331   F   F   F
  0.2499999999799343  0.2500000000242011  0.3605200052333331   F   F   F
  0.1666666716383389  0.2000000000121887  0.4070133268666680   F   F   F
  0.7499999404149307  0.6500000000127244  0.3605200052333331   F   F   F
  0.5833333134730552  0.6500000000127244  0.3605200052333331   F   F   F
  0.5000000000021103  0.4000000000243773  0.4070133268666680   F   F   F
  0.9166666865332829  0.4500000000005357  0.3605200052333331   F   F   F
  0.1666666716383389  0.4000000000243773  0.4070133268666680   F   F   F
  0.5844295855054454  0.4524676288046978  0.4538409860364981   T   T   T
  0.3333333432766779  0.4000000000243773  0.4070133268666680   F   F   F
  0.6662262765938657  0.3015756189073223  0.4997361973718753   T   T   T
  0.5833333134730552  0.4500000000005357  0.3605200052333331   F   F   F
  0.0000000000000000  0.0000000000000000  0.4070133268666680   F   F   F
  0.4166666269218169  0.2500000000242011  0.3605200052333331   F   F   F
  0.0837608562043276  0.0498708804812721  0.5465787996483832   T   T   T
  0.9163839557186227  0.1506681055227215  0.5463511979053941   T   T   T
  0.5828694877658237  0.1498893056599333  0.5474369651905444   T   T   T
  0.0833333358191695  0.6500000000127244  0.3605200052333331   F   F   F
  0.2500858936426896  0.1503107624136634  0.5465039296804399   T   T   T
  0.5829264467631358  0.8475895157937382  0.4556708390399292   T   T   T
  0.2524728675640338  0.6470999464612888  0.5440523138009690   T   T   T
  0.4994723244893273  0.4027415142959288  0.5914260572129481   T   T   T
  0.2499999999799343  0.6500000000127244  0.3605200052333331   F   F   F
  0.9161892924489858  0.2497516038798328  0.4541931556539697   T   T   T
  0.0002665792316395  0.2996576259921423  0.4984184922902360   T   T   T
  0.7466488985766462  0.6468560325284612  0.5451187435983375   T   T   T
  0.7497059647850334  0.1497853055094089  0.5469706092341987   T   T   T
  0.9166666865332829  0.2500000000242011  0.3605200052333331   F   F   F
  0.7498889215648697  0.8498681787800635  0.4537088920005339   T   T   T
  0.7490043490816629  0.5502733948926219  0.4555894397893547   T   T   T
  0.0833333358191695  0.4500000000005357  0.3605200052333331   F   F   F
  0.8333332538436267  0.4000000000243773  0.4070133268666680   F   F   F
  0.4170462765335520  0.2504483459570727  0.4550114681002745   T   T   T
  0.5000000000021103  0.2000000000121887  0.4070133268666680   F   F   F
  0.6666666865533486  0.6000000000007191  0.4070133268666680   F   F   F
  0.0839535907745421  0.6499195204366299  0.4542433500502907   T   T   T
  0.0838054858007126  0.8495691411228476  0.4541398374702073   T   T   T
  0.0835244347083676  0.4496093309510132  0.4541062672475267   T   T   T
  0.7499999404149307  0.8499999999890662  0.3605200052333331   F   F   F
  0.9151620224401152  0.4499489190151033  0.5467151631608528   T   T   T
  0.4168517470082522  0.3504172329803606  0.4541521219328954   T   T   T
  0.4165705257414036  0.1511114791859743  0.5463100517637307   T   T   T
  0.8333332538436267  0.2000000000121887  0.4070133268666680   F   F   F
  0.9999416451356203  0.4992130771583615  0.4983658571757502   T   T   T
  0.2519983798946531  0.6519137624563075  0.4537842598835942   T   T   T
  0.5828573506479254  0.3530187703191232  0.4561525044790499   T   T   T
  0.2501699722235357  0.2502709437298267  0.4543863475414834   T   T   T
  0.2519001049332201  0.4517814372873431  0.4538015795838065   T   T   T
  0.7499999404149307  0.1500000000001833  0.3605200052333331   F   F   F
  0.5833333134730552  0.8499999999890662  0.3605200052333331   F   F   F
  0.2506236172318401  0.8483931938894457  0.4554768950003765   T   T   T
  0.4166666269218169  0.1500000000001833  0.3605200052333331   F   F   F
  0.0833333358191695  0.1500000000001833  0.3605200052333331   F   F   F
  0.0833333358191695  0.7500000000008953  0.3605200052333331   F   F   F
  0.7498014153090097  0.0502633730442245  0.6408181409925650   T   T   T
  0.2514304232248585  0.2508690338488950  0.5475416188516179   T   T   T
  0.0833333358191695  0.8499999999890662  0.3605200052333331   F   F   F
  0.4168464980557742  0.0496044039483108  0.6421805227495313   T   T   T
  0.9166568528623148  0.0496971547706453  0.4538990857471835   T   T   T
  0.9159606661840265  0.0499775834541464  0.6403114536066402   T   T   T
  0.0833757296112128  0.1486730574136984  0.6404366017694769   T   T   T
  0.6664680971430947  0.1000744292166038  0.4989509377939749   T   T   T
  0.1666872223879442  0.0998708373895486  0.4987427280363695   T   T   T
  0.8333332538436267  0.6000000000007191  0.4070133268666680   F   F   F
  0.3333409962316871  0.1000411278612387  0.4989950782623208   T   T   T
  0.0000108083584389  0.1000370833086475  0.4990098039472314   T   T   T
  0.9165635996393251  0.1499445164582372  0.4537392021211595   T   T   T
  0.0836040228634041  0.0497543158690039  0.6404105272712647   T   T   T
  0.0833575038692355  0.1499289653572455  0.4537214867653646   T   T   T
  0.4166016950446091  0.1503060748592026  0.4538920861599416   T   T   T
  0.4144432168304387  0.8487512641290768  0.5479702661738585   T   T   T
  0.1666666716383389  0.8000000000129006  0.4070133268666680   F   F   F
  0.5819555016853002  0.3478588663342701  0.5508851575459950   T   T   T
  0.0000383173383555  0.8020294091833743  0.5926265128239963   T   T   T
  0.3338616494680255  0.2000931189240228  0.5921593319016775   T   T   T
  0.9998106551505818  0.2000407329638123  0.5923566005373765   T   T   T
  0.0006987463247922  0.3984653151502437  0.5922949492782240   T   T   T
  0.0841205058147133  0.9503668130952448  0.5460884933815862   T   T   T
  0.4197240572068798  0.6518161389768727  0.5557331423943200   T   T   T
  0.0838594343204650  0.3480537303038426  0.6419142629077257   T   T   T
  0.6661463292597070  0.0000247137546616  0.5918948935422752   T   T   T
  0.3339615237000653 -0.0000325679501734  0.5916382867349602   T   T   T
 -0.0000322902998151 -0.0007191107789479  0.5919232051471842   T   T   T
  0.8325907968072619 -0.0011423345143891  0.5919184871861178   T   T   T
  0.1674333880533306 -0.0012214190080449  0.5920654977939473   T   T   T
  0.4996832208283774  0.0001420683606614  0.5913477900541465   T   T   T
  0.7499606508714723  0.1505238516521387  0.4542036654829259   T   T   T
  0.9162635648026644  0.0499836760277841  0.5465081350791021   T   T   T
  0.5833242141908497  0.1510937259416832  0.4545314949055364   T   T   T
  0.9162609977313888  0.8497147880997389  0.4540206921926732   T   T   T
  0.2500323377929043  0.1498712339796359  0.4536865941296684   T   T   T
  0.7500289018405928  0.0492118334661036  0.5461999615590497   T   T   T
  0.4230420276872591  0.7502240822803170  0.5466420311215775   T   T   T
  0.4230836695700007  0.5546886829055290  0.5461435567008115   T   T   T
  0.7521395931109058  0.5492736970090716  0.5486576642863363   T   T   T
  0.2499999999799343  0.8499999999890662  0.3605200052333331   F   F   F
  0.1666666716383389  0.6000000000007191  0.4070133268666680   F   F   F
  0.4171416295451413  0.5480531047337385  0.4541131259246076   T   T   T
  0.4168113277476457  0.0502294233403947  0.5470242351947716   T   T   T
  0.7492050473338370  0.3502196323609376  0.5469851849685823   T   T   T
  0.0847345422436812  0.7499703150181349  0.4535483772686960   T   T   T
  0.0833333358191695  0.5499999761504029  0.3605200052333331   F   F   F
  0.2530664770884415  0.8499060905420256  0.5506745834502214   T   T   T
  0.8333332538436267  0.8000000000129006  0.4070133268666680   F   F   F
  0.2499999999799343  0.4500000000005357  0.3605200052333331   F   F   F
  0.0840831341892843  0.2497531905927512  0.4543407491104297   T   T   T
  0.0833333358191695  0.9500000000130839  0.3605200052333331   F   F   F
  0.4159007394779263  0.6471307617177507  0.4581801793905425   T   T   T
  0.6666666865533486  0.0000000000000000  0.4070133268666680   F   F   F
  0.8325230528066244  0.2007079677621825  0.5919058171381265   T   T   T
  0.7480582952164785  0.9482490852740931  0.6395248794356526   T   T   T
  0.5833333134730552  0.1500000000001833  0.3605200052333331   F   F   F
  0.2499846857740605  0.0499182756932367  0.5468583958236972   T   T   T
  0.5830918507397435  0.0501796504993091  0.5470073857839104   T   T   T
  0.7497704495769285  0.1501664175249351  0.6417819028609036   T   T   T
  0.2507087251333641  0.1484547105224321  0.6411190273098215   T   T   T
  0.9160060693528763  0.1497829337008718  0.6407422487364244   T   T   T
  0.5828282958223019  0.1503048893230737  0.6425261531067926   T   T   T
  0.4167711681561463  0.1500419653796746  0.6413998457095558   T   T   T
  0.4166666269218169  0.3500000000123720  0.3605200052333331   F   F   F
  0.5000000000021103  0.0000000000000000  0.4070133268666680   F   F   F
  0.4155158055586754  0.4489902106433273  0.4573214540718790   T   T   T
  0.3333333432766779  0.0000000000000000  0.4070133268666680   F   F   F
  0.9166666865332829  0.0500000000120124  0.3605200052333331   F   F   F
  0.5833333134730552  0.0500000000120124  0.3605200052333331   F   F   F
  0.2499999999799343  0.0500000000120124  0.3605200052333331   F   F   F
  0.7499999404149307  0.0500000000120124  0.3605200052333331   F   F   F
  0.4166666269218169  0.0500000000120124  0.3605200052333331   F   F   F
  0.0833333358191695  0.0500000000120124  0.3605200052333331   F   F   F
  0.8332043626621315  0.1001053053264085  0.4988236951997521   T   T   T
  0.0837353348121157  0.3497648368320408  0.4536095884491207   T   T   T
  0.1666666716383389  0.0000000000000000  0.4070133268666680   F   F   F
  0.0838417530872616  0.9494602455544972  0.4536433788583636   T   T   T
  0.3354320558602178  0.7928405979576839  0.5906777144049924   T   T   T
  0.3330784976006312  0.5967938492784265  0.5914377311603987   T   T   T
  0.4971916726153812  0.6035701779371598  0.6090767664536068   T   T   T
  0.2516908158325340  0.9499459524838894  0.5450328974620543   T   T   T
  0.5792851531271122  0.7483554762200484  0.5476981954280249   T   T   T
  0.9157294227742449  0.5500090380782500  0.5458208709637636   T   T   T
  0.9173346351169592  0.3508327373539319  0.5452746712872666   T   T   T
  0.9143750388110685  0.7506965258803129  0.5459439984216353   T   T   T
  0.0836692842873648  0.4487320431789264  0.6405441630956425   T   T   T
  0.6663603796249516  0.8991781390167900  0.4987624081776940   T   T   T
  0.0866524398344948  0.6500218847357576  0.6402225455978635   T   T   T
  0.5829719048017240  0.4486612299572142  0.5455698856290074   T   T   T
  0.2483181765408930  0.5486240160774831  0.5491532165279287   T   T   T
  0.1683288892815180  0.3979831932595521  0.5933092889134700   T   T   T
  0.4127549905635910  0.8501681016681861  0.6395242139060786   T   T   T
  0.1671777977505040  0.1998687366397851  0.5923060929746691   T   T   T
  0.6665188940482065  0.5955960948034826  0.5914941746528928   T   T   T
  0.6651150845778547  0.3996538516376442  0.5898986520482361   T   T   T
  0.6652174968108194  0.7932271817766764  0.5909889956804549   T   T   T
  0.6661592180730287  0.1998796527148569  0.5920952305526933   T   T   T
  0.9142894471837553  0.8505635708478316  0.6413793469239871   T   T   T
  0.9166666865332829  0.8499999999890662  0.3605200052333331   F   F   F
  0.4160850158454026  0.3528789685627911  0.5474070247523526   T   T   T
  0.9138758973444433  0.6499157325424206  0.6409755950168550   T   T   T
  0.1676916780892705  0.6995743498388540  0.5002187538631994   T   T   T
  0.5000197621296368  0.8981686489285671  0.5008002797061720   T   T   T
  0.9146775524381466  0.3479769726111090  0.6399822704738406   T   T   T
  0.4166666269218169  0.7500000000008953  0.3605200052333331   F   F   F
  0.2500314379040506  0.3510924632439730  0.4544572760083662   T   T   T
  0.2499999999799343  0.7500000000008953  0.3605200052333331   F   F   F
  0.9166666865332829  0.9500000000130839  0.3605200052333331   F   F   F
  0.2499999999799343  0.9500000000130839  0.3605200052333331   F   F   F
  0.5833333134730552  0.3500000000123720  0.3605200052333331   F   F   F
  0.7485875230143569  0.2520853819988726  0.6396105263716624   T   T   T
  0.7537396864044928  0.4462590949116107  0.6445545725219621   T   T   T
  0.4173188478954579  0.9474909437597252  0.6391407816362513   T   T   T
  0.5832346260649282  0.2524406095256091  0.6386620919584075   T   T   T
  0.7491059404352330  0.7505588186544603  0.4570702227359041   T   T   T
  0.0857873673589105  0.7509051646672898  0.5458958984349613   T   T   T
  0.7539007110085764  0.5467930188913132  0.6379298807079192   T   T   T
  0.3352114027079391  0.4041750865574931  0.5932344327390858   T   T   T
  0.0868274874018445  0.5489053576075643  0.6395832723058539   T   T   T
  0.2504943292975306  0.0484974810521047  0.6416601229589775   T   T   T
  0.2521289265479953  0.9455380717887557  0.6372594030371340   T   T   T
  0.9166666865332829  0.5499999761504029  0.3605200052333331   F   F   F
  0.9166666865332829  0.3500000000123720  0.3605200052333331   F   F   F
  0.0857535275867646  0.4508406841706092  0.5470851719929546   T   T   T
  0.0829809426256385  0.5498353847037696  0.4532114260605935   T   T   T
  0.5833333134730552  0.7500000000008953  0.3605200052333331   F   F   F
  0.5833333134730552  0.5499999761504029  0.3605200052333331   F   F   F
  0.0854061194794544  0.8496362775744548  0.5467876799068401   T   T   T
  0.4160524320131478  0.9484443860245849  0.5466441941542753   T   T   T
  0.4998091079196455  0.3014146536810432  0.5002168973647716   T   T   T
  0.0000000000000000  0.8000000000129006  0.4070133268666680   F   F   F
  0.4165498640161243  0.2524929645430708  0.5472731300332589   T   T   T
  0.5766815146619906  0.5483251080461824  0.5522856015651445   T   T   T
  0.4164875213622582  0.4551901014115994  0.5526000261023892   T   T   T
  0.5808806038544699  0.6476217103950002  0.5488894011291949   T   T   T
  0.7492936379859477  0.4517500685522449  0.5503204707489807   T   T   T
  0.2396723720669093  0.5534630380008863  0.6417136875791734   T   T   T
  0.5826355987889730  0.9485818925552080  0.4539048500758665   T   T   T
  0.9156339785671256  0.8497647538252181  0.5463814287236953   T   T   T
  0.7483252604148679  0.9477278034567064  0.5471647253745453   T   T   T
  0.1708312300506423  0.7999030586284142  0.5945439374220972   T   T   T
  0.8332021080407833  0.6021439526886082  0.5895236430890237   T   T   T
  0.0838945598061009  0.2484392571732085  0.6421934105766403   T   T   T
  0.0840138749209797  0.7497901289643003  0.6396385123116828   T   T   T
  0.0843122288224537  0.9495960091922557  0.6407625767918217   T   T   T
  0.4157135393527534  0.5344715887562584  0.6301715485909184   T   T   T
  0.4182555723903347  0.3495969991321816  0.6398138627853207   T   T   T
  0.5008043609876146  0.8049759207867829  0.5927014120209059   T   T   T
  0.2491587295347550  0.4509161324895058  0.5459659482436597   T   T   T
  0.0811895764163024  0.6516781707698822  0.5466609223661270   T   T   T
  0.5833053603897206  0.2497152773754906  0.5457506961277636   T   T   T
  0.4172769293644970  0.9479915208836927  0.4540939109800924   T   T   T
  0.0827863337348971  0.2502152350590324  0.5474352796884719   T   T   T
  0.5837751376157363  0.9506996389845498  0.5456113108582815   T   T   T
  0.4182089303117433  0.2521830037610354  0.6391938995343116   T   T   T
  0.9160033476174916  0.9504552690147663  0.5461752201801777   T   T   T
  0.7512278505319688  0.7449173107379645  0.5526003144280421   T   T   T
  0.2492737699802909  0.7463510713968953  0.5523372061483233   T   T   T
  0.9124193400225684  0.5482695045801040  0.6398405953377261   T   T   T
  0.2516128799484342  0.7501095868030312  0.4561652906847371   T   T   T
  0.4274642000589430  0.4436973908468313  0.6571471521200719   T   T   T
  0.2474252613471150  0.6588572844226035  0.6290000416598373   T   T   T
  0.2511495558340124  0.2485560053903105  0.6416919037855524   T   T   T
  0.9166666865332829  0.6500000000127244  0.3605200052333331   F   F   F
  0.4997822539287218  0.4985825877072267  0.5002504133185628   T   T   T
  0.5003088149047610  0.6965002408487549  0.5000434982134059   T   T   T
  0.8323547129072105  0.6986444814110002  0.5005139386273376   T   T   T
  0.2529962508758595  0.3509342169400208  0.5474351327254285   T   T   T
  0.8327631904744086  0.4992333089256234  0.4995284011741801   T   T   T
  0.9151083515026873  0.4484234666356367  0.6396262834425741   T   T   T
  0.1665333672278439  0.5008859519229043  0.4978276477461132   T   T   T
  0.4166666269218169  0.9500000000130839  0.3605200052333331   F   F   F
  0.2506765530171693  0.9482647089936633  0.4535786239037359   T   T   T
  0.6653500129777907  0.7001455509876655  0.5030327432052937   T   T   T
  0.4166666269218169  0.5499999761504029  0.3605200052333331   F   F   F
  0.2499999999799343  0.3500000000123720  0.3605200052333331   F   F   F
  0.7499999404149307  0.9500000000130839  0.3605200052333331   F   F   F
  0.7499999404149307  0.7500000000008953  0.3605200052333331   F   F   F
  0.7500797455824673  0.3506128701709895  0.4541285842856063   T   T   T
  0.7499999404149307  0.5499999761504029  0.3605200052333331   F   F   F
  0.5877967280587610  0.4562762563095591  0.6343974366651598   T   T   T
  0.0828436055691174  0.5509873417644683  0.5452222616171140   T   T   T
  0.5899493577327634  0.8478107471053212  0.6464917969082673   T   T   T
  0.9166666865332829  0.7500000000008953  0.3605200052333331   F   F   F
  0.8325293119882398  0.8996222155723028  0.4993734179792825   T   T   T
  0.0000000000000000  0.4000000000243773  0.4070133268666680   F   F   F
  0.0000000000000000  0.6000000000007191  0.4070133268666680   F   F   F
  0.7483648751749178  0.6510318432770822  0.4540823937525433   T   T   T
  0.3333333432766779  0.2000000000121887  0.4070133268666680   F   F   F
  0.3333333432766779  0.6000000000007191  0.4070133268666680   F   F   F
  0.2510948900563253  0.5518274294033125  0.4552665183829467   T   T   T
  0.3336783626919282  0.8983060484086366  0.4994339882874269   T   T   T
  0.6666666865533486  0.2000000000121887  0.4070133268666680   F   F   F
  0.0001323507990514  0.8998811811110099  0.4991279352500210   T   T   T
  0.5904097237516766  0.6524553900824963  0.6387779337394889   T   T   T
  0.5001125594544384  0.2001599651664864  0.5915988612199284   T   T   T
  0.8328972988033827  0.2999942770131650  0.4999181387405814   T   T   T
  0.9160410415064464  0.4495445545620110  0.4541133410319572   T   T   T
  0.7543575621819325  0.7545196849922934  0.6555374037056387   T   T   T
  0.9152167790231895  0.2500244255840341  0.6408467808032495   T   T   T
  0.4171285020526378  0.7470898823143346  0.4544866380424441   T   T   T
  0.2617363940043140  0.8403262863564693  0.6461078473349856   T   T   T
  0.7499999404149307  0.3500000000123720  0.3605200052333331   F   F   F
  0.7414815071621544  0.8484985576600296  0.6396540373203699   T   T   T
  0.0851789092515489  0.8500591021271913  0.6418464935541678   T   T   T
  0.7527625119505975  0.6549574438572154  0.6357985785884123   T   T   T
  0.4172075822781188  0.8471387024105315  0.4553743546033401   T   T   T
  0.7496608201508090  0.2506405574992187  0.4541962933375191   T   T   T
  0.5831605600323387  0.2520961462296658  0.4537854567794187   T   T   T
  0.5830113901358994  0.7486446024081402  0.4547975490084890   T   T   T
  0.5833333134730552  0.2500000000242011  0.3605200052333331   F   F   F
  0.7427323462865069  0.3518673373912455  0.6411607539311752   T   T   T
  0.8321421731736560  0.3971400918950037  0.5904296519741797   T   T   T
  0.8302853011180779  0.8006429750034596  0.5923641012412862   T   T   T
  0.4201942912756156  0.7409118181034701  0.6338862706337625   T   T   T
  0.1678484984131270  0.8990650230181420  0.4994851303676373   T   T   T
  0.9159084445293471  0.5497280376322502  0.4537152644968490   T   T   T
  0.7482648476995257  0.4502629361407814  0.4558469509126528   T   T   T
  0.1673119825620094  0.3003350062754873  0.4999329346917472   T   T   T
  0.7486033627707152  0.2504040173995450  0.5463758838239344   T   T   T
  0.9156471514365816  0.7500787460611000  0.6392981912910538   T   T   T
  0.9158116758999926  0.9497744930743959  0.6408851101630291   T   T   T
  0.9160989206614510  0.3495982244883882  0.4534714121375938   T   T   T
  0.2552569885272343  0.7419989430966951  0.6630497342385959   T   T   T
  0.2499999999799343  0.5499999761504029  0.3605200052333331   F   F   F
  0.5828246073003358  0.5514940499214394  0.4565676504471184   T   T   T
  0.3972524151859722  0.6404317341715762  0.6523426612848655   T   T   T
  0.9146391974005657  0.7498694953792167  0.4536688395065654   T   T   T
  0.6657351409183427  0.5023828314483013  0.5036683383931263   T   T   T
  0.3343458359129826  0.5023348725801785  0.5031063156639927   T   T   T
  0.3355479593503255  0.7004960392105041  0.5040307266869117   T   T   T
  0.9165228418939600  0.2506269621893458  0.5471033569450388   T   T   T
  0.7494255693692667  0.9497565119571985  0.4547893954425287   T   T   T
  0.0833333358191695  0.2500000000242011  0.3605200052333331   F   F   F
  0.5774389935736102  0.7484906793795557  0.6399071269812825   T   T   T
  0.1654221790922144  0.6023470402376896  0.5873202457372922   T   T   T
  0.2490355290144671  0.4528739076102619  0.6412720857465295   T   T   T
  0.0836724233210324  0.3508229399413839  0.5461721558665849   T   T   T
  0.5819154884244301  0.9478519767966993  0.6377953585997261   T   T   T
  0.5809235132298233  0.3531157221482203  0.6448709128382677   T   T   T
  0.5796124454105354  0.5505331240760905  0.6459107874745150   T   T   T
  0.2541130823261128  0.3490265315364280  0.6408303767778704   T   T   T
  0.1666666716383389  0.5000000000125482  0.4070133268666680   F   F   F
 -0.0003475032614179  0.0994754236012086  0.6191321870858142   T   T   T
  0.8338255707048088  0.0007191229091640  0.5059959816191626   T   T   T
  0.8362679272101543  0.5998933910657986  0.5029773476988069   T   T   T
  0.1672176751713213  0.0987963697572883  0.6189731563422513   T   T   T
  0.8329361983131658  0.9009653537870574  0.6178855901472587   T   T   T
  0.1636028658595493  0.5997977706266739  0.5020833733907025   T   T   T
  0.5010936583487531  0.2979627929867791  0.6057690488620926   T   T   T
  0.9999315551611206  0.4995828966835104  0.6236266368841715   T   T   T