Au  C  H  O Sr Ti                       
   1.00000000000000     
    23.6707801818999997    0.0000000000000000    0.0000000000000000
     0.0000000000000000   22.3170261383000010    0.0000000000000000
     0.0000000000000000    0.0000000000000000   30.0000000000000000
   Au   C    H    O    Sr   Ti
    50     3     6   265    72    72
Selective dynamics
Direct
  0.7157759785592251  0.5240196891809096  0.7521800943177505   T   T   T
  0.6558106957601022  0.4404895612034895  0.8123904827141010   T   T   T
  0.3688981231708977  0.6183876693573995  0.8206117843135321   T   T   T
  0.5704606593489757  0.5089968223063920  0.8561265527178632   T   T   T
  0.6617070176410925  0.1850080941270073  0.7491057509988263   T   T   T
  0.4721131455334475  0.4491208478925465  0.8776855388700882   T   T   T
  0.5166013297147006  0.3773949362269092  0.7318561152542320   T   T   T
  0.2818254744912095  0.3404222812739506  0.7022127805379936   T   T   T
  0.4520370208308956  0.5796814343825447  0.7027654194360557   T   T   T
  0.3975938920009051  0.3815868413207153  0.6902527384865264   T   T   T
  0.6161046128166482  0.3211795080702975  0.6960869591980898   T   T   T
  0.4634444149328462  0.5723002686585680  0.8641537625644468   T   T   T
  0.6697898721203673  0.6813830045216803  0.7487036528298876   T   T   T
  0.3747374748457629  0.7397967484803487  0.7792909221212815   T   T   T
  0.3751746421934796  0.4924129282151695  0.8332237065300360   T   T   T
  0.5397218856569115  0.6681229263904119  0.7020212429705187   T   T   T
  0.5650276189990201  0.6389835418211076  0.8608143179771599   T   T   T
  0.4436147005799376  0.4742727298862125  0.7566460304087975   T   T   T
  0.2569329949831231  0.5930025639133786  0.6946159589125149   T   T   T
  0.7732920219310292  0.4271990540365753  0.7937535036237279   T   T   T
  0.6988587697507735  0.3426669720871392  0.7576595366640678   T   T   T
  0.4142488836024923  0.6947233376654022  0.6995175735459532   T   T   T
  0.6482570461850694  0.4458021419828183  0.6944127785373790   T   T   T
  0.3249030645990639  0.4148204130484692  0.7693155845081396   T   T   T
  0.6206452053914630  0.5713596822090637  0.7040358642141734   T   T   T
  0.7068467942990823  0.7569297022187642  0.6882290370453669   T   T   T
  0.7629083913180996  0.4290386608123282  0.7039483049668968   T   T   T
  0.5537005031469300  0.2128706567546622  0.7099060100973265   T   T   T
  0.7192579740898468  0.2566277474953137  0.6910817374951612   T   T   T
  0.2931908746297325  0.7463013688597038  0.6968539718502612   T   T   T
  0.5119730592873268  0.6030532238344909  0.7768013486330319   T   T   T
  0.5789875410864730  0.7257586847562495  0.7939974950621771   T   T   T
  0.2402818282350896  0.4693401338216671  0.7089504332896385   T   T   T
  0.2862675602870773  0.6621312021796130  0.7643925079513538   T   T   T
  0.6003593501263846  0.2822672422361055  0.7833705751715123   T   T   T
  0.5140681197364126  0.4847973651467239  0.6780793748795204   T   T   T
  0.4844006525132891  0.2703655793071192  0.7752386373010470   T   T   T
  0.2894836800241338  0.5380022622810977  0.7775859918992681   T   T   T
  0.5630122631908684  0.4856133398218977  0.7622140678984275   T   T   T
  0.3914584713393197  0.8166735044622956  0.7065109199653579   T   T   T
  0.4642873111669197  0.6947238657509121  0.8302892881297549   T   T   T
  0.4367268634295994  0.2270093009505692  0.6980937546406506   T   T   T
  0.3693819262211983  0.2987032707361056  0.7553647227159214   T   T   T
  0.3493465431405133  0.4993850195595248  0.6977839530065617   T   T   T
  0.4280243908938091  0.3713345227060210  0.8151430891762097   T   T   T
  0.5971594224354745  0.7846179960997528  0.7128854256673348   T   T   T
  0.6354005028266182  0.5838054440234355  0.7997065575561604   T   T   T
  0.7327634131251272  0.6146329353943224  0.6939210771540277   T   T   T
  0.4862762251883376  0.7739986134244626  0.7535631336226785   T   T   T
  0.5491760001726220  0.3819221826602543  0.8262778706218276   T   T   T
  0.6443810865663910  0.0340260848360856  0.7458610963632082   T   T   T
  0.7190827213857651  0.1173685153102877  0.7432033080836026   T   T   T
  0.7042137294138774  0.0548445980140638  0.7343850754580953   T   T   T
  0.7128811465456123  0.0522111531234999  0.6972657343819531   T   T   T
  0.7368260802067775  0.0254751979439130  0.7487371429972769   T   T   T
  0.7972197571033987  0.0988932754428697  0.7356755986352023   T   T   T
  0.6347478436634630  0.0420620827975114  0.7809871709362747   T   T   T
  0.6127730076151261  0.0558404780806409  0.7250085948230760   T   T   T
  0.6409872172354846  0.9859804518717166  0.7395949677642962   T   T   T
  0.9145257572146671  0.6885674914719877  0.5459221110136958   T   T   T
  0.9157171050598205  0.9385445203018289  0.5465874001029902   T   T   T
  0.0823073826744318  0.0632412549265972  0.5475833373754257   T   T   T
  0.0850721370177317  0.3132190274015532  0.5469770637483752   T   T   T
  0.0808422565696838  0.5643802012112898  0.5463172311938658   T   T   T
  0.4166074238384533  0.0654189307682705  0.5473883850689167   T   T   T
  0.5766349087987889  0.4358182749862412  0.5522526499781485   T   T   T
  0.2499850393987204  0.9360978722349166  0.4540390364791155   T   T   T
  0.4159409958481106  0.3197102077000629  0.5525884473279100   T   T   T
  0.2525410390469039  0.5591170331127063  0.5438653429378050   T   T   T
  0.5811574375230252  0.5600317566145514  0.5489245803915712   T   T   T
  0.7474752364956997  0.3125339075544827  0.5492783401681840   T   T   T
  0.4130086446465635  0.8126150240386200  0.6397365529223060   T   T   T
  0.5838578385696465  0.9376031182087555  0.5463360981062402   T   T   T
  0.9154282782785316  0.4372961970876824  0.5457270549625296   T   T   T
  0.5795230204489324  0.6861154131561037  0.5475077763603156   T   T   T
  0.2515012671733526  0.9373121515584946  0.5452894448678923   T   T   T
  0.4974115841843522  0.5043889294640678  0.6089738176149798   T   T   T
  0.9180125071672258  0.5637431526801122  0.5470707196748418   T   T   T
  0.4199291613295859  0.5649728216316722  0.5553712703538384   T   T   T
  0.9155641726723736  0.8126589517755929  0.5468261108421799   T   T   T
  0.0835831196866227  0.9389838242383645  0.5457605519263988   T   T   T
  0.2491416179302856  0.6832225217652212  0.5519741525452299   T   T   T
  0.7486442864318359  0.9334071700207268  0.5482367271785390   T   T   T
  0.7516774500876093  0.6797910660498415  0.5534462529956260   T   T   T
  0.7519883788717858  0.4355471704348048  0.5488884361345320   T   T   T
  0.4231129007875730  0.4438302949378557  0.5456420737523265   T   T   T
  0.4229786720797498  0.6878642883288535  0.5467906276957882   T   T   T
  0.5860195298196363  0.8143107775546499  0.5505243917367912   T   T   T
  0.7489828155621944  0.1842942369873631  0.5508770453199102   T   T   T
  0.4160915328546424  0.9370610262176295  0.5461858262490270   T   T   T
  0.4984034740329001  0.2533095022349928  0.5907735840547592   T   T   T
  0.0853866167592194  0.6892596272975121  0.5454079000141164   T   T   T
  0.0831774441494396  0.4385201914751372  0.5449676217750760   T   T   T
  0.0837050250884655  0.1889384459890785  0.5455315451330498   T   T   T
  0.4994560408916228  0.1255514373958215  0.4993927915965206   T   T   T
  0.9996199731333683  0.4981633751605311  0.5938945771042471   T   T   T
  0.5796390915263161  0.1849385360280024  0.5503626907693144   T   T   T
  0.9995619565636603  0.7537285410361574  0.5928406914654371   T   T   T
  0.3340765026575682  0.9998386163433111  0.5920364860706878   T   T   T
  0.9994384047644655  0.9996115650471623  0.5933940026152429   T   T   T
  0.0005419927133739  0.2479604713515874  0.5923353440260621   T   T   T
  0.3331835140090547  0.4962718523490292  0.5908653471683103   T   T   T
  0.3353811486970344  0.7412468355691113  0.5904636559756670   T   T   T
  0.6630334599208212  0.2475082992291219  0.5903072907020008   T   T   T
  0.6661707154685902  0.0004761084499658  0.5921022577629599   T   T   T
  0.9160647387375944  0.1886973594218802  0.5454859039609645   T   T   T
  0.6655754860347600  0.7407689856500098  0.5909920588270703   T   T   T
  0.1673797772455162  0.9984582201136890  0.5923200590912792   T   T   T
  0.1683101380523024  0.2487409429657775  0.5930796704107957   T   T   T
  0.1705892427493055  0.7502821998303133  0.5947539505118011   T   T   T
  0.2480212475696861  0.4359971803741441  0.5489294030766525   T   T   T
  0.1653631168808700  0.5035527293969233  0.5873269332090184   T   T   T
  0.3346105940467459  0.2545984126326970  0.5927057149171899   T   T   T
  0.4998747814073000  0.0000636749367709  0.5912237203332020   T   T   T
  0.8325259811178215  0.8740388742901776  0.4994426047400292   T   T   T
  0.7483313683836507  0.9387386194287803  0.6420125726294569   T   T   T
  0.8317444087287158  0.0016654182611998  0.5922273056578572   T   T   T
  0.5005955190642134  0.7564614284824397  0.5925310275480662   T   T   T
  0.4178262614318684  0.0650903268774578  0.6401478374468571   T   T   T
  0.4273755471253926  0.3043140267260706  0.6555584372951653   T   T   T
  0.4157399644165122  0.1915132474640484  0.5465384942247965   T   T   T
  0.6665826341707541  0.4946892616949475  0.5915132184095163   T   T   T
  0.3970680850160863  0.5503139980461795  0.6520123131291299   T   T   T
  0.7411420508244613  0.8099796743037354  0.6397665593179771   T   T   T
  0.5827698987008323  0.4396015974584758  0.4564222050033223   T   T   T
  0.9142669066969752  0.0630782505864293  0.6414552772884468   T   T   T
  0.0835850324800905  0.3112534796045190  0.6404924933663226   T   T   T
  0.6664209905562919  0.8742449284276570  0.4987272448327892   T   T   T
  0.0857137830463794  0.5628788192892715  0.6398880211033815   T   T   T
  0.0840567472423030  0.0603968416410158  0.6422756253875950   T   T   T
  0.0873640021430676  0.4365324445476660  0.6397275921629219   T   T   T
  0.0837522954228174  0.1852147067826076  0.6413497413350413   T   T   T
  0.4179358003243493  0.1872351274243478  0.6396057891296546   T   T   T
  0.0841813962809944  0.9356746151571814  0.6406487047782845   T   T   T
  0.0832164168868859  0.6871634188333970  0.6389012712955429   T   T   T
  0.9124282986212311  0.4360862130103031  0.6399645135057239   T   T   T
  0.9162099976837336  0.6877207763723723  0.6391308579055798   T   T   T
  0.9138306338771180  0.9376373367585298  0.6417723317277775   T   T   T
  0.4150248112805810  0.4187524676394308  0.6299784816713370   T   T   T
  0.7547923381052911  0.4324552229342681  0.6372896060661839   T   T   T
  0.4175416848714631  0.9348651068696455  0.6398761357331280   T   T   T
  0.2403689168325850  0.4419670268759216  0.6413158314929486   T   T   T
  0.7453110391561089  0.1937598360970612  0.6462834277511859   T   T   T
  0.2535168557368972  0.1864356601443268  0.6412287020179721   T   T   T
  0.8303202220347417  0.7507379672617595  0.5925938555360069   T   T   T
  0.8312108470011151  0.2495603778821231  0.5911632723832980   T   T   T
  0.5824982369940199  0.9362771632984277  0.6400729449886742   T   T   T
  0.9166666865332829  0.8124999999834799  0.3605200052333331   F   F   F
  0.0843446799696697  0.8127853339027906  0.6423780996812617   T   T   T
  0.2519754557555142  0.9301748204028637  0.6373769050946662   T   T   T
  0.5785414729228922  0.1913249455194608  0.6448257502922862   T   T   T
  0.2547863821571257  0.6772789912350528  0.6626471591612121   T   T   T
  0.8333791271540453  0.5029755420750145  0.5889080370043731   T   T   T
  0.4203033215668717  0.6755675570551775  0.6335726389659152   T   T   T
  0.7451296914593937  0.3113452796834873  0.6423645318060464   T   T   T
  0.7477530390855617  0.0683695131613400  0.6401524217597206   T   T   T
  0.5913041085706907  0.8105140898528781  0.6459710678018827   T   T   T
  0.2519617732410037  0.1881320355513170  0.5473489978305628   T   T   T
  0.9130098476237289  0.8135538429668308  0.6419968625731536   T   T   T
  0.5833951096993993  0.0664913889512215  0.6392165816362725   T   T   T
  0.5905058201381967  0.5662294660068092  0.6388056488048875   T   T   T
  0.2475502679572521  0.5736290451863713  0.6288816221886279   T   T   T
  0.7542624675312887  0.6918168190571543  0.6571288907584447   T   T   T
  0.2618344111690473  0.7995091216127412  0.6463581059353986   T   T   T
  0.2510249889859669  0.0593432564267344  0.6423291581914865   T   T   T
  0.9166666865332829  0.5625000000092442  0.3605200052333331   F   F   F
  0.4995093021083440  0.3742974554454040  0.4997641058433955   T   T   T
  0.5000026634074675  0.8732712593277200  0.5010640302214272   T   T   T
  0.5003038894143803  0.6211082571798551  0.5000967502613913   T   T   T
  0.8324473864086352  0.6230664898816786  0.5001940906739404   T   T   T
  0.8322744397845938  0.3729843019703437  0.4999438659911760   T   T   T
  0.8326684771467810  0.1243910825166908  0.5003596996022706   T   T   T
  0.9160980825433305  0.0622731115167085  0.4541570199381773   T   T   T
  0.1665125328553568  0.3757749254636834  0.4977066670215426   T   T   T
  0.5809879378960964  0.4391277439275679  0.6464426726016358   T   T   T
  0.5768236700200086  0.6864426439684135  0.6398137601665210   T   T   T
  0.9142339789320755  0.1854767906573769  0.6396954060882882   T   T   T
  0.2490663638702377  0.3162231389316478  0.6412219892388962   T   T   T
  0.1677564104350114  0.8732626185617379  0.4998920675362321   T   T   T
  0.5827689455865717  0.6861165875366162  0.4546524166818185   T   T   T
  0.5825557231691321  0.9372247903158011  0.4544921833962732   T   T   T
  0.9156807353596639  0.1866943156180731  0.4531961642413527   T   T   T
  0.9156340890944625  0.4368712729797475  0.4536284453282819   T   T   T
  0.1671055214240750  0.1243057907165725  0.4993141399894134   T   T   T
  0.7483046809004169  0.0607523358910246  0.5451458476237238   T   T   T
  0.7533186100816409  0.5679717931013029  0.6358187962187435   T   T   T
  0.9152295303390700  0.3116509572631882  0.6396179958168464   T   T   T
  0.9141666471735278  0.5627065807262320  0.6408130882002467   T   T   T
  0.1675312027327912  0.6243251524626512  0.5002679668200367   T   T   T
  0.0000000000000000  0.0000000000000000  0.4070133268666680   F   F   F
  0.5830595336871504  0.3208531340483884  0.6336150864927611   T   T   T
  0.1666666716383389  0.0000000000000000  0.4070133268666680   F   F   F
  0.7496562341962675  0.4382723360223664  0.4558311596650027   T   T   T
  0.5836986299398332  0.0636648157428989  0.4542587622728618   T   T   T
  0.9166666865332829  0.6874999999963620  0.3605200052333331   F   F   F
  0.9166666865332829  0.4374999701794380  0.3605200052333331   F   F   F
  0.9166666865332829  0.1875000000030838  0.3605200052333331   F   F   F
  0.5833333134730552  0.9375000000154046  0.3605200052333331   F   F   F
  0.5833333134730552  0.6874999999963620  0.3605200052333331   F   F   F
  0.5833333134730552  0.4374999701794380  0.3605200052333331   F   F   F
  0.5833333134730552  0.1875000000030838  0.3605200052333331   F   F   F
  0.2499999999799343  0.9375000000154046  0.3605200052333331   F   F   F
  0.9166666865332829  0.9375000000154046  0.3605200052333331   F   F   F
  0.2499999999799343  0.6874999999963620  0.3605200052333331   F   F   F
  0.2499999999799343  0.1875000000030838  0.3605200052333331   F   F   F
  0.7499999404149307  0.9375000000154046  0.3605200052333331   F   F   F
  0.4172619420088944  0.9359972772932666  0.4540910163478364   T   T   T
  0.7499999404149307  0.6874999999963620  0.3605200052333331   F   F   F
  0.7499999404149307  0.1875000000030838  0.3605200052333331   F   F   F
  0.4166666269218169  0.9375000000154046  0.3605200052333331   F   F   F
  0.4166666269218169  0.6874999999963620  0.3605200052333331   F   F   F
  0.4166666269218169  0.4374999701794380  0.3605200052333331   F   F   F
  0.2499999999799343  0.4374999701794380  0.3605200052333331   F   F   F
  0.0833333358191695  0.0625000000159659  0.3605200052333331   F   F   F
  0.9153001907960433  0.6868759500654610  0.4533523138155013   T   T   T
  0.6653522455809272  0.3786228527410340  0.5031884144839499   T   T   T
  0.3342305880526166  0.3784458870240413  0.5030189346451241   T   T   T
  0.3356290905449071  0.6258298680983040  0.5037559593839396   T   T   T
  0.9169967397365376  0.0634825257817501  0.5475482821267370   T   T   T
  0.2500005404250220  0.1887209456022825  0.4543438299345618   T   T   T
  0.7497981054877313  0.9384226633273511  0.4555126751628414   T   T   T
  0.7490218665014264  0.6886290398480508  0.4575714690175539   T   T   T
  0.7499999404149307  0.4374999701794380  0.3605200052333331   F   F   F
  0.7502415949150949  0.1895431819076793  0.4557261041370170   T   T   T
  0.2522134966114151  0.3143678547198290  0.4539423457792028   T   T   T
  0.9156280062526121  0.3124181990300622  0.5466309757949053   T   T   T
  0.6654148688796117  0.6258101357125249  0.5029785427543385   T   T   T
  0.5831279603164640  0.0622985569668733  0.5459723222858567   T   T   T
  0.4164423818088825  0.4354496949760905  0.4538313809856841   T   T   T
  0.0843867692527266  0.6869469469237377  0.4531576289625931   T   T   T
  0.0841027722928553  0.9367176639517663  0.4535599423049661   T   T   T
  0.0827803051358588  0.4368098250723116  0.4528509596494291   T   T   T
  0.0838573565359360  0.1865542581139496  0.4529841424692390   T   T   T
  0.9165468833804330  0.8123584893359465  0.4540491741056494   T   T   T
  0.0833333358191695  0.3124999999901945  0.3605200052333331   F   F   F
  0.9161209516646974  0.5621608475734476  0.4540827240477640   T   T   T
  0.5826140000536274  0.3110503902207066  0.5449560711696076   T   T   T
  0.9160186962992075  0.3121309229779565  0.4538624420613013   T   T   T
  0.4170396994276633  0.1871799949724244  0.4535941625690579   T   T   T
  0.2520098113534313  0.6876182338061062  0.4561175372766591   T   T   T
  0.4171601927611783  0.6850582852460373  0.4549623293538326   T   T   T
  0.9161462105029626  0.9372140890683236  0.4537833820220651   T   T   T
 -0.0000117298799262  0.1251282907614706  0.4985190012635292   T   T   T
  0.5830574203288068  0.8104102119072472  0.4554260862918983   T   T   T
 -0.0001440539954609  0.3738179854243661  0.4981116384170063   T   T   T
  0.9996948709886684  0.6271600142188071  0.4976103613897517   T   T   T
  0.3336002495759376  0.1256023878716414  0.4985774014573403   T   T   T
  0.0000251113732860  0.8751713621792299  0.4995205363933564   T   T   T
  0.3335495339647527  0.8742071245852334  0.4992036713584752   T   T   T
  0.6659349174758470  0.1270697454949909  0.5008940985576382   T   T   T
  0.2510982686116566  0.4392876094160907  0.4549074049807587   T   T   T
  0.0833333358191695  0.5625000000092442  0.3605200052333331   F   F   F
  0.7723199796547007  0.1327064337383000  0.7430440370779853   T   T   T
  0.9166666865332829  0.0625000000159659  0.3605200052333331   F   F   F
  0.7496671817093254  0.8132292144572956  0.4530133090761376   T   T   T
  0.2505031058711290  0.0620269545870588  0.4542793738517727   T   T   T
  0.5832818729954282  0.1902045521257487  0.4556648723061180   T   T   T
  0.2518166498252734  0.5647039590019964  0.4537263486541639   T   T   T
  0.0848655231098107  0.8129472739278663  0.5473084264122439   T   T   T
  0.8333332538436267  0.2500000000190425  0.4070133268666680   F   F   F
  0.5843190110273299  0.3154095706855485  0.4536261759289693   T   T   T
  0.8333332538436267  0.0000000000000000  0.4070133268666680   F   F   F
  0.5000000000021103  0.4999999999932783  0.4070133268666680   F   F   F
  0.0833333358191695  0.1875000000030838  0.3605200052333331   F   F   F
  0.2532331626351853  0.8125809213170266  0.5506586280117738   T   T   T
  0.0000000000000000  0.2500000000190425  0.4070133268666680   F   F   F
  0.0000000000000000  0.4999999999932783  0.4070133268666680   F   F   F
  0.7483212947681521  0.5641833553316044  0.4538578951533763   T   T   T
  0.3333333432766779  0.0000000000000000  0.4070133268666680   F   F   F
  0.3333333432766779  0.4999999999932783  0.4070133268666680   F   F   F
  0.3333333432766779  0.7500000000123208  0.4070133268666680   F   F   F
  0.6666666865533486  0.0000000000000000  0.4070133268666680   F   F   F
  0.6666666865533486  0.2500000000190425  0.4070133268666680   F   F   F
  0.6666666865533486  0.4999999999932783  0.4070133268666680   F   F   F
  0.5833333134730552  0.3124999999901945  0.3605200052333331   F   F   F
  0.6666666865533486  0.7500000000123208  0.4070133268666680   F   F   F
  0.1666666716383389  0.4999999999932783  0.4070133268666680   F   F   F
  0.1666666716383389  0.7500000000123208  0.4070133268666680   F   F   F
  0.5000000000021103  0.0000000000000000  0.4070133268666680   F   F   F
  0.5000000000021103  0.2500000000190425  0.4070133268666680   F   F   F
  0.5000000000021103  0.7500000000123208  0.4070133268666680   F   F   F
  0.9166666865332829  0.3124999999901945  0.3605200052333331   F   F   F
  0.3333333432766779  0.2500000000190425  0.4070133268666680   F   F   F
  0.7473101041664092  0.3139898997501411  0.4552450358652691   T   T   T
  0.0000000000000000  0.7500000000123208  0.4070133268666680   F   F   F
  0.4168839887878956  0.8103816519728038  0.4549848757274091   T   T   T
  0.5833333134730552  0.5625000000092442  0.3605200052333331   F   F   F
  0.7488773838854051  0.0642156160677812  0.4536469200335699   T   T   T
  0.5833333134730552  0.8124999999834799  0.3605200052333331   F   F   F
  0.2505606348356007  0.8108236149717201  0.4553113873016585   T   T   T
  0.1666666716383389  0.2500000000190425  0.4070133268666680   F   F   F
  0.5833333134730552  0.0625000000159659  0.3605200052333331   F   F   F
  0.5844243862987807  0.5627729833554104  0.4548883021499388   T   T   T
  0.2499999999799343  0.5625000000092442  0.3605200052333331   F   F   F
  0.2499999999799343  0.0625000000159659  0.3605200052333331   F   F   F
  0.2499999999799343  0.8124999999834799  0.3605200052333331   F   F   F
  0.2499999999799343  0.3124999999901945  0.3605200052333331   F   F   F
  0.7499999404149307  0.5625000000092442  0.3605200052333331   F   F   F
  0.7499999404149307  0.3124999999901945  0.3605200052333331   F   F   F
  0.7499999404149307  0.0625000000159659  0.3605200052333331   F   F   F
  0.4166666269218169  0.8124999999834799  0.3605200052333331   F   F   F
  0.4166666269218169  0.5625000000092442  0.3605200052333331   F   F   F
  0.4166666269218169  0.3124999999901945  0.3605200052333331   F   F   F
  0.0834778399742731  0.3119467950272138  0.4540273954740943   T   T   T
  0.4166666269218169  0.0625000000159659  0.3605200052333331   F   F   F
  0.4168782213195838  0.0616254149144758  0.4553673863660223   T   T   T
  0.0834416488178406  0.8121399831814480  0.4541788483882856   T   T   T
  0.0839646617757651  0.5625093274267610  0.4539490355919082   T   T   T
  0.4160387807347375  0.5595324320081134  0.4578647623796293   T   T   T
  0.7499999404149307  0.8124999999834799  0.3605200052333331   F   F   F
  0.8333332538436267  0.4999999999932783  0.4070133268666680   F   F   F
  0.4154886640058385  0.3113571543676825  0.4573992705881179   T   T   T
  0.8333332538436267  0.7500000000123208  0.4070133268666680   F   F   F
  0.0833333358191695  0.4374999701794380  0.3605200052333331   F   F   F
  0.0833333358191695  0.6874999999963620  0.3605200052333331   F   F   F
  0.0833333358191695  0.9375000000154046  0.3605200052333331   F   F   F
  0.4166666269218169  0.1875000000030838  0.3605200052333331   F   F   F
  0.0833333358191695  0.8124999999834799  0.3605200052333331   F   F   F
  0.4141609555591268  0.8117103246249142  0.5478932773687413   T   T   T
  0.2492618837439920  0.3137481526975830  0.5458653902781960   T   T   T
  0.7475743022161377  0.8072283633233742  0.5453313177957145   T   T   T
  0.7464651333020164  0.5576899428502622  0.5446759330128119   T   T   T
  0.0836705020009416  0.0618931342978526  0.4542371678939314   T   T   T
  0.2510631616733804  0.0624955313429975  0.5472704963084344   T   T   T
  0.8315026669500761  0.8771610195905825  0.6176319153372316   T   T   T
  0.8383510947294370  0.3726316375772242  0.6027325157629666   T   T   T
  0.8333332538436267  0.3750000000061604  0.4070133268666680   F   F   F
  0.1666666716383389  0.8749999404036828  0.4070133268666680   F   F   F
  0.3339192950307867  0.6244511183130765  0.5949581972245342   T   T   T
  0.8362106190251630  0.7517198950339733  0.5026756394026525   T   T   T
  0.5000000000021103  0.1249999999871179  0.4070133268666680   F   F   F
  0.6652399031995274  0.1241590725183768  0.6051521923224507   T   T   T
  0.3316224304670969  0.1196682494869511  0.6130906230114332   T   T   T
  0.1662254556850409  0.2482155456580789  0.5061846394664200   T   T   T
  0.8395757241453914  0.6269696990333875  0.6041518232724692   T   T   T
  0.5000000000021103  0.6249999999803961  0.4070133268666680   F   F   F
  0.8333332538436267  0.1249999999871179  0.4070133268666680   F   F   F
  0.0000000000000000  0.1249999999871179  0.4070133268666680   F   F   F
  0.9987300650359365  0.8751232543702958  0.6232246629519701   T   T   T
  0.3346948188021262  0.8786572935941411  0.6029987129511780   T   T   T
  0.0001481934746875  0.3751882423250401  0.6240896960714656   T   T   T
  0.1666666716383389  0.6249999999803961  0.4070133268666680   F   F   F
  0.5014512124135018  0.3715621094648580  0.5947816960097636   T   T   T
  0.5000000000021103  0.8749999404036828  0.4070133268666680   F   F   F
  0.9995888702563313  0.6238996610818043  0.6237151279219808   T   T   T
  0.8341631914521888  0.1235876592255276  0.6094545380547144   T   T   T
  0.6665971048871945  0.6257449304819945  0.5932430774336773   T   T   T
  0.6656199731462933  0.8815097705345800  0.6072434003996694   T   T   T
  0.1631071337980021  0.3709915081226746  0.6075786519898579   T   T   T
  0.1677413468686430  0.1225261711786165  0.6218312600734934   T   T   T
  0.5004344261726519  0.1220366693098560  0.6063045137408903   T   T   T
  0.6701675675190389  0.3726611471168956  0.5931804741475220   T   T   T
  0.1661613337951134  0.8737748804116729  0.6175771830445309   T   T   T
  0.1594449742263622  0.6273133353484533  0.6016947358115714   T   T   T
  0.5002938764184729  0.9991876941700056  0.5057041272066299   T   T   T
  0.6666666865533486  0.8749999404036828  0.4070133268666680   F   F   F
  0.5000000000021103  0.3750000000061604  0.4070133268666680   F   F   F
  0.5036549135103521  0.6249846244154597  0.5940327924264095   T   T   T
  0.0000000000000000  0.3750000000061604  0.4070133268666680   F   F   F
  0.1666666716383389  0.1249999999871179  0.4070133268666680   F   F   F
  0.5011810321232077  0.8769977590537208  0.6097895499970509   T   T   T
  0.5008762639129731  0.2479345005693980  0.5021065332004274   T   T   T
  0.8362420836622252  0.5000826206781291  0.5027698079962617   T   T   T
  0.9996186784062296  0.4999016014497920  0.5066970769786522   T   T   T
  0.5011510718224738  0.4998208084914637  0.5002210931956469   T   T   T
  0.6684616689548080  0.4999566688870888  0.5006027974753661   T   T   T
  0.3338564141604402  0.7511475853721399  0.5015098733839916   T   T   T
  0.3331530022038973  0.0010152950412124  0.5058509848189486   T   T   T
  0.3300620466182581  0.2480668932305479  0.5028383636150346   T   T   T
  0.0001544599128182  0.1227249271370944  0.6204966517235353   T   T   T
  0.1666666716383389  0.3750000000061604  0.4070133268666680   F   F   F
  0.1642498882129764  0.7514223236032076  0.5034356854876032   T   T   T
  0.5010874881412872  0.7528200903545770  0.5038273911839843   T   T   T
  0.8333332538436267  0.6249999999803961  0.4070133268666680   F   F   F
  0.6660211421625565  0.9996393261975631  0.5057409572970338   T   T   T
  0.3257505820287979  0.3735865568575140  0.5926538177888216   T   T   T
  0.6666666865533486  0.3750000000061604  0.4070133268666680   F   F   F
  0.6652248136253426  0.7517460985436493  0.5022153246434443   T   T   T
  0.6667154475906426  0.2482549872916792  0.5024099745940956   T   T   T
  0.8357774461651518  0.2486570557227558  0.5025444558280960   T   T   T
  0.0000000000000000  0.8749999404036828  0.4070133268666680   F   F   F
  0.1633985366178625  0.4997841095832363  0.5019959407443367   T   T   T
  0.3311145776783174  0.4992306417268615  0.5008783453474547   T   T   T
  0.1659875015870257  0.0011592032936554  0.5065648348380172   T   T   T
  0.0000000000000000  0.6249999999803961  0.4070133268666680   F   F   F
  0.3333333432766779  0.8749999404036828  0.4070133268666680   F   F   F
  0.8341359978703921 -0.0001778105592627  0.5064638965094727   T   T   T
  0.6666666865533486  0.1249999999871179  0.4070133268666680   F   F   F
  0.3333333432766779  0.1249999999871179  0.4070133268666680   F   F   F
  0.3333333432766779  0.6249999999803961  0.4070133268666680   F   F   F
  0.8333332538436267  0.8749999404036828  0.4070133268666680   F   F   F
  0.6666666865533486  0.6249999999803961  0.4070133268666680   F   F   F
 -0.0000668959618703  0.0000309361835772  0.5068740566075293   T   T   T
  0.0007150189282414  0.2496865245163114  0.5061552452561886   T   T   T
  0.9998782582519194  0.7511432736530312  0.5067682072045967   T   T   T
  0.3333333432766779  0.3750000000061604  0.4070133268666680   F   F   F
  0.0833333358191695  0.2500000000190425  0.4070133268666680   F   F   F
  0.4168253973361976  0.7503789245029189  0.5942249131371665   T   T   T
  0.7524690372858198  0.6247098630097325  0.5023555506182725   T   T   T
  0.0833333358191695  0.7500000000123208  0.4070133268666680   F   F   F
  0.0833333358191695  0.4999999999932783  0.4070133268666680   F   F   F
  0.0833333358191695  0.0000000000000000  0.4070133268666680   F   F   F
  0.5834771963176196  0.3735418416098430  0.5017706783523815   T   T   T
  0.9166666865332829  0.7500000000123208  0.4070133268666680   F   F   F
  0.5828918086424959  0.1231574566786236  0.5043327063180435   T   T   T