Au O  Sr Ti H                           
   1.00000000000000     
    23.6707801818999997    0.0000000000000000    0.0000000000000000
     0.0000000000000000   22.3170261383000010    0.0000000000000000
     0.0000000000000000    0.0000000000000000   30.0000000000000000
   Au   O    Sr   Ti   H 
    50   264    72    72     1
Selective dynamics
Direct
  0.7173480421660372  0.5262955863935304  0.7538670320016152   F   F   F
  0.6235417529054956  0.5690484099189916  0.7040036518261772   F   F   F
  0.7179445239987103  0.2590565187406781  0.6913106644215574   F   F   F
  0.2997498406805263  0.7485321617096687  0.6960826755456324   F   F   F
  0.5122846071412113  0.6034203988501545  0.7767551244943718   F   F   F
  0.5764897387623691  0.7255790724335611  0.7917724046178805   F   F   F
  0.5500127225125482  0.3836530902692559  0.8286259506554714   F   F   F
  0.2405295431788161  0.4694194128062605  0.7091860287342939   F   F   F
  0.2836465843595377  0.6610118086711694  0.7650884893978613   F   F   F
  0.6029302067525890  0.2884648469649846  0.7877382786247864   F   F   F
  0.5139445501271638  0.4853505101603375  0.6782128532881586   F   F   F
  0.5626744216197963  0.4861455167029334  0.7626276434508412   F   F   F
  0.4647139213473395  0.6963872134948446  0.8293267362434094   F   F   F
  0.7642576715183651  0.4322511913084597  0.7053640759766182   F   F   F
  0.7337268252188238  0.6156649173728894  0.6939918365258748   F   F   F
  0.6350862025933921  0.5838848142575159  0.8000930502753150   F   F   F
  0.5950934751332682  0.7852176359466441  0.7122617428559224   F   F   F
  0.4839754721511085  0.7800627517014007  0.7544260668244362   F   F   F
  0.3496232298144690  0.4994902341158962  0.6976320830485037   F   F   F
  0.4303642315008602  0.3730903377096126  0.8151756019706085   F   F   F
  0.3722453633047067  0.2986657778597603  0.7551935220934070   F   F   F
  0.4415074960170955  0.2278531205195051  0.6972271520239346   F   F   F
  0.3863339480746006  0.8315780010331082  0.7072501781984926   F   F   F
  0.2895808348199864  0.5372402447198752  0.7777193665931250   F   F   F
  0.5561604131022690  0.2083284610731582  0.7117156536115203   F   F   F
  0.4519677606111827  0.5820998794906345  0.7024815595386542   F   F   F
  0.6133741560285628  0.3202352894248932  0.6978897423105792   F   F   F
  0.7055185513150306  0.7575788109311503  0.6884292174813780   F   F   F
  0.6561476047321122  0.4416089095247173  0.8119711956116831   F   F   F
  0.3702493015337041  0.6184489991682369  0.8181898120773070   F   F   F
  0.5713124139586299  0.5101825260636730  0.8570580828336887   F   F   F
  0.6647114584288190  0.1939121115906346  0.7523169943051116   F   F   F
  0.4726809031351635  0.4507982982445142  0.8788958182513156   F   F   F
  0.5154705452310964  0.3780810196266557  0.7334537866224551   F   F   F
  0.2832401808591598  0.3379015024373970  0.7026233422378496   F   F   F
  0.6695488782947976  0.6812455921450962  0.7490896763649104   F   F   F
  0.3975855308722487  0.3818900041885200  0.6899393640298115   F   F   F
  0.3765311422571997  0.4936789342422614  0.8327772256040475   F   F   F
  0.4635856871148079  0.5738020261649410  0.8641633313555772   F   F   F
  0.3266065579854214  0.4141876917550036  0.7692356897349342   F   F   F
  0.4872774796895101  0.2692910643086392  0.7751367065281869   F   F   F
  0.4247769924754436  0.7023299027413046  0.6961536294790065   F   F   F
  0.7000410744596621  0.3464193750030020  0.7565031769284900   F   F   F
  0.7743156164448592  0.4295039396664322  0.7955389639657469   F   F   F
  0.2573991883043050  0.5922070671014126  0.6942256535776892   F   F   F
  0.6474415278167527  0.4430695394593300  0.6966475296582999   F   F   F
  0.5651965000398320  0.6406669694836111  0.8609788458194885   F   F   F
  0.5436666100840100  0.6657347818064352  0.7012820172253384   F   F   F
  0.4434847477129722  0.4762088590357081  0.7560891033595922   F   F   F
  0.3757617711915273  0.7347497168638242  0.7761021979930689   F   F   F
  0.2498903547020817  0.1886319739278761  0.4542079457131294   F   F   F
  0.7494145885252621  0.9384104720204292  0.4553501972795146   F   F   F
  0.7491002739632506  0.6886615596268584  0.4572937192428697   F   F   F
  0.7494552640478247  0.4383391546945035  0.4558168914686576   F   F   F
  0.7500902709444475  0.1896941990307965  0.4556225433823187   F   F   F
  0.4173160314063651  0.9356094121544771  0.4538017912444232   F   F   F
  0.4171855713472681  0.6844970991255437  0.4544143073728080   F   F   F
  0.4164801938168381  0.4353056711392895  0.4538212628213216   F   F   F
  0.0844262272253076  0.6869325110769253  0.4530383717032933   F   F   F
  0.0838924441365307  0.9366690147492491  0.4534745189215386   F   F   F
  0.0828133453659206  0.4367987727671832  0.4529101762312422   F   F   F
  0.0838643447694949  0.1865562889564671  0.4529802254736381   F   F   F
  0.9165719393285698  0.8120147441450172  0.4541158809388577   F   F   F
  0.9161890746674572  0.5624199976598305  0.4537991744570107   F   F   F
  0.2512616338957088  0.4394705784707895  0.4550497326450937   F   F   F
  0.9161273021761360  0.0621169462084623  0.4540927630334721   F   F   F
  0.9162734818460123  0.3122493113630469  0.4538173490751021   F   F   F
  0.4172475327003724  0.1871411095082252  0.4534931503071533   F   F   F
  0.2521497578157081  0.6876628536740768  0.4561276745287302   F   F   F
  0.9166678100874037  0.9367526773243071  0.4532768394985922   F   F   F
  0.5825709299978570  0.1890156381259089  0.4550685911320329   F   F   F
  0.0000492220214596  0.1251343234800473  0.4984342493891987   F   F   F
  0.5838032675612581  0.8100094735503163  0.4555003030581446   F   F   F
  0.9999622933033123  0.3733659175102844  0.4984779952636416   F   F   F
  0.9997610670367933  0.6271309870132669  0.4976526717573080   F   F   F
  0.3336059017654023  0.1256838461519223  0.4983690360973299   F   F   F
  0.0000472804295626  0.8751471031452027  0.4995550107381632   F   F   F
  0.3334422841192932  0.8735602650229239  0.4993860152830152   F   F   F
  0.6658614833335434  0.1257360792261721  0.4992294774197532   F   F   F
  0.3357428868792951  0.6255016320691240  0.5036739056048276   F   F   F
  0.3343592772450918  0.3784661819063331  0.5030876673555724   F   F   F
  0.6654929631635653  0.3785060158789335  0.5033424581782100   F   F   F
  0.9153475493138004  0.6866604292949106  0.4529590075015193   F   F   F
  0.9161124501190869  0.4370293740015185  0.4536625280586719   F   F   F
  0.9158160048017336  0.1869515857041790  0.4532185542443798   F   F   F
  0.5828423993844396  0.9361283970203473  0.4537886678827974   F   F   F
  0.5828086039993607  0.6860072672467226  0.4545586280751124   F   F   F
  0.5827418146031960  0.4389576523091421  0.4560286743321882   F   F   F
  0.2500779427677955  0.9359965741274436  0.4540732281089817   F   F   F
  0.6655957789315892  0.6258062795141939  0.5028510016374668   F   F   F
  0.5846607244307975  0.5624060898837868  0.4549871699170467   F   F   F
  0.5828810779022007  0.0622959767615114  0.4548288890717629   F   F   F
  0.9166666865332829  0.6874999999963620  0.3605200052333331   F   F   F
  0.9166666865332829  0.4374999701794380  0.3605200052333331   F   F   F
  0.9166666865332829  0.1875000000030838  0.3605200052333331   F   F   F
  0.5833333134730552  0.9375000000154046  0.3605200052333331   F   F   F
  0.5833333134730552  0.6874999999963620  0.3605200052333331   F   F   F
  0.5833333134730552  0.4374999701794380  0.3605200052333331   F   F   F
  0.5833333134730552  0.1875000000030838  0.3605200052333331   F   F   F
  0.2499999999799343  0.9375000000154046  0.3605200052333331   F   F   F
  0.9166666865332829  0.9375000000154046  0.3605200052333331   F   F   F
  0.2499999999799343  0.6874999999963620  0.3605200052333331   F   F   F
  0.2499999999799343  0.1875000000030838  0.3605200052333331   F   F   F
  0.7499999404149307  0.9375000000154046  0.3605200052333331   F   F   F
  0.7499999404149307  0.6874999999963620  0.3605200052333331   F   F   F
  0.7499999404149307  0.4374999701794380  0.3605200052333331   F   F   F
  0.7499999404149307  0.1875000000030838  0.3605200052333331   F   F   F
  0.4166666269218169  0.9375000000154046  0.3605200052333331   F   F   F
  0.4166666269218169  0.6874999999963620  0.3605200052333331   F   F   F
  0.4166666269218169  0.4374999701794380  0.3605200052333331   F   F   F
  0.2499999999799343  0.4374999701794380  0.3605200052333331   F   F   F
  0.0833333358191695  0.0625000000159659  0.3605200052333331   F   F   F
  0.0833333358191695  0.3124999999901945  0.3605200052333331   F   F   F
  0.0833333358191695  0.5625000000092442  0.3605200052333331   F   F   F
  0.9166666865332829  0.3124999999901945  0.3605200052333331   F   F   F
  0.9166666865332829  0.0625000000159659  0.3605200052333331   F   F   F
  0.5833333134730552  0.8124999999834799  0.3605200052333331   F   F   F
  0.5833333134730552  0.5625000000092442  0.3605200052333331   F   F   F
  0.5833333134730552  0.3124999999901945  0.3605200052333331   F   F   F
  0.5833333134730552  0.0625000000159659  0.3605200052333331   F   F   F
  0.2499999999799343  0.8124999999834799  0.3605200052333331   F   F   F
  0.2499999999799343  0.5625000000092442  0.3605200052333331   F   F   F
  0.2499999999799343  0.3124999999901945  0.3605200052333331   F   F   F
  0.2499999999799343  0.0625000000159659  0.3605200052333331   F   F   F
  0.7499999404149307  0.8124999999834799  0.3605200052333331   F   F   F
  0.7499999404149307  0.5625000000092442  0.3605200052333331   F   F   F
  0.7499999404149307  0.3124999999901945  0.3605200052333331   F   F   F
  0.7499999404149307  0.0625000000159659  0.3605200052333331   F   F   F
  0.4166666269218169  0.8124999999834799  0.3605200052333331   F   F   F
  0.4166666269218169  0.5625000000092442  0.3605200052333331   F   F   F
  0.4166666269218169  0.3124999999901945  0.3605200052333331   F   F   F
  0.4166666269218169  0.0625000000159659  0.3605200052333331   F   F   F
  0.0833333358191695  0.8124999999834799  0.3605200052333331   F   F   F
  0.4166666269218169  0.1875000000030838  0.3605200052333331   F   F   F
  0.0833333358191695  0.9375000000154046  0.3605200052333331   F   F   F
  0.0833333358191695  0.6874999999963620  0.3605200052333331   F   F   F
  0.0833333358191695  0.4374999701794380  0.3605200052333331   F   F   F
  0.8333332538436267  0.4999999999932783  0.4070133268666680   F   F   F
  0.8333332538436267  0.7500000000123208  0.4070133268666680   F   F   F
  0.0836949445749156  0.0618801960210504  0.4541785799160394   F   F   F
  0.0835866259194731  0.3120799966963759  0.4539361191944948   F   F   F
  0.0839589644324477  0.5624984245732776  0.4538952146738922   F   F   F
  0.0834372047017311  0.8121411893751116  0.4541761859389268   F   F   F
  0.4168504695565147  0.0614321634080497  0.4554459789598297   F   F   F
  0.4154874282026455  0.3113693194274489  0.4573783335995643   F   F   F
  0.4160988557708691  0.5594019130366874  0.4577561930277554   F   F   F
  0.4164225810560751  0.8096273250274137  0.4553734869252750   F   F   F
  0.7495639813328907  0.0640520204289103  0.4533519038753795   F   F   F
  0.7474092157857584  0.3140562352062162  0.4546091365789238   F   F   F
  0.7481621844394084  0.5642479807857086  0.4536822218876111   F   F   F
  0.7489618070170252  0.8132768613148684  0.4530309804121870   F   F   F
  0.2501661435849201  0.0620178529824713  0.4541170408899902   F   F   F
  0.9154024733243418  0.3124223291684629  0.5467229414165473   F   F   F
  0.2522537845726944  0.3142579693825098  0.4541380586932320   F   F   F
  0.2518830196455824  0.5647157990717915  0.4536380656224850   F   F   F
  0.2503157230214725  0.8108008148193520  0.4552756503125934   F   F   F
  0.8333332538436267  0.2500000000190425  0.4070133268666680   F   F   F
  0.5842522675347226  0.3145191683265978  0.4541574402820530   F   F   F
  0.8333332538436267  0.0000000000000000  0.4070133268666680   F   F   F
  0.5000000000021103  0.4999999999932783  0.4070133268666680   F   F   F
  0.0833333358191695  0.1875000000030838  0.3605200052333331   F   F   F
  0.0000000000000000  0.0000000000000000  0.4070133268666680   F   F   F
  0.0000000000000000  0.2500000000190425  0.4070133268666680   F   F   F
  0.0000000000000000  0.4999999999932783  0.4070133268666680   F   F   F
  0.0000000000000000  0.7500000000123208  0.4070133268666680   F   F   F
  0.3333333432766779  0.0000000000000000  0.4070133268666680   F   F   F
  0.3333333432766779  0.2500000000190425  0.4070133268666680   F   F   F
  0.3333333432766779  0.4999999999932783  0.4070133268666680   F   F   F
  0.3333333432766779  0.7500000000123208  0.4070133268666680   F   F   F
  0.6666666865533486  0.0000000000000000  0.4070133268666680   F   F   F
  0.6666666865533486  0.2500000000190425  0.4070133268666680   F   F   F
  0.6666666865533486  0.4999999999932783  0.4070133268666680   F   F   F
  0.6666666865533486  0.7500000000123208  0.4070133268666680   F   F   F
  0.1666666716383389  0.0000000000000000  0.4070133268666680   F   F   F
  0.1666666716383389  0.2500000000190425  0.4070133268666680   F   F   F
  0.1666666716383389  0.4999999999932783  0.4070133268666680   F   F   F
  0.1666666716383389  0.7500000000123208  0.4070133268666680   F   F   F
  0.5000000000021103  0.0000000000000000  0.4070133268666680   F   F   F
  0.5000000000021103  0.2500000000190425  0.4070133268666680   F   F   F
  0.5000000000021103  0.7500000000123208  0.4070133268666680   F   F   F
  0.1670731508420005  0.1243519410382561  0.4993635623303376   F   F   F
  0.9176831591951995  0.0632776890153082  0.5474770298256573   F   F   F
  0.1676708855065243  0.8733414605578815  0.4998400011294422   F   F   F
  0.2518645387055614  0.1880207548891235  0.5473122531424224   F   F   F
  0.7495489872725969  0.9342124285171991  0.5475975023122857   F   F   F
  0.7518227202557028  0.6803733345081326  0.5530549705687875   F   F   F
  0.7526217310389995  0.4346003355872412  0.5493575459296025   F   F   F
  0.4231932784340557  0.4439819567634231  0.5456158812595575   F   F   F
  0.4232286134946506  0.6885242200328747  0.5458733611066791   F   F   F
  0.7484477683378330  0.1835683932177616  0.5507247575555425   F   F   F
  0.4157243050294426  0.9375569473190453  0.5455871310701497   F   F   F
  0.0835865202373469  0.9389314457881852  0.5457216872920299   F   F   F
  0.4157226772805771  0.1915208140920441  0.5465069449770468   F   F   F
  0.0866388259478228  0.6897800874396793  0.5450928120739604   F   F   F
  0.0827723595365839  0.4384220190321244  0.5452131773862945   F   F   F
  0.0837073394426469  0.1888391818072179  0.5456952189754674   F   F   F
  0.4993587358892242  0.1254693676386793  0.4996233754558972   F   F   F
  0.9996890516890389  0.4986314487397649  0.5945650081721894   F   F   F
  0.9994612568352679  0.7537879701429802  0.5922548816249034   F   F   F
  0.3346880383739119  0.2544977876451142  0.5928013180364928   F   F   F
  0.3341354899130664  0.9989969658708446  0.5921320234936687   F   F   F
  0.9996330597235925  0.9983949739030038  0.5927750618073446   F   F   F
  0.0011565207657966  0.2497069541673511  0.5919001272417148   F   F   F
  0.3332631126010028  0.4964987025907064  0.5909155196787239   F   F   F
  0.3362772050813732  0.7418345213637565  0.5901767309472774   F   F   F
  0.6633469088383137  0.2471283493502483  0.5908011978881405   F   F   F
  0.6656433386876017  0.0002249271899259  0.5918627682458748   F   F   F
  0.6659593355909550  0.7419886831912805  0.5899104207422567   F   F   F
  0.6670420980429057  0.4935838127804288  0.5916198890083137   F   F   F
  0.1674637179665979  0.9981824097748486  0.5922865376971060   F   F   F
  0.1685177393529784  0.2489830191721083  0.5930821881284771   F   F   F
  0.1709775128118736  0.7494095570153334  0.5951953935238379   F   F   F
  0.2481944096648760  0.4357628034196992  0.5493316367710150   F   F   F
  0.1654225684465587  0.5031162218569349  0.5876349406595409   F   F   F
  0.2496597009011978  0.6828334506135008  0.5520446876057363   F   F   F
  0.5807011156334667  0.1861113670395156  0.5491366936161839   F   F   F
  0.9154234630455420  0.8130768163647559  0.5469489515836372   F   F   F
  0.9168041961718387  0.5634744239582758  0.5465251690485857   F   F   F
  0.5817790384796098  0.5600234193303066  0.5492563152486909   F   F   F
  0.5862998750498463  0.8149208888450303  0.5504474068683862   F   F   F
  0.5829962519750183  0.3116887943447892  0.5456243389128446   F   F   F
  0.5821988088341499  0.0633920705344622  0.5472503113308420   F   F   F
  0.2529694202009907  0.8121189486763285  0.5505886351594214   F   F   F
  0.2523032849489439  0.5588475371501644  0.5436718064954817   F   F   F
  0.2494915921594441  0.3137045923092288  0.5459598126822485   F   F   F
  0.2514069511533705  0.0622724570425675  0.5469950835775208   F   F   F
  0.7484881538617785  0.8082472631315198  0.5457168927131093   F   F   F
  0.7464553325445280  0.5576896349572422  0.5446071215502784   F   F   F
  0.4150194340594311  0.8131587436526573  0.5492176520554750   F   F   F
  0.7482186448983299  0.0596683728359295  0.5446200478841590   F   F   F
  0.7479940160910559  0.3112164871678189  0.5480119891266568   F   F   F
  0.4159896598058381  0.3195523907953941  0.5525702943539983   F   F   F
  0.4201310642772000  0.5651269451548444  0.5552868621235305   F   F   F
  0.4164678895800975  0.0655964601685000  0.5477864195396123   F   F   F
  0.0849560588892047  0.8128918708646040  0.5473318667537725   F   F   F
  0.0824129146773416  0.5641884269345425  0.5463239617855322   F   F   F
  0.0864839848361001  0.3133700438703286  0.5468802931825607   F   F   F
  0.0823059214771718  0.0632394677719574  0.5475529649265027   F   F   F
  0.9156293490035736  0.9387268504893100  0.5460497776238640   F   F   F
  0.9132548232155386  0.6894994699410830  0.5449602016706265   F   F   F
  0.5830764537831072  0.9386332613288886  0.5456415506600649   F   F   F
  0.9170227119139085  0.1887952530021195  0.5455160949421085   F   F   F
  0.9156846481769421  0.4373582974313450  0.5458551645434895   F   F   F
  0.5766966380546776  0.4360430907063986  0.5518894538352015   F   F   F
  0.5798263302789195  0.6862811643745275  0.5469667556868671   F   F   F
  0.2515945445691443  0.9370614592381870  0.5452802935529917   F   F   F
  0.4975837416738287  0.5045994447444926  0.6089339104949261   F   F   F
  0.4986092393431605  0.2531393255366154  0.5904088796951328   F   F   F
  0.4988462750940883  0.9988460111990918  0.5916281314883562   F   F   F
  0.7529283194980039  0.6936135182451935  0.6566455231256398   F   F   F
  0.7483099980731396  0.9367793732634624  0.6398971966361984   F   F   F
  0.2535962740421596  0.1864211567074321  0.6411697468182851   F   F   F
  0.7456600803792810  0.1942298774870395  0.6467675759382061   F   F   F
  0.7555815532999119  0.4352804376365285  0.6387138674007247   F   F   F
  0.4163452646880756  0.9305954702621975  0.6396749266301285   F   F   F
  0.4216654318012658  0.6749383821190236  0.6318373953547365   F   F   F
  0.5903528928790323  0.8103941507940320  0.6454922885571150   F   F   F
  0.9162429587690326  0.0624154436172191  0.6414405762670157   F   F   F
  0.9131822259033981  0.5615074083942702  0.6424733189225265   F   F   F
  0.9153391341059702  0.3119397353638291  0.6394916276840732   F   F   F
  0.9139128273278345  0.8126826413808459  0.6415828081491739   F   F   F
  0.5818687919527363  0.0650035750016187  0.6396498495336473   F   F   F
  0.5832594192310196  0.3195223277933223  0.6343457008843885   F   F   F
  0.5917434724428787  0.5649205883496080  0.6393957647466735   F   F   F
  0.2469381690704608  0.5743533819426787  0.6283647935507375   F   F   F
  0.2621956281699127  0.7989782797993001  0.6459691360800974   F   F   F
  0.2492197805230205  0.3165717070406942  0.6412257401693040   F   F   F
  0.2510276675460617  0.0591336807708132  0.6419329419941988   F   F   F
  0.9166666865332829  0.5625000000092442  0.3605200052333331   F   F   F
  0.4995732479591553  0.3740965963499434  0.4998673586116809   F   F   F
  0.5000286959168321  0.8727805075059436  0.5007427160347291   F   F   F
  0.5006084979592273  0.6207839863886448  0.5000592362076830   F   F   F
  0.8323212895637511  0.6230301640179121  0.4999534657239408   F   F   F
  0.8327193180613222  0.8742669065616013  0.4984749111077775   F   F   F
  0.8325999738626138  0.3730535466333009  0.4994873665898112   F   F   F
  0.8328671822030458  0.1244847576472736  0.4996870602563490   F   F   F
  0.1667473105087183  0.3762243550033801  0.4977335089822859   F   F   F
  0.1677552073661417  0.6243848391142990  0.5000050237402505   F   F   F
  0.5808504026416159  0.4388419488816027  0.6463874273255001   F   F   F
  0.5802261905004897  0.6853328329159254  0.6388142297209995   F   F   F
  0.9171473142046551  0.1865836337542675  0.6406293429101595   F   F   F
  0.5820461098637537  0.9348480369566232  0.6392394171993843   F   F   F
  0.8305437893512462  0.7505979147496404  0.5928243459533036   F   F   F
  0.8315982412790959  0.2478872358569930  0.5914810711297420   F   F   F
  0.8334414792319080  0.5033613472898537  0.5891172242305345   F   F   F
  0.8321620651394284  0.0020359044362408  0.5922437921488140   F   F   F
  0.5017617499661924  0.7561701168235757  0.5921832738271959   F   F   F
  0.4174283067723437  0.0629061019103574  0.6407284161626308   F   F   F
  0.4274120049221324  0.3052992333485918  0.6551516333721423   F   F   F
  0.4146896922993406  0.8053677795824612  0.6442865957753128   F   F   F
  0.3969787203840411  0.5509419583697479  0.6520936127878585   F   F   F
  0.7531191868095775  0.5700182862148750  0.6348380806260963   F   F   F
  0.7410648004728060  0.8099088799764687  0.6399643923578751   F   F   F
  0.7465342704183087  0.3124447152618757  0.6401750344470543   F   F   F
  0.7475383701537908  0.0669638338570024  0.6392416038373483   F   F   F
  0.0838979699734779  0.3117164202058973  0.6404077159361634   F   F   F
  0.6665037569641754  0.8748200706636737  0.4995513827368612   F   F   F
  0.0868672287286856  0.5616906238380892  0.6419584484324403   F   F   F
  0.0835943175978642  0.0604291844779112  0.6415029289820637   F   F   F
  0.0870900713380109  0.4365167477872518  0.6397267221733856   F   F   F
  0.0839685392570715  0.1854034447945949  0.6409940734605115   F   F   F
  0.4184004705279065  0.1878217917628433  0.6398084356949809   F   F   F
  0.4151476491575536  0.4191405255753295  0.6298209316804346   F   F   F
  0.0841137076568188  0.9352787075292426  0.6407899160956987   F   F   F
  0.0830157831037184  0.6870526781734370  0.6398437915940107   F   F   F
  0.9125089417689622  0.4360902876241255  0.6397147222604929   F   F   F
  0.9166098254327650  0.6874841063921906  0.6397595825142304   F   F   F
  0.9141129012243425  0.9367101066016872  0.6408768136347547   F   F   F
  0.2408869913593819  0.4426038374468746  0.6419123599966170   F   F   F
  0.2621968267812491  0.6774891885466872  0.6634324756809917   F   F   F
  0.5784114184395861  0.1902533698072517  0.6441236098247600   F   F   F
  0.2518761907669713  0.9297357521959100  0.6374126570770144   F   F   F
  0.0840114557524103  0.8118221095027423  0.6418364659215925   F   F   F
  0.9166666865332829  0.8124999999834799  0.3605200052333331   F   F   F
  0.0006800448831896  0.1228950100388744  0.6190413181236067   F   F   F
  0.8333332538436267  0.6249999999803961  0.4070133268666680   F   F   F
  0.9996147826883330  0.5005403875253336  0.5072321662127734   F   F   F
  0.3313371599599861  0.4993700808988137  0.5009506139887492   F   F   F
  0.3301456447131699  0.2479940048775333  0.5028476654253708   F   F   F
  0.3332033306022311  0.0009684965869781  0.5059616504264497   F   F   F
  0.3341044037406604  0.7509210766833689  0.5017887997925712   F   F   F
  0.6658038259382906  0.0001882851010819  0.5056098943094085   F   F   F
  0.6685753299800936  0.4997131502513170  0.5008491483532325   F   F   F
  0.6668829949545270  0.2476130717069225  0.5030749429265171   F   F   F
  0.6656090149218201  0.7518347637980796  0.5021182282483494   F   F   F
  0.1660388124723653  0.0011202699130095  0.5064917144344321   F   F   F
  0.1664414254487951  0.2482455152764018  0.5061994248260717   F   F   F
  0.1634356947115805  0.4998233529377174  0.5021459038686871   F   F   F
  0.4996655301901995  0.9992872158157837  0.5058424789313207   F   F   F
  0.1643869831525251  0.7514951709049384  0.5034113441653432   F   F   F
  0.5010003157592138  0.7526883203364036  0.5038472511772341   F   F   F
  0.8341884478836405  0.0003922493181534  0.5064788126620670   F   F   F
  0.5012888898371415  0.4997445272484882  0.5003047351585295   F   F   F
  0.5010245679325180  0.2477754067366931  0.5020671888419272   F   F   F
  0.8354278228458085  0.2483375705918291  0.5032383314542059   F   F   F
  0.9997488906516168  0.7506781996340450  0.5065800465436325   F   F   F
  0.0008614170264920  0.2497617401496868  0.5059011564192630   F   F   F
  0.9999756349815954  0.9999972715538732  0.5064206622092584   F   F   F
  0.8333332538436267  0.8749999404036828  0.4070133268666680   F   F   F
  0.0000000000000000  0.6249999999803961  0.4070133268666680   F   F   F
  0.0000000000000000  0.8749999404036828  0.4070133268666680   F   F   F
  0.3333333432766779  0.1249999999871179  0.4070133268666680   F   F   F
  0.3333333432766779  0.3750000000061604  0.4070133268666680   F   F   F
  0.3333333432766779  0.6249999999803961  0.4070133268666680   F   F   F
  0.3333333432766779  0.8749999404036828  0.4070133268666680   F   F   F
  0.6666666865533486  0.1249999999871179  0.4070133268666680   F   F   F
  0.6666666865533486  0.3750000000061604  0.4070133268666680   F   F   F
  0.6666666865533486  0.6249999999803961  0.4070133268666680   F   F   F
  0.8360560573695395  0.4998712022484142  0.5030048706634602   F   F   F
  0.6666666865533486  0.8749999404036828  0.4070133268666680   F   F   F
  0.1666666716383389  0.3750000000061604  0.4070133268666680   F   F   F
  0.1666666716383389  0.6249999999803961  0.4070133268666680   F   F   F
  0.1666666716383389  0.8749999404036828  0.4070133268666680   F   F   F
  0.5000000000021103  0.1249999999871179  0.4070133268666680   F   F   F
  0.5000000000021103  0.3750000000061604  0.4070133268666680   F   F   F
  0.5000000000021103  0.6249999999803961  0.4070133268666680   F   F   F
  0.5000000000021103  0.8749999404036828  0.4070133268666680   F   F   F
  0.8333332538436267  0.1249999999871179  0.4070133268666680   F   F   F
  0.8333332538436267  0.3750000000061604  0.4070133268666680   F   F   F
  0.1666666716383389  0.1249999999871179  0.4070133268666680   F   F   F
  0.0000000000000000  0.3750000000061604  0.4070133268666680   F   F   F
  0.8358331741540184  0.7516276537998507  0.5025828738943616   F   F   F
  0.8371118821331791  0.3724701679694675  0.6043553280610325   F   F   F
  0.8319259604206977  0.8757551416067670  0.6183144040313451   F   F   F
  0.8407416682261442  0.6265916399245555  0.6030346949533083   F   F   F
  0.9988840207330014  0.8747750859562231  0.6218168096563019   F   F   F
  0.3321288870265704  0.1192425950132545  0.6138748192048169   F   F   F
  0.3342153825583765  0.6246482296064002  0.5955876280302377   F   F   F
  0.3259648969382454  0.3737932378310020  0.5928178296931890   F   F   F
  0.6709405887366557  0.3719428124622581  0.5942611515001204   F   F   F
  0.6649565465849179  0.1241162391370452  0.6116674792359973   F   F   F
  0.3337906247288345  0.8770195556023594  0.6024803091772171   F   F   F
  0.1581292158487528  0.6267124570137952  0.6009694961934144   F   F   F
  0.1660959422543229  0.8728420396432810  0.6185988996953000   F   F   F
  0.5018413228936041  0.3713421507363677  0.5954540504447934   F   F   F
  0.4994113276574836  0.1207462055105921  0.6064505910085103   F   F   F
  0.1678116820595577  0.1224607184572406  0.6215543312254681   F   F   F
  0.1634309246228867  0.3715871535246507  0.6076751945574941   F   F   F
  0.6654508053956363  0.8807039189493580  0.6067547347065698   F   F   F
  0.6665901069515314  0.6264918129083767  0.5935876681479755   F   F   F
  0.0001780375685243  0.3749365715729169  0.6226698101731856   F   F   F
  0.9997229626934043  0.6222279709719061  0.6433838617252903   F   F   F
  0.8336449609243033  0.1247406108758184  0.6195825967992405   F   F   F
  0.5006703606900658  0.8751182246812661  0.6098766388427350   F   F   F
  0.0000000000000000  0.1249999999871179  0.4070133268666680   F   F   F
  0.5043474879076371  0.6248447002657755  0.5934597105435344   F   F   F
  0.9161653050829699  0.9998630011547291  0.6037419139127067   F   F   F
  0.5847425270855666  0.7499632469598723  0.5993879326845004   F   F   F
  0.5908023957962527  0.5009079682722017  0.5938586457771180   F   F   F
  0.2423571386508172  0.4984600386567593  0.5939368369097835   F   F   F
  0.2493554323422273  0.7523903660634730  0.5920953410222154   F   F   F
  0.5839843561359430  0.2470064330790649  0.5971446072331545   F   F   F
  0.5823318822630625  0.0000798051691575  0.6043114650345274   F   F   F
  0.2496725138211460  0.9968750313733636  0.6041359220377132   F   F   F
  0.2492902388463278  0.2459412161481325  0.6037957559792915   F   F   F
  0.4167697951783964  0.9979353663831034  0.6058499673775799   F   F   F
  0.4147484908473587  0.2486046555208290  0.5913024819851032   F   F   F
  0.4169348865661391  0.7508831510616503  0.5950544867686034   F   F   F
  0.7566161340642310  0.5027186746437948  0.5956587305263525   F   F   F
  0.7519094643706126  0.7524586035437153  0.5906691900842418   F   F   F
  0.7539060866048217  0.2478929130506415  0.5941561295791047   F   F   F
  0.7494410072293789  0.0016607446693513  0.6041333645618252   F   F   F
  0.0837877277915240  0.2479338679041447  0.6037098566151755   F   F   F
  0.0813103314016104  0.5000877579589655  0.6035481580643065   F   F   F
  0.0801645239679161  0.7506776211762656  0.6031763204161393   F   F   F
  0.0832154999740098  0.9981673557549158  0.6034700842656662   F   F   F