Au O  Sr Ti H 
 1.0000000000000000
    23.6707801818999997    0.0000000000000000    0.0000000000000000
     0.0000000000000000   22.3170261383000010    0.0000000000000000
     0.0000000000000000    0.0000000000000000   30.0000000000000000
 Au  O   Sr  Ti  H  
  50 264  72  72   1
Selective dynamics
Cartesian
 16.9801878200285685 11.7453523580163317 22.6160109600485164   F   F   F
 14.7597197672626343 12.6994682381201809 21.1201095547852837   F   F   F
 16.9943070103722214  5.7813711000326524 20.7393199326467617   F   F   F
  7.0953125883082278 16.7050118182329470 20.8824802663690576   F   F   F
 12.1261763262105351 13.4665488135222731 23.3026537348312424   F   F   F
 13.6459618833649330 16.1927671249032734 23.7531721385365131   F   F   F
 13.0192302518428704  8.5619960435784854 24.8587785196642272   F   F   F
  5.6935219438386211 10.4760453054227760 21.2755808620288711   F   F   F
  6.7141359477213989 14.7518178118393912 22.9526546819358686   F   F   F
 14.2718283890680695  6.4376775296982238 23.6321483587435672   F   F   F
 12.1654684717455108 10.8315800214855606 20.3463855986446980   F   F   F
 13.3189425481399866 10.8493222032766887 22.8788293035253112   F   F   F
 11.0001410796815726 15.5412916459423140 24.8798020873023198   F   F   F
 18.0905753448419695  9.6465611347421376 21.1609222792984895   F   F   F
 17.3678863933181020 13.7398100534451562 20.8197550957763262   F   F   F
 15.0329858981457836 13.0305726615413615 24.0027915082593957   F   F   F
 14.0863268375625150 17.5237225056753694 21.3678522856776425   F   F   F
 11.4560770147201634 17.4086808192344051 22.6327820047330626   F   F   F
  8.2758546194242282 11.1471366105900707 20.9289624914550316   F   F   F
 10.1870571220091719  8.3262668186125399 24.4552680591183176   F   F   F
  8.8113381685171408  6.6653319711119989 22.6558056628021411   F   F   F
 10.4508268868818099  5.0850040463270023 20.9168145607180165   F   F   F
  9.1448259616794410 18.5583479850911246 21.2175053459548018   F   F   F
  6.8546042859150402 11.9896045839601459 23.3315809977937256   F   F   F
 13.1647508844185026  4.6492717111214343 21.3514696083456634   F   F   F
 10.6984295107329022 12.9907382256938213 21.0744467861595624   F   F   F
 14.5190448166105348  7.1466993245014496 20.9366922693174224   F   F   F
 16.7001745424305845 16.9069061253727355 20.6528765244413215   F   F   F
 15.5315257184940840  9.8553975767692208 24.3591358683505490   F   F   F
  8.7640898291062488 13.8019424796430901 24.5456943623191144   F   F   F
 13.5234105660053032 11.3857567694668429 25.7117424850107028   F   F   F
 15.7342388168586567  4.3275416629011341 22.5695098291534251   F   F   F
 11.1887257542944880 10.0604774050239261 26.3668745475393784   F   F   F
 12.2015899664093759  8.4376439974032262 22.0036135986737058   F   F   F
  6.7045160597988280  7.5409566620662929 21.0787002671354244   F   F   F
 15.8487443191538020 15.2033756865038328 22.4726902909473623   F   F   F
  9.4111597047810509  8.5226492054306267 20.6981809208943979   F   F   F
  8.9127859000099487 11.0174456794126581 24.9833167681215045   F   F   F
 10.9734348951696123 12.8055548161324673 25.9248999406673768   F   F   F
  7.7310320400399526  9.2434375430584961 23.0770706920480535   F   F   F
 11.5342381093206985  6.0097757209866014 23.2541011958456032   F   F   F
 10.0548028152148863 15.6739147971873169 20.8846088843702731   F   F   F
 16.5705183918357015  7.7310502467554807 22.6950953078545972   F   F   F
 18.3286547482786091  9.5852506480386168 23.8661689189723099   F   F   F
  6.0928396053506795 13.2163005957881534 20.8267696073307356   F   F   F
 15.3254460855838808  9.8879944931984554 20.8994258897490042   F   F   F
 13.3786421120221455 14.2977815039111942 25.8293653745846932   F   F   F
 12.8690128195372857 14.8572205267496820 21.0384605167602210   F   F   F
 10.4976299771391730 10.6275655543898928 22.6826731007876781   F   F   F
  8.8945742866360593 16.3974286363585051 23.2830659397921167   F   F   F
  5.9150996557299376  4.2097046926675219 13.6262383713938426   F   F   F
 17.7392279900904484 20.9425310325344292 13.6605059183854021   F   F   F
 17.7317879191851979 15.3688780266350999 13.7188115772860542   F   F   F
 17.7401908114438775  9.7824263727576106 13.6745067440597783   F   F   F
 17.7552219201078714  4.2334103980542066 13.6686763014695067   F   F   F
  9.8781960458029818 20.8800197062910371 13.6140537373326271   F   F   F
  9.8751079544215301 15.2759396527752997 13.6324292211841804   F   F   F
  9.8584111179535032  9.7147280409656833 13.6146378846397429   F   F   F
  1.9984346662374259 15.3302908049517299 13.5911511510988223   F   F   F
  1.9857996040781392 20.9036668850947258 13.6042355676462670   F   F   F
  1.9602564942844569  9.7480496290225833 13.5873052869373172   F   F   F
  1.9851344701377203  4.1633815769057936 13.5894067642091159   F   F   F
 21.6959728967443084 18.1217542697692906 13.6234764281656968   F   F   F
 21.6869101915117710 12.5515417884771061 13.6139752337102973   F   F   F
  5.9475589040904380  9.8076763867464845 13.6514919793527465   F   F   F
 21.6854479884484448  1.3862655121656462 13.6227828910042348   F   F   F
 21.6889081752811386  6.9684760433552286 13.6145204722530178   F   F   F
  9.8765746279906335  4.1764330324454804 13.6047945092145603   F   F   F
  5.9685814901749090 15.3465898797822859 13.6838302358618851   F   F   F
 21.6982422324025244 20.9055339849691286 13.5983051849577752   F   F   F
 13.7899084243442651  4.2182669366034080 13.6520577339609481   F   F   F
  0.0011651236500884  2.7926259679027701 14.9530274816760116   F   F   F
 13.8190788159174289 18.0770025934929635 13.6650090917442775   F   F   F
 -0.0008925469287133  8.3324169402273132 14.9543398579092077   F   F   F
 23.6651244522496533 13.9956986293129546 14.9295801527191419   F   F   F
  7.8967119680732898  2.8048896797345035 14.9510710829198850   F   F   F
  0.0011191646551271 19.5306807757489409 14.9866503221449427   F   F   F
  7.8928390107384603 19.4952672678969279 14.9815804584904502   F   F   F
 15.7614608035822581  2.8060553666178829 14.9768843225925448   F   F   F
  7.9472960729562594 13.9593362724359213 15.1102171681448780   F   F   F
  7.9145449534476029  8.4462396740663142 15.0926300206671336   F   F   F
 15.7527376436460838  8.4471286498740135 15.1002737453463460   F   F   F
 21.6669906298479127 15.3242187487108854 13.5887702250456162   F   F   F
 21.6850964286706578  9.7531959627968181 13.6098758417601768   F   F   F
 21.6780793367277589  4.1722034247567663 13.5965566273313332   F   F   F
 13.7963343165202037 20.8916019051079616 13.6136600364838269   F   F   F
 13.7955343533889181 15.3096421142087848 13.6367588422534407   F   F   F
 13.7939533962737428  9.7962294001898833 13.6808602299656279   F   F   F
  5.9195400115981851 20.8886600101613666 13.6221968432693465   F   F   F
 15.7551713730901355 13.9661350974305538 15.0855300491239159   F   F   F
 13.8393754889918892 12.5512314082755179 13.6496150975113828   F   F   F
 13.7972498672119315  1.3902609416975347 13.6448666721529381   F   F   F
 21.6982156369999721 15.3429554700000619 10.8156001569999933   F   F   F
 21.6982156369999721  9.7636982699999884 10.8156001569999933   F   F   F
 21.6982156369999721  4.1844424010000720 10.8156001569999933   F   F   F
 13.8079546360000549 20.9222120050000342 10.8156001569999933   F   F   F
 13.8079546360000549 15.3429554700000619 10.8156001569999933   F   F   F
 13.8079546360000549  9.7636982699999884 10.8156001569999933   F   F   F
 13.8079546360000549  4.1844424010000720 10.8156001569999933   F   F   F
  5.9176950450000287 20.9222120050000342 10.8156001569999933   F   F   F
 21.6982156369999721 20.9222120050000342 10.8156001569999933   F   F   F
  5.9176950450000287 15.3429554700000619 10.8156001569999933   F   F   F
  5.9176950450000287  4.1844424010000720 10.8156001569999933   F   F   F
 17.7530837259999217 20.9222120050000342 10.8156001569999933   F   F   F
 17.7530837259999217 15.3429554700000619 10.8156001569999933   F   F   F
 17.7530837259999217  9.7636982699999884 10.8156001569999933   F   F   F
 17.7530837259999217  4.1844424010000720 10.8156001569999933   F   F   F
  9.8628241350000643 20.9222120050000342 10.8156001569999933   F   F   F
  9.8628241350000643 15.3429554700000619 10.8156001569999933   F   F   F
  9.8628241350000643  9.7636982699999884 10.8156001569999933   F   F   F
  5.9176950450000287  9.7636982699999884 10.8156001569999933   F   F   F
  1.9725650740000149  1.3948141340000613 10.8156001569999933   F   F   F
  1.9725650740000149  6.9740706679999214 10.8156001569999933   F   F   F
  1.9725650740000149 12.5533272030000536 10.8156001569999933   F   F   F
 21.6982156369999721  6.9740706679999214 10.8156001569999933   F   F   F
 21.6982156369999721  1.3948141340000613 10.8156001569999933   F   F   F
 13.8079546360000549 18.1325837370000720 10.8156001569999933   F   F   F
 13.8079546360000549 12.5533272030000536 10.8156001569999933   F   F   F
 13.8079546360000549  6.9740706679999214 10.8156001569999933   F   F   F
 13.8079546360000549  1.3948141340000613 10.8156001569999933   F   F   F
  5.9176950450000287 18.1325837370000720 10.8156001569999933   F   F   F
  5.9176950450000287 12.5533272030000536 10.8156001569999933   F   F   F
  5.9176950450000287  6.9740706679999214 10.8156001569999933   F   F   F
  5.9176950450000287  1.3948141340000613 10.8156001569999933   F   F   F
 17.7530837259999217 18.1325837370000720 10.8156001569999933   F   F   F
 17.7530837259999217 12.5533272030000536 10.8156001569999933   F   F   F
 17.7530837259999217  6.9740706679999214 10.8156001569999933   F   F   F
 17.7530837259999217  1.3948141340000613 10.8156001569999933   F   F   F
  9.8628241350000643 18.1325837370000720 10.8156001569999933   F   F   F
  9.8628241350000643 12.5533272030000536 10.8156001569999933   F   F   F
  9.8628241350000643  6.9740706679999214 10.8156001569999933   F   F   F
  9.8628241350000643  1.3948141340000613 10.8156001569999933   F   F   F
  1.9725650740000149 18.1325837370000720 10.8156001569999933   F   F   F
  9.8628241350000643  4.1844424010000720 10.8156001569999933   F   F   F
  1.9725650740000149 20.9222120050000342 10.8156001569999933   F   F   F
  1.9725650740000149 15.3429554700000619 10.8156001569999933   F   F   F
  1.9725650740000149  9.7636982699999884 10.8156001569999933   F   F   F
 19.7256482699999580 11.1585130689999925 12.2103998060000407   F   F   F
 19.7256482699999580 16.7377696039999648 12.2103998060000407   F   F   F
  1.9811246353691832  1.3809819520448448 13.6253573974811495   F   F   F
  1.9785606482865596  6.9646974435136775 13.6180835758349019   F   F   F
  1.9873741913803566 12.5532920439543805 13.6168564402168268   F   F   F
  1.9750237314869505 18.1245761512744856 13.6252855781678583   F   F   F
  9.8671758335940432  1.3709831965097687 13.6633793687948764   F   F   F
  9.8349115813277983  6.9488372403270233 13.7213500079868744   F   F   F
  9.8493845488922815 12.4841871150548336 13.7326857908326563   F   F   F
  9.8570473789578301 18.0684741749186415 13.6612046077582701   F   F   F
 17.7427642344006351  1.4294506141228567 13.6005571162613013   F   F   F
 17.6917592527910195  7.0088012099931962 13.6382740973676508   F   F   F
 17.7095826082753156 12.5923369356776202 13.6104666566283239   F   F   F
 17.7285102985386516 18.1499209716384371 13.5909294123655346   F   F   F
  5.9216277937522035  1.3840540460510431 13.6235112266998115   F   F   F
 21.6682907240280080  6.9723372862411201 16.4016882424963946   F   F   F
  5.9710438846725582  7.0133033168785186 13.6241417607969151   F   F   F
  5.9622675895837327 12.6027772485960767 13.6091419686746349   F   F   F
  5.9251684557146458 18.0946629772784888 13.6582695093777780   F   F   F
 19.7256482699999580  5.5792565349999723 12.2103998060000407   F   F   F
 13.8297069955910246  7.0191325005409846 13.6247232084615124   F   F   F
 19.7256482699999580  0.0000000000000000 12.2103998060000407   F   F   F
 11.8353900909999528 11.1585130689999925 12.2103998060000407   F   F   F
  1.9725650740000149  4.1844424010000720 10.8156001569999933   F   F   F
  0.0000000000000000  0.0000000000000000 12.2103998060000407   F   F   F
  0.0000000000000000  5.5792565349999723 12.2103998060000407   F   F   F
  0.0000000000000000 11.1585130689999925 12.2103998060000407   F   F   F
  0.0000000000000000 16.7377696039999648 12.2103998060000407   F   F   F
  7.8902602960000570  0.0000000000000000 12.2103998060000407   F   F   F
  7.8902602960000570  5.5792565349999723 12.2103998060000407   F   F   F
  7.8902602960000570 11.1585130689999925 12.2103998060000407   F   F   F
  7.8902602960000570 16.7377696039999648 12.2103998060000407   F   F   F
 15.7805205919999434  0.0000000000000000 12.2103998060000407   F   F   F
 15.7805205919999434  5.5792565349999723 12.2103998060000407   F   F   F
 15.7805205919999434 11.1585130689999925 12.2103998060000407   F   F   F
 15.7805205919999434 16.7377696039999648 12.2103998060000407   F   F   F
  3.9451301480000271  0.0000000000000000 12.2103998060000407   F   F   F
  3.9451301480000271  5.5792565349999723 12.2103998060000407   F   F   F
  3.9451301480000271 11.1585130689999925 12.2103998060000407   F   F   F
  3.9451301480000271 16.7377696039999648 12.2103998060000407   F   F   F
 11.8353900909999528  0.0000000000000000 12.2103998060000407   F   F   F
 11.8353900909999528  5.5792565349999723 12.2103998060000407   F   F   F
 11.8353900909999528 16.7377696039999648 12.2103998060000407   F   F   F
  3.9547518278783529  2.7751655184991284 14.9809068699101271   F   F   F
 21.7222763379410928  1.4121698397258742 16.4243108947696825   F   F   F
  3.9689006737295252 19.4903842029313843 14.9952000338833233   F   F   F
  5.9618301313149216  4.1960641014034801 16.4193675942727779   F   F   F
 17.7424093132954397 20.8488431859430641 16.4279250693686478   F   F   F
 17.7962303469308978 15.1839094900203833 16.5916491170635432   F   F   F
 17.8151435555451556  9.6989870490143701 16.4807263778880859   F   F   F
 10.0173150682700633  9.9083569340228976 16.3684764377867609   F   F   F
 10.0181514767221245 15.3658130153262871 16.3762008332002864   F   F   F
 17.7163426019583952  4.0967006296064579 16.5217427266663677   F   F   F
  9.8405186406249996 20.9234828994638917 16.3676139321045682   F   F   F
  1.9785581467082498 20.9541576177267359 16.3716506187608033   F   F   F
  9.8404801105394561  4.2741750141206367 16.3952083493114920   F   F   F
  2.0508086042288665 15.3938402410701460 16.3527843622188662   F   F   F
  1.9592863277276786  9.7842756583462585 16.3563953215888027   F   F   F
  1.9814180315586651  4.2143289563268187 16.3708565692639496   F   F   F
 11.8202108691452388  2.8001031571484254 14.9887012636769299   F   F   F
 23.6634197927832517 11.1279710749037690 17.8369502451656956   F   F   F
 23.6580277108730712 16.8223058324170154 17.7676464487470049   F   F   F
  7.9223269858601846  5.6796337790154903 17.7840395410948631   F   F   F
  7.9092477327035926 22.2946413994219839 17.7639607048099997   F   F   F
 23.6620944192772491 22.2812067289407665 17.7832518542203317   F   F   F
  0.0273757488229953  5.5727166230680929 17.7570038172513840   F   F   F
  7.8885978811142063 11.0803745233488531 17.7274655903616498   F   F   F
  7.9599438016648829 16.5555404035681839 17.7053019284183968   F   F   F
 15.7019388634546289  5.5151698319643545 17.7240359366441389   F   F   F
 15.7562971496202699  0.0050197059767282 17.7558830473762406   F   F   F
 15.7637770428576101 16.5589808371026734 17.6973126222676633   F   F   F
 15.7894068748470016 11.0153228512625372 17.7485966702493627   F   F   F
  3.9639968564310646 22.2764629297365850 17.7685961309132452   F   F   F
  3.9889463649750661  5.5565605468568133 17.7924656438542748   F   F   F
  4.0471711218179260 16.7245926722030376 17.8558618057152430   F   F   F
  5.8749553135537944  9.7249298740163326 16.4799491031305578   F   F   F
  3.9156812548238786 11.2280578737840386 17.6290482197862275   F   F   F
  5.9096399003112117 15.2388119654470824 16.5613406281720970   F   F   F
 13.7456484595438706  4.1534522428556757 16.4741008084855984   F   F   F
 21.6687875671046406 18.1454565632580440 16.4084685475090417   F   F   F
 21.7014705974270576 12.5750734477403636 16.3957550714575646   F   F   F
 13.7711637342879758 12.4980572872545945 16.4776894574607553   F   F   F
 13.8781754629802840 18.1866107770012349 16.5134222060516720   F   F   F
 13.7999761273722292  6.9559669704078715 16.3687301673852943   F   F   F
 13.7811000260772385  1.4147224950785480 16.4175093399253278   F   F   F
  5.9879835383203011 18.1240798050182974 16.5176590547825803   F   F   F
  5.9722155971977609 12.4718150939048247 16.3101541948645092   F   F   F
  5.9056606352383643  7.0009535862697518 16.3787943804675464   F   F   F
  5.9509986769531205  1.3897360515151318 16.4098525073257235   F   F   F
 17.7172985588182570 18.0376752975155199 16.3715067813933217   F   F   F
 17.6691800922685225 12.4459741603997589 16.3382136465083363   F   F   F
  9.8238337948372649 18.1472849366835476 16.4765295616643250   F   F   F
 17.7109190713873765  1.3316206362093288 16.3386014365247867   F   F   F
 17.7056019322679710  6.9454264787940501 16.4403596737996516   F   F   F
  9.8467997952072857  7.1314590579371178 16.5771088306200376   F   F   F
  9.9448300700932641 12.6119528064783388 16.6586058637058834   F   F   F
  9.8581198670703039  1.4639179161604252 16.4335925861883894   F   F   F
  2.0109761950869776 18.1413291296969135 16.4199560026131195   F   F   F
  1.9507779874769833 12.5910078708245887 16.3897188535658778   F   F   F
  2.0471433943101127  6.9934874600143404 16.4064087954768567   F   F   F
  1.9482453749547801  1.4113168552390072 16.4265889477951816   F   F   F
 21.6736610483597865 20.9495916590940396 16.3814933287159512   F   F   F
 21.6174541703949465 15.3875776930191286 16.3488060501188706   F   F   F
 13.8018745667416241 20.9475030273545180 16.3692465198019548   F   F   F
 21.7066430355239213  4.2133485960352202 16.3654828482631949   F   F   F
 21.6749700229368045  9.7605365555777670 16.3756549363047768   F   F   F
 13.6508593510330698  9.7311850527198285 16.5566836150560022   F   F   F
 13.7249416077099831 15.3157546835693665 16.4090026706060605   F   F   F
  5.9554391594615073 20.9124250790121131 16.3584088065898499   F   F   F
 11.7781953712484739 11.2611589977344657 18.2680173148478531   F   F   F
 11.8024697011563173  5.6493169446323233 17.7122663908539373   F   F   F
 11.8080805223117693 22.2912725400667711 17.7488439446507016   F   F   F
 17.8224007435646996 15.4793910165562103 19.6993656937692734   F   F   F
 17.7130814723073762 20.9061297589410167 19.1969158990859334   F   F   F
  6.0028216578007898  4.1603658269719137 19.2350924045486096   F   F   F
 17.6503558530757623  4.3346332527170004 19.4030272781461548   F   F   F
 17.8852048576607991  9.7141649042250524 19.1614160220217613   F   F   F
  9.8552172402064890 20.7681234340250107 19.1902477989038225   F   F   F
  9.9811497464737329 15.0626175154921960 18.9551218606420697   F   F   F
 13.9741135570883035 18.0855874455957988 19.3647686567135118   F   F   F
 21.6881856702354590  1.3929270866390553 19.2432172880105057   F   F   F
 21.6157357353775268 12.5311755099840276 19.2741995676758471   F   F   F
 21.6667914353130371  6.9615672276889304 19.1847488305222740   F   F   F
 21.6330296410959733 18.1366597498389979 19.2474842444751459   F   F   F
 13.7732882690208456  1.4506864823941046 19.1894954860093847   F   F   F
 13.8062055016401892  7.1307881411340395 19.0303710265317250   F   F   F
 14.0070296602696480 12.6073475362620488 19.1818729424002328   F   F   F
  5.8452191185877798 12.8178594374357253 18.8509438065221744   F   F   F
  6.2063750790652268 17.8308191542149999 19.3790740824029584   F   F   F
  5.8992266417417865  7.0649390606733959 19.2367722050790348   F   F   F
  5.9420207380578898  1.3196878994161643 19.2579882598259999   F   F   F
 21.6982156369999721 12.5533272030000536 10.8156001569999933   F   F   F
 11.8252885371990679  8.3487235189907860 14.9960207583504932   F   F   F
 11.8360693456895021 19.4778653990089445 15.0222814810418690   F   F   F
 11.8497937123839421 13.8540524504735103 15.0017770862304438   F   F   F
 19.7016942859790412 13.9041804553370216 14.9986039717182003   F   F   F
 19.7111159310512853 19.5110374055859346 14.9542473332333010   F   F   F
 19.7082909607575587  8.3254457512009150 14.9846209976942681   F   F   F
 19.7146159906467524  2.7781295902342129 14.9906118076904455   F   F   F
  3.9470389329749511  8.3962087644755510 14.9320052694686130   F   F   F
  3.9708966379329613 13.9344127748720386 15.0001507122075033   F   F   F
 13.7491821994978345  9.7936472437732878 19.3916228197650717   F   F   F
 13.7344066111183736 15.2945907456199137 19.1644268916299580   F   F   F
 21.7095924689584265  4.1639918314729130 19.2188802873048949   F   F   F
 13.7774855223148833 20.8630280760993401 19.1771825159815670   F   F   F
 19.6596194691755244 16.7511132828211480 17.7847303785990860   F   F   F
 19.6845791689721352  5.5321059219713939 17.7444321338922144   F   F   F
 19.7282100493761199 11.2335283444775396 17.6735167269159952   F   F   F
 19.6979253196313842  0.0454353325186713 17.7673137644644861   F   F   F
 11.8770920871352885 16.8754682621530883 17.7654982148158531   F   F   F
  9.8808536913108878  1.4038771205920009 19.2218524848790153   F   F   F
 10.1171756156169135  6.8133709706434527 19.6545490011641810   F   F   F
  9.8160285501174585 17.9734137878863685 19.3285978732593229   F   F   F
  9.3967960271026119 12.2953860856238357 19.5628083836357476   F   F   F
 17.8269187217407108 12.7211129927663400 19.0451424187828451   F   F   F
 17.5415819925353382 18.0747576440761684 19.1989317707362055   F   F   F
 17.6710486133268851  6.9728368772729716 19.2052510334115496   F   F   F
 17.6948164374461072  1.4944336305075345 19.1772481151205128   F   F   F
  1.9859304049499082  6.9565834974722556 19.2122314780850125   F   F   F
 15.7766639215094315 19.5233823833106150 14.9865414821058085   F   F   F
  2.0562150762475881 12.5352643338326999 19.2587534529732558   F   F   F
  1.9787427163149593  1.3485996895097594 19.2450878694618552   F   F   F
  2.0614899346679652  9.7417556701737613 19.1918016652016341   F   F   F
  1.9876008349493615  4.1376535236118963 19.2298222038154378   F   F   F
  9.9038655658695784  4.1916238361136360 19.1942530708493599   F   F   F
  9.8268687462409599  9.3539700648853774 18.8946279504130814   F   F   F
  1.9910370842292087 20.8726393625256286 19.2236974828709251   F   F   F
  1.9650483534763352 15.3329725771856431 19.1953137478204034   F   F   F
 21.5997985746312509  9.7322383475663710 19.1914416678148818   F   F   F
 21.6968696903886418 15.3426007720202620 19.1927874754269041   F   F   F
 21.6377655463201961 20.9045839330396070 19.2263044090426618   F   F   F
  5.7019830211471518  9.8776014092138080 19.2573707998984176   F   F   F
  6.2064034511307007 15.1195439292120462 19.9029742704297803   F   F   F
 13.6914495405844114  4.2458894268881489 19.3237082947427226   F   F   F
  5.9621059446992302 20.7489370834681743 19.1223797123104049   F   F   F
  1.9886167018766943 18.1174552374225080 19.2550939776478138   F   F   F
 21.6982156369999721 18.1325837370000720 10.8156001569999933   F   F   F
  0.0160971929437572  2.7426511513042144 18.5712395437081490   F   F   F
 19.7256482699999580 13.9481413360000008 12.2103998060000407   F   F   F
 23.6616617875932285 11.1705729116776276 15.2169649863832763   F   F   F
  7.8430090795078860 11.1444551481037646 15.0285184196624684   F   F   F
  7.8148049840171483  5.5344886889935392 15.0854299627611361   F   F   F
  7.8871827945623041  0.0216139636464134 15.1788495127934802   F   F   F
  7.9085118987500183 16.7583252961431697 15.0536639937772261   F   F   F
 15.7600960080532246  0.0042019635222570 15.1682968292822693   F   F   F
 15.8256996710000450 11.1521114358109052 15.0254744505969970   F   F   F
 15.7856407806156636  5.5259873934682107 15.0922482877955932   F   F   F
 15.7554846793053542 16.7787160753643825 15.0635468474504428   F   F   F
  3.9302682316970987  0.0250010929305194 15.1947514330329057   F   F   F
  3.9397983949605679  5.5401016531392022 15.1859827447820948   F   F   F
  3.8686504033939548 11.1545708320437260 15.0643771160606192   F   F   F
 11.8274729296046495 22.3011189150298783 15.1752743679396414   F   F   F
  3.8911681429691254 16.7711373718918182 15.1023403249602151   F   F   F
 11.8590683453988586 16.7977649189405938 15.1154175353170590   F   F   F
 19.7458913801339584  0.0087538382859375 15.1943643798620958   F   F   F
 11.8658991189635863 11.1528116770769419 15.0091420547558645   F   F   F
 11.8596424132620868  5.5296102285707365 15.0620156652578601   F   F   F
 19.7752283524263746  5.5421560540198493 15.0971499436260910   F   F   F
 23.6648362277128612 16.7529050026850328 15.1974013963090524   F   F   F
  0.0203904130789789  5.5739392832679089 15.1770346925779602   F   F   F
 -0.0005767389947241 22.3169652474964089 15.1926198662777328   F   F   F
 19.7256482699999580 19.5273965409999306 12.2103998060000407   F   F   F
  0.0000000000000000 13.9481413360000008 12.2103998060000407   F   F   F
  0.0000000000000000 19.5273965409999306 12.2103998060000407   F   F   F
  7.8902602960000570  2.7896282670000101 12.2103998060000407   F   F   F
  7.8902602960000570  8.3688848019999824 12.2103998060000407   F   F   F
  7.8902602960000570 13.9481413360000008 12.2103998060000407   F   F   F
  7.8902602960000570 19.5273965409999306 12.2103998060000407   F   F   F
 15.7805205919999434  2.7896282670000101 12.2103998060000407   F   F   F
 15.7805205919999434  8.3688848019999824 12.2103998060000407   F   F   F
 15.7805205919999434 13.9481413360000008 12.2103998060000407   F   F   F
 19.7900991537403428 11.1556386863612307 15.0901461199037428   F   F   F
 15.7805205919999434 19.5273965409999306 12.2103998060000407   F   F   F
  3.9451301480000271  8.3688848019999824 12.2103998060000407   F   F   F
  3.9451301480000271 13.9481413360000008 12.2103998060000407   F   F   F
  3.9451301480000271 19.5273965409999306 12.2103998060000407   F   F   F
 11.8353900909999528  2.7896282670000101 12.2103998060000407   F   F   F
 11.8353900909999528  8.3688848019999824 12.2103998060000407   F   F   F
 11.8353900909999528 13.9481413360000008 12.2103998060000407   F   F   F
 11.8353900909999528 19.5273965409999306 12.2103998060000407   F   F   F
 19.7256482699999580  2.7896282670000101 12.2103998060000407   F   F   F
 19.7256482699999580  8.3688848019999824 12.2103998060000407   F   F   F
  3.9451301480000271  2.7896282670000101 12.2103998060000407   F   F   F
  0.0000000000000000  8.3688848019999824 12.2103998060000407   F   F   F
 19.7848233341394248 16.7740939961203921 15.0774862168307724   F   F   F
 19.8150913496311070  8.3124264743115202 18.1306598418308909   F   F   F
 19.6923365367344090 19.5442503859888781 18.5494321209402528   F   F   F
 19.9010112183448875 13.9836620062365142 18.0910408485992171   F   F   F
 23.6443640819833760 19.5223784584186681 18.6545042896889619   F   F   F
  7.8617498768650513  2.6611401097095131 18.4162445761444147   F   F   F
  7.9111388539489340 13.9402908673688195 17.8676288409071518   F   F   F
  7.7158434224409067  8.3419534589943094 17.7845348907956939   F   F   F
 15.8816871910999833  8.3006574676729912 17.8278345450036682   F   F   F
 15.7400402447269876  2.7699053530089333 18.3500243770798370   F   F   F
  7.9010845047353140 19.5724683461780486 18.0744092753164161   F   F   F
  3.7430419086920237 13.9863582843750507 18.0290848858023445   F   F   F
  3.9316205382077158 19.4792386133262312 18.5579669908589793   F   F   F
 11.8789756404083615  8.2872524842360829 17.8636215133437375   F   F   F
 11.8214557573312007  2.6946962244803965 18.1935177302553548   F   F   F
  3.9722334379866298  2.7329590547252560 18.6466299367640751   F   F   F
  3.8685374916729387  8.2927202178661510 18.2302558367247727   F   F   F
 15.7517397363884548 19.6546923792960158 18.2026420411971230   F   F   F
 15.7787078930789946 13.9814341641072701 17.8076300444392253   F   F   F
  0.0042142881486113  8.3674692679974054 18.6800943051956239   F   F   F
 23.6642224927134421 13.8862778921613472 19.3015158517586300   F   F   F
 19.7330266197877364  2.7838394734231464 18.5874779039771880   F   F   F
 11.8512580514870489 19.5300362943145309 18.2962991652820115   F   F   F
  0.0000000000000000  2.7896282670000101 12.2103998060000407   F   F   F
 11.9382985215550743 13.9446755082095404 17.8037913163060217   F   F   F
 21.6863475469023612 22.3139687314891191 18.1122574173811159   F   F   F
 13.8413118216512334 16.7369493851678861 17.9816379805350905   F   F   F
 13.9847536418329650 11.1787762208134325 17.8157593733134370   F   F   F
  5.7367825545177658 11.1241457116009617 17.8181051072935048   F   F   F
  5.9024376261355549 16.7911154656436601 17.7628602306664938   F   F   F
 13.8233653237623617  5.5124490233538062 17.9143382169946754   F   F   F
 13.7842499779609966  0.0017810140459813 18.1293439510358034   F   F   F
  5.9099431921227197 22.2472861317779262 18.1240776611313450   F   F   F
  5.9008944452247052  5.4886765492631522 18.1138726793786908   F   F   F
  9.8652662081233853 -0.0460764823942787 18.1754990213274965   F   F   F
  9.8174203576225363  5.5481165953614555 17.7390744595532013   F   F   F
  9.8691740500724752 16.7574789090519758 17.8516346030580380   F   F   F
 17.9096941915133385 11.2191858022371527 17.8697619157906189   F   F   F
 17.7982836478069331 16.7926383232738630 17.7200757025273390   F   F   F
 17.8455452538192425  5.5322326200504577 17.8246838873731193   F   F   F
 17.7398533414282866  0.0370628821948839 18.1240009368547810   F   F   F
  1.9833208864940002  5.5331466105866882 18.1112956984552511   F   F   F
  1.9246789811249843 11.1604715658141078 18.1064447419292058   F   F   F
  1.8975568252311248 16.7528920932276257 18.0952896124841160   F   F   F
  1.9697758076116152 22.2761269687803320 18.1041025279699639   F   F   F