Au  C  H  O Sr Ti                       
   1.00000000000000     
    23.6707801818999997    0.0000000000000000    0.0000000000000000
     0.0000000000000000   22.3170261383000010    0.0000000000000000
     0.0000000000000000    0.0000000000000000   30.0000000000000000
   Au   C    H    O    Sr   Ti
    50     2     4   264    72    72
Selective dynamics
Direct
  0.7133139156226470  0.5320322731247943  0.7547277253216642   T   T   T
  0.5697377509125247  0.5128202038336501  0.8578092081771689   T   T   T
  0.6414534318665885  0.1813115985458973  0.7425168143354492   T   T   T
  0.4712031808830178  0.4532323838410898  0.8776646776597894   T   T   T
  0.5229010625362441  0.3812850234365437  0.7340659587375449   T   T   T
  0.2808194944442747  0.3416900954656226  0.7026766613119966   T   T   T
  0.6694707651161661  0.6828921204862974  0.7482340310196594   T   T   T
  0.3968405186755082  0.3824084566356146  0.6907322649150079   T   T   T
  0.4507753593520513  0.5789961745758679  0.7040145194808161   T   T   T
  0.3751456154431199  0.4960288437105148  0.8336351389563819   T   T   T
  0.3226063534082730  0.4170990689430317  0.7710123963934999   T   T   T
  0.3703108400994521  0.6217799616900535  0.8203138224265565   T   T   T
  0.4145013095151266  0.6951336034527463  0.7002347601806094   T   T   T
  0.7724154305606560  0.4381058086536618  0.7936420723030767   T   T   T
  0.2577559228251524  0.5945173231969019  0.6944131471985208   T   T   T
  0.6364301546816300  0.4364316118113102  0.7066107231596075   T   T   T
  0.5622612958565636  0.6424274799751811  0.8648623415066208   T   T   T
  0.5394421893234475  0.6670946238556316  0.7022135871196604   T   T   T
  0.4391423320116536  0.4698281338854647  0.7547146545794307   T   T   T
  0.3763677019771631  0.7430100072148569  0.7801410800709382   T   T   T
  0.4612752148489623  0.5760273066822988  0.8676872857148034   T   T   T
  0.6504079032518068  0.4461721198644913  0.8078625924343926   T   T   T
  0.7062754181923036  0.7578791256774650  0.6875287262225106   T   T   T
  0.6995405732847216  0.3491792706184457  0.7598509648636218   T   T   T
  0.2899173883787310  0.5405351379718533  0.7777727043017163   T   T   T
  0.6142778204304919  0.3111387418769532  0.6990947176428206   T   T   T
  0.5381286958552330  0.2114211716815827  0.7056572832512086   T   T   T
  0.2947424466246854  0.7471806579736171  0.6950899568017840   T   T   T
  0.5035690821793362  0.6122783816205628  0.7792825917082022   T   T   T
  0.5778061072236342  0.7241399970196114  0.7944199973091677   T   T   T
  0.2393146032669662  0.4701866534171441  0.7106449850667704   T   T   T
  0.2893382645990413  0.6646453538280975  0.7631093613628767   T   T   T
  0.6009837700864127  0.2862827751695223  0.7873773624884507   T   T   T
  0.5133225319390289  0.4847058539492484  0.6770618799529948   T   T   T
  0.5539434743501149  0.4975479608947705  0.7636330120721817   T   T   T
  0.4830391130163804  0.2727109961462739  0.7728553308243616   T   T   T
  0.5478967942844382  0.3842762805037762  0.8283244995252131   T   T   T
  0.3919185157295625  0.8171230336558467  0.7066081820864308   T   T   T
  0.4630538534144587  0.7022091615291323  0.8363654836217954   T   T   T
  0.4225813230080706  0.2279592630616258  0.6990975871668619   T   T   T
  0.3669116194433923  0.3019049358243950  0.7577554631384904   T   T   T
  0.3466621079361557  0.5007103622791443  0.6962105539518763   T   T   T
  0.4276123903592691  0.3723738756581307  0.8170379238425091   T   T   T
  0.5957962348864075  0.7841663016150434  0.7127268509744140   T   T   T
  0.6294340254813419  0.5905340056368903  0.8002395235778692   T   T   T
  0.7324824566113899  0.6176379222279176  0.6930729268576512   T   T   T
  0.4867058408238568  0.7766498061596459  0.7549198191514578   T   T   T
  0.7570495008131388  0.4368190494306437  0.7039266733526542   T   T   T
  0.7469616123266219  0.2384809966071768  0.6969704542874746   T   T   T
  0.6225626709837305  0.5692579911212751  0.7029566896862117   T   T   T
  0.7638198608866715  0.2831385401719310  0.7542145416348557   T   T   T
  0.7273107685546711  0.1656261463767739  0.7362667370646364   T   T   T
  0.7596424667669985  0.2578253616990503  0.7851722732198976   T   T   T
  0.8039937933648018  0.3070536230194865  0.7525478343192966   T   T   T
  0.7477718707801603  0.1635580639377988  0.7686831335548447   T   T   T
  0.7327543946045676  0.1247510287555525  0.7166052020848885   T   T   T
  0.7501686305791471  0.1873214942683740  0.4535537609109896   T   T   T
  0.5828261662627309  0.0624975563693206  0.5459224518622646   T   T   T
  0.5850332063245038  0.8145895942700392  0.5506296638762719   T   T   T
  0.7471516312779349  0.3136944476584572  0.5489225536284257   T   T   T
  0.5810416075607843  0.5602989415221538  0.5489824784897493   T   T   T
  0.2526552549372421  0.5590778910515793  0.5438941832360012   T   T   T
  0.4161124376059202  0.3188485700638453  0.5524618194234490   T   T   T
  0.5767241589098240  0.4361570295260493  0.5515591203800683   T   T   T
  0.4165430993519152  0.0649917868299477  0.5470792832164243   T   T   T
  0.0854489454381984  0.8125845555101623  0.5473684747374159   T   T   T
  0.0847375321010509  0.3134265345763691  0.5471406621671533   T   T   T
  0.4994982508014492  0.7564481953090584  0.5925730164152152   T   T   T
  0.0824952174261683  0.0630909280872839  0.5474339750740245   T   T   T
  0.9144231763601521  0.6886902061218155  0.5455736755331730   T   T   T
  0.5839051797386000  0.9379420790685706  0.5460862751141240   T   T   T
  0.9164824657062787  0.1879221454188937  0.5454744538945173   T   T   T
  0.9153965674642955  0.4374609120815267  0.5457096407574594   T   T   T
  0.5789889639786971  0.6860952689587577  0.5475571126473476   T   T   T
  0.2515004389342669  0.9372288367068361  0.5451818046662300   T   T   T
  0.4970062095335099  0.5048025487830596  0.6085518878437198   T   T   T
  0.9177174951413739  0.5637410582290671  0.5471536323641445   T   T   T
  0.4196571549627949  0.5644634686636165  0.5552206647121118   T   T   T
  0.9156073291564898  0.8125776454007978  0.5468401670930079   T   T   T
  0.0841382867059308  0.9383758165006574  0.5460272112621897   T   T   T
  0.2487760457990355  0.6832123744413702  0.5514856253170056   T   T   T
  0.7483245520505558  0.9343931446102350  0.5470083779223657   T   T   T
  0.7514520837222968  0.6808537973025690  0.5529352843701594   T   T   T
  0.9159413194157549  0.9382623151748125  0.5461004459342949   T   T   T
  0.4176274755164409  0.0653439294537305  0.6398478088722311   T   T   T
  0.5826805481458922  0.9371594981009342  0.4543156463324772   T   T   T
  0.2533166915534839  0.8126325106061958  0.5504442726665484   T   T   T
  0.5840204097920825  0.3112771123470498  0.5461660546429562   T   T   T
  0.7527586031226401  0.4366130575049297  0.5481398959934811   T   T   T
  0.0855296279066858  0.6890839023761720  0.5454039637728543   T   T   T
  0.0829341344084904  0.4388378078683656  0.5448181934854226   T   T   T
  0.0836953710038546  0.1888701970635260  0.5456546783623021   T   T   T
  0.4998131747634867  0.1256534918954781  0.4996024197038196   T   T   T
  0.9994433743086611  0.4980538017168242  0.5939971255660481   T   T   T
  0.5812385846472577  0.1860275883729412  0.5495925258944230   T   T   T
  0.0001405733994382  0.7535842063813731  0.5927149265711773   T   T   T
  0.3340202721680699  0.9998844205860102  0.5919242251089080   T   T   T
  0.9999820967492270  0.9983659697904625  0.5926240923240289   T   T   T
  0.0000903237241094  0.2477125160978987  0.5924276155631423   T   T   T
  0.3330667073517067  0.4955965576815756  0.5912327063755951   T   T   T
  0.3347052430098775  0.7402997179647250  0.5901933828453193   T   T   T
  0.6652049427794299  0.2462180666741445  0.5911349548934252   T   T   T
  0.6659064815495471  0.0000279591668241  0.5918184146959814   T   T   T
  0.6647858385930674  0.7419492763070497  0.5906388854812035   T   T   T
  0.6668073950398289  0.4948506883327087  0.5909026691014423   T   T   T
  0.1674158217023587  0.9985269479319931  0.5922232202072187   T   T   T
  0.1683482112286485  0.2494353434656995  0.5932464185181459   T   T   T
  0.1709682117349924  0.7501631392534418  0.5947913998174121   T   T   T
  0.2480240237850021  0.4355503416286948  0.5495223044778429   T   T   T
  0.1653536191248050  0.5036510915400351  0.5871899131498551   T   T   T
  0.3346052482705451  0.2538861778427816  0.5919848488001394   T   T   T
  0.4996128099482800  0.0000185601368552  0.5909936723432335   T   T   T
  0.8326051886317135  0.8741286584081132  0.4988518464292199   T   T   T
  0.7473218660178833  0.9336605711147788  0.6399946641780685   T   T   T
  0.8322112279632784  0.9977148293846424  0.5922209101424273   T   T   T
  0.7500371743735831  0.1868853912183594  0.5467072837752638   T   T   T
  0.4227375469294380  0.6872400795295175  0.5469840050022120   T   T   T
  0.4231895984017728  0.4432741860210972  0.5460843564865328   T   T   T
  0.0833333358191695  0.3124999999901945  0.3605200052333331   F   F   F
  0.4116157091442806  0.8128535343558846  0.6391449535317074   T   T   T
  0.9153313276644875  0.0618986380748233  0.6399195585225819   T   T   T
  0.9142919900792746  0.5623717802435012  0.6406811806809140   T   T   T
  0.4173430587001372  0.9350251992314798  0.6398515277589684   T   T   T
  0.7412233255294551  0.8106611530652023  0.6395324607513827   T   T   T
  0.7510107190353066  0.3062094757047183  0.6444955089399262   T   T   T
  0.7489300121912230  0.0624795426452446  0.6401448756949732   T   T   T
  0.0833075299600942  0.3115660343209888  0.6404093033741056   T   T   T
  0.6662427738248667  0.8742027992102986  0.4988154708770531   T   T   T
  0.0857604338505190  0.5626410770260089  0.6398273448245576   T   T   T
  0.0872670593374089  0.4363535450525271  0.6396147460429353   T   T   T
  0.0836262257227428  0.1854943979866726  0.6411893641332181   T   T   T
  0.4170695024094070  0.1869102191091079  0.6396812465387430   T   T   T
  0.4160408929999255  0.4180801786600388  0.6301907831647223   T   T   T
  0.0846753524739345  0.9357963871788963  0.6410187328968036   T   T   T
  0.0833177726046444  0.6868685166887778  0.6387991786895959   T   T   T
  0.0836320531491292  0.0607486484470333  0.6415880871185680   T   T   T
  0.8330577398923510  0.5030890515196835  0.5897299240036622   T   T   T
  0.9121184886817704  0.4354137471891297  0.6400449689611550   T   T   T
  0.8307340678906413  0.7513836799718704  0.5924170736873833   T   T   T
  0.8319023070204494  0.2493879866112060  0.5904047428816088   T   T   T
  0.7472462422995919  0.1860038094840085  0.6402093305952381   T   T   T
  0.9166666865332829  0.8124999999834799  0.3605200052333331   F   F   F
  0.5814847094169616  0.9355532116421299  0.6393210048851410   T   T   T
  0.0852344456029802  0.8121528032036790  0.6427799869535394   T   T   T
  0.5774488350506769  0.1911106226246396  0.6442957319787771   T   T   T
  0.2538036221740065  0.6786375109294833  0.6624625006431984   T   T   T
  0.2391406767708782  0.4440523426957523  0.6427238196575868   T   T   T
  0.9155678116094842  0.9366591361370841  0.6415928973613465   T   T   T
  0.9161392187716139  0.6872706347549289  0.6385152319311237   T   T   T
  0.2519418322209377  0.9304676173411426  0.6373626543990880   T   T   T
  0.2535400464308705  0.1867438276212638  0.6412826486014940   T   T   T
  0.3975674700460529  0.5502455501861574  0.6518787053579314   T   T   T
  0.4174315772039038  0.1905628784161955  0.5473044098108152   T   T   T
  0.7526007806277882  0.5688907580572858  0.6356242168126278   T   T   T
  0.4998878053412042  0.8735229471795228  0.5008301603770805   T   T   T
  0.9152327118112263  0.3105755273058263  0.6402064353136272   T   T   T
  0.9142050152931107  0.8125293119668997  0.6425840342579020   T   T   T
  0.5827886116383350  0.0661423470620982  0.6387737949220323   T   T   T
  0.2493340054425311  0.3134930540514896  0.5457009385170911   T   T   T
  0.5906637196889917  0.5660087249375860  0.6386552924819214   T   T   T
  0.2476874565764461  0.5740903357032215  0.6287405213718538   T   T   T
  0.7535910934329146  0.6943584908383763  0.6545483257664247   T   T   T
  0.2625332593844138  0.8011910026445924  0.6457273411104093   T   T   T
  0.2510053799099398  0.0595970840676702  0.6420296469592153   T   T   T
  0.9166666865332829  0.5625000000092442  0.3605200052333331   F   F   F
  0.4997304943586744  0.3729346620443137  0.5007659306833095   T   T   T
  0.5001023216463115  0.6209526608043938  0.4999307296329463   T   T   T
  0.8323712686683818  0.6230834805746052  0.5000833173549418   T   T   T
  0.2516930429580500  0.1879426620433088  0.5473758440521643   T   T   T
  0.8326070055298793  0.3728832776759926  0.4995008738190276   T   T   T
  0.8331548747914648  0.1242491810018815  0.4990012571398388   T   T   T
  0.1664840725825063  0.3758318970921175  0.4978386212051225   T   T   T
  0.1674545191779861  0.6240344909256640  0.5001452467902257   T   T   T
  0.5806330382287671  0.4394661280355051  0.6452323808297969   T   T   T
  0.5766151385701742  0.6863134239807299  0.6398833153854290   T   T   T
  0.9136704079474708  0.1847885321935057  0.6396830014891278   T   T   T
  0.2504581172953448  0.3172954288666716  0.6407066633238281   T   T   T
  0.1677256891886367  0.8732982053322559  0.4998282463418816   T   T   T
  0.9157319163037528  0.4370534353068641  0.4535734077579808   T   T   T
  0.1670873026478608  0.1242978920049148  0.4993283304476221   T   T   T
  0.7496114596851566  0.0615794451628821  0.5461073508287959   T   T   T
  0.4210024167891912  0.3033429012281810  0.6557372563842911   T   T   T
  0.5898502602474549  0.8104789535476699  0.6460605373802215   T   T   T
  0.4201159913664307  0.6760554066862422  0.6339829409946280   T   T   T
  0.7525073730861053  0.4339179716633841  0.6374002343999972   T   T   T
  0.4991241403867295  0.2544249752527720  0.5917211795592242   T   T   T
  0.5889268697630072  0.3197129658219257  0.6344921687407857   T   T   T
  0.9160332597026719  0.1867059286720384  0.4530180748859872   T   T   T
  0.6652681525517192  0.6261077819606270  0.5029815783074240   T   T   T
  0.5845612389839440  0.5624717930803486  0.4550034441575800   T   T   T
  0.5833296994885774  0.0634988628936365  0.4540958903600915   T   T   T
  0.9166666865332829  0.6874999999963620  0.3605200052333331   F   F   F
  0.9166666865332829  0.4374999701794380  0.3605200052333331   F   F   F
  0.9166666865332829  0.1875000000030838  0.3605200052333331   F   F   F
  0.5833333134730552  0.9375000000154046  0.3605200052333331   F   F   F
  0.5833333134730552  0.6874999999963620  0.3605200052333331   F   F   F
  0.5833333134730552  0.4374999701794380  0.3605200052333331   F   F   F
  0.5833333134730552  0.1875000000030838  0.3605200052333331   F   F   F
  0.2499999999799343  0.9375000000154046  0.3605200052333331   F   F   F
  0.9166666865332829  0.9375000000154046  0.3605200052333331   F   F   F
  0.2499999999799343  0.6874999999963620  0.3605200052333331   F   F   F
  0.2499999999799343  0.1875000000030838  0.3605200052333331   F   F   F
  0.7499999404149307  0.9375000000154046  0.3605200052333331   F   F   F
  0.7499999404149307  0.6874999999963620  0.3605200052333331   F   F   F
  0.7499999404149307  0.4374999701794380  0.3605200052333331   F   F   F
  0.7499999404149307  0.1875000000030838  0.3605200052333331   F   F   F
  0.4166666269218169  0.9375000000154046  0.3605200052333331   F   F   F
  0.4166666269218169  0.6874999999963620  0.3605200052333331   F   F   F
  0.4166666269218169  0.4374999701794380  0.3605200052333331   F   F   F
  0.2499999999799343  0.4374999701794380  0.3605200052333331   F   F   F
  0.0833333358191695  0.0625000000159659  0.3605200052333331   F   F   F
  0.9152953929198182  0.6868593995606320  0.4533179314419015   T   T   T
  0.6655286735286462  0.3786387465735946  0.5029757080428464   T   T   T
  0.3344138054274841  0.3783833190718780  0.5031498297094193   T   T   T
  0.3354507950123957  0.6255872212509968  0.5035074454516296   T   T   T
  0.9161856380207276  0.0622931481473792  0.5465603444404048   T   T   T
  0.7496293531652265  0.9374990980945399  0.4548910060164575   T   T   T
  0.2499665758351728  0.9360977724833330  0.4539847242883294   T   T   T
  0.2500105755247690  0.1887094090790719  0.4543551917230081   T   T   T
  0.7490461764945003  0.6886960054984818  0.4571879473389893   T   T   T
  0.2505813344422549  0.0620837298225118  0.4541598904740448   T   T   T
  0.4170212566056816  0.9362811959082235  0.4541185808760346   T   T   T
  0.4158360976775571  0.9367750982578947  0.5461895323478533   T   T   T
  0.4171889399342956  0.6851733365639260  0.4550213730297711   T   T   T
  0.4172736119001679  0.4355405856414012  0.4542206567374670   T   T   T
  0.0843095733958861  0.6869503948748769  0.4531446431343395   T   T   T
  0.0839661780144160  0.9368630686525073  0.4536450594424466   T   T   T
  0.0827236855126216  0.4368124834117389  0.4528188770461444   T   T   T
  0.0838426925964458  0.1865935134686443  0.4529806243321501   T   T   T
  0.9165359915465656  0.8121208988853679  0.4540562774869722   T   T   T
  0.7466495383658526  0.5586373401890569  0.5447367476550538   T   T   T
  0.9161081850257156  0.5622196632950167  0.4540690142815940   T   T   T
  0.9163393791605432  0.0621834622136176  0.4538504911813342   T   T   T
  0.9162654135744563  0.3121657988532617  0.4538371726162627   T   T   T
  0.4170525505852291  0.1873489357576845  0.4538629249384584   T   T   T
  0.5823880340190083  0.4386031261901463  0.4559987384695374   T   T   T
  0.2519573011121900  0.6875295718744552  0.4559595189200754   T   T   T
  0.5832147498143102  0.1895783113151458  0.4552871848938342   T   T   T
  0.0001209235801867  0.1250522107748222  0.4984869603434389   T   T   T
  0.5831350156688256  0.8103878297164344  0.4554633641759793   T   T   T
  0.9998239760931391  0.3738023899997255  0.4981396881232142   T   T   T
  0.9996219994548174  0.6270778070718976  0.4976494001113717   T   T   T
  0.3338308687672452  0.1258085057531986  0.4987928505280432   T   T   T
  0.0001435250196838  0.8749250095584040  0.4994409459376535   T   T   T
  0.3334371235390652  0.8739592391456515  0.4987908712792859   T   T   T
  0.6662188819599750  0.1255101395034600  0.4997873790857570   T   T   T
  0.2512324851604335  0.4395722050763939  0.4551780456128421   T   T   T
  0.0833333358191695  0.5625000000092442  0.3605200052333331   F   F   F
  0.9166666865332829  0.0625000000159659  0.3605200052333331   F   F   F
  0.7492850063868209  0.8130971980780706  0.4530602426482803   T   T   T
  0.7494221454801303  0.4379771289876682  0.4551838517750809   T   T   T
  0.9163906017021568  0.9369364887986592  0.4535152097488016   T   T   T
  0.9159403784917198  0.3124159696238679  0.5468132249254530   T   T   T
  0.0807006512718285  0.5643405740081578  0.5463450165993369   T   T   T
  0.5833333134730552  0.0625000000159659  0.3605200052333331   F   F   F
  0.5840975292156250  0.3146142821212258  0.4542831019485737   T   T   T
  0.7478420972619646  0.8080005050625934  0.5454555359634529   T   T   T
  0.5000000000021103  0.4999999999932783  0.4070133268666680   F   F   F
  0.0833333358191695  0.1875000000030838  0.3605200052333331   F   F   F
  0.0000000000000000  0.0000000000000000  0.4070133268666680   F   F   F
  0.0000000000000000  0.2500000000190425  0.4070133268666680   F   F   F
  0.0000000000000000  0.4999999999932783  0.4070133268666680   F   F   F
  0.7481745459768263  0.5642949911766483  0.4537739496944306   T   T   T
  0.3333333432766779  0.0000000000000000  0.4070133268666680   F   F   F
  0.3333333432766779  0.4999999999932783  0.4070133268666680   F   F   F
  0.3333333432766779  0.7500000000123208  0.4070133268666680   F   F   F
  0.6666666865533486  0.0000000000000000  0.4070133268666680   F   F   F
  0.6666666865533486  0.2500000000190425  0.4070133268666680   F   F   F
  0.6666666865533486  0.4999999999932783  0.4070133268666680   F   F   F
  0.8333332538436267  0.2500000000190425  0.4070133268666680   F   F   F
  0.1666666716383389  0.0000000000000000  0.4070133268666680   F   F   F
  0.1666666716383389  0.4999999999932783  0.4070133268666680   F   F   F
  0.1666666716383389  0.7500000000123208  0.4070133268666680   F   F   F
  0.5000000000021103  0.0000000000000000  0.4070133268666680   F   F   F
  0.5000000000021103  0.2500000000190425  0.4070133268666680   F   F   F
  0.5000000000021103  0.7500000000123208  0.4070133268666680   F   F   F
  0.9166666865332829  0.3124999999901945  0.3605200052333331   F   F   F
  0.3333333432766779  0.2500000000190425  0.4070133268666680   F   F   F
  0.7474445888965008  0.3127745844961936  0.4552474823445201   T   T   T
  0.0000000000000000  0.7500000000123208  0.4070133268666680   F   F   F
  0.4170171360814221  0.8104598410072482  0.4548157518259591   T   T   T
  0.7492788559459558  0.0625085836876795  0.4538174653637941   T   T   T
  0.8333332538436267  0.0000000000000000  0.4070133268666680   F   F   F
  0.5827211334168216  0.6859911539628326  0.4546484650192531   T   T   T
  0.2517905996847355  0.5647098409524662  0.4536342467443090   T   T   T
  0.1666666716383389  0.2500000000190425  0.4070133268666680   F   F   F
  0.2502537596649302  0.8107038805955783  0.4552925033022303   T   T   T
  0.6666666865533486  0.7500000000123208  0.4070133268666680   F   F   F
  0.5833333134730552  0.8124999999834799  0.3605200052333331   F   F   F
  0.2499999999799343  0.5625000000092442  0.3605200052333331   F   F   F
  0.5833333134730552  0.5625000000092442  0.3605200052333331   F   F   F
  0.2499999999799343  0.8124999999834799  0.3605200052333331   F   F   F
  0.2499999999799343  0.3124999999901945  0.3605200052333331   F   F   F
  0.2499999999799343  0.0625000000159659  0.3605200052333331   F   F   F
  0.7499999404149307  0.5625000000092442  0.3605200052333331   F   F   F
  0.7499999404149307  0.3124999999901945  0.3605200052333331   F   F   F
  0.7499999404149307  0.0625000000159659  0.3605200052333331   F   F   F
  0.4166666269218169  0.8124999999834799  0.3605200052333331   F   F   F
  0.4166666269218169  0.3124999999901945  0.3605200052333331   F   F   F
  0.7499999404149307  0.8124999999834799  0.3605200052333331   F   F   F
  0.0834340634240821  0.3119988653995142  0.4540271318663567   T   T   T
  0.4166666269218169  0.0625000000159659  0.3605200052333331   F   F   F
  0.4170995203514175  0.0619523786969121  0.4551741408496440   T   T   T
  0.0835376233153069  0.8120695140489402  0.4541597482718234   T   T   T
  0.4166666269218169  0.5625000000092442  0.3605200052333331   F   F   F
  0.4136413860655727  0.8113550464654284  0.5474285152401571   T   T   T
  0.5833333134730552  0.3124999999901945  0.3605200052333331   F   F   F
  0.0839525930243971  0.5624785315878880  0.4538836193219548   T   T   T
  0.2514400802706886  0.0623176513312670  0.5469902829997558   T   T   T
  0.8333332538436267  0.4999999999932783  0.4070133268666680   F   F   F
  0.4166666269218169  0.1875000000030838  0.3605200052333331   F   F   F
  0.0833333358191695  0.9375000000154046  0.3605200052333331   F   F   F
  0.0833333358191695  0.8124999999834799  0.3605200052333331   F   F   F
  0.0833333358191695  0.4374999701794380  0.3605200052333331   F   F   F
  0.8333332538436267  0.7500000000123208  0.4070133268666680   F   F   F
  0.4155627563047333  0.3114278704971545  0.4573244804607141   T   T   T
  0.0837991041718493  0.0619410466279951  0.4541528151969038   T   T   T
  0.4159019207140225  0.5595497890851171  0.4577282649025504   T   T   T
  0.0833333358191695  0.6874999999963620  0.3605200052333331   F   F   F
  0.2522137826885907  0.3144815582022241  0.4539068507059653   T   T   T
  0.1666666716383389  0.8749999404036828  0.4070133268666680   F   F   F
  0.5000000000021103  0.1249999999871179  0.4070133268666680   F   F   F
  0.8361573592233617  0.7514280624856837  0.5025377741643426   T   T   T
  0.8364878656224710  0.3713552612368045  0.6058665493623724   T   T   T
  0.8328134232339476  0.8758699250049248  0.6190153708577060   T   T   T
  0.1635384544944070  0.4997244456058348  0.5020521472750908   T   T   T
  0.5000000000021103  0.8749999404036828  0.4070133268666680   F   F   F
  0.3313083530892981  0.1197893662862666  0.6117533506753768   T   T   T
  0.8397546895596262  0.6264819363529039  0.6036587361048522   T   T   T
  0.5000000000021103  0.6249999999803961  0.4070133268666680   F   F   F
  0.6665924899941988  0.1219045828276920  0.6092060460805815   T   T   T
  0.8333332538436267  0.1249999999871179  0.4070133268666680   F   F   F
  0.8333332538436267  0.3750000000061604  0.4070133268666680   F   F   F
  0.9999011935687614  0.8742161969400120  0.6248055689215665   T   T   T
  0.0000000000000000  0.1249999999871179  0.4070133268666680   F   F   F
  0.9997097551430603  0.6234331434456228  0.6233901726045599   T   T   T
  0.1666666716383389  0.6249999999803961  0.4070133268666680   F   F   F
  0.3341481722242196  0.6244984657931266  0.5947057732089239   T   T   T
  0.5000958067233831  0.1216788671194911  0.6054266444357436   T   T   T
  0.8326925350167814  0.1217517663779808  0.6121517430101235   T   T   T
  0.9996708798266929  0.3747177991028513  0.6234711353931685   T   T   T
  0.6663437426442682  0.6262698814267257  0.5930547035820708   T   T   T
  0.6641578620639335  0.8799116575002721  0.6066159454363184   T   T   T
  0.1634990123699989  0.3711140970965550  0.6078852446687483   T   T   T
  0.1676341154759801  0.1228511516957105  0.6218403399629794   T   T   T
  0.1595963949159993  0.6270672286791935  0.6014586471316007   T   T   T
  0.5035729716173764  0.3711020477017745  0.5957291024193863   T   T   T
  0.1664120388557096  0.8737731337052398  0.6175875033028079   T   T   T
  0.3345630134740399  0.8789678894950900  0.6027497901432014   T   T   T
  0.6725440776714744  0.3726019524069563  0.5967887155789668   T   T   T
  0.6666666865533486  0.8749999404036828  0.4070133268666680   F   F   F
  0.5000000000021103  0.3750000000061604  0.4070133268666680   F   F   F
  0.5033819137640703  0.6246575909578660  0.5942569688555981   T   T   T
  0.0000000000000000  0.3750000000061604  0.4070133268666680   F   F   F
  0.1666666716383389  0.1249999999871179  0.4070133268666680   F   F   F
  0.5002812283115208  0.8767150769818797  0.6096612158616914   T   T   T
  0.8357926316019796  0.4994932279322739  0.5030451247251818   T   T   T
  0.9993675702047486  0.4997826332277404  0.5066321074242744   T   T   T
  0.5013024898801736  0.4996488842236793  0.5004464013663515   T   T   T
  0.6679135552359576  0.2479280935494248  0.5034464357295937   T   T   T
  0.3331873856798627  0.0009557873667293  0.5056257104065655   T   T   T
  0.3301945113116470  0.2480028526680962  0.5027829871398934   T   T   T
  0.6688070937682683  0.4994542084521841  0.5007121165606212   T   T   T
  0.8333332538436267  0.6249999999803961  0.4070133268666680   F   F   F
  0.1644724849831336  0.7512486405205449  0.5033853667256240   T   T   T
  0.6664889178108345  0.0005401987782583  0.5054873615762713   T   T   T
  0.5009853179440971  0.7527301411866733  0.5038414955945539   T   T   T
  0.6654379817902780  0.7516644064894105  0.5022061119896013   T   T   T
  0.1666666716383389  0.3750000000061604  0.4070133268666680   F   F   F
  0.3267065216671622  0.3730277799050480  0.5925283068361357   T   T   T
  0.9999455265581962  0.1231451785630819  0.6197387958837909   T   T   T
  0.8345878744103817  0.2484397144909725  0.5036585534562977   T   T   T
  0.6666666865533486  0.3750000000061604  0.4070133268666680   F   F   F
  0.3311667501889337  0.4991155968743179  0.5010120337073022   T   T   T
  0.0000000000000000  0.8749999404036828  0.4070133268666680   F   F   F
  0.1659823975456885  0.0010996268853910  0.5064598343262021   T   T   T
  0.3339817617181041  0.7510182778088109  0.5015203505661229   T   T   T
  0.5001675224250377  0.9991063074737350  0.5054467024058362   T   T   T
  0.1661779054682516  0.2483023213164376  0.5063316105325045   T   T   T
  0.0000000000000000  0.6249999999803961  0.4070133268666680   F   F   F
  0.6666666865533486  0.1249999999871179  0.4070133268666680   F   F   F
  0.8338505655357895  0.0001120082563198  0.5060797308667405   T   T   T
  0.3333333432766779  0.3750000000061604  0.4070133268666680   F   F   F
  0.3333333432766779  0.8749999404036828  0.4070133268666680   F   F   F
  0.3333333432766779  0.6249999999803961  0.4070133268666680   F   F   F
  0.8333332538436267  0.8749999404036828  0.4070133268666680   F   F   F
  0.6666666865533486  0.6249999999803961  0.4070133268666680   F   F   F
  0.0001523268525832  0.9997666798029152  0.5064229039619935   T   T   T
  0.0004040861811666  0.2495901215739691  0.5061194901445647   T   T   T
  0.0000401479307664  0.7509470727178695  0.5067284701921284   T   T   T
  0.5014584344466768  0.2480826277318951  0.5022778745054088   T   T   T
  0.3333333432766779  0.1249999999871179  0.4070133268666680   F   F   F
  0.0833333358191695  0.2500000000190425  0.4070133268666680   F   F   F
  0.7526356527540559  0.7523682414977970  0.5905485934304359   T   T   T
  0.2499999999799343  0.2500000000190425  0.4070133268666680   F   F   F
  0.0833333358191695  0.7500000000123208  0.4070133268666680   F   F   F
  0.0833333358191695  0.4999999999932783  0.4070133268666680   F   F   F
  0.0833333358191695  0.0000000000000000  0.4070133268666680   F   F   F
  0.9181297836222572  0.3740254705010387  0.5059925983100222   T   T   T
  0.9166666865332829  0.7500000000123208  0.4070133268666680   F   F   F
  0.5833311671170461  0.1232812512772603  0.5043633218182108   T   T   T
  0.7523684638809756  0.6243475409668483  0.5024359959220180   T   T   T
  0.5837775631548238  0.8758154523920653  0.5057415158032854   T   T   T
  0.9174871401175418  0.1244098463433374  0.5059215982169196   T   T   T
  0.4166666269218169  0.4999999999932783  0.4070133268666680   F   F   F