Au  C  H  O Sr Ti                       
   1.00000000000000     
    23.6707801818999997    0.0000000000000000    0.0000000000000000
     0.0000000000000000   22.3170261383000010    0.0000000000000000
     0.0000000000000000    0.0000000000000000   30.0000000000000000
   Au   C    H    O    Sr   Ti
    50     2     4   264    72    72
Selective dynamics
Direct
  0.7133075763891290  0.5320534864143889  0.7546951113018259   T   T   T
  0.5696891744343935  0.5127213333282031  0.8578293478467656   T   T   T
  0.6414570982045760  0.1812959896192460  0.7425330680385210   T   T   T
  0.4711690461195933  0.4532073688217883  0.8776875718312790   T   T   T
  0.5228696706246331  0.3813151276413134  0.7340345160572965   T   T   T
  0.2808185171788892  0.3417016375056222  0.7026791832784012   T   T   T
  0.6694998039009383  0.6828670241649446  0.7482392036355024   T   T   T
  0.3968441269982335  0.3824338728223725  0.6907270463775429   T   T   T
  0.4507630682874480  0.5789708627881029  0.7040254422632820   T   T   T
  0.3751946449405018  0.4960212038182752  0.8336399057660419   T   T   T
  0.3225867259366017  0.4171028682187650  0.7710046900684272   T   T   T
  0.3703304841685406  0.6217848453944099  0.8203315028687675   T   T   T
  0.4145073072864493  0.6951067001861602  0.7002242803934337   T   T   T
  0.7724412256541391  0.4380044951917160  0.7936255644211035   T   T   T
  0.2577636919226308  0.5944924375752980  0.6944295079685470   T   T   T
  0.6364851469654287  0.4363835313221644  0.7065814058008649   T   T   T
  0.5623414026250456  0.6423873963161706  0.8648619123490587   T   T   T
  0.5394424251051946  0.6670713821433014  0.7022083685740362   T   T   T
  0.4391534639341182  0.4698656192427842  0.7547057870820781   T   T   T
  0.3763719808985769  0.7429726322879839  0.7801476539560422   T   T   T
  0.4612446679879661  0.5759513113119848  0.8677031495842965   T   T   T
  0.6504115149271403  0.4460273633921433  0.8079300215590399   T   T   T
  0.7062682954161674  0.7578925484409395  0.6875292467889598   T   T   T
  0.6995538462252536  0.3491407307503546  0.7597577189190581   T   T   T
  0.2898813060804589  0.5404825627487765  0.7777778505121652   T   T   T
  0.6141880975128804  0.3111527431477662  0.6991085549465710   T   T   T
  0.5379877284818882  0.2113578924404557  0.7056478458987894   T   T   T
  0.2947384339131280  0.7471361697615313  0.6950852875779892   T   T   T
  0.5035810632540999  0.6122808688300130  0.7792906469349085   T   T   T
  0.5777402788584987  0.7241244397153537  0.7944268710985142   T   T   T
  0.2393190728130405  0.4701947317979175  0.7106287682154383   T   T   T
  0.2893411324225806  0.6646292555350745  0.7630893959614841   T   T   T
  0.6009381269997431  0.2862645790462988  0.7874301983585179   T   T   T
  0.5133309920458782  0.4847163728864776  0.6770941263363833   T   T   T
  0.5539485168095096  0.4975542046960404  0.7637179280877666   T   T   T
  0.4830133848902297  0.2726982036483337  0.7728750403791715   T   T   T
  0.5478492386278059  0.3842651031356735  0.8282844874437071   T   T   T
  0.3918858783665624  0.8170740865695348  0.7066040117961365   T   T   T
  0.4630610791875433  0.7022385085002288  0.8363607067196762   T   T   T
  0.4225117293089308  0.2279608360621728  0.6991125450808197   T   T   T
  0.3669061733795352  0.3019136041825471  0.7577509769799518   T   T   T
  0.3466799545782487  0.5006718548749652  0.6962097893336491   T   T   T
  0.4276354223459364  0.3724022783847069  0.8170375040880138   T   T   T
  0.5958323650423146  0.7841890682466454  0.7126894595360013   T   T   T
  0.6294708057968721  0.5904752705030640  0.8002283535226852   T   T   T
  0.7325270235013106  0.6175903060820753  0.6930596407822730   T   T   T
  0.4866730494906859  0.7766613596757607  0.7549242455360619   T   T   T
  0.7570433184436054  0.4367507264173004  0.7039402813762813   T   T   T
  0.7469981447967949  0.2384093139989968  0.6969925245689491   T   T   T
  0.6225398307474067  0.5692257827630701  0.7029513354036954   T   T   T
  0.7638502314062686  0.2829808773886163  0.7542591275388819   T   T   T
  0.7273049182337131  0.1655461243470290  0.7362039484895829   T   T   T
  0.7596067191785433  0.2577603451097816  0.7851927729287040   T   T   T
  0.8040841177489012  0.3070130761254277  0.7525563281789946   T   T   T
  0.7477797758963710  0.1635082685416774  0.7687065694342632   T   T   T
  0.7327248985874804  0.1247671354924698  0.7165716673929959   T   T   T
  0.7502061865672651  0.1873193141770950  0.4535814285463154   T   T   T
  0.5828303963786563  0.0625040400581904  0.5459160622508293   T   T   T
  0.5850195150812738  0.8146214340514059  0.5506185464584408   T   T   T
  0.7471652484384691  0.3136413641059608  0.5489606109131709   T   T   T
  0.5810484498571283  0.5602790931813333  0.5490055283814343   T   T   T
  0.2526638111927005  0.5590676898676217  0.5439089881952331   T   T   T
  0.4161052886169932  0.3188417167567152  0.5524543141904020   T   T   T
  0.5767480427160612  0.4361528672220923  0.5515530792709080   T   T   T
  0.4165338120023221  0.0650076539966865  0.5470749358434693   T   T   T
  0.0854625940751327  0.8126187194617387  0.5473603939102976   T   T   T
  0.0847231799531433  0.3134707210267134  0.5471499808287995   T   T   T
  0.4994903770596761  0.7564442193162487  0.5925859693341470   T   T   T
  0.0824604973109620  0.0630572378482610  0.5474300459299759   T   T   T
  0.9144298003270598  0.6886954365633026  0.5455732372856330   T   T   T
  0.5839315882653687  0.9379628106523424  0.5461093575507857   T   T   T
  0.9165377658589532  0.1879660281259424  0.5454381401263697   T   T   T
  0.9154261249558139  0.4374558094766911  0.5456881344545425   T   T   T
  0.5789832616479258  0.6861163703969202  0.5475626137009262   T   T   T
  0.2515226748569410  0.9371857354081361  0.5451854310182068   T   T   T
  0.4970226579436718  0.5048306735488952  0.6085667057794415   T   T   T
  0.9177083816258743  0.5637190598681721  0.5471572035719405   T   T   T
  0.4196601962266799  0.5645255249249070  0.5552010177240169   T   T   T
  0.9155761928483115  0.8126038542069830  0.5468220736332638   T   T   T
  0.0841109166836759  0.9383902400728849  0.5460095391146973   T   T   T
  0.2487699172351369  0.6832537364963011  0.5514986847675240   T   T   T
  0.7483419019488491  0.9343942564274322  0.5470465320538764   T   T   T
  0.7514869356807469  0.6808764646239815  0.5529525926821057   T   T   T
  0.9159470511125816  0.9382912203944526  0.5461168147322844   T   T   T
  0.4176323606339992  0.0653366392823704  0.6398148857935350   T   T   T
  0.5826738770080194  0.9371696124277926  0.4543048585010145   T   T   T
  0.2533263652212536  0.8126333836920477  0.5504630042852607   T   T   T
  0.5840355262455166  0.3112814402033220  0.5461591590125306   T   T   T
  0.7527567185536984  0.4366127268346146  0.5481591958786071   T   T   T
  0.0855238397761450  0.6891101787700361  0.5453987515685507   T   T   T
  0.0829458859339073  0.4388157110700130  0.5448348215118828   T   T   T
  0.0836719580971019  0.1888327854116153  0.5456383975368291   T   T   T
  0.4998441453632346  0.1256658098453417  0.4996225250299022   T   T   T
  0.9994291680625641  0.4980585840943136  0.5939826876712901   T   T   T
  0.5812732514002268  0.1860551688747723  0.5495643421250254   T   T   T
  0.0001589181599906  0.7535785771576461  0.5927267073858279   T   T   T
  0.3340257502860435 -0.0001612959335216  0.5919564035206853   T   T   T
 -0.0000325092608676  0.9983577192340244  0.5926225412243010   T   T   T
  0.0001596399038487  0.2477002822740108  0.5924031877468917   T   T   T
  0.3330639704535944  0.4955901169488870  0.5912620523453221   T   T   T
  0.3347091685709260  0.7403015322862826  0.5901971299556119   T   T   T
  0.6652553994717110  0.2462311956653002  0.5911161475418323   T   T   T
  0.6659091061499409 -0.0000026567948202  0.5918235075495282   T   T   T
  0.6647644195842071  0.7419594943279428  0.5906676567321333   T   T   T
  0.6667875931375831  0.4948439880589050  0.5908899899176897   T   T   T
  0.1674677765046396  0.9985549542590325  0.5922427279219779   T   T   T
  0.1683579659289660  0.2494420816207859  0.5932479414244088   T   T   T
  0.1709927320799289  0.7501705630256571  0.5947994397998086   T   T   T
  0.2480155843265054  0.4355338709094278  0.5495338581721113   T   T   T
  0.1653633163073353  0.5036476676392678  0.5872103913349430   T   T   T
  0.3345983805466196  0.2538686367346681  0.5919980050626832   T   T   T
  0.4996102963232111  0.0000434664435788  0.5909740922787742   T   T   T
  0.8325987824108340  0.8741146295942281  0.4988587998265650   T   T   T
  0.7473131438723651  0.9335750198456469  0.6399294244333582   T   T   T
  0.8322091405124744 -0.0023348835921866  0.5922411728010861   T   T   T
  0.7500281883671863  0.1869194255690531  0.5467248579432819   T   T   T
  0.4227001926331479  0.6872663980780900  0.5469893665657887   T   T   T
  0.4231942283730206  0.4432675996907346  0.5460644673465913   T   T   T
  0.0833333358191695  0.3124999999901945  0.3605200052333331   F   F   F
  0.4116290261320800  0.8128456259504483  0.6391302438758195   T   T   T
  0.9153057764373014  0.0618852626200500  0.6399220530780843   T   T   T
  0.9142823040173589  0.5623994244270244  0.6406923918199630   T   T   T
  0.4172942725618126  0.9350306069977673  0.6398341760692415   T   T   T
  0.7412456516581466  0.8106575201773839  0.6395321131789633   T   T   T
  0.7509757623778573  0.3063035218353801  0.6444718300321960   T   T   T
  0.7488810532788461  0.0624909552585553  0.6401407263745190   T   T   T
  0.0833099768344947  0.3115455094697241  0.6403712890530152   T   T   T
  0.6662723714583119  0.8742456502667468  0.4987823124353548   T   T   T
  0.0857835681667151  0.5626773690146215  0.6398452244657451   T   T   T
  0.0872748809172369  0.4363694608097161  0.6396274606584418   T   T   T
  0.0836410837444018  0.1854943761579984  0.6411854779334980   T   T   T
  0.4170529672217498  0.1869061268750977  0.6396690850574087   T   T   T
  0.4160420858029351  0.4181228515375581  0.6302190623340753   T   T   T
  0.0846887880511555  0.9358135611067256  0.6410349804692370   T   T   T
  0.0832994601483881  0.6868449976682081  0.6387891422413222   T   T   T
  0.0836337099893847  0.0607369781210592  0.6416091621867667   T   T   T
  0.8330629337659674  0.5030626070311306  0.5897401528572798   T   T   T
  0.9120899445112519  0.4354184613149891  0.6400595244403292   T   T   T
  0.8307649479739717  0.7514051760919080  0.5924480902155117   T   T   T
  0.8317820546306217  0.2494077730710260  0.5904175888459779   T   T   T
  0.7472471415872595  0.1860358359722927  0.6401362220793508   T   T   T
  0.9166666865332829  0.8124999999834799  0.3605200052333331   F   F   F
  0.5814684290302946  0.9355559761875746  0.6392880870094189   T   T   T
  0.0852320244697496  0.8121363107990018  0.6427697543598550   T   T   T
  0.5774005189214806  0.1911200494641214  0.6443186934969736   T   T   T
  0.2538032208628488  0.6786630789389705  0.6624314108916780   T   T   T
  0.2391687587080577  0.4440798698763674  0.6426958984919610   T   T   T
  0.9155366612785898  0.9366917265380128  0.6415774017746407   T   T   T
  0.9161574992847954  0.6872691787290768  0.6385140941325462   T   T   T
  0.2519428846605943  0.9304757762811297  0.6373684653636202   T   T   T
  0.2535459078189767  0.1867329577029223  0.6412688935643017   T   T   T
  0.3975759503966931  0.5502358155972912  0.6518930286671460   T   T   T
  0.4174369164897859  0.1905976398088207  0.5472980383773621   T   T   T
  0.7525889214539933  0.5689128460540123  0.6356262906077320   T   T   T
  0.4998898152780177  0.8735457523533889  0.5008477271336783   T   T   T
  0.9152089841243839  0.3106003593841393  0.6402327261733520   T   T   T
  0.9141745846806970  0.8125236911805178  0.6425601707171007   T   T   T
  0.5828259823091865  0.0661487559727472  0.6388049427743197   T   T   T
  0.2493158294282390  0.3134609831152164  0.5456941085667353   T   T   T
  0.5906530013652646  0.5660197977007583  0.6386699787318363   T   T   T
  0.2476887952040418  0.5740665956217025  0.6287205467672951   T   T   T
  0.7535718229723443  0.6944244726820983  0.6545391297568283   T   T   T
  0.2625041982019354  0.8012063044794572  0.6456529003232931   T   T   T
  0.2509931466308184  0.0596042221838158  0.6420167956442181   T   T   T
  0.9166666865332829  0.5625000000092442  0.3605200052333331   F   F   F
  0.4997026839983126  0.3729193376520032  0.5007541433101238   T   T   T
  0.5000965936735018  0.6209421476618832  0.4999272327665252   T   T   T
  0.8323816130189680  0.6230902709119288  0.5000791040307302   T   T   T
  0.2517228556848352  0.1879422053422315  0.5473567428631397   T   T   T
  0.8325806086012046  0.3728304686989901  0.4994851314425116   T   T   T
  0.8331190801649054  0.1242747774581445  0.4990084915595577   T   T   T
  0.1665210231140982  0.3758335447424410  0.4978527495157402   T   T   T
  0.1674312141551357  0.6240492858532727  0.5001385592410516   T   T   T
  0.5806495412834642  0.4394675186771450  0.6452634144283377   T   T   T
  0.5766192369000509  0.6863022240459494  0.6398598669162631   T   T   T
  0.9137097073892332  0.1847729728933930  0.6396650641055780   T   T   T
  0.2504493909818842  0.3173052511739231  0.6407237311625509   T   T   T
  0.1677379480297065  0.8732707409824554  0.4998223984758977   T   T   T
  0.9157146172427513  0.4370594165387738  0.4535639129524803   T   T   T
  0.1670734903921734  0.1243124147473235  0.4992999708788768   T   T   T
  0.7496082150973136  0.0615798994663727  0.5460834279904621   T   T   T
  0.4209453991508433  0.3033407453324009  0.6557224054616649   T   T   T
  0.5898309992287626  0.8104909768333777  0.6460432728520870   T   T   T
  0.4201139293978093  0.6760402612486822  0.6339523928497545   T   T   T
  0.7525148513577172  0.4338903110786579  0.6373709971317854   T   T   T
  0.4991353865245606  0.2544459495696379  0.5917344096919948   T   T   T
  0.5888904748723508  0.3197350675477084  0.6344341610782431   T   T   T
  0.9160012514874368  0.1866678146808841  0.4530494479945638   T   T   T
  0.6652905939037186  0.6261572773960062  0.5029748685541978   T   T   T
  0.5845601155671027  0.5624697378252436  0.4550286402660900   T   T   T
  0.5833257865527924  0.0635092308633552  0.4540803531102071   T   T   T
  0.9166666865332829  0.6874999999963620  0.3605200052333331   F   F   F
  0.9166666865332829  0.4374999701794380  0.3605200052333331   F   F   F
  0.9166666865332829  0.1875000000030838  0.3605200052333331   F   F   F
  0.5833333134730552  0.9375000000154046  0.3605200052333331   F   F   F
  0.5833333134730552  0.6874999999963620  0.3605200052333331   F   F   F
  0.5833333134730552  0.4374999701794380  0.3605200052333331   F   F   F
  0.5833333134730552  0.1875000000030838  0.3605200052333331   F   F   F
  0.2499999999799343  0.9375000000154046  0.3605200052333331   F   F   F
  0.9166666865332829  0.9375000000154046  0.3605200052333331   F   F   F
  0.2499999999799343  0.6874999999963620  0.3605200052333331   F   F   F
  0.2499999999799343  0.1875000000030838  0.3605200052333331   F   F   F
  0.7499999404149307  0.9375000000154046  0.3605200052333331   F   F   F
  0.7499999404149307  0.6874999999963620  0.3605200052333331   F   F   F
  0.7499999404149307  0.4374999701794380  0.3605200052333331   F   F   F
  0.7499999404149307  0.1875000000030838  0.3605200052333331   F   F   F
  0.4166666269218169  0.9375000000154046  0.3605200052333331   F   F   F
  0.4166666269218169  0.6874999999963620  0.3605200052333331   F   F   F
  0.4166666269218169  0.4374999701794380  0.3605200052333331   F   F   F
  0.2499999999799343  0.4374999701794380  0.3605200052333331   F   F   F
  0.0833333358191695  0.0625000000159659  0.3605200052333331   F   F   F
  0.9153262143243784  0.6868918883846498  0.4533132914917489   T   T   T
  0.6655048044910604  0.3786721371241242  0.5029764306111419   T   T   T
  0.3343840032255395  0.3783695313152562  0.5031663896484748   T   T   T
  0.3354558447805515  0.6255772773254309  0.5034949813124925   T   T   T
  0.9162026128949111  0.0623098630691241  0.5465899029051309   T   T   T
  0.7496300589331362  0.9375207087358693  0.4548860382423608   T   T   T
  0.2500105503255623  0.9360864669540414  0.4539734915340180   T   T   T
  0.2499691178576393  0.1887385245972060  0.4543532870412401   T   T   T
  0.7490421132301514  0.6886819422337289  0.4571873614752941   T   T   T
  0.2505800716851733  0.0620902932727454  0.4541689743848486   T   T   T
  0.4170427332568558  0.9362927333242932  0.4541237634390584   T   T   T
  0.4158176025972457  0.9367867112493945  0.5461756073692993   T   T   T
  0.4172164248496245  0.6851847272504829  0.4550299983176162   T   T   T
  0.4172757885641359  0.4355147973455534  0.4542200600702491   T   T   T
  0.0843225331361767  0.6869632169624381  0.4531566174575476   T   T   T
  0.0839637633689279  0.9368738404192731  0.4536486386149666   T   T   T
  0.0827331515160112  0.4368039381388035  0.4528148180928580   T   T   T
  0.0838756205784579  0.1865676497414315  0.4529753811973813   T   T   T
  0.9165447504493535  0.8121041846253184  0.4540476316926773   T   T   T
  0.7466341144674770  0.5586102771697254  0.5447537709333092   T   T   T
  0.9160961428362203  0.5622030337813981  0.4540654004132628   T   T   T
  0.9163275833058866  0.0621993494867351  0.4538846686907404   T   T   T
  0.9162441948362442  0.3121473132784371  0.4538484489572103   T   T   T
  0.4170496474648155  0.1873218203055122  0.4538735625448601   T   T   T
  0.5823842413040735  0.4386030459085253  0.4559640608623414   T   T   T
  0.2519698838476246  0.6875331810463133  0.4559635933480770   T   T   T
  0.5832104282895902  0.1896069178722166  0.4552951614645683   T   T   T
  0.0001027853669676  0.1250389794212673  0.4985045097990038   T   T   T
  0.5831726095275654  0.8103585665126340  0.4554385667251218   T   T   T
 -0.0001840923477503  0.3738056825695161  0.4981303941269100   T   T   T
  0.9996340916435036  0.6270795534550306  0.4976446551062145   T   T   T
  0.3338462126054842  0.1257952724704706  0.4988149610308307   T   T   T
  0.0001490636825353  0.8749254637516017  0.4994472458705586   T   T   T
  0.3334281044481335  0.8739471393103863  0.4987947603163229   T   T   T
  0.6662249625055259  0.1255071327010146  0.4997936235347454   T   T   T
  0.2512420950745007  0.4395512838889041  0.4551698248651027   T   T   T
  0.0833333358191695  0.5625000000092442  0.3605200052333331   F   F   F
  0.9166666865332829  0.0625000000159659  0.3605200052333331   F   F   F
  0.7493134967215122  0.8131423156491139  0.4530677491319006   T   T   T
  0.7494446166360238  0.4380122925346694  0.4551304634644168   T   T   T
  0.9163493572356034  0.9369389020677213  0.4535163568900262   T   T   T
  0.9159425466677255  0.3124243719177658  0.5467916271807484   T   T   T
  0.0806881388046517  0.5643507249192445  0.5463522273788218   T   T   T
  0.5833333134730552  0.0625000000159659  0.3605200052333331   F   F   F
  0.5840928687773259  0.3146148496412688  0.4542826669668397   T   T   T
  0.7478696341556381  0.8080089301882646  0.5454698138000784   T   T   T
  0.5000000000021103  0.4999999999932783  0.4070133268666680   F   F   F
  0.0833333358191695  0.1875000000030838  0.3605200052333331   F   F   F
  0.0000000000000000  0.0000000000000000  0.4070133268666680   F   F   F
  0.0000000000000000  0.2500000000190425  0.4070133268666680   F   F   F
  0.0000000000000000  0.4999999999932783  0.4070133268666680   F   F   F
  0.7481631178428136  0.5642832519642000  0.4537838238783996   T   T   T
  0.3333333432766779  0.0000000000000000  0.4070133268666680   F   F   F
  0.3333333432766779  0.4999999999932783  0.4070133268666680   F   F   F
  0.3333333432766779  0.7500000000123208  0.4070133268666680   F   F   F
  0.6666666865533486  0.0000000000000000  0.4070133268666680   F   F   F
  0.6666666865533486  0.2500000000190425  0.4070133268666680   F   F   F
  0.6666666865533486  0.4999999999932783  0.4070133268666680   F   F   F
  0.8333332538436267  0.2500000000190425  0.4070133268666680   F   F   F
  0.1666666716383389  0.0000000000000000  0.4070133268666680   F   F   F
  0.1666666716383389  0.4999999999932783  0.4070133268666680   F   F   F
  0.1666666716383389  0.7500000000123208  0.4070133268666680   F   F   F
  0.5000000000021103  0.0000000000000000  0.4070133268666680   F   F   F
  0.5000000000021103  0.2500000000190425  0.4070133268666680   F   F   F
  0.5000000000021103  0.7500000000123208  0.4070133268666680   F   F   F
  0.9166666865332829  0.3124999999901945  0.3605200052333331   F   F   F
  0.3333333432766779  0.2500000000190425  0.4070133268666680   F   F   F
  0.7474569672255823  0.3127636524645718  0.4552624224627442   T   T   T
  0.0000000000000000  0.7500000000123208  0.4070133268666680   F   F   F
  0.4170156511995276  0.8104377545815933  0.4548045233905902   T   T   T
  0.7492849225472333  0.0624669066545302  0.4538383571881150   T   T   T
  0.8333332538436267  0.0000000000000000  0.4070133268666680   F   F   F
  0.5827302126103654  0.6860321987791749  0.4546250382943765   T   T   T
  0.2517799855998821  0.5646528915475089  0.4535819049816510   T   T   T
  0.1666666716383389  0.2500000000190425  0.4070133268666680   F   F   F
  0.2502399026635477  0.8106925523057140  0.4552766482669491   T   T   T
  0.6666666865533486  0.7500000000123208  0.4070133268666680   F   F   F
  0.5833333134730552  0.8124999999834799  0.3605200052333331   F   F   F
  0.2499999999799343  0.5625000000092442  0.3605200052333331   F   F   F
  0.5833333134730552  0.5625000000092442  0.3605200052333331   F   F   F
  0.2499999999799343  0.8124999999834799  0.3605200052333331   F   F   F
  0.2499999999799343  0.3124999999901945  0.3605200052333331   F   F   F
  0.2499999999799343  0.0625000000159659  0.3605200052333331   F   F   F
  0.7499999404149307  0.5625000000092442  0.3605200052333331   F   F   F
  0.7499999404149307  0.3124999999901945  0.3605200052333331   F   F   F
  0.7499999404149307  0.0625000000159659  0.3605200052333331   F   F   F
  0.4166666269218169  0.8124999999834799  0.3605200052333331   F   F   F
  0.4166666269218169  0.3124999999901945  0.3605200052333331   F   F   F
  0.7499999404149307  0.8124999999834799  0.3605200052333331   F   F   F
  0.0834596756639825  0.3120362520865331  0.4540142337338025   T   T   T
  0.4166666269218169  0.0625000000159659  0.3605200052333331   F   F   F
  0.4171089323587591  0.0619541538533572  0.4551793669846034   T   T   T
  0.0835434526631467  0.8120702209269748  0.4541566233244215   T   T   T
  0.4166666269218169  0.5625000000092442  0.3605200052333331   F   F   F
  0.4136340318130461  0.8113650975893487  0.5474267989704154   T   T   T
  0.5833333134730552  0.3124999999901945  0.3605200052333331   F   F   F
  0.0839499608676188  0.5624896818848544  0.4538835497049989   T   T   T
  0.2514124367276816  0.0623328923897522  0.5469823689993817   T   T   T
  0.8333332538436267  0.4999999999932783  0.4070133268666680   F   F   F
  0.4166666269218169  0.1875000000030838  0.3605200052333331   F   F   F
  0.0833333358191695  0.9375000000154046  0.3605200052333331   F   F   F
  0.0833333358191695  0.8124999999834799  0.3605200052333331   F   F   F
  0.0833333358191695  0.4374999701794380  0.3605200052333331   F   F   F
  0.8333332538436267  0.7500000000123208  0.4070133268666680   F   F   F
  0.4155699349007810  0.3114418715039178  0.4573267187842912   T   T   T
  0.0837820640440834  0.0619460916454534  0.4541368653145139   T   T   T
  0.4159201136340752  0.5595422605946569  0.4577391712313219   T   T   T
  0.0833333358191695  0.6874999999963620  0.3605200052333331   F   F   F
  0.2522256749352644  0.3144879243502168  0.4539330779810930   T   T   T
  0.1666666716383389  0.8749999404036828  0.4070133268666680   F   F   F
  0.5000000000021103  0.1249999999871179  0.4070133268666680   F   F   F
  0.8361691480062743  0.7514439025797444  0.5025364821383411   T   T   T
  0.8365171234077086  0.3713496218942815  0.6058627296207675   T   T   T
  0.8327936560649467  0.8758984767066816  0.6190220551531842   T   T   T
  0.1635448378708282  0.4997188489358869  0.5020585936894539   T   T   T
  0.5000000000021103  0.8749999404036828  0.4070133268666680   F   F   F
  0.3313255926194384  0.1197811933861175  0.6117515339270797   T   T   T
  0.8397516681280266  0.6264810709128005  0.6036713577605490   T   T   T
  0.5000000000021103  0.6249999999803961  0.4070133268666680   F   F   F
  0.6666011199937196  0.1219135914358919  0.6092029533701437   T   T   T
  0.8333332538436267  0.1249999999871179  0.4070133268666680   F   F   F
  0.8333332538436267  0.3750000000061604  0.4070133268666680   F   F   F
  0.9998973003580387  0.8742120628382897  0.6248058048324893   T   T   T
  0.0000000000000000  0.1249999999871179  0.4070133268666680   F   F   F
  0.9997205627430646  0.6234312991952793  0.6233967862125399   T   T   T
  0.1666666716383389  0.6249999999803961  0.4070133268666680   F   F   F
  0.3341486015553917  0.6244970640535528  0.5947087308533130   T   T   T
  0.5000907305773289  0.1216794797184813  0.6054176643138092   T   T   T
  0.8326890498459821  0.1217615737687160  0.6121665236218944   T   T   T
  0.9996796468719839  0.3746988492131378  0.6234744957351812   T   T   T
  0.6663466127382456  0.6262676873246260  0.5930512270831363   T   T   T
  0.6641752385872124  0.8799302344013525  0.6066318551759254   T   T   T
  0.1635214640147302  0.3711226506016753  0.6078888357985313   T   T   T
  0.1676338120708605  0.1228521766272198  0.6218427964196150   T   T   T
  0.1595966863227282  0.6270642462519875  0.6014535446654306   T   T   T
  0.5035933554715876  0.3710957367168636  0.5957278725252906   T   T   T
  0.1664117935195018  0.8737845406495376  0.6175892719347291   T   T   T
  0.3345770890628494  0.8789787677138318  0.6027549643288841   T   T   T
  0.6725444209769904  0.3725751346968888  0.5967891953268797   T   T   T
  0.6666666865533486  0.8749999404036828  0.4070133268666680   F   F   F
  0.5000000000021103  0.3750000000061604  0.4070133268666680   F   F   F
  0.5033880799482532  0.6246655845671609  0.5942646369858599   T   T   T
  0.0000000000000000  0.3750000000061604  0.4070133268666680   F   F   F
  0.1666666716383389  0.1249999999871179  0.4070133268666680   F   F   F
  0.5002968729424576  0.8767334187320392  0.6096695197591885   T   T   T
  0.8357949694470473  0.4995080163654799  0.5030380160561863   T   T   T
  0.9993706625228316  0.4997798504167222  0.5066345897247011   T   T   T
  0.5013187445274440  0.4996564769296943  0.5004475965580378   T   T   T
  0.6679069970562385  0.2479281718728430  0.5034553957515997   T   T   T
  0.3331844712546543  0.0009571257211438  0.5056305739429358   T   T   T
  0.3302001050766364  0.2479990502858397  0.5027735790596489   T   T   T
  0.6688041480260825  0.4994680840234552  0.5007082064937518   T   T   T
  0.8333332538436267  0.6249999999803961  0.4070133268666680   F   F   F
  0.1644694024688942  0.7512402936602084  0.5033856888184312   T   T   T
  0.6665046139154926  0.0005582011245426  0.5054874340927678   T   T   T
  0.5009980955941443  0.7527266393549481  0.5038414233110741   T   T   T
  0.6654474818992078  0.7516774316804214  0.5022218954901041   T   T   T
  0.1666666716383389  0.3750000000061604  0.4070133268666680   F   F   F
  0.3266884562312329  0.3730335513620425  0.5925285156309910   T   T   T
 -0.0000611512013437  0.1231185651015473  0.6197288542170147   T   T   T
  0.8346042275496572  0.2484415589809799  0.5036541864141993   T   T   T
  0.6666666865533486  0.3750000000061604  0.4070133268666680   F   F   F
  0.3311550344443938  0.4991143643224160  0.5010234752891116   T   T   T
  0.0000000000000000  0.8749999404036828  0.4070133268666680   F   F   F
  0.1659812679205663  0.0010964764897575  0.5064621704762977   T   T   T
  0.3339724152048486  0.7510191739246763  0.5015197657833582   T   T   T
  0.5001673733125731  0.9991023320848852  0.5054510000230494   T   T   T
  0.1661936900568856  0.2482980951238873  0.5063266921590672   T   T   T
  0.0000000000000000  0.6249999999803961  0.4070133268666680   F   F   F
  0.6666666865533486  0.1249999999871179  0.4070133268666680   F   F   F
  0.8338623761457320  0.0001392743169456  0.5060872250374202   T   T   T
  0.3333333432766779  0.3750000000061604  0.4070133268666680   F   F   F
  0.3333333432766779  0.8749999404036828  0.4070133268666680   F   F   F
  0.3333333432766779  0.6249999999803961  0.4070133268666680   F   F   F
  0.8333332538436267  0.8749999404036828  0.4070133268666680   F   F   F
  0.6666666865533486  0.6249999999803961  0.4070133268666680   F   F   F
  0.0001459142528775  0.9997768498934407  0.5064277649830757   T   T   T
  0.0004084607108734  0.2495966436928821  0.5061128715311762   T   T   T
  0.0000308407862019  0.7509476195139889  0.5067262580530810   T   T   T
  0.5014593596760092  0.2480805342534724  0.5022681431116554   T   T   T
  0.3333333432766779  0.1249999999871179  0.4070133268666680   F   F   F
  0.0833333358191695  0.2500000000190425  0.4070133268666680   F   F   F
  0.7526083560191790  0.7524218825483950  0.5905255960744847   T   T   T
  0.2499999999799343  0.2500000000190425  0.4070133268666680   F   F   F
  0.0833333358191695  0.7500000000123208  0.4070133268666680   F   F   F
  0.0833333358191695  0.4999999999932783  0.4070133268666680   F   F   F
  0.0833333358191695  0.0000000000000000  0.4070133268666680   F   F   F
  0.9181269857632927  0.3740246004251266  0.5060133178077074   T   T   T
  0.9166666865332829  0.7500000000123208  0.4070133268666680   F   F   F
  0.5833485990518132  0.1232746338524205  0.5043932455904955   T   T   T
  0.7523549089475658  0.6243353974992357  0.5024579331004425   T   T   T
  0.5837609910098859  0.8758231824900902  0.5057493425611939   T   T   T
  0.9174875837612486  0.1244238499301293  0.5059533853110827   T   T   T
  0.4166666269218169  0.4999999999932783  0.4070133268666680   F   F   F