Au  O Sr Ti  H                          
   1.00000000000000     
    23.6707801818999997    0.0000000000000000    0.0000000000000000
     0.0000000000000000   22.3170261383000010    0.0000000000000000
     0.0000000000000000    0.0000000000000000   30.0000000000000000
   Au   O    Sr   Ti   H 
    50   264    72    72     1
Selective dynamics
Direct
  0.7166424689538706  0.5234708668951573  0.7520843778421997   T   T   T
  0.6241305958121560  0.5672362118784794  0.7034177984385335   T   T   T
  0.7191522860614523  0.2594304887476145  0.6917873226275005   T   T   T
  0.2884145942072719  0.7448676874212655  0.6993049961280963   T   T   T
  0.5138656941337243  0.6046656247980330  0.7768656653728457   T   T   T
  0.5771026012120689  0.7252995043630261  0.7925837817803332   T   T   T
  0.5509444162696912  0.3848314026132205  0.8302458511750521   T   T   T
  0.2425373782218303  0.4663275707033658  0.7092977486940897   T   T   T
  0.2832305161740634  0.6600792882982386  0.7659550049691520   T   T   T
  0.6019144061432977  0.2889182963036256  0.7886713874516652   T   T   T
  0.5149632375892894  0.4826358077839412  0.6780295073233458   T   T   T
  0.5614401196019067  0.4870422379093994  0.7626869986054591   T   T   T
  0.4636754348862617  0.6953754233356685  0.8299504560200998   T   T   T
  0.7676674358337926  0.4299291533293179  0.7052112064815360   T   T   T
  0.7340750616233864  0.6152205509481400  0.6943436002865510   T   T   T
  0.6368582664625666  0.5832396434611410  0.8000059422369321   T   T   T
  0.5948686256404154  0.7849135269437680  0.7125843107286609   T   T   T
  0.4835346451626500  0.7797537730118050  0.7574380363118838   T   T   T
  0.3496632917371800  0.5013817458972993  0.6973401076318247   T   T   T
  0.4309266148180797  0.3720900650916652  0.8159602794672156   T   T   T
  0.3729371721215447  0.2986368246308848  0.7559207923854950   T   T   T
  0.4405398740049360  0.2286182136276758  0.6971241427663168   T   T   T
  0.3874713505747737  0.8139120559759042  0.7062122176661105   T   T   T
  0.2901087452813840  0.5359249272438132  0.7778857458361470   T   T   T
  0.5547753911385306  0.2066751635250444  0.7116859842956783   T   T   T
  0.4545313602573519  0.5798063184823748  0.7027929925916503   T   T   T
  0.6118443271476655  0.3176771834949337  0.6981811637549686   T   T   T
  0.7057190961387706  0.7577115173518794  0.6884459135852302   T   T   T
  0.6573518700364586  0.4413777411709131  0.8103073440928348   T   T   T
  0.3683281227561782  0.6187022080710318  0.8204543807305935   T   T   T
  0.5723573918454804  0.5098232109858647  0.8577066221000407   T   T   T
  0.6639434345393916  0.1949527018643962  0.7521382560684902   T   T   T
  0.4726002710907768  0.4520611832096524  0.8789977579772498   T   T   T
  0.5158918796520091  0.3772543067865193  0.7347958872081556   T   T   T
  0.2838941976737283  0.3373866361670737  0.7026614468427697   T   T   T
  0.6694865866532346  0.6812169701526540  0.7487374851640648   T   T   T
  0.3976902072056657  0.3821632684723812  0.6904393172801202   T   T   T
  0.3760742492885284  0.4922909630393914  0.8337944413090205   T   T   T
  0.4633870654399047  0.5740734655147748  0.8635892537780276   T   T   T
  0.3266889402501544  0.4134945445425169  0.7696945050241744   T   T   T
  0.4873295557988008  0.2681707221985086  0.7752686886501475   T   T   T
  0.4294347102557102  0.6992435576240540  0.6988795849842433   T   T   T
  0.6992925366182539  0.3470155583132744  0.7557335973644875   T   T   T
  0.7769436197958539  0.4289531611157162  0.7959916872278068   T   T   T
  0.2562052387954974  0.5914738426969105  0.6949128270925371   T   T   T
  0.6477702613924388  0.4399237088496608  0.6982402302212944   T   T   T
  0.5655699045781365  0.6393449389688749  0.8604718461357220   T   T   T
  0.5468095818950442  0.6647432151528736  0.7014400360002792   T   T   T
  0.4426737567678217  0.4744235584996362  0.7561293328769743   T   T   T
  0.3727495346332436  0.7369202625295586  0.7781554222036355   T   T   T
  0.2499617343389342  0.1886572256327468  0.4542738754154623   T   T   T
  0.7494171859626786  0.9384587153348378  0.4553127521896601   T   T   T
  0.7489856578728253  0.6886467892655024  0.4572686736015915   T   T   T
  0.7494628145943673  0.4383550658254815  0.4557933872915662   T   T   T
  0.7501409067060248  0.1896579633724259  0.4556095633721784   T   T   T
  0.4174461846860000  0.9357331834208750  0.4540485430107593   T   T   T
  0.4169120353237869  0.6845864081833125  0.4548030026739481   T   T   T
  0.4167987373582364  0.4354030147919430  0.4538590444666375   T   T   T
  0.0843525925950804  0.6869235234734650  0.4531012046116064   T   T   T
  0.0838830818987048  0.9366676765857352  0.4534610012038028   T   T   T
  0.0831752160769488  0.4370922490974671  0.4531357284922723   T   T   T
  0.0838806300011276  0.1866066295338164  0.4529827364878256   T   T   T
  0.9165340067083677  0.8120405296528371  0.4540664931367636   T   T   T
  0.9161368745455913  0.5624010173423892  0.4537509480916249   T   T   T
  0.2512018251006937  0.4393966130963807  0.4550304887610760   T   T   T
  0.9161287942982809  0.0621269910310902  0.4541035182287589   T   T   T
  0.9163103857277123  0.3122403979392411  0.4538253668858353   T   T   T
  0.4170691420944905  0.1871326365318474  0.4536391502934243   T   T   T
  0.2524468430906203  0.6873033048899471  0.4560467937577510   T   T   T
  0.9168067446381799  0.9367733927763294  0.4532474915590887   T   T   T
  0.5826123787652416  0.1890521188582718  0.4550970075260034   T   T   T
  0.0001015474380060  0.1250982341136850  0.4984063296330021   T   T   T
  0.5837025855771262  0.8099606313582938  0.4554104040178541   T   T   T
  0.0000128739923819  0.3736493162160344  0.4985537702793197   T   T   T
  0.9997235178870644  0.6269607859307451  0.4976923310031062   T   T   T
  0.3334615914425043  0.1250943953788298  0.4983566830246030   T   T   T
  0.0000408247199560  0.8749774838608380  0.4994884851593005   T   T   T
  0.3334739455837079  0.8737852899526594  0.4988079035013624   T   T   T
  0.6659467025388900  0.1257791985485455  0.4992602978605765   T   T   T
  0.3357324280245516  0.6250385834223604  0.5043090277271066   T   T   T
  0.3343585850789849  0.3785831182581767  0.5029885892684198   T   T   T
  0.6655118650405986  0.3785546060191786  0.5033005079760094   T   T   T
  0.9153366751650007  0.6866789160716837  0.4529876931268173   T   T   T
  0.9161603703996331  0.4370111135044829  0.4536385000205519   T   T   T
  0.9158023337381103  0.1869263617731420  0.4531903482025952   T   T   T
  0.5826149933176118  0.9361440372146315  0.4537408880041010   T   T   T
  0.5828292958314355  0.6859471481123481  0.4544918245878993   T   T   T
  0.5825498557648748  0.4385709288366401  0.4558616856763354   T   T   T
  0.2500366544407489  0.9357829348236986  0.4538749956446455   T   T   T
  0.6654440106491094  0.6257730745810162  0.5029514489818373   T   T   T
  0.5846031098350200  0.5623053282870456  0.4550313615424638   T   T   T
  0.5828701490349809  0.0624111169879592  0.4547614977986875   T   T   T
  0.9166666865332829  0.6874999999963620  0.3605200052333331   F   F   F
  0.9166666865332829  0.4374999701794380  0.3605200052333331   F   F   F
  0.9166666865332829  0.1875000000030838  0.3605200052333331   F   F   F
  0.5833333134730552  0.9375000000154046  0.3605200052333331   F   F   F
  0.5833333134730552  0.6874999999963620  0.3605200052333331   F   F   F
  0.5833333134730552  0.4374999701794380  0.3605200052333331   F   F   F
  0.5833333134730552  0.1875000000030838  0.3605200052333331   F   F   F
  0.2499999999799343  0.9375000000154046  0.3605200052333331   F   F   F
  0.9166666865332829  0.9375000000154046  0.3605200052333331   F   F   F
  0.2499999999799343  0.6874999999963620  0.3605200052333331   F   F   F
  0.2499999999799343  0.1875000000030838  0.3605200052333331   F   F   F
  0.7499999404149307  0.9375000000154046  0.3605200052333331   F   F   F
  0.7499999404149307  0.6874999999963620  0.3605200052333331   F   F   F
  0.7499999404149307  0.4374999701794380  0.3605200052333331   F   F   F
  0.7499999404149307  0.1875000000030838  0.3605200052333331   F   F   F
  0.4166666269218169  0.9375000000154046  0.3605200052333331   F   F   F
  0.4166666269218169  0.6874999999963620  0.3605200052333331   F   F   F
  0.4166666269218169  0.4374999701794380  0.3605200052333331   F   F   F
  0.2499999999799343  0.4374999701794380  0.3605200052333331   F   F   F
  0.0833333358191695  0.0625000000159659  0.3605200052333331   F   F   F
  0.0833333358191695  0.3124999999901945  0.3605200052333331   F   F   F
  0.0833333358191695  0.5625000000092442  0.3605200052333331   F   F   F
  0.9166666865332829  0.3124999999901945  0.3605200052333331   F   F   F
  0.9166666865332829  0.0625000000159659  0.3605200052333331   F   F   F
  0.5833333134730552  0.8124999999834799  0.3605200052333331   F   F   F
  0.5833333134730552  0.5625000000092442  0.3605200052333331   F   F   F
  0.5833333134730552  0.3124999999901945  0.3605200052333331   F   F   F
  0.5833333134730552  0.0625000000159659  0.3605200052333331   F   F   F
  0.2499999999799343  0.8124999999834799  0.3605200052333331   F   F   F
  0.2499999999799343  0.5625000000092442  0.3605200052333331   F   F   F
  0.2499999999799343  0.3124999999901945  0.3605200052333331   F   F   F
  0.2499999999799343  0.0625000000159659  0.3605200052333331   F   F   F
  0.7499999404149307  0.8124999999834799  0.3605200052333331   F   F   F
  0.7499999404149307  0.5625000000092442  0.3605200052333331   F   F   F
  0.7499999404149307  0.3124999999901945  0.3605200052333331   F   F   F
  0.7499999404149307  0.0625000000159659  0.3605200052333331   F   F   F
  0.4166666269218169  0.8124999999834799  0.3605200052333331   F   F   F
  0.4166666269218169  0.5625000000092442  0.3605200052333331   F   F   F
  0.4166666269218169  0.3124999999901945  0.3605200052333331   F   F   F
  0.4166666269218169  0.0625000000159659  0.3605200052333331   F   F   F
  0.0833333358191695  0.8124999999834799  0.3605200052333331   F   F   F
  0.4166666269218169  0.1875000000030838  0.3605200052333331   F   F   F
  0.0833333358191695  0.9375000000154046  0.3605200052333331   F   F   F
  0.0833333358191695  0.6874999999963620  0.3605200052333331   F   F   F
  0.0833333358191695  0.4374999701794380  0.3605200052333331   F   F   F
  0.8333332538436267  0.4999999999932783  0.4070133268666680   F   F   F
  0.8333332538436267  0.7500000000123208  0.4070133268666680   F   F   F
  0.0837406297461227  0.0618687249171855  0.4541818551294425   T   T   T
  0.0835148365081258  0.3122724739596504  0.4537832320800119   T   T   T
  0.0839715908241402  0.5625407427763593  0.4539285232365584   T   T   T
  0.0835706341884002  0.8121125587590832  0.4541895433389878   T   T   T
  0.4169151144730828  0.0615178866860626  0.4553501798532203   T   T   T
  0.4154402998128391  0.3112782275595550  0.4573650709045231   T   T   T
  0.4159950612130062  0.5594061031649686  0.4578957198698469   T   T   T
  0.4166312829610458  0.8097083725870536  0.4551816935744029   T   T   T
  0.7496081261833747  0.0640571619352642  0.4533598107909764   T   T   T
  0.7473680031095242  0.3140472078215880  0.4546172031234999   T   T   T
  0.7481016748435121  0.5642764762271241  0.4536532378729421   T   T   T
  0.7494636006775988  0.8131791172569436  0.4530787564181828   T   T   T
  0.2501532494213071  0.0619279865710062  0.4541210206972358   T   T   T
  0.9154756831276513  0.3123559400547877  0.5466775405670672   T   T   T
  0.2522592914684093  0.3142310098094272  0.4541578089765881   T   T   T
  0.2519256402803550  0.5646796714746530  0.4536076922548136   T   T   T
  0.2501841813502430  0.8103905684410291  0.4555173205101044   T   T   T
  0.8333332538436267  0.2500000000190425  0.4070133268666680   F   F   F
  0.5842719305931757  0.3144501368566027  0.4541655806095188   T   T   T
  0.8333332538436267  0.0000000000000000  0.4070133268666680   F   F   F
  0.5000000000021103  0.4999999999932783  0.4070133268666680   F   F   F
  0.0833333358191695  0.1875000000030838  0.3605200052333331   F   F   F
  0.0000000000000000  0.0000000000000000  0.4070133268666680   F   F   F
  0.0000000000000000  0.2500000000190425  0.4070133268666680   F   F   F
  0.0000000000000000  0.4999999999932783  0.4070133268666680   F   F   F
  0.0000000000000000  0.7500000000123208  0.4070133268666680   F   F   F
  0.3333333432766779  0.0000000000000000  0.4070133268666680   F   F   F
  0.3333333432766779  0.2500000000190425  0.4070133268666680   F   F   F
  0.3333333432766779  0.4999999999932783  0.4070133268666680   F   F   F
  0.3333333432766779  0.7500000000123208  0.4070133268666680   F   F   F
  0.6666666865533486  0.0000000000000000  0.4070133268666680   F   F   F
  0.6666666865533486  0.2500000000190425  0.4070133268666680   F   F   F
  0.6666666865533486  0.4999999999932783  0.4070133268666680   F   F   F
  0.6666666865533486  0.7500000000123208  0.4070133268666680   F   F   F
  0.1666666716383389  0.0000000000000000  0.4070133268666680   F   F   F
  0.1666666716383389  0.2500000000190425  0.4070133268666680   F   F   F
  0.1666666716383389  0.4999999999932783  0.4070133268666680   F   F   F
  0.1666666716383389  0.7500000000123208  0.4070133268666680   F   F   F
  0.5000000000021103  0.0000000000000000  0.4070133268666680   F   F   F
  0.5000000000021103  0.2500000000190425  0.4070133268666680   F   F   F
  0.5000000000021103  0.7500000000123208  0.4070133268666680   F   F   F
  0.1670530999375168  0.1242979575574304  0.4993269551628464   T   T   T
  0.9177133073309752  0.0632792822219560  0.5474638971575367   T   T   T
  0.1677662668983071  0.8732445872227511  0.4999311476203122   T   T   T
  0.2519359549623873  0.1880583067961493  0.5473144314288895   T   T   T
  0.7491430932199672  0.9341152525327793  0.5476099516142425   T   T   T
  0.7517068711566953  0.6804124025626909  0.5530158667269045   T   T   T
  0.7529883926175911  0.4344557218682250  0.5493507668251788   T   T   T
  0.4231670199979062  0.4437777493171471  0.5455817261963875   T   T   T
  0.4228764398726950  0.6877811440546756  0.5467114807894161   T   T   T
  0.7484991643806825  0.1835934201338849  0.5507366926259311   T   T   T
  0.4158294299291839  0.9366200300042544  0.5461330574232439   T   T   T
  0.0835913108750125  0.9389506208802612  0.5456982435729153   T   T   T
  0.4156108666768951  0.1913161333520298  0.5464792450819285   T   T   T
  0.0865478224838691  0.6897030720411519  0.5451532169767489   T   T   T
  0.0829017838308219  0.4384409371271426  0.5453166090015173   T   T   T
  0.0837751663305969  0.1888431990636171  0.5456762636914508   T   T   T
  0.4993681444979757  0.1254544215017132  0.4996840035313643   T   T   T
  0.9996881697287032  0.4986131071678653  0.5945078049104247   T   T   T
  0.9994325868752121  0.7539446376608355  0.5921755054614838   T   T   T
  0.3347592096561166  0.2541880786552270  0.5927444999916024   T   T   T
  0.3340034102385329  0.9997991196157628  0.5920025705316937   T   T   T
  0.9996613413571510  0.9982182829214592  0.5927326486987380   T   T   T
  0.0011386302181704  0.2497977989050390  0.5919246627133470   T   T   T
  0.3335644187845105  0.4965955513960661  0.5910357827036931   T   T   T
  0.3352765106265096  0.7393531050835688  0.5915400235306710   T   T   T
  0.6634961943569903  0.2471625063172632  0.5907841252615371   T   T   T
  0.6657579981397729  0.0005924317571828  0.5918111589963411   T   T   T
  0.6657398257550133  0.7421999407489674  0.5900607117563614   T   T   T
  0.6670932495325619  0.4932593609075976  0.5910503125539489   T   T   T
  0.1673591472685156  0.9983811542996700  0.5922811353148451   T   T   T
  0.1685884644434209  0.2492396844262839  0.5931303326535380   T   T   T
  0.1707904636369877  0.7498806482548642  0.5950596755753705   T   T   T
  0.2481706825140206  0.4358094549976326  0.5493875134804260   T   T   T
  0.1654452771387643  0.5034063173902859  0.5878133651867481   T   T   T
  0.2490565731059453  0.6833126655064327  0.5518754517787073   T   T   T
  0.5807310822463503  0.1859946044950971  0.5491494956569549   T   T   T
  0.9152377799052912  0.8130582853732208  0.5468262748284120   T   T   T
  0.9166048053246632  0.5631416675872575  0.5463889449803218   T   T   T
  0.5814789301171412  0.5601366202997370  0.5493796350565240   T   T   T
  0.5861492608674590  0.8146808623452010  0.5503615643409705   T   T   T
  0.5832106718824898  0.3117582409341398  0.5458161429333419   T   T   T
  0.5826100657625387  0.0632712349765264  0.5469611877804523   T   T   T
  0.2539781885152746  0.8127940471332177  0.5512511009693248   T   T   T
  0.2523370345731254  0.5588420892261914  0.5437445150495251   T   T   T
  0.2495508664253333  0.3136809691076525  0.5459831269634867   T   T   T
  0.2510296532930521  0.0624443285964879  0.5472324942770136   T   T   T
  0.7484654744368362  0.8082431114649022  0.5457226451957956   T   T   T
  0.7465870221470207  0.5575764356497912  0.5444825658265704   T   T   T
  0.4134233747768213  0.8114254930225653  0.5482261373983531   T   T   T
  0.7482804369959905  0.0596082947155950  0.5445351953677839   T   T   T
  0.7480119411903063  0.3112376690220701  0.5480277718801780   T   T   T
  0.4159140545032040  0.3196779909003092  0.5526644884862941   T   T   T
  0.4206328780569913  0.5647387460062683  0.5556591408040906   T   T   T
  0.4164794337293440  0.0652131897490178  0.5473306237563098   T   T   T
  0.0848991844420229  0.8128932440987663  0.5473410855852875   T   T   T
  0.0825556018241273  0.5638900017584905  0.5463827468464142   T   T   T
  0.0864264412705653  0.3133161316117140  0.5468958592330087   T   T   T
  0.0823265797358966  0.0631911251707938  0.5475133691546239   T   T   T
  0.9156664670134717  0.9387183779360708  0.5460252380543172   T   T   T
  0.9131965604478424  0.6893407092821500  0.5450058358656246   T   T   T
  0.5835123240367742  0.9381505764323054  0.5456737184878926   T   T   T
  0.9170066923057606  0.1888354807633741  0.5454979031620399   T   T   T
  0.9154898834667103  0.4373071294393872  0.5458100697295278   T   T   T
  0.5764820159130356  0.4360769244115787  0.5515631063210277   T   T   T
  0.5794565207986236  0.6865268379774818  0.5468207029876750   T   T   T
  0.2516488386347699  0.9374435370779065  0.5450163830030954   T   T   T
  0.4981434230223814  0.5034801851329351  0.6090893140440135   T   T   T
  0.4985831824340550  0.2528766842224693  0.5903449526551126   T   T   T
  0.4995816003450713  0.9999729728513531  0.5909947742548078   T   T   T
  0.7523455743469268  0.6934554785340021  0.6564313621170551   T   T   T
  0.7483108460431672  0.9367718084966155  0.6398357769720630   T   T   T
  0.2534499895427120  0.1866077117945679  0.6412523978136723   T   T   T
  0.7456340248589541  0.1943989718585056  0.6468230545863556   T   T   T
  0.7556933024444095  0.4359509860714689  0.6388815858531622   T   T   T
  0.4172867210574392  0.9349552885654545  0.6397422794688866   T   T   T
  0.4213256517361377  0.6754835104032568  0.6337532638706095   T   T   T
  0.5893569925823675  0.8107525742309525  0.6456404293788607   T   T   T
  0.9162514613065209  0.0623855359938353  0.6413877130339496   T   T   T
  0.9133703487109837  0.5616541079115229  0.6426546557112343   T   T   T
  0.9153268497565611  0.3120245005832560  0.6394026139327533   T   T   T
  0.9138934301359625  0.8126153029635500  0.6415442224606372   T   T   T
  0.5821144552957797  0.0655776594972418  0.6398546186682589   T   T   T
  0.5834065357234868  0.3192409979744635  0.6342487166744497   T   T   T
  0.5916126678923267  0.5645669293385488  0.6392191969848038   T   T   T
  0.2478423527318687  0.5740348293160710  0.6286352322393729   T   T   T
  0.2615285726785397  0.7982542364420117  0.6470110348164376   T   T   T
  0.2499052841561448  0.3167637762824680  0.6412073888219085   T   T   T
  0.2508932316359218  0.0594662164814606  0.6420783355614834   T   T   T
  0.9166666865332829  0.5625000000092442  0.3605200052333331   F   F   F
  0.4994482546186433  0.3737765546317589  0.4999959145482548   T   T   T
  0.4999318294078319  0.8725219508753321  0.5008752077029917   T   T   T
  0.5003961978025648  0.6209338215030122  0.5000301979019478   T   T   T
  0.8322776961232534  0.6230836196239820  0.4998955435393985   T   T   T
  0.8326984331657007  0.8749926874998907  0.4983957246482431   T   T   T
  0.8326566819463073  0.3729654807557647  0.4993730214138469   T   T   T
  0.8328848613695584  0.1245431658361881  0.4996943189545093   T   T   T
  0.1667724082932895  0.3761786193624281  0.4977917255957546   T   T   T
  0.1677524306813504  0.6242855574974150  0.4999924740600060   T   T   T
  0.5828802110800758  0.4383239241637240  0.6462858475909081   T   T   T
  0.5802825411025816  0.6850144439198024  0.6381477046475493   T   T   T
  0.9171467831502130  0.1866282220761202  0.6406349507257153   T   T   T
  0.5821150405432607  0.9356156131172777  0.6391936103675260   T   T   T
  0.8305225912201418  0.7505905597254733  0.5928316679546306   T   T   T
  0.8317048907507502  0.2478051690735755  0.5914422496865833   T   T   T
  0.8333836100369720  0.5037270227115627  0.5894719932409974   T   T   T
  0.8321765858076754  0.0020247845569273  0.5922562911568838   T   T   T
  0.5006382800446486  0.7562068531693101  0.5926328157981581   T   T   T
  0.4176807374304615  0.0652131657643840  0.6399771804464744   T   T   T
  0.4268365427092162  0.3050921580994529  0.6549297542322017   T   T   T
  0.4119851715736164  0.8124563838054865  0.6397701883968927   T   T   T
  0.3987853915351306  0.5509048083706362  0.6521891373873944   T   T   T
  0.7523426256735555  0.5706982896573400  0.6344611212100050   T   T   T
  0.7410737187812108  0.8099442578221326  0.6399989812434971   T   T   T
  0.7471208792479693  0.3126637609757646  0.6402935624001332   T   T   T
  0.7476247431145384  0.0669594517576314  0.6392285556102266   T   T   T
  0.0839846121123234  0.3118454762809417  0.6404258513896129   T   T   T
  0.6665359733833929  0.8744609150287793  0.4988875811828040   T   T   T
  0.0866351833432959  0.5618600376619224  0.6421717533054461   T   T   T
  0.0835493049953605  0.0604473806809752  0.6414801513413074   T   T   T
  0.0870883005528765  0.4366584760102135  0.6395294268205408   T   T   T
  0.0838141768790762  0.1855251696453379  0.6409614521263072   T   T   T
  0.4186484286678797  0.1879529229037711  0.6399585847859367   T   T   T
  0.4151878128122824  0.4189350334473196  0.6300603022535651   T   T   T
  0.0842503777884004  0.9352584276138642  0.6408744365777438   T   T   T
  0.0828233548480699  0.6871801816355581  0.6399413252744756   T   T   T
  0.9126135045147529  0.4362542569297503  0.6395483424899067   T   T   T
  0.9166736365844486  0.6875538613999250  0.6398960332094366   T   T   T
  0.9141004086547466  0.9367133934768432  0.6408706966892793   T   T   T
  0.2408315835651394  0.4428814111041386  0.6417502061427595   T   T   T
  0.2505022482605341  0.6758754370236185  0.6651534592661963   T   T   T
  0.5787169312165650  0.1901936450042940  0.6441698562523698   T   T   T
  0.2519396632624383  0.9301443770112808  0.6373528509792369   T   T   T
  0.0840171532534702  0.8117384763967407  0.6419150070252629   T   T   T
  0.9166666865332829  0.8124999999834799  0.3605200052333331   F   F   F
  0.0006830874522956  0.1229097019811152  0.6190724909011798   T   T   T
  0.8333332538436267  0.6249999999803961  0.4070133268666680   F   F   F
  0.9996113800475840  0.5003834168252581  0.5071881730937143   T   T   T
  0.3312239912298322  0.4992866791048700  0.5009416059126723   T   T   T
  0.3301046740874139  0.2480427919472985  0.5027960460392227   T   T   T
  0.3330955062148317  0.0009692666498752  0.5057212691214161   T   T   T
  0.3338003403582210  0.7507513823559785  0.5017751475636820   T   T   T
  0.6658851686661084  0.0001118132107321  0.5055356327162736   T   T   T
  0.6686627459126520  0.4996151140784034  0.5008210165926250   T   T   T
  0.6671162930437922  0.2478511795005540  0.5030650825451911   T   T   T
  0.6656089429540590  0.7518983026559992  0.5021652249890654   T   T   T
  0.1659803218065812  0.0010600100366316  0.5065127593129930   T   T   T
  0.1664777121456081  0.2482987786387840  0.5062078579027466   T   T   T
  0.1633872638386674  0.4998708617093329  0.5021587685189575   T   T   T
  0.5000172813660265  0.9991252831574142  0.5054763916295827   T   T   T
  0.1643102592885084  0.7513245072399800  0.5034946632779613   T   T   T
  0.5009597375266434  0.7526369882104851  0.5039725447856389   T   T   T
  0.8341798169777919  0.0003885040416660  0.5064228564918791   T   T   T
  0.5013441223252912  0.4997050158038368  0.5003438163843078   T   T   T
  0.5011067787144594  0.2478715151582786  0.5019998590651835   T   T   T
  0.8354363150701271  0.2483850807084245  0.5032394117044183   T   T   T
  0.9996813081797662  0.7506548968386202  0.5065212358375074   T   T   T
  0.0008832674830237  0.2498190452916551  0.5058937755918200   T   T   T
  0.0000346211061928  0.9999529211607090  0.5064197605507609   T   T   T
  0.8333332538436267  0.8749999404036828  0.4070133268666680   F   F   F
  0.0000000000000000  0.6249999999803961  0.4070133268666680   F   F   F
  0.0000000000000000  0.8749999404036828  0.4070133268666680   F   F   F
  0.3333333432766779  0.1249999999871179  0.4070133268666680   F   F   F
  0.3333333432766779  0.3750000000061604  0.4070133268666680   F   F   F
  0.3333333432766779  0.6249999999803961  0.4070133268666680   F   F   F
  0.3333333432766779  0.8749999404036828  0.4070133268666680   F   F   F
  0.6666666865533486  0.1249999999871179  0.4070133268666680   F   F   F
  0.6666666865533486  0.3750000000061604  0.4070133268666680   F   F   F
  0.6666666865533486  0.6249999999803961  0.4070133268666680   F   F   F
  0.8360303574903126  0.4997659642215817  0.5031025491910741   T   T   T
  0.6666666865533486  0.8749999404036828  0.4070133268666680   F   F   F
  0.1666666716383389  0.3750000000061604  0.4070133268666680   F   F   F
  0.1666666716383389  0.6249999999803961  0.4070133268666680   F   F   F
  0.1666666716383389  0.8749999404036828  0.4070133268666680   F   F   F
  0.5000000000021103  0.1249999999871179  0.4070133268666680   F   F   F
  0.5000000000021103  0.3750000000061604  0.4070133268666680   F   F   F
  0.5000000000021103  0.6249999999803961  0.4070133268666680   F   F   F
  0.5000000000021103  0.8749999404036828  0.4070133268666680   F   F   F
  0.8333332538436267  0.1249999999871179  0.4070133268666680   F   F   F
  0.8333332538436267  0.3750000000061604  0.4070133268666680   F   F   F
  0.1666666716383389  0.1249999999871179  0.4070133268666680   F   F   F
  0.0000000000000000  0.3750000000061604  0.4070133268666680   F   F   F
  0.8357829809885529  0.7516400082446615  0.5025101327591007   T   T   T
  0.8372067057840592  0.3726386448718924  0.6041221284790160   T   T   T
  0.8319591067032359  0.8757352732940590  0.6181213781029683   T   T   T
  0.8407847223485660  0.6266339459656436  0.6031075671669149   T   T   T
  0.9989829485177898  0.8747652207399886  0.6219915091421181   T   T   T
  0.3315192364906623  0.1198620622549212  0.6133431886049834   T   T   T
  0.3346385105822895  0.6237604232977381  0.5953934421476409   T   T   T
  0.3260418918871258  0.3738168103067964  0.5928173798140580   T   T   T
  0.6711632014465785  0.3720167228501804  0.5945622614367997   T   T   T
  0.6654069162687128  0.1243839713886356  0.6116782390502125   T   T   T
  0.3344986421788548  0.8787571247389309  0.6029063592073878   T   T   T
  0.1585543360349847  0.6271519414417680  0.6020089777975870   T   T   T
  0.1662792437962184  0.8725233488537716  0.6189934918637148   T   T   T
  0.5018948071636766  0.3711115654039316  0.5951257910346646   T   T   T
  0.5001361827656227  0.1218821717159411  0.6059718608157842   T   T   T
  0.1676004821914088  0.1225050930316776  0.6214738671750810   T   T   T
  0.1634730443813185  0.3717555041877958  0.6077512406100913   T   T   T
  0.6652602201846818  0.8808675884275599  0.6068471897591236   T   T   T
  0.6664599023087466  0.6268182826470510  0.5938273256004558   T   T   T
  0.0001689503400062  0.3749512403144388  0.6228592443520740   T   T   T
  0.9997276681691724  0.6223813353571602  0.6460186007034148   T   T   T
  0.8337598281477325  0.1248083205314963  0.6196460109726279   T   T   T
  0.5004606888199636  0.8764285445791157  0.6099275448217831   T   T   T
  0.0000000000000000  0.1249999999871179  0.4070133268666680   F   F   F
  0.5040711161764998  0.6248483521742967  0.5938488986659768   T   T   T
  0.9162728840345407  0.9997824056703436  0.6036571273795095   T   T   T
  0.5848033429728088  0.7504385112345712  0.5994981790295141   T   T   T
  0.5908285624194681  0.5006941120930465  0.5936522264944386   T   T   T
  0.2423091297307207  0.4987068234013514  0.5936627452082556   T   T   T
  0.2497126063781523  0.7526776273388877  0.5921877694096248   T   T   T
  0.5843821092787995  0.2469848198548920  0.5970866951219042   T   T   T
  0.5825031252467662  0.0010333104760771  0.6042803790611084   T   T   T
  0.2494224639635048  0.9975234874801067  0.6041574354380769   T   T   T
  0.2492692896880404  0.2459591639381875  0.6037494670294871   T   T   T
  0.4170211582143783  0.0000711144487028  0.6046701219167844   T   T   T
  0.4147784366537236  0.2487855968305248  0.5910510746091873   T   T   T
  0.4166379686462760  0.7499658133412439  0.5947807711826817   T   T   T
  0.7565350506397953  0.5027966141888524  0.5957687801506507   T   T   T
  0.7520109800972408  0.7523373449573598  0.5906248088602476   T   T   T
  0.7540420699538054  0.2479241476660564  0.5941981932868083   T   T   T
  0.7495988908392042  0.0017153272561859  0.6041627781537708   T   T   T
  0.0838375644717917  0.2480990292143492  0.6036983581459129   T   T   T
  0.0811811410444673  0.5005425909272340  0.6034780016311220   T   T   T
  0.0801482790506602  0.7506764085534667  0.6031170203610383   T   T   T
  0.0832996958806561  0.9981641661026093  0.6034808444908882   T   T   T