Au  O Sr Ti                             
   1.00000000000000     
    23.6707801818999997    0.0000000000000000    0.0000000000000000
     0.0000000000000000   22.3170261383000010    0.0000000000000000
     0.0000000000000000    0.0000000000000000   30.0000000000000000
   Au   O    Sr   Ti
    50   265    72    72
Selective dynamics
Direct
  0.7154433936196796  0.5252290481188524  0.7542056275413600   F   F   F
  0.6540448572769293  0.4376468266813802  0.8099139511567586   F   F   F
  0.3682465353389475  0.6197317146811017  0.8203307527196131   F   F   F
  0.5699389052636619  0.5105292872639779  0.8568014162821171   F   F   F
  0.6472088146363291  0.2013655816644331  0.7445283846340374   T   T   T
  0.4689209412743409  0.4531777456648172  0.8813233271390217   F   F   F
  0.5208519219005012  0.3779732781165279  0.7341430030754736   F   F   F
  0.2823632869516217  0.3401445314465121  0.7024926183863798   F   F   F
  0.6694304352118650  0.6810671488948756  0.7487497234294409   F   F   F
  0.3980080341029932  0.3829880838561408  0.6910173809240163   F   F   F
  0.4622037620192074  0.5748353933569490  0.8646108032054372   F   F   F
  0.7062215254807072  0.7568474696514400  0.6881990172694401   F   F   F
  0.4523632727729563  0.5796019145274869  0.7028641043691692   F   F   F
  0.4179099661370316  0.6963075436052648  0.6996293945345897   F   F   F
  0.7746850026775363  0.4302997957297237  0.7949649298211483   F   F   F
  0.2568276769940994  0.5935849442199697  0.6945068732247961   F   F   F
  0.6460450104289421  0.4407070156716699  0.6971548869681357   F   F   F
  0.5643308056441398  0.6401956732552136  0.8617400750316406   F   F   F
  0.5415001578599359  0.6663708609164942  0.7013818879478464   F   F   F
  0.4434770347047632  0.4726944708610787  0.7560715565261233   F   F   F
  0.3741759203567554  0.7399919611335406  0.7787508503094642   F   F   F
  0.3751678888323582  0.4941198627755767  0.8330578931500696   F   F   F
  0.6176256444888892  0.3153860124692116  0.6980677833936326   F   F   F
  0.3245859223465715  0.4157120866456623  0.7699159208789226   F   F   F
  0.7047029774746747  0.3431312441140832  0.7571189252332431   F   F   F
  0.4847799563680795  0.2699489845871810  0.7733817185844671   F   F   F
  0.4854704748174967  0.7771257876520679  0.7556226043018910   F   F   F
  0.7422308394051953  0.2598226942820503  0.6937135223301993   T   T   T
  0.2936564770665271  0.7465849255955135  0.6967975188998210   F   F   F
  0.5777459582515192  0.7247835424422817  0.7933926639965421   F   F   F
  0.2406254007039763  0.4697297873548223  0.7094464406577572   F   F   F
  0.2852094499485247  0.6628358288324350  0.7645971200321071   F   F   F
  0.6006547944467755  0.2985751365435974  0.7890583620539005   F   F   F
  0.5140089471105753  0.4839143732265541  0.6779393132288334   F   F   F
  0.2891684722742980  0.5386561049559404  0.7776860039495048   F   F   F
  0.5459110865350425  0.3886259725658547  0.8313092737384977   F   F   F
  0.5104363544793671  0.6055948425917990  0.7773104113244003   F   F   F
  0.7329979989465301  0.6147806184607134  0.6941966915135609   F   F   F
  0.5617855056957168  0.4888176658099539  0.7624746113170389   F   F   F
  0.6339418251644631  0.5848681151790629  0.8002704439254060   F   F   F
  0.4284491747398036  0.3726821978892616  0.8170231723995656   F   F   F
  0.3490669288585337  0.5009613705490068  0.6978289337642920   F   F   F
  0.5958583315427219  0.7844059454501888  0.7129094317489475   F   F   F
  0.3692935750329625  0.3004099507675875  0.7572422157659062   F   F   F
  0.4286267276089291  0.2270679931836455  0.6984485759365597   F   F   F
  0.4630200076432374  0.6972400036695490  0.8315564584749495   F   F   F
  0.3912838701390982  0.8171166395987868  0.7064890972287472   F   F   F
  0.7630142056586564  0.4318057837848670  0.7049703038370296   F   F   F
  0.6229410392590111  0.5688436289059737  0.7039157895027515   F   F   F
  0.5439198879160756  0.2101658160972875  0.7074766914916779   F   F   F
  0.5767604454949051  0.4354107388901056  0.5520761867728794   F   F   F
  0.0848828738130862  0.8129194616429558  0.5473186745254495   F   F   F
  0.4166637453020456  0.0654850529313151  0.5473598271154358   F   F   F
  0.4169128176556995  0.3195753036523072  0.5526948402050706   F   F   F
  0.2533227717526430  0.8125862553113663  0.5506632021579847   F   F   F
  0.5817089917190188  0.5597528835334984  0.5489821810974433   F   F   F
  0.7477800539821047  0.3101030833277321  0.5464183403087688   F   F   F
  0.5858186101227005  0.8142335593694199  0.5503246857949051   F   F   F
  0.5829367311218689  0.0617035670105608  0.5454689033257836   F   F   F
  0.2526190390550482  0.5589914617988541  0.5438878006192809   F   F   F
  0.0822829821770981  0.0632394547463662  0.5475201460339534   F   F   F
  0.2492316177612821  0.6831471358663634  0.5519639276002621   F   F   F
  0.7493331054542551  0.9337086295960546  0.5476787563433092   F   F   F
  0.9139796237896292  0.6890822518283883  0.5452817338698850   F   F   F
  0.9180443177468973  0.1889273591443228  0.5451018607091100   F   F   F
  0.9158601592807472  0.4376903221862563  0.5457120269721258   F   F   F
  0.5794329590805347  0.6859730415969452  0.5473484320159017   F   F   F
  0.2515614217155360  0.9372862738920773  0.5452477357970409   F   F   F
  0.4975817231478104  0.5044890916308802  0.6088119402479251   F   F   F
  0.9173719457836569  0.5637678240104620  0.5468269646234276   F   F   F
  0.4198745290206958  0.5649469917641312  0.5553845274429889   F   F   F
  0.9155777418141113  0.8128215898901416  0.5468206912773468   F   F   F
  0.0836267322840740  0.9388947606488003  0.5457654771256131   F   F   F
  0.0867425442151557  0.3136211935847228  0.5470697836185607   F   F   F
  0.8325061342655857  0.0016024374602850  0.5922429248901366   F   F   F
  0.9159816889366326  0.1866457463553317  0.4529821194112458   F   F   F
  0.9158850161016474  0.9386568794555572  0.5461789664403938   F   F   F
  0.2493424368906574  0.3135243593757480  0.5458517112286145   F   F   F
  0.5839009421459096  0.9375868256260773  0.5461666489709245   F   F   F
  0.7483978541455372  0.9370315246836469  0.6400393069198742   F   F   F
  0.5827787688117141  0.4394303606010155  0.4564046598234910   F   F   F
  0.4998377291422429  0.1256720098354620  0.4996937295051467   F   F   F
  0.4998606342628165  0.2536081735480167  0.5916817906362510   F   F   F
  0.0831528974599465  0.1889983319340303  0.5454787344252097   F   F   F
  0.0833333358191695  0.3124999999901945  0.3605200052333331   F   F   F
  0.9997906615864309  0.4999457206187330  0.5940187582866940   F   F   F
  0.5812823202249788  0.1847781330247358  0.5504280418447820   F   F   F
  0.9998290818161735  0.7531235580061377  0.5923837995256491   F   F   F
  0.3340263482587318  0.9998735266153176  0.5919777082436610   F   F   F
  0.9999962182397795  0.9991136828472165  0.5931891526648343   F   F   F
  0.0009660356270231  0.2515363623736278  0.5922254042708914   F   F   F
  0.3333608706867963  0.4958267079455538  0.5909571734502208   F   F   F
  0.3356640656538943  0.7409569258231627  0.5903455414530683   F   F   F
  0.6648567346603969  0.2455833633448918  0.5908497048466330   F   F   F
  0.6660474756504797  0.0005358675197584  0.5919040334122201   F   F   F
  0.4166684687259377  0.1917271242166834  0.5464229976738224   F   F   F
  0.6657888457854497  0.7416276819832390  0.5901650569200214   F   F   F
  0.4247953649884408  0.3042499397375025  0.6562996689034790   F   F   F
  0.1675048024818082  0.9983380302374059  0.5922444597928020   F   F   F
  0.1708797929906751  0.7503189818067568  0.5947843177052476   F   F   F
  0.2483768152311825  0.4356374859133254  0.5492372496011200   F   F   F
  0.1657482622939028  0.5027174735505042  0.5874430438731224   F   F   F
  0.3351937417596815  0.2546156401002335  0.5923444983810739   F   F   F
  0.4996877108738218  0.9999857085666051  0.5910205895954661   F   F   F
  0.8327148381222571  0.8742681175258085  0.4986013653090566   F   F   F
  0.4231423098846747  0.4438144397350428  0.5455847068642825   F   F   F
  0.7524509256505567  0.4340630252835069  0.5493271981521062   F   F   F
  0.7518410007476177  0.6799787148584286  0.5534086319069829   F   F   F
  0.7479566393500434  0.8077548581647136  0.5453681068328891   F   F   F
  0.4177744492463802  0.0651178823703020  0.6399859307757794   F   F   F
  0.2501006777775032  0.3166977078006781  0.6409342491419281   F   F   F
  0.6670586471998021  0.4936283991128505  0.5914630310750866   F   F   F
  0.5911074240009953  0.8099691404593017  0.6460602736579872   F   F   F
  0.1685156261668439  0.2487276828768046  0.5932396634058321   F   F   F
  0.9161504017141908  0.5623537769286031  0.4538828169239792   F   F   F
  0.7531948947197407  0.5687714927059844  0.6355483460967974   F   F   F
  0.9142252454729132  0.8132140167066950  0.6415961444100162   F   F   F
  0.9161965165300998  0.0622962604004869  0.6416449700170190   F   F   F
  0.7411772946208686  0.8098684532047997  0.6399702181945415   F   F   F
  0.7484944985598290  0.0677680295980707  0.6382047991704809   F   F   F
  0.0844273529962933  0.3116883346691566  0.6410523068980822   F   F   F
  0.0869429563399606  0.5627091037451635  0.6402403724900481   F   F   F
  0.0843401423020964  0.0605243575939483  0.6421293525350222   F   F   F
  0.0869126656168291  0.4365049480571059  0.6395681530333164   F   F   F
  0.0834380238862309  0.1858187831916283  0.6409714149794823   F   F   F
  0.4159354503521584  0.4184290968627167  0.6300917696567083   F   F   F
  0.6664746455281474  0.8742811689357737  0.4987665862828337   F   F   F
  0.8327448323000439  0.2478168502665241  0.5889086547174998   F   F   F
  0.8304405469704221  0.7509866005648007  0.5927452760887419   F   F   F
  0.0845255603781254  0.9356235132573900  0.6407063912957653   F   F   F
  0.8331257305439408  0.5025073784041183  0.5889828578555907   F   F   F
  0.4176493383528381  0.1868233063322009  0.6390631958225939   F   F   F
  0.0833495569426432  0.6870382904189611  0.6389565773956818   F   F   F
  0.2520554739243508  0.9302575424090733  0.6373590654375363   F   F   F
  0.5799320379416315  0.1907529344707370  0.6455673766516412   F   F   F
  0.0844697045999396  0.8122607497328218  0.6422483978830869   F   F   F
  0.2405938042371076  0.4423475304907925  0.6419186794887466   F   F   F
  0.9147358866094137  0.9368168123200320  0.6409918060900708   F   F   F
  0.9162778938425831  0.6875376264131745  0.6390212942487352   F   F   F
  0.9125728332163874  0.4361384535766604  0.6398112985938766   F   F   F
  0.2538457433005732  0.1867945354121332  0.6412216514118896   F   F   F
  0.2545578698856801  0.6779431268897653  0.6627851219385406   F   F   F
  0.5821039543414415  0.9355853015817317  0.6392649409626330   F   F   F
  0.7506674362310335  0.1949256542907492  0.6464000476454146   F   F   F
  0.9166666865332829  0.8124999999834799  0.3605200052333331   F   F   F
  0.4124192279177166  0.8128666831798839  0.6393901960126840   F   F   F
  0.7498233620001926  0.3108610754069474  0.6385901346936791   F   F   F
  0.0828451422699956  0.4390271373204016  0.5448411791258181   F   F   F
  0.4998346602271795  0.3739442200928877  0.5000821473085182   F   F   F
  0.9131259807522483  0.5622440595184557  0.6411187519111365   F   F   F
  0.5824984931883250  0.0661384901586004  0.6388602029459207   F   F   F
  0.5885694744888710  0.3197834524246943  0.6338246046319824   F   F   F
  0.2477108324451862  0.5737478771018587  0.6287890798573201   F   F   F
  0.7538054840791020  0.6923482851962817  0.6570472651664758   F   F   F
  0.2622627826359931  0.7996594450378467  0.6461459485596279   F   F   F
  0.2509448663630423  0.0594722977471562  0.6422954794205964   F   F   F
  0.9166666865332829  0.5625000000092442  0.3605200052333331   F   F   F
  0.4174846446233502  0.9349015419638889  0.6397639000526638   F   F   F
  0.4999998266719672  0.8734268178227182  0.5008744600831534   F   F   F
  0.4209636168462794  0.6761633736259043  0.6335998303767667   F   F   F
  0.8323698995867446  0.6230780742866031  0.5000217017408062   F   F   F
  0.8327258872711738  0.3733281391284038  0.4994771794787809   F   F   F
  0.9134289205232022  0.3119319120137618  0.6393685556021396   F   F   F
  0.1668055490664528  0.3762827244308298  0.4977102684174071   F   F   F
  0.5802774172064815  0.4375550388831329  0.6459950612104848   F   F   F
  0.5796160367399992  0.6850801642146962  0.6392918072627936   F   F   F
  0.9169974015386799  0.1869910012032960  0.6398578051882211   F   F   F
  0.4159277185065022  0.9370945479426780  0.5460620679063979   F   F   F
  0.1670438106147216  0.1246081965409616  0.4995482247646734   F   F   F
  0.7488018819587978  0.0587393311900613  0.5436162938821809   F   F   F
  0.1677549353581895  0.8732732231968683  0.4998799394029305   F   F   F
  0.5010879075737904  0.7562725407843445  0.5930108517574624   F   F   F
  0.5003570415573364  0.6208573086588132  0.5001026093300425   F   F   F
  0.7548322371892837  0.4345253281768535  0.6385101277808047   F   F   F
  0.2520915710372691  0.1882296019851353  0.5472538536887654   F   F   F
  0.7485691373439565  0.1823110177133884  0.5508687718637972   F   F   F
  0.0821312561109053  0.5643972152829591  0.5462240473221343   F   F   F
  0.3975018517857833  0.5505459379088862  0.6517830880386128   F   F   F
  0.1677918361090107  0.6243269750792919  0.5000239610628441   F   F   F
  0.8331735278183174  0.1247194974659465  0.4998000396320776   F   F   F
  0.0861497767339969  0.6893989404937244  0.5452412167720695   F   F   F
  0.5915661343110017  0.5643495631244093  0.6391749760726526   F   F   F
  0.0000000000000000  0.0000000000000000  0.4070133268666680   F   F   F
  0.5832697100152799  0.0636666817458575  0.4538316611871949   F   F   F
  0.9166666865332829  0.6874999999963620  0.3605200052333331   F   F   F
  0.9166666865332829  0.4374999701794380  0.3605200052333331   F   F   F
  0.9166666865332829  0.1875000000030838  0.3605200052333331   F   F   F
  0.5833333134730552  0.9375000000154046  0.3605200052333331   F   F   F
  0.5833333134730552  0.6874999999963620  0.3605200052333331   F   F   F
  0.5833333134730552  0.4374999701794380  0.3605200052333331   F   F   F
  0.5833333134730552  0.1875000000030838  0.3605200052333331   F   F   F
  0.2499999999799343  0.9375000000154046  0.3605200052333331   F   F   F
  0.9166666865332829  0.9375000000154046  0.3605200052333331   F   F   F
  0.9177032137851384  0.0633158777942171  0.5475062060306684   F   F   F
  0.2499999999799343  0.6874999999963620  0.3605200052333331   F   F   F
  0.7499999404149307  0.9375000000154046  0.3605200052333331   F   F   F
  0.7325119586966194  0.2182667279984329  0.7514623975320753   T   T   T
  0.5845206928176623  0.5627985102483635  0.4548041503428379   F   F   F
  0.7499999404149307  0.6874999999963620  0.3605200052333331   F   F   F
  0.4166666269218169  0.9375000000154046  0.3605200052333331   F   F   F
  0.4166666269218169  0.6874999999963620  0.3605200052333331   F   F   F
  0.4166666269218169  0.4374999701794380  0.3605200052333331   F   F   F
  0.2499999999799343  0.4374999701794380  0.3605200052333331   F   F   F
  0.0833333358191695  0.0625000000159659  0.3605200052333331   F   F   F
  0.9153440613529398  0.6867178149460997  0.4531003841772403   F   F   F
  0.6656590583031274  0.3786727851957750  0.5029697703208100   F   F   F
  0.3345586760845833  0.3781451908780369  0.5031385036382119   F   F   F
  0.3356737521857269  0.6258506422986159  0.5037417664415287   F   F   F
  0.2500601854884010  0.1885669172895064  0.4542612092708893   F   F   F
  0.2499999999799343  0.1875000000030838  0.3605200052333331   F   F   F
  0.2504924086637885  0.0621045798310149  0.4542697372244504   F   F   F
  0.7494702984066421  0.9384500616615270  0.4553514208739742   F   F   F
  0.7499999404149307  0.4374999701794380  0.3605200052333331   F   F   F
  0.7499999404149307  0.1875000000030838  0.3605200052333331   F   F   F
  0.5833333134730552  0.0625000000159659  0.3605200052333331   F   F   F
  0.7490788515118041  0.6886375624789451  0.4573899902888954   F   F   F
  0.7496639069834998  0.4384805075528888  0.4557153622027315   F   F   F
  0.9160634906114780  0.4371530258018410  0.4535643291986844   F   F   F
  0.7507885287840992  0.1901661388248002  0.4558016297789607   F   F   F
  0.4171877731275586  0.9360946052521086  0.4540304489963560   F   F   F
  0.4171493324560345  0.6849090580234005  0.4548017067992234   F   F   F
  0.4168265366363286  0.4353118653779546  0.4538484450436329   F   F   F
  0.0845539773370803  0.6868178752978409  0.4529815485117510   F   F   F
  0.0841027813338044  0.9367525301561130  0.4535678320656444   F   F   F
  0.0828928915880880  0.4368264769327794  0.4528456198090609   F   F   F
  0.0839892653403922  0.1866431520083935  0.4529878781157848   F   F   F
  0.9165657933581173  0.8120353786801360  0.4540548169843248   F   F   F
  0.9160762280949015  0.0620516360180190  0.4540251582449741   F   F   F
  0.7494568441038183  0.8131478293413679  0.4529966458653902   F   F   F
  0.9162447861428120  0.3122831601919458  0.4536740169974678   F   F   F
  0.2522045979598317  0.6875011109913913  0.4560473905388633   F   F   F
  0.7464534877943123  0.5575692160425731  0.5446156686522556   F   F   F
  0.9164569288778850  0.9368653985179165  0.4534602997409394   F   F   F
  0.0002239078499287  0.1248253448349885  0.4978385030388637   F   F   F
  0.5832078150272864  0.8103947210289064  0.4553374857431507   F   F   F
  0.0002347891995811  0.3737315280769380  0.4980697699384393   F   F   F
  0.9998778452407890  0.6271112238203216  0.4977047328127284   F   F   F
  0.3338743857284996  0.1256786902503322  0.4987561255020623   F   F   F
  0.0001066129904004  0.8750243773620099  0.4994060624679975   F   F   F
  0.3334757901654442  0.8740160007783757  0.4992575012785707   F   F   F
  0.6661810125102150  0.1262307254541781  0.4988443471336979   F   F   F
  0.2512975216783460  0.4393763737477343  0.4550157247171782   F   F   F
  0.0833333358191695  0.5625000000092442  0.3605200052333331   F   F   F
  0.9166666865332829  0.0625000000159659  0.3605200052333331   F   F   F
  0.4172894335840311  0.1871022557790312  0.4535522466961908   F   F   F
  0.9162153543346179  0.3127527135217179  0.5461298934942391   F   F   F
  0.4233048014210894  0.6878221461977461  0.5466854548919429   F   F   F
  0.5827553018939966  0.1903234291339899  0.4556059466113780   F   F   F
  0.2511602932235490  0.0625671281004117  0.5472919625036496   F   F   F
  0.5839731704141329  0.3101926042217187  0.5450166738112117   F   F   F
  0.2499999999799343  0.8124999999834799  0.3605200052333331   F   F   F
  0.0833333358191695  0.1875000000030838  0.3605200052333331   F   F   F
  0.0000000000000000  0.2500000000190425  0.4070133268666680   F   F   F
  0.0000000000000000  0.4999999999932783  0.4070133268666680   F   F   F
  0.7481928532153503  0.5642879887907526  0.4537590233498108   F   F   F
  0.3333333432766779  0.0000000000000000  0.4070133268666680   F   F   F
  0.3333333432766779  0.4999999999932783  0.4070133268666680   F   F   F
  0.3333333432766779  0.7500000000123208  0.4070133268666680   F   F   F
  0.5827746759856609  0.6860926646050629  0.4546247833292796   F   F   F
  0.6666666865533486  0.0000000000000000  0.4070133268666680   F   F   F
  0.6666666865533486  0.4999999999932783  0.4070133268666680   F   F   F
  0.8333332538436267  0.2500000000190425  0.4070133268666680   F   F   F
  0.1666666716383389  0.0000000000000000  0.4070133268666680   F   F   F
  0.1666666716383389  0.4999999999932783  0.4070133268666680   F   F   F
  0.1666666716383389  0.7500000000123208  0.4070133268666680   F   F   F
  0.5000000000021103  0.4999999999932783  0.4070133268666680   F   F   F
  0.5000000000021103  0.2500000000190425  0.4070133268666680   F   F   F
  0.9166666865332829  0.3124999999901945  0.3605200052333331   F   F   F
  0.3333333432766779  0.2500000000190425  0.4070133268666680   F   F   F
  0.7477308625784076  0.3145359269891514  0.4540263423105131   F   F   F
  0.0000000000000000  0.7500000000123208  0.4070133268666680   F   F   F
  0.4168944807410497  0.8103909071688875  0.4549462510836264   F   F   F
  0.5843705927885594  0.3154594589532991  0.4535845507311436   F   F   F
  0.5827062701032020  0.9371710433755212  0.4543137984876466   F   F   F
  0.6666666865533486  0.2500000000190425  0.4070133268666680   F   F   F
  0.2522980754533322  0.3141994829961945  0.4540862258034153   F   F   F
  0.1666666716383389  0.2500000000190425  0.4070133268666680   F   F   F
  0.2505015647305271  0.8107786494943099  0.4553220651126324   F   F   F
  0.5833333134730552  0.5625000000092442  0.3605200052333331   F   F   F
  0.2500555533199957  0.9361095245526840  0.4540314456156480   F   F   F
  0.8333332538436267  0.0000000000000000  0.4070133268666680   F   F   F
  0.5000000000021103  0.7500000000123208  0.4070133268666680   F   F   F
  0.6666666865533486  0.7500000000123208  0.4070133268666680   F   F   F
  0.5000000000021103  0.0000000000000000  0.4070133268666680   F   F   F
  0.6654333532646461  0.6260369894837226  0.5029405804833758   F   F   F
  0.2499999999799343  0.0625000000159659  0.3605200052333331   F   F   F
  0.2499999999799343  0.5625000000092442  0.3605200052333331   F   F   F
  0.2499999999799343  0.3124999999901945  0.3605200052333331   F   F   F
  0.7499999404149307  0.5625000000092442  0.3605200052333331   F   F   F
  0.7499999404149307  0.3124999999901945  0.3605200052333331   F   F   F
  0.7499999404149307  0.0625000000159659  0.3605200052333331   F   F   F
  0.4166666269218169  0.8124999999834799  0.3605200052333331   F   F   F
  0.4166666269218169  0.3124999999901945  0.3605200052333331   F   F   F
  0.7499999404149307  0.8124999999834799  0.3605200052333331   F   F   F
  0.4166666269218169  0.0625000000159659  0.3605200052333331   F   F   F
  0.4171120922159304  0.0616569460543630  0.4553679334007725   F   F   F
  0.0835329200470767  0.8120654897607977  0.4541823775844236   F   F   F
  0.4166666269218169  0.5625000000092442  0.3605200052333331   F   F   F
  0.5833333134730552  0.3124999999901945  0.3605200052333331   F   F   F
  0.5833333134730552  0.8124999999834799  0.3605200052333331   F   F   F
  0.0835655974092830  0.3119255549231852  0.4540068855821531   F   F   F
  0.8333332538436267  0.7500000000123208  0.4070133268666680   F   F   F
  0.4145695607879034  0.8116317349008639  0.5477312649948161   F   F   F
  0.8333332538436267  0.4999999999932783  0.4070133268666680   F   F   F
  0.7498119092624336  0.0647347085320931  0.4527234193346530   F   F   F
  0.4166666269218169  0.1875000000030838  0.3605200052333331   F   F   F
  0.0833333358191695  0.9375000000154046  0.3605200052333331   F   F   F
  0.0833333358191695  0.8124999999834799  0.3605200052333331   F   F   F
  0.0833333358191695  0.4374999701794380  0.3605200052333331   F   F   F
  0.2518823354669522  0.5645973232893127  0.4537258420169863   F   F   F
  0.4156115919007632  0.3112774778489182  0.4573952682335118   F   F   F
  0.0839520222141914  0.0619674903676213  0.4540803969599736   F   F   F
  0.4160961601124598  0.5594803270282398  0.4578521103053887   F   F   F
  0.0839570688836986  0.5624769345310980  0.4538817060359861   F   F   F
  0.0833333358191695  0.6874999999963620  0.3605200052333331   F   F   F
  0.8359886318441241  0.7516623637284638  0.5025852781942177   F   F   F
  0.1666666716383389  0.8749999404036828  0.4070133268666680   F   F   F
  0.0000000000000000  0.1249999999871179  0.4070133268666680   F   F   F
  0.8361964153142836  0.2486892921615862  0.5021308918112553   F   F   F
  0.9997112599291356  0.6228952256989331  0.6276193604236369   F   F   F
  0.8333332538436267  0.3750000000061604  0.4070133268666680   F   F   F
  0.8370925043246018  0.3732489565988644  0.6031053090807816   F   F   F
  0.5000000000021103  0.6249999999803961  0.4070133268666680   F   F   F
  0.1638029226047806  0.4998689933084393  0.5020671362044311   F   F   F
  0.9993979698659174  0.8748427998589818  0.6226227569245637   F   F   F
  0.3315146228602330  0.1196908972095017  0.6124561025360435   F   F   F
  0.8395617089420995  0.6269935101967050  0.6036408223776064   F   F   F
  0.5000000000021103  0.3750000000061604  0.4070133268666680   F   F   F
  0.5000000000021103  0.1249999999871179  0.4070133268666680   F   F   F
  0.8320282774608003  0.8761273032493051  0.6189119959390865   F   F   F
  0.8333332538436267  0.1249999999871179  0.4070133268666680   F   F   F
  0.6663315292781036  0.6262440513245409  0.5936217736090441   F   F   F
  0.5000000000021103  0.8749999404036828  0.4070133268666680   F   F   F
  0.5031923887476424  0.3708664066599354  0.5959241601058096   F   F   F
  0.5037776244021117  0.6247272131452490  0.5940617804180732   F   F   F
  0.8347064714513550  0.1245291338337466  0.6178994368489654   F   F   F
  0.9999273883314928  0.3743514819814706  0.6250389894097950   F   F   F
  0.6654481511142762  0.8810697833791963  0.6072602096595432   F   F   F
  0.1666666716383389  0.6249999999803961  0.4070133268666680   F   F   F
  0.1636404126044368  0.3715214899284192  0.6078345732891606   F   F   F
  0.1596884826926726  0.6272337498778029  0.6013232584384625   F   F   F
  0.6726355981748640  0.3721512239678475  0.5942579133916936   F   F   F
  0.1664561459801348  0.8733969876303007  0.6181277654817876   F   F   F
  0.3345586905081248  0.8787308730206789  0.6028502140502496   F   F   F
  0.6666666865533486  0.8749999404036828  0.4070133268666680   F   F   F
  0.1678352196674382  0.1231186435891019  0.6223347605774450   F   F   F
  0.3343822022435177  0.6243343268699775  0.5951814311635033   F   F   F
  0.6658533507535296  0.1251684293393396  0.6126865225765172   F   F   F
  0.5003553162373962  0.1217696403653079  0.6057149575489902   F   F   F
  0.3266386387686708  0.3734505717904639  0.5928477836091020   F   F   F
  0.1666666716383389  0.1249999999871179  0.4070133268666680   F   F   F
  0.8360488510644473  0.5000537809742411  0.5028749262353074   F   F   F
  0.1644882045013816  0.7515194690369853  0.5033249473326009   F   F   F
  0.5014366076182029  0.4995892114731504  0.5004458370441967   F   F   F
  0.3302744409032883  0.2480659871446562  0.5026943290432442   F   F   F
  0.6666666865533486  0.3750000000061604  0.4070133268666680   F   F   F
  0.3313935660681224  0.4990887677220499  0.5010611573310655   F   F   F
  0.0007325027998064  0.1226429466644205  0.6200578948626969   F   F   F
  0.1666666716383389  0.3750000000061604  0.4070133268666680   F   F   F
  0.3331666100053994  0.0011036515146827  0.5057469677857611   F   F   F
  0.6660466997342240  0.9999038150152515  0.5054885976426391   F   F   F
  0.1660592409599104  0.0012219387275465  0.5065486000601354   F   F   F
  0.6653673409454370  0.7518216790842587  0.5021733199432887   F   F   F
  0.6672238228279639  0.2476806424911757  0.5026115035622993   F   F   F
  0.8333332538436267  0.6249999999803961  0.4070133268666680   F   F   F
  0.0000000000000000  0.3750000000061604  0.4070133268666680   F   F   F
  0.3339878384316890  0.7511076926646751  0.5015205314736733   F   F   F
  0.5014985539510306  0.2480917728575776  0.5023015656304821   F   F   F
  0.0000945392719842  0.9999604867937535  0.5066530924828498   F   F   F
  0.5011006026527625  0.7527872809938003  0.5039816902111696   F   F   F
  0.3333333432766779  0.3750000000061604  0.4070133268666680   F   F   F
  0.6685735541769589  0.4996760550764208  0.5007812511175089   F   F   F
  0.0000000000000000  0.8749999404036828  0.4070133268666680   F   F   F
  0.5002947257138430  0.9992014489469057  0.5054538409874993   F   F   F
  0.5007204743075491  0.8767431991876649  0.6095692175860634   F   F   F
  0.1663710885993268  0.2481711938661348  0.5063192274383255   F   F   F
  0.3333333432766779  0.8749999404036828  0.4070133268666680   F   F   F
  0.8344900830683102  0.0000923331117662  0.5063880013966227   F   F   F
  0.0000000000000000  0.6249999999803961  0.4070133268666680   F   F   F
  0.3333333432766779  0.1249999999871179  0.4070133268666680   F   F   F
  0.3333333432766779  0.6249999999803961  0.4070133268666680   F   F   F
  0.8333332538436267  0.8749999404036828  0.4070133268666680   F   F   F
  0.6666666865533486  0.6249999999803961  0.4070133268666680   F   F   F
  0.0010947168622977  0.2500743132118259  0.5059320018263804   F   F   F
  0.9999774440097227  0.7509566501494476  0.5065824178479588   F   F   F
  0.9998001257597551  0.5004419168222327  0.5067959833547917   F   F   F
  0.6666666865533486  0.1249999999871179  0.4070133268666680   F   F   F
  0.7517974351227110  0.7525389885202287  0.5904783456063569   F   F   F
  0.0833333358191695  0.2500000000190425  0.4070133268666680   F   F   F
  0.9179891360749650  0.7519534434467374  0.6032421945552287   F   F   F
  0.0833333358191695  0.4999999999932783  0.4070133268666680   F   F   F
  0.4166666269218169  0.4999999999932783  0.4070133268666680   F   F   F
  0.2499999999799343  0.2500000000190425  0.4070133268666680   F   F   F
  0.5838425982805759  0.8757049184732608  0.5057776656562325   F   F   F
  0.9190016268703758  0.3747719428708649  0.5057171608962321   F   F   F
  0.0833333358191695  0.0000000000000000  0.4070133268666680   F   F   F
  0.9166666865332829  0.4999999999932783  0.4070133268666680   F   F   F
  0.9166666865332829  0.7500000000123208  0.4070133268666680   F   F   F
  0.5837058197939129  0.1233185986886269  0.5047094159886356   F   F   F
  0.7522962343404274  0.6244660323076729  0.5025039685124995   F   F   F
  0.0833333358191695  0.7500000000123208  0.4070133268666680   F   F   F
  0.9182644814233640  0.4999645861604165  0.6036768922317890   F   F   F
  0.2499999999799343  0.0000000000000000  0.4070133268666680   F   F   F
  0.4165952453123367  0.8767706843014622  0.5039088152181108   F   F   F
  0.4166666269218169  0.0000000000000000  0.4070133268666680   F   F   F
  0.9166666865332829  0.0000000000000000  0.4070133268666680   F   F   F