H 
 1.0000000000000000
    23.6707801818999997    0.0000000000000000    0.0000000000000000
     0.0000000000000000   27.8962826732999716    0.0000000000000000
     0.0000000000000000    0.0000000000000000   30.0000000000000000
 H  
   2
Cartesian
 11.8353900909499998 13.9481413366499858 14.6321987816109083
 11.8353900909499998 13.9481413366499858 15.3678012183890935
