Au  C  H  O Sr Ti                       
   1.00000000000000     
    23.6707801818999997    0.0000000000000000    0.0000000000000000
     0.0000000000000000   22.3170261383000010    0.0000000000000000
     0.0000000000000000    0.0000000000000000   30.0000000000000000
   Au   C    H    O    Sr   Ti
    50     1     1   265    72    72
Selective dynamics
Direct
  0.7146619181295942  0.5251266301670379  0.7532161312320160   T   T   T
  0.5518304945729888  0.2155173372202173  0.7100589581836229   T   T   T
  0.6204855259475802  0.5717318144476571  0.7040415171017430   T   T   T
  0.7198727503533372  0.2591922579125742  0.6906682647472193   T   T   T
  0.2950438303403676  0.7467719328416035  0.6960011116647856   T   T   T
  0.5109938188066299  0.6044098097276255  0.7771819083414147   T   T   T
  0.5785231628577264  0.7256901473294631  0.7939966070265223   T   T   T
  0.2402166231242609  0.4698416883595714  0.7089677522808888   T   T   T
  0.2856149800727589  0.6632554229604976  0.7642745369043965   T   T   T
  0.5985727564066100  0.2913161232803690  0.7840171873980830   T   T   T
  0.5138216821673547  0.4850119034200230  0.6782672943928052   T   T   T
  0.2888582016330529  0.5391107657011033  0.7773376731238408   T   T   T
  0.5624241861448209  0.4867031471873312  0.7623906197494966   T   T   T
  0.7642020813663244  0.4319084525608443  0.7046751868467441   T   T   T
  0.3919060839106616  0.8180550461550929  0.7065326328218985   T   T   T
  0.4638608149578562  0.6966873033859255  0.8307833059361291   T   T   T
  0.4345927998668641  0.2274666110542324  0.6984639595886286   T   T   T
  0.3683399001250041  0.3000090912295666  0.7564970503638976   T   T   T
  0.3491095759320372  0.5001157217423410  0.6979496464868865   T   T   T
  0.4266211059660217  0.3727134212776052  0.8171949783765919   T   T   T
  0.5965688942574621  0.7845448419242118  0.7130335339719783   T   T   T
  0.6338162210076843  0.5846647414139741  0.8001787270349422   T   T   T
  0.7326472742513375  0.6146542265708229  0.6940473789826486   T   T   T
  0.5462282157604279  0.3867682082337541  0.8286686843481509   T   T   T
  0.4862649011950673  0.7768298556811596  0.7548789494251377   T   T   T
  0.4830181138010800  0.2714328268709955  0.7751064873816773   T   T   T
  0.4619703439959859  0.5746864633203997  0.8646203405104752   T   T   T
  0.7066324448463998  0.7569873490415652  0.6883786853098330   T   T   T
  0.6543790167432150  0.4419815921871358  0.8134548093221211   T   T   T
  0.3681828349814481  0.6202363172426568  0.8203405449508271   T   T   T
  0.5684540511114003  0.5110700100645857  0.8571107388461535   T   T   T
  0.6635160041868789  0.1912476737412163  0.7481975703396517   T   T   T
  0.4690296591275888  0.4523641150902213  0.8800294287424197   T   T   T
  0.5164669912492923  0.3780854099751434  0.7326990012191796   T   T   T
  0.2810546795413817  0.3414435808431918  0.7027147326606485   T   T   T
  0.6694390784296952  0.6813310635342875  0.7487937777340077   T   T   T
  0.3971433636005824  0.3820626354297583  0.6910557755661734   T   T   T
  0.4517130261381471  0.5801368097982920  0.7031918801100672   T   T   T
  0.6157833244830382  0.3228368296561426  0.6955689307705194   T   T   T
  0.3241869477074438  0.4162236214870740  0.7700763276828190   T   T   T
  0.4174546158061857  0.6968769116816644  0.6995799132489251   T   T   T
  0.6987107758170578  0.3464711917361705  0.7566699022766333   T   T   T
  0.7728326871127623  0.4291466752617154  0.7948144586025440   T   T   T
  0.2568633867796120  0.5935964330145084  0.6944445987180374   T   T   T
  0.6494218775711358  0.4477118503630057  0.6934921271899349   T   T   T
  0.5642539583325118  0.6403882441531832  0.8617170078875371   T   T   T
  0.5401018512903509  0.6678489489013568  0.7017633954179417   T   T   T
  0.4428248692674834  0.4740664585934148  0.7572637218714198   T   T   T
  0.3746635270734168  0.7407022077831393  0.7789906697664665   T   T   T
  0.3739307314615772  0.4946259514402211  0.8336208761184303   T   T   T
  0.7250657563145249  0.1251709864697363  0.7557300930022297   T   T   T
  0.7402794670228533  0.1059249364536410  0.7241006415119010   T   T   T
  0.7463921147886863  0.5579384941145978  0.5445675902252015   T   T   T
  0.7491604346402498  0.6885951431839210  0.4574550708158091   T   T   T
  0.7496842879830997  0.4383876314578428  0.4557102439459473   T   T   T
  0.7508820370531604  0.1899176745490794  0.4556805626630590   T   T   T
  0.4171999102748657  0.9361555661414098  0.4540868816184156   T   T   T
  0.4172069810714497  0.6850891759863402  0.4550952723490342   T   T   T
  0.4163340102080770  0.4354844589791664  0.4540454624015501   T   T   T
  0.0843955865813695  0.6869562540094832  0.4531497042638480   T   T   T
  0.0839374390673167  0.9367007022551181  0.4534819268269598   T   T   T
  0.0827327749382506  0.4368520526959425  0.4527540277407273   T   T   T
  0.0839762172032139  0.1865747407567546  0.4530380340465927   T   T   T
  0.9165676250669638  0.8121201734941427  0.4540837244817970   T   T   T
  0.7390812192651518  0.1103737013160275  0.7922401136930247   T   T   T
  0.9160684583324183  0.5622876563924480  0.4540567134630391   T   T   T
  0.9160551222556368  0.0623147671133678  0.4540916028411909   T   T   T
  0.9162467822430470  0.3121497897025615  0.4537797460772690   T   T   T
  0.4169724607372189  0.1871981074654797  0.4535229029710650   T   T   T
  0.2521208387140963  0.6876438683869981  0.4560386489970071   T   T   T
  0.9165219252199420  0.9371623938432011  0.4535872523311694   T   T   T
  0.5825904517580612  0.1904107757962315  0.4554885559380821   T   T   T
  0.0000926192022834  0.1251070412362258  0.4983982278080609   T   T   T
  0.5831330153829741  0.8105020247733008  0.4553491709878580   T   T   T
  0.0000396776979330  0.3734377731060974  0.4984659709101439   T   T   T
  0.9997138192409031  0.6272420595206392  0.4976301774475564   T   T   T
  0.3336669956784829  0.1257130761530844  0.4985121058757934   T   T   T
  0.0000694397668121  0.8751070583296202  0.4994726417160712   T   T   T
  0.3335202842875821  0.8742553313352602  0.4992112548549894   T   T   T
  0.6657995692900157  0.1275557892525704  0.4995828008154001   T   T   T
  0.2511941374932432  0.4394227822452978  0.4549618078224253   T   T   T
  0.0833333358191695  0.5625000000092442  0.3605200052333331   F   F   F
  0.7494703021352576  0.9384605291380229  0.4554010000484803   T   T   T
  0.9166666865332829  0.0625000000159659  0.3605200052333331   F   F   F
  0.2501255338312856  0.1887501900113007  0.4541760444897363   T   T   T
  0.3356319134268648  0.6257395622934665  0.5037889966108027   T   T   T
  0.5827653684923273  0.6860786893392506  0.4546125726962869   T   T   T
  0.5826979749812301  0.4396480769354329  0.4564300042623366   T   T   T
  0.2499743583629520  0.9361303521950335  0.4540632262819962   T   T   T
  0.6652848183162179  0.6260378250320480  0.5029689036092070   T   T   T
  0.5845155660239173  0.5628393200888354  0.4548186573143858   T   T   T
  0.5834102635401356  0.0639061079182304  0.4537287543552434   T   T   T
  0.9166666865332829  0.6874999999963620  0.3605200052333331   F   F   F
  0.9166666865332829  0.4374999701794380  0.3605200052333331   F   F   F
  0.9166666865332829  0.1875000000030838  0.3605200052333331   F   F   F
  0.5833333134730552  0.9375000000154046  0.3605200052333331   F   F   F
  0.5833333134730552  0.6874999999963620  0.3605200052333331   F   F   F
  0.5833333134730552  0.4374999701794380  0.3605200052333331   F   F   F
  0.5833333134730552  0.1875000000030838  0.3605200052333331   F   F   F
  0.2499999999799343  0.9375000000154046  0.3605200052333331   F   F   F
  0.9166666865332829  0.9375000000154046  0.3605200052333331   F   F   F
  0.2499999999799343  0.6874999999963620  0.3605200052333331   F   F   F
  0.2499999999799343  0.1875000000030838  0.3605200052333331   F   F   F
  0.7499999404149307  0.9375000000154046  0.3605200052333331   F   F   F
  0.7499999404149307  0.6874999999963620  0.3605200052333331   F   F   F
  0.7499999404149307  0.4374999701794380  0.3605200052333331   F   F   F
  0.7499999404149307  0.1875000000030838  0.3605200052333331   F   F   F
  0.4166666269218169  0.9375000000154046  0.3605200052333331   F   F   F
  0.4166666269218169  0.6874999999963620  0.3605200052333331   F   F   F
  0.4166666269218169  0.4374999701794380  0.3605200052333331   F   F   F
  0.2499999999799343  0.4374999701794380  0.3605200052333331   F   F   F
  0.0833333358191695  0.0625000000159659  0.3605200052333331   F   F   F
  0.9152192284880083  0.6868005592205799  0.4532221032912277   T   T   T
  0.6653803946652006  0.3785180809669695  0.5031944365854740   T   T   T
  0.3341557512764062  0.3782845624824350  0.5031123980838172   T   T   T
  0.9175058322911744  0.0633855223750397  0.5474118757579474   T   T   T
  0.7492414275723388  0.8131626974766736  0.4530247349049828   T   T   T
  0.2505099436921966  0.0620605470866659  0.4541827687023434   T   T   T
  0.9154394820539010  0.3123718296910854  0.5466748009064133   T   T   T
  0.5833333134730552  0.3124999999901945  0.3605200052333331   F   F   F
  0.5833333134730552  0.0625000000159659  0.3605200052333331   F   F   F
  0.2499999999799343  0.8124999999834799  0.3605200052333331   F   F   F
  0.2499999999799343  0.5625000000092442  0.3605200052333331   F   F   F
  0.2499999999799343  0.3124999999901945  0.3605200052333331   F   F   F
  0.2499999999799343  0.0625000000159659  0.3605200052333331   F   F   F
  0.7499999404149307  0.5625000000092442  0.3605200052333331   F   F   F
  0.7499999404149307  0.3124999999901945  0.3605200052333331   F   F   F
  0.7499999404149307  0.0625000000159659  0.3605200052333331   F   F   F
  0.4166666269218169  0.8124999999834799  0.3605200052333331   F   F   F
  0.4166666269218169  0.5625000000092442  0.3605200052333331   F   F   F
  0.4166666269218169  0.3124999999901945  0.3605200052333331   F   F   F
  0.7499999404149307  0.8124999999834799  0.3605200052333331   F   F   F
  0.0834064026065507  0.3120283410781718  0.4539921568760487   T   T   T
  0.4166666269218169  0.0625000000159659  0.3605200052333331   F   F   F
  0.4167248146808935  0.0615516840095319  0.4552891883697945   T   T   T
  0.0834816897133253  0.8121463469465592  0.4541853555860495   T   T   T
  0.0839821307480750  0.5625238123478725  0.4539522524469505   T   T   T
  0.4160696321436212  0.5595021156974275  0.4579145908312267   T   T   T
  0.0837224954411168  0.0618710027533226  0.4542268947128043   T   T   T
  0.4155034954562711  0.3112224842028116  0.4574235572621245   T   T   T
  0.8333332538436267  0.7500000000123208  0.4070133268666680   F   F   F
  0.0833333358191695  0.4374999701794380  0.3605200052333331   F   F   F
  0.0833333358191695  0.6874999999963620  0.3605200052333331   F   F   F
  0.0833333358191695  0.9375000000154046  0.3605200052333331   F   F   F
  0.4166666269218169  0.1875000000030838  0.3605200052333331   F   F   F
  0.0833333358191695  0.8124999999834799  0.3605200052333331   F   F   F
  0.8333332538436267  0.4999999999932783  0.4070133268666680   F   F   F
  0.4145438275786387  0.8116657275479826  0.5477485462853314   T   T   T
  0.5833333134730552  0.8124999999834799  0.3605200052333331   F   F   F
  0.7488412304079262  0.0642658925859475  0.4534392103612634   T   T   T
  0.5833333134730552  0.5625000000092442  0.3605200052333331   F   F   F
  0.4169126452035444  0.8104217929177870  0.4548942029537965   T   T   T
  0.2522140049771308  0.3144289639867576  0.4539604879438826   T   T   T
  0.2517106422985136  0.5647862243127774  0.4536767631942806   T   T   T
  0.2504120056134310  0.8108360368247371  0.4553235713846066   T   T   T
  0.8333332538436267  0.2500000000190425  0.4070133268666680   F   F   F
  0.2513876491194736  0.0624730795535369  0.5471042045618520   T   T   T
  0.8333332538436267  0.0000000000000000  0.4070133268666680   F   F   F
  0.5000000000021103  0.4999999999932783  0.4070133268666680   F   F   F
  0.0833333358191695  0.1875000000030838  0.3605200052333331   F   F   F
  0.0000000000000000  0.0000000000000000  0.4070133268666680   F   F   F
  0.0000000000000000  0.2500000000190425  0.4070133268666680   F   F   F
  0.0000000000000000  0.4999999999932783  0.4070133268666680   F   F   F
  0.7482397418390226  0.5642529197183188  0.4538282862755248   T   T   T
  0.3333333432766779  0.0000000000000000  0.4070133268666680   F   F   F
  0.3333333432766779  0.4999999999932783  0.4070133268666680   F   F   F
  0.5826365815861646  0.9373508248112941  0.4544387841207571   T   T   T
  0.3333333432766779  0.7500000000123208  0.4070133268666680   F   F   F
  0.6666666865533486  0.2500000000190425  0.4070133268666680   F   F   F
  0.6666666865533486  0.4999999999932783  0.4070133268666680   F   F   F
  0.6666666865533486  0.7500000000123208  0.4070133268666680   F   F   F
  0.1666666716383389  0.0000000000000000  0.4070133268666680   F   F   F
  0.1666666716383389  0.2500000000190425  0.4070133268666680   F   F   F
  0.1666666716383389  0.4999999999932783  0.4070133268666680   F   F   F
  0.1666666716383389  0.7500000000123208  0.4070133268666680   F   F   F
  0.5000000000021103  0.0000000000000000  0.4070133268666680   F   F   F
  0.5000000000021103  0.2500000000190425  0.4070133268666680   F   F   F
  0.5000000000021103  0.7500000000123208  0.4070133268666680   F   F   F
  0.9166666865332829  0.3124999999901945  0.3605200052333331   F   F   F
  0.3333333432766779  0.2500000000190425  0.4070133268666680   F   F   F
  0.7472936930210492  0.3141137563850568  0.4546731472922961   T   T   T
  0.0000000000000000  0.7500000000123208  0.4070133268666680   F   F   F
  0.6666666865533486  0.0000000000000000  0.4070133268666680   F   F   F
  0.9156271498831651  0.1867706908436418  0.4532142531096385   T   T   T
  0.5843416484553327  0.3154815390135971  0.4535685373603270   T   T   T
  0.1670430428471185  0.1243197435222759  0.4992915815235291   T   T   T
  0.4229473282552269  0.6877103863309461  0.5468433986609725   T   T   T
  0.7484779588181150  0.1835853636407405  0.5509246346323132   T   T   T
  0.4159454813627242  0.9371355842079701  0.5461545310455699   T   T   T
  0.4981993225486062  0.2534996527787444  0.5913011326698665   T   T   T
  0.4159518145384557  0.1913523315854652  0.5465664678202575   T   T   T
  0.0857271865221142  0.6895018432984327  0.5454116624874404   T   T   T
  0.0829090917843089  0.4389373773295205  0.5447722282401043   T   T   T
  0.0837710994764735  0.1886916031079200  0.5456344776254782   T   T   T
  0.4992679434277987  0.1256989509703360  0.4989804782823198   T   T   T
  0.9995720939753682  0.4986921334054737  0.5942269035989709   T   T   T
  0.5793405535852290  0.1848109445956481  0.5504096246770502   T   T   T
  0.9996650947106069  0.7537053244420662  0.5927888564344115   T   T   T
  0.3340704625836674  0.9998664778019856  0.5918982749241527   T   T   T
  0.9998684423730720  0.9992021566562296  0.5932598510822111   T   T   T
  0.0012077743810372  0.2497224695233485  0.5922054864318587   T   T   T
  0.3330540950574375  0.4963339074205254  0.5910237644249929   T   T   T
  0.3355783451194732  0.7410925051808791  0.5902294347214223   T   T   T
  0.6630059949863294  0.2474335540731446  0.5902569701068576   T   T   T
  0.6661126315174617  0.0009621325810224  0.5919739368107317   T   T   T
  0.6657710337187989  0.7412991329002643  0.5903981415024185   T   T   T
  0.6668029880224272  0.4943547852604779  0.5915329387027916   T   T   T
  0.1674751542735419  0.9983665023661429  0.5922808043422739   T   T   T
  0.1686250448579233  0.2484974889807354  0.5933806348615375   T   T   T
  0.1709775142146390  0.7504726566020952  0.5950989295733526   T   T   T
  0.2481332590744100  0.4359047066330973  0.5490813482666536   T   T   T
  0.1655058153772818  0.5035376112938131  0.5871927629240912   T   T   T
  0.3345296262357264  0.2545816402028684  0.5925954600324741   T   T   T
  0.4997007698022374  0.0000212629963704  0.5910010446511174   T   T   T
  0.8326812110131442  0.8743709627145646  0.4986406528388950   T   T   T
  0.4231466104749536  0.4434236447369161  0.5461481577094227   T   T   T
  0.7519917875719198  0.4352004284552268  0.5488978123481414   T   T   T
  0.7518495779574018  0.6802304498639538  0.5533672047794640   T   T   T
  0.7493569421737423  0.9339313967333424  0.5476698589045161   T   T   T
  0.7480957325623124  0.8079720816156529  0.5455770287352704   T   T   T
  0.9159640643675415  0.4369794819112989  0.4536747511912714   T   T   T
  0.2491926326865286  0.3136436169577714  0.5457883449888842   T   T   T
  0.5823788358850698  0.3109139004116628  0.5447175984989759   T   T   T
  0.2532258207764996  0.8124651559255929  0.5505141868461216   T   T   T
  0.5826974465368432  0.0617962684159721  0.5452019707524295   T   T   T
  0.5860091967076717  0.8144157372056845  0.5504287030703556   T   T   T
  0.7479721464114432  0.3114452261160724  0.5480234623826900   T   T   T
  0.5811395591841428  0.5599182237230992  0.5488724243027024   T   T   T
  0.2524384380729505  0.5591072048025905  0.5436743690099114   T   T   T
  0.4159493252228537  0.3194133729427792  0.5525292487243341   T   T   T
  0.5766534069785463  0.4357810412121080  0.5522522979009511   T   T   T
  0.4167458424399813  0.0652871869634475  0.5472007107609781   T   T   T
  0.0850308762163716  0.8128402888866955  0.5473467625667090   T   T   T
  0.7484620840224219  0.9374618529897496  0.6403083215442391   T   T   T
  0.0807956108749365  0.5645232699317254  0.5463472837516329   T   T   T
  0.0824320490823833  0.0631876535452106  0.5474665958154300   T   T   T
  0.9157348903327254  0.9387056064940036  0.5463346535894080   T   T   T
  0.9143579154759922  0.6889615586876447  0.5454437189016279   T   T   T
  0.5837991144635651  0.9375541243952714  0.5462563484786931   T   T   T
  0.9168878703377165  0.1887748389500438  0.5454455343583746   T   T   T
  0.9155089225545763  0.4373568320359675  0.5458213730595831   T   T   T
  0.5794515049804778  0.6860918264216014  0.5473997851105014   T   T   T
  0.2514728906847572  0.9372403043108354  0.5453020188046434   T   T   T
  0.4972369353861852  0.5042501194955989  0.6091017324543685   T   T   T
  0.9177673957968145  0.5637155554782172  0.5470782446933354   T   T   T
  0.4199525037635961  0.5646803034435076  0.5554607874686842   T   T   T
  0.9154764216702829  0.8128753548130799  0.5469168176615056   T   T   T
  0.0836368729915341  0.9390449964493025  0.5457953651067941   T   T   T
  0.2489554405864102  0.6831735666271470  0.5520345777387644   T   T   T
  0.0867343044025076  0.3135232479032358  0.5471370331985311   T   T   T
  0.8320404965597066  0.0020701788512871  0.5921808758722633   T   T   T
  0.0833333358191695  0.3124999999901945  0.3605200052333331   F   F   F
  0.4175626053558653  0.0652274971914783  0.6399595671059682   T   T   T
  0.4205110864302925  0.6761604470287935  0.6337231845746317   T   T   T
  0.5910649484559823  0.8101175192117728  0.6460483071671622   T   T   T
  0.9156904083048613  0.0626234910722352  0.6413081473487303   T   T   T
  0.9133272537892686  0.5625390577571987  0.6408441514615791   T   T   T
  0.9150657535013839  0.3117067426223427  0.6397578269757972   T   T   T
  0.9133332044578427  0.8131258650896522  0.6421899092803793   T   T   T
  0.5824785123373388  0.0668193373385359  0.6385385350425461   T   T   T
  0.5836319802722806  0.3217601233460832  0.6327898888962755   T   T   T
  0.5905793742235705  0.5661021695064230  0.6386841251322777   T   T   T
  0.2475109558894188  0.5739705048752360  0.6287582199435180   T   T   T
  0.7538503873861158  0.6919982939093331  0.6572738683665817   T   T   T
  0.2627539370508870  0.8002921217774247  0.6461358565312828   T   T   T
  0.2510876332696839  0.0593530259094582  0.6422810993574305   T   T   T
  0.9166666865332829  0.5625000000092442  0.3605200052333331   F   F   F
  0.5000123601876277  0.8734879200823109  0.5009322870467134   T   T   T
  0.5003120494812536  0.6210536343747626  0.5001093477310352   T   T   T
  0.8324757198280370  0.6232622187260586  0.5001525185215806   T   T   T
  0.2518399445939243  0.1880770927662981  0.5472573378424888   T   T   T
  0.8325523683373462  0.3730288308393931  0.4996568560034239   T   T   T
  0.8326741838479450  0.1243459343368608  0.5002877470173357   T   T   T
  0.1665978103356046  0.3760559164588296  0.4975283376603615   T   T   T
  0.1674605200473386  0.6243452061103149  0.5002845177147573   T   T   T
  0.5811941268214891  0.4397261858986848  0.6467380781995831   T   T   T
  0.5782373960248015  0.6859253018725805  0.6395780251770827   T   T   T
  0.9167299856970270  0.1860260138485780  0.6399469737499959   T   T   T
  0.2493567972755990  0.3164050167249032  0.6414361332292496   T   T   T
  0.7479172096639716  0.0603407504107155  0.5447915423243502   T   T   T
  0.1676889209013908  0.8732518734088514  0.4998907272391765   T   T   T
  0.5007861453798278  0.7563320427766297  0.5926412318627493   T   T   T
  0.4175425687081037  0.9349187481067383  0.6397407339010713   T   T   T
  0.7553626949821335  0.4341823677077601  0.6379222441530161   T   T   T
  0.4994401462185392  0.3742307685206215  0.4997644777376702   T   T   T
  0.2536653031610823  0.1864122561001381  0.6414181395779791   T   T   T
  0.4123694305238483  0.8128476472973258  0.6393751558988897   T   T   T
  0.4261496329311180  0.3044962603377730  0.6565609505167712   T   T   T
  0.7457208844606320  0.1947065315511449  0.6469078938539228   T   T   T
  0.3972348991128744  0.5505904313772154  0.6521185873012083   T   T   T
  0.7530718353250102  0.5686857486076551  0.6356205682590094   T   T   T
  0.7411626481637995  0.8098303428119337  0.6399552578669708   T   T   T
  0.7460134717262688  0.3127416613211881  0.6402945062406056   T   T   T
  0.7483787377090545  0.0681139278698875  0.6401183373482406   T   T   T
  0.0842976324909161  0.3111764767491697  0.6409789713342590   T   T   T
  0.0864907470323268  0.5627827036017590  0.6399173782795351   T   T   T
  0.0842292201893526  0.0603446050635035  0.6422156563643351   T   T   T
  0.0872301279784778  0.4365056919479220  0.6397737776081692   T   T   T
  0.0837193013589277  0.1852996746995703  0.6414377974297355   T   T   T
  0.4174442669899748  0.1873598426732657  0.6398221659640044   T   T   T
  0.4144663455571280  0.4184425632156716  0.6304901841190649   T   T   T
  0.6665070173426647  0.8743989231431359  0.4987922754213387   T   T   T
  0.0844456135034835  0.9355457510190888  0.6408652052227833   T   T   T
  0.8304141626671180  0.7509340698183909  0.5928142957306444   T   T   T
  0.8315292092191167  0.2482908969794341  0.5913319487808547   T   T   T
  0.8332025496405190  0.5030022987535370  0.5888231053030912   T   T   T
  0.9166666865332829  0.8124999999834799  0.3605200052333331   F   F   F
  0.2521248510106138  0.9303964821959421  0.6375005255846525   T   T   T
  0.5793641238033769  0.1928119511846458  0.6454172056728158   T   T   T
  0.0845388568010026  0.8126561033027137  0.6424625765426055   T   T   T
  0.2401409680224252  0.4422839846111742  0.6414375633948486   T   T   T
  0.9142247803311310  0.9371057237485944  0.6412275560890200   T   T   T
  0.9164402300136825  0.6874107714439838  0.6388361980553122   T   T   T
  0.9123260414438952  0.4359903022088887  0.6399873438100914   T   T   T
  0.0831566998596031  0.6870654673392843  0.6390018981848220   T   T   T
  0.2548479178387517  0.6780621567177557  0.6626266798084675   T   T   T
  0.5821911046657203  0.9360455244772848  0.6393470980921154   T   T   T
  0.5010397496814397  0.7528186860083081  0.5038589956949406   T   T   T
  0.9996051253007224  0.5000513115874119  0.5067585025540824   T   T   T
  0.1643080358545699  0.7515478197601063  0.5034457571340353   T   T   T
  0.1666666716383389  0.3750000000061604  0.4070133268666680   F   F   F
  0.0007443565445236  0.1225551761645603  0.6199376271752551   T   T   T
  0.8333332538436267  0.6249999999803961  0.4070133268666680   F   F   F
  0.6669546879945163  0.2481794410433908  0.5025567536681937   T   T   T
  0.3299860861170214  0.2479895685463404  0.5028542699311805   T   T   T
  0.3330953605157496  0.0010745279868397  0.5056702761820305   T   T   T
  0.3338442677307490  0.7512212986189737  0.5014538662486899   T   T   T
  0.1660462529815337  0.0011727655980511  0.5065848907081475   T   T   T
  0.6653813023413008  0.7519331279800766  0.5021958833575139   T   T   T
  0.6659864545123009 -0.0000333462516088  0.5056446350115599   T   T   T
  0.3311210250859528  0.4991771068174802  0.5009601109453312   T   T   T
  0.5010343814235054  0.4997338337723654  0.5003362535077945   T   T   T
  0.8358727663255976  0.2486539173667662  0.5028313608839066   T   T   T
  0.6666666865533486  0.6249999999803961  0.4070133268666680   F   F   F
  0.1663750565720922  0.2481338950231384  0.5063053954473694   T   T   T
  0.0000000000000000  0.8749999404036828  0.4070133268666680   F   F   F
  0.5009440636696205  0.2479790536495659  0.5021065046164381   T   T   T
  0.9998105120636815  0.7511345421848082  0.5067406380651865   T   T   T
  0.0010357517575560  0.2498880539113164  0.5061345818436851   T   T   T
  0.0000282864855623  0.0000147475923354  0.5066794666585588   T   T   T
  0.8333332538436267  0.8749999404036828  0.4070133268666680   F   F   F
  0.0000000000000000  0.6249999999803961  0.4070133268666680   F   F   F
  0.3333333432766779  0.6249999999803961  0.4070133268666680   F   F   F
  0.3333333432766779  0.1249999999871179  0.4070133268666680   F   F   F
  0.3333333432766779  0.3750000000061604  0.4070133268666680   F   F   F
  0.8341365517043166  0.0001850183973773  0.5066042600007344   T   T   T
  0.3333333432766779  0.8749999404036828  0.4070133268666680   F   F   F
  0.6666666865533486  0.1249999999871179  0.4070133268666680   F   F   F
  0.6666666865533486  0.3750000000061604  0.4070133268666680   F   F   F
  0.8360910974722693  0.5000479987018587  0.5027977213860166   T   T   T
  0.1634647360346109  0.4998572607631362  0.5019337651842382   T   T   T
  0.6685131378319159  0.4997862213542753  0.5006848374362637   T   T   T
  0.6666666865533486  0.8749999404036828  0.4070133268666680   F   F   F
  0.3257910298911003  0.3734368780161335  0.5927797054414017   T   T   T
  0.0000000000000000  0.3750000000061604  0.4070133268666680   F   F   F
  0.3340638429167729  0.6245688707505627  0.5950991958357912   T   T   T
  0.5000000000021103  0.8749999404036828  0.4070133268666680   F   F   F
  0.8333332538436267  0.1249999999871179  0.4070133268666680   F   F   F
  0.8333332538436267  0.3750000000061604  0.4070133268666680   F   F   F
  0.5000000000021103  0.6249999999803961  0.4070133268666680   F   F   F
  0.8360696727099370  0.7517618234192730  0.5026509382775447   T   T   T
  0.8394399675415360  0.6270651343024890  0.6040216830340527   T   T   T
  0.3314703041414199  0.1196605412267407  0.6128318788414314   T   T   T
  0.9990452190428405  0.8749923876261487  0.6237722089204364   T   T   T
  0.5000000000021103  0.1249999999871179  0.4070133268666680   F   F   F
  0.8316857436279362  0.8766586889675376  0.6181992058899771   T   T   T
  0.5002288034739079  0.9992267871880204  0.5054529618784894   T   T   T
  0.8375904344432152  0.3723277966591473  0.6036117831875978   T   T   T
  0.5009094720086410  0.8769925696784732  0.6095299843096764   T   T   T
  0.6653478606179359  0.1248926776309505  0.6098081958911782   T   T   T
  0.1666666716383389  0.1249999999871179  0.4070133268666680   F   F   F
  0.5036601325301115  0.6250213581067230  0.5941375590439372   T   T   T
  0.1666666716383389  0.8749999404036828  0.4070133268666680   F   F   F
  0.1666666716383389  0.6249999999803961  0.4070133268666680   F   F   F
  0.5000000000021103  0.3750000000061604  0.4070133268666680   F   F   F
  0.6708746836323142  0.3724373012106997  0.5930611909823845   T   T   T
  0.3345702298530831  0.8789154082265377  0.6027515008920517   T   T   T
  0.1594945733464475  0.6274410153893563  0.6014225327481602   T   T   T
  0.5013181558533095  0.3717779196416394  0.5949321458188850   T   T   T
  0.5002365467966537  0.1225615994770091  0.6066252552607267   T   T   T
  0.1663848505033580  0.8737173768496339  0.6182261616824419   T   T   T
  0.1632990863869496  0.3710339116830882  0.6076443921571336   T   T   T
  0.6654287685720012  0.8814035385418542  0.6072756611201272   T   T   T
  0.6664768586917004  0.6261426057999252  0.5934176281578087   T   T   T
  0.0002707898226130  0.3749132695587495  0.6252998927195443   T   T   T
  0.9997089604294266  0.6231376797022739  0.6247576865506383   T   T   T
  0.8345085084001865  0.1243915064981959  0.6146613885229906   T   T   T
  0.0000000000000000  0.1249999999871179  0.4070133268666680   F   F   F
  0.1678588584097793  0.1226617816946505  0.6221851264917355   T   T   T
  0.5901242251348733  0.5014793406414814  0.5935645667957624   T   T   T
  0.7496116605113398  0.0024494671370475  0.6049026680608788   T   T   T
  0.5825060006180401  0.0011636598324353  0.6041229897119763   T   T   T
  0.9164828999791117 -0.0000805008630326  0.6038031069029927   T   T   T
  0.5847573089196764  0.7498606721621163  0.5997662295082022   T   T   T
  0.2421226065859936  0.4980295965157390  0.5939055017314860   T   T   T
  0.4148590508173343  0.2483699972807556  0.5912525036317116   T   T   T
  0.5840345690407661  0.2478249467850965  0.5969249396611622   T   T   T
  0.2496140520595789  0.9976846852397547  0.6042460373267872   T   T   T
  0.7540691471416370  0.2482057922629261  0.5929980439958668   T   T   T
  0.2493721411335140  0.2457723107691699  0.6038734306198805   T   T   T
  0.4171056700155585  0.0000985648148636  0.6045952828996775   T   T   T
  0.0839802973501713  0.2477695304738179  0.6039312587421514   T   T   T
  0.2495421288550632  0.7529348112236424  0.5919575951928798   T   T   T
  0.0814974826565353  0.4995555698646106  0.6029914888071005   T   T   T
  0.0809330173193140  0.6260077651172081  0.5054897295069184   T   T   T