Au O  Sr Ti H                           
   1.00000000000000     
    23.6707801818999997    0.0000000000000000    0.0000000000000000
     0.0000000000000000   22.3170261383000010    0.0000000000000000
     0.0000000000000000    0.0000000000000000   30.0000000000000000
   Au   O    Sr   Ti   H 
    50   264    72    72     1
Selective dynamics
Direct
  0.7170042229639435  0.5259783072716289  0.7535403566925609   F   F   F
  0.6230820209204992  0.5725294249324975  0.7045828735199535   F   F   F
  0.7185045540730712  0.2593108050323423  0.6917154882212415   F   F   F
  0.2940905590306571  0.7456700031236991  0.6974686878913943   F   F   F
  0.5112971761969476  0.6041500749179747  0.7760105625495726   F   F   F
  0.5783953672686408  0.7212352506147610  0.7905521421256267   F   F   F
  0.5490265934702521  0.3842263490916267  0.8292613994109104   F   F   F
  0.2413814776417382  0.4674098371268940  0.7096930522125717   F   F   F
  0.2837530242976456  0.6613070861359347  0.7650906043200720   F   F   F
  0.6022285445357767  0.2895554696538483  0.7873224781637873   F   F   F
  0.5141625986000520  0.4837504160164841  0.6779725475606213   F   F   F
  0.5620992739997348  0.4860111252250263  0.7624693849599566   F   F   F
  0.4633244379605159  0.6956053814079439  0.8298579484456425   F   F   F
  0.7642932623544993  0.4321055694136717  0.7054741233652067   F   F   F
  0.7356575923530855  0.6130171600815615  0.6922096333984413   F   F   F
  0.6339133078653205  0.5846575939693963  0.7990783593736523   F   F   F
  0.5912714525972973  0.7852707309445321  0.7122472036280456   F   F   F
  0.4847978958738821  0.7783762302605766  0.7568459074019529   F   F   F
  0.3491612551581085  0.5005920744074217  0.6975941276148134   F   F   F
  0.4298599703144390  0.3715973507241515  0.8152227430872685   F   F   F
  0.3721777845598808  0.2983347229673257  0.7552616263077141   F   F   F
  0.4414851148833492  0.2280920922951566  0.6969695826795785   F   F   F
  0.3909320073695284  0.8174495795144878  0.7065797273179584   F   F   F
  0.2897714835671223  0.5371645919208277  0.7777610597159850   F   F   F
  0.5563436971132276  0.2100563684863346  0.7113037054688007   F   F   F
  0.4525405277704877  0.5798486169105175  0.7020963631463601   F   F   F
  0.6142912312108351  0.3212473894240162  0.6975188463675153   F   F   F
  0.7161391522117171  0.7627287547695332  0.6952072316631615   F   F   F
  0.6554989588979083  0.4418130586161340  0.8122102085255705   F   F   F
  0.3688899034582747  0.6187575061105832  0.8189842749932694   F   F   F
  0.5701850772805699  0.5100204795134786  0.8565761709526356   F   F   F
  0.6647783199201456  0.1942571661658477  0.7524049536225803   F   F   F
  0.4710517909020027  0.4503643591597424  0.8792828522317251   F   F   F
  0.5157136505694311  0.3772463340669177  0.7338033398377277   F   F   F
  0.2831656422358577  0.3378518413155689  0.7025578681756599   F   F   F
  0.6784820605147104  0.6782189879482061  0.7536339483161072   F   F   F
  0.3975796751009781  0.3821238363791295  0.6900426922704384   F   F   F
  0.3751943070409851  0.4925325469810318  0.8334035990757087   F   F   F
  0.4624292176611817  0.5730873155388068  0.8633680335380944   F   F   F
  0.3263077057703967  0.4141661010397613  0.7693596261993179   F   F   F
  0.4871310077779754  0.2684977588432602  0.7752083705495352   F   F   F
  0.4201079247617372  0.6970690506297714  0.6996819280108326   F   F   F
  0.7002693898045464  0.3466332481096828  0.7566671649210761   F   F   F
  0.7739121367483719  0.4301086721690410  0.7959193029975111   F   F   F
  0.2570080372836472  0.5918531811124552  0.6947876712444980   F   F   F
  0.6474199994799505  0.4447510977023796  0.6966773031160614   F   F   F
  0.5639907220516278  0.6394620714481007  0.8609286106318663   F   F   F
  0.5434290444017620  0.6676632395577826  0.7009571207618066   F   F   F
  0.4428235912085441  0.4747082337786992  0.7561731821396194   F   F   F
  0.3731973519791865  0.7393136606626811  0.7783457383507653   F   F   F
  0.2499365328301053  0.1886828946533470  0.4543277626316780   F   F   F
  0.7495039004347177  0.9382422136154602  0.4554223497417738   F   F   F
  0.7490585869133426  0.6885814022350090  0.4572801399083062   F   F   F
  0.7495685245422194  0.4382939790414895  0.4557654459568070   F   F   F
  0.7501802458076909  0.1897572734812130  0.4556014759397371   F   F   F
  0.4169298004998936  0.9357872607874853  0.4538753263573057   F   F   F
  0.4168564942827686  0.6846550729295586  0.4547865529718251   F   F   F
  0.4164539605265176  0.4354566725778923  0.4537921713035189   F   F   F
  0.0845892830221260  0.6869352944433658  0.4530526278000409   F   F   F
  0.0841586300697017  0.9367680511342797  0.4536182026122901   F   F   F
  0.0827782434081712  0.4368268467928402  0.4528782264904407   F   F   F
  0.0838660462560910  0.1865590022286128  0.4529588201213812   F   F   F
  0.9165953922048757  0.8121528674897007  0.4540864441525301   F   F   F
  0.9163213547789510  0.5624996510746740  0.4537452651748239   F   F   F
  0.2511836808074435  0.4393189058164566  0.4549038138789854   F   F   F
  0.9161499091724110  0.0621709140471438  0.4540956898187716   F   F   F
  0.9162450106151994  0.3122246621165701  0.4538457602317365   F   F   F
  0.4173430836663030  0.1869959983804250  0.4535199122111493   F   F   F
  0.2523392112941565  0.6874266882006737  0.4559258059108231   F   F   F
  0.9164239539278896  0.9370551691057756  0.4536584171561415   F   F   F
  0.5826666309128612  0.1892249910451866  0.4551700309241724   F   F   F
  0.0000720296590515  0.1251020247963197  0.4984178563475936   F   F   F
  0.5833064820872877  0.8102551041002144  0.4552629696558625   F   F   F
  0.9999793484041746  0.3733973152615775  0.4984142955834940   F   F   F
  0.0003400107911560  0.6270149670212462  0.4977270328070560   F   F   F
  0.3335969320629175  0.1256122001417879  0.4984965080156698   F   F   F
  0.0001841793805326  0.8751568058839965  0.4996131821435412   F   F   F
  0.3333826661211674  0.8735914145776462  0.4989707047392784   F   F   F
  0.6659947079744413  0.1260222466316065  0.4991262796138329   F   F   F
  0.3353655535432338  0.6250605709337549  0.5041453591341849   F   F   F
  0.3343505648433762  0.3784607476079174  0.5029247937198633   F   F   F
  0.6654294565469741  0.3785869661228318  0.5033124979253643   F   F   F
  0.9155556887848704  0.6868082118182670  0.4531210964176964   F   F   F
  0.9158092080372242  0.4370049063998849  0.4536529410785519   F   F   F
  0.9158149576435548  0.1869417989734217  0.4532079291992162   F   F   F
  0.5829268889812340  0.9363237156092552  0.4541848466156253   F   F   F
  0.5827097864214892  0.6859991675253312  0.4546328708352192   F   F   F
  0.5827425555224721  0.4389426694709329  0.4559971818657544   F   F   F
  0.2499985442382879  0.9360134302036016  0.4540435590330105   F   F   F
  0.6653142329630768  0.6260476120430738  0.5030011682644968   F   F   F
  0.5844446887108745  0.5623949018013903  0.4550505803289369   F   F   F
  0.5829544960376865  0.0626671338073024  0.4545480424789687   F   F   F
  0.9166666865332829  0.6874999999963620  0.3605200052333331   F   F   F
  0.9166666865332829  0.4374999701794380  0.3605200052333331   F   F   F
  0.9166666865332829  0.1875000000030838  0.3605200052333331   F   F   F
  0.5833333134730552  0.9375000000154046  0.3605200052333331   F   F   F
  0.5833333134730552  0.6874999999963620  0.3605200052333331   F   F   F
  0.5833333134730552  0.4374999701794380  0.3605200052333331   F   F   F
  0.5833333134730552  0.1875000000030838  0.3605200052333331   F   F   F
  0.2499999999799343  0.9375000000154046  0.3605200052333331   F   F   F
  0.9166666865332829  0.9375000000154046  0.3605200052333331   F   F   F
  0.2499999999799343  0.6874999999963620  0.3605200052333331   F   F   F
  0.2499999999799343  0.1875000000030838  0.3605200052333331   F   F   F
  0.7499999404149307  0.9375000000154046  0.3605200052333331   F   F   F
  0.7499999404149307  0.6874999999963620  0.3605200052333331   F   F   F
  0.7499999404149307  0.4374999701794380  0.3605200052333331   F   F   F
  0.7499999404149307  0.1875000000030838  0.3605200052333331   F   F   F
  0.4166666269218169  0.9375000000154046  0.3605200052333331   F   F   F
  0.4166666269218169  0.6874999999963620  0.3605200052333331   F   F   F
  0.4166666269218169  0.4374999701794380  0.3605200052333331   F   F   F
  0.2499999999799343  0.4374999701794380  0.3605200052333331   F   F   F
  0.0833333358191695  0.0625000000159659  0.3605200052333331   F   F   F
  0.0833333358191695  0.3124999999901945  0.3605200052333331   F   F   F
  0.0833333358191695  0.5625000000092442  0.3605200052333331   F   F   F
  0.9166666865332829  0.3124999999901945  0.3605200052333331   F   F   F
  0.9166666865332829  0.0625000000159659  0.3605200052333331   F   F   F
  0.5833333134730552  0.8124999999834799  0.3605200052333331   F   F   F
  0.5833333134730552  0.5625000000092442  0.3605200052333331   F   F   F
  0.5833333134730552  0.3124999999901945  0.3605200052333331   F   F   F
  0.5833333134730552  0.0625000000159659  0.3605200052333331   F   F   F
  0.2499999999799343  0.8124999999834799  0.3605200052333331   F   F   F
  0.2499999999799343  0.5625000000092442  0.3605200052333331   F   F   F
  0.2499999999799343  0.3124999999901945  0.3605200052333331   F   F   F
  0.2499999999799343  0.0625000000159659  0.3605200052333331   F   F   F
  0.7499999404149307  0.8124999999834799  0.3605200052333331   F   F   F
  0.7499999404149307  0.5625000000092442  0.3605200052333331   F   F   F
  0.7499999404149307  0.3124999999901945  0.3605200052333331   F   F   F
  0.7499999404149307  0.0625000000159659  0.3605200052333331   F   F   F
  0.4166666269218169  0.8124999999834799  0.3605200052333331   F   F   F
  0.4166666269218169  0.5625000000092442  0.3605200052333331   F   F   F
  0.4166666269218169  0.3124999999901945  0.3605200052333331   F   F   F
  0.4166666269218169  0.0625000000159659  0.3605200052333331   F   F   F
  0.0833333358191695  0.8124999999834799  0.3605200052333331   F   F   F
  0.4166666269218169  0.1875000000030838  0.3605200052333331   F   F   F
  0.0833333358191695  0.9375000000154046  0.3605200052333331   F   F   F
  0.0833333358191695  0.6874999999963620  0.3605200052333331   F   F   F
  0.0833333358191695  0.4374999701794380  0.3605200052333331   F   F   F
  0.8333332538436267  0.4999999999932783  0.4070133268666680   F   F   F
  0.8333332538436267  0.7500000000123208  0.4070133268666680   F   F   F
  0.0836763126362001  0.0618688561328895  0.4542133378266726   F   F   F
  0.0835612211479528  0.3120576793858376  0.4539189015112584   F   F   F
  0.0840221080377574  0.5624822117492414  0.4537938968649016   F   F   F
  0.0835428768285595  0.8120755225884793  0.4542203031856360   F   F   F
  0.4168796399645274  0.0615568843080965  0.4553427134180126   F   F   F
  0.4152916502580482  0.3112548128372978  0.4573416492314664   F   F   F
  0.4159113220600830  0.5594338948172322  0.4577820307220009   F   F   F
  0.4170180514838862  0.8098782442284715  0.4550678312319079   F   F   F
  0.7495531551892398  0.0640338177697544  0.4533665310091521   F   F   F
  0.7473499544834254  0.3141709045395729  0.4547817536336680   F   F   F
  0.7481521759644210  0.5642889872092454  0.4537237089617321   F   F   F
  0.7493163758282293  0.8129276312886518  0.4533627828716078   F   F   F
  0.2504899591420227  0.0620098984030548  0.4542248892620364   F   F   F
  0.9152373544372594  0.3126268356871975  0.5466843041778517   F   F   F
  0.2521931578960448  0.3143377329173873  0.4539651226017654   F   F   F
  0.2519095178894730  0.5645349696760888  0.4537391564835289   F   F   F
  0.2500952333562267  0.8104815159883998  0.4554629631320424   F   F   F
  0.8333332538436267  0.2500000000190425  0.4070133268666680   F   F   F
  0.5844069350016809  0.3146707511989248  0.4540893733310583   F   F   F
  0.8333332538436267  0.0000000000000000  0.4070133268666680   F   F   F
  0.5000000000021103  0.4999999999932783  0.4070133268666680   F   F   F
  0.0833333358191695  0.1875000000030838  0.3605200052333331   F   F   F
  0.0000000000000000  0.0000000000000000  0.4070133268666680   F   F   F
  0.0000000000000000  0.2500000000190425  0.4070133268666680   F   F   F
  0.0000000000000000  0.4999999999932783  0.4070133268666680   F   F   F
  0.0000000000000000  0.7500000000123208  0.4070133268666680   F   F   F
  0.3333333432766779  0.0000000000000000  0.4070133268666680   F   F   F
  0.3333333432766779  0.2500000000190425  0.4070133268666680   F   F   F
  0.3333333432766779  0.4999999999932783  0.4070133268666680   F   F   F
  0.3333333432766779  0.7500000000123208  0.4070133268666680   F   F   F
  0.6666666865533486  0.0000000000000000  0.4070133268666680   F   F   F
  0.6666666865533486  0.2500000000190425  0.4070133268666680   F   F   F
  0.6666666865533486  0.4999999999932783  0.4070133268666680   F   F   F
  0.6666666865533486  0.7500000000123208  0.4070133268666680   F   F   F
  0.1666666716383389  0.0000000000000000  0.4070133268666680   F   F   F
  0.1666666716383389  0.2500000000190425  0.4070133268666680   F   F   F
  0.1666666716383389  0.4999999999932783  0.4070133268666680   F   F   F
  0.1666666716383389  0.7500000000123208  0.4070133268666680   F   F   F
  0.5000000000021103  0.0000000000000000  0.4070133268666680   F   F   F
  0.5000000000021103  0.2500000000190425  0.4070133268666680   F   F   F
  0.5000000000021103  0.7500000000123208  0.4070133268666680   F   F   F
  0.1670657804873343  0.1243121166428196  0.4993070991692576   F   F   F
  0.9177133864718243  0.0632434192497868  0.5474678183084833   F   F   F
  0.1677921435883789  0.8732264530513021  0.4999045065595524   F   F   F
  0.2519006856433421  0.1880521002660487  0.5473441096512133   F   F   F
  0.7493582455280787  0.9339893471039886  0.5477039201887735   F   F   F
  0.7517701100616208  0.6804330351918964  0.5529840579872598   F   F   F
  0.7524145553897981  0.4349509744211488  0.5493078809366807   F   F   F
  0.4231550969409383  0.4437839654399980  0.5454972436756833   F   F   F
  0.4224592756109757  0.6876064334495453  0.5467373323551499   F   F   F
  0.7484123084723464  0.1836327995962392  0.5507805173877713   F   F   F
  0.4157737603369043  0.9370609161084573  0.5460133611416751   F   F   F
  0.0841229385997053  0.9383153287595292  0.5461047465917162   F   F   F
  0.4157263041545605  0.1913865003094273  0.5464707405592364   F   F   F
  0.0868173781541941  0.6894316740272899  0.5453497960820854   F   F   F
  0.0824799131961456  0.4385232543038811  0.5450665574878641   F   F   F
  0.0836614543696470  0.1889458078154362  0.5454999891066237   F   F   F
  0.4995261390136818  0.1253603227293922  0.4997581952383214   F   F   F
  0.9997261171347276  0.5007191353874774  0.5943736457010118   F   F   F
  0.9999922885467711  0.7532807736602010  0.5923431748418011   F   F   F
  0.3347288091808309  0.2542589813923968  0.5926040494669991   F   F   F
  0.3340046597116952  0.9998601554653135  0.5919924431429209   F   F   F
  0.9999130510194689  0.9991852158432550  0.5930959400131783   F   F   F
  0.0007567211121753  0.2499203291469314  0.5916059886320824   F   F   F
  0.3332543871753870  0.4964001869160768  0.5906138177690892   F   F   F
  0.3348745658850447  0.7401866964152077  0.5905344206325438   F   F   F
  0.6634238225850382  0.2475835035765854  0.5905221606572724   F   F   F
  0.6659154942472227  0.0002283909571688  0.5919515947455594   F   F   F
  0.6650362408384609  0.7427254484358983  0.5896031081640629   F   F   F
  0.6668321037762013  0.4931387311439863  0.5907721860063049   F   F   F
  0.1675123969989798  0.9983770969716872  0.5922933602701264   F   F   F
  0.1684847614327865  0.2488380504850554  0.5931963549605115   F   F   F
  0.1709224178160866  0.7495965531368540  0.5951921429337901   F   F   F
  0.2485588196372532  0.4358090371628265  0.5489802246156472   F   F   F
  0.1655998795746569  0.5021924226943284  0.5875675061979777   F   F   F
  0.2488568355627905  0.6832915717781347  0.5517216986964470   F   F   F
  0.5808179441871459  0.1858526117234618  0.5494245069518868   F   F   F
  0.9157033118924431  0.8129078354817665  0.5469445214048534   F   F   F
  0.9168930266247699  0.5634907502926865  0.5463923222135634   F   F   F
  0.5811447185987220  0.5602140231958401  0.5494111447627077   F   F   F
  0.5845814870397632  0.8134660840252437  0.5495929100157184   F   F   F
  0.5827815253749264  0.3117176034233964  0.5455177976772063   F   F   F
  0.5830657062957556  0.0628741896371920  0.5465702790616049   F   F   F
  0.2530838763604706  0.8128795540609985  0.5512433828628360   F   F   F
  0.2518644234817913  0.5590537394868633  0.5440542321688255   F   F   F
  0.2494856440415276  0.3136712710003238  0.5459320429861307   F   F   F
  0.2510676882286447  0.0624834899538200  0.5472735957079138   F   F   F
  0.7483763506824985  0.8081956838193776  0.5464024302989543   F   F   F
  0.7466659827471531  0.5575368724256791  0.5441927729762668   F   F   F
  0.4140199287733353  0.8116681642109853  0.5478494037339559   F   F   F
  0.7482664949503643  0.0595834900698335  0.5445697688632691   F   F   F
  0.7480911554262519  0.3114963670640023  0.5479489131171675   F   F   F
  0.4159623849244269  0.3197186916288288  0.5525713802219911   F   F   F
  0.4202586437823328  0.5648449397908095  0.5552966980186014   F   F   F
  0.4165151810377878  0.0652946034949480  0.5473258998145099   F   F   F
  0.0853315087886770  0.8126745127700516  0.5474140951516304   F   F   F
  0.0831310422527878  0.5639441242117655  0.5461242886793229   F   F   F
  0.0864225335150905  0.3134280991464280  0.5468934117137394   F   F   F
  0.0823977144710000  0.0631651367522892  0.5475871678000814   F   F   F
  0.9156524642502006  0.9385227192178931  0.5463949757114364   F   F   F
  0.9139642482831007  0.6891013040477887  0.5451638322067680   F   F   F
  0.5837525784370854  0.9374843571764657  0.5461357831194462   F   F   F
  0.9168788533892425  0.1888831314179100  0.5454546519529657   F   F   F
  0.9160660936270446  0.4375841273473426  0.5457390998835905   F   F   F
  0.5762212399499020  0.4362357491897910  0.5516211551508050   F   F   F
  0.5787217338899922  0.6856638190621851  0.5474365885627748   F   F   F
  0.2515906297304298  0.9373662870526189  0.5451568896726471   F   F   F
  0.4976220500353108  0.5046411735571681  0.6091607302968569   F   F   F
  0.4986177116187420  0.2529526487924727  0.5903152905489435   F   F   F
  0.4996732140939031  0.9999594607292721  0.5910217560754703   F   F   F
  0.7490922182178750  0.6910066895744507  0.6539808057548129   F   F   F
  0.7486691136494912  0.9364119981970802  0.6399233295354847   F   F   F
  0.2535170030402156  0.1864692731100135  0.6412858166951025   F   F   F
  0.7455780455388492  0.1945180571282989  0.6468312129095679   F   F   F
  0.7557750624069186  0.4360045548201370  0.6389385255802864   F   F   F
  0.4173847261990389  0.9349762079512018  0.6397987119169883   F   F   F
  0.4206904409838899  0.6756724285313140  0.6338823691697897   F   F   F
  0.5885905326582375  0.8105085945515569  0.6445165956836618   F   F   F
  0.9160221813409137  0.0625243400424011  0.6417165803358671   F   F   F
  0.9124943659376470  0.5616202840296296  0.6418991875367865   F   F   F
  0.9151167224661947  0.3117706055296310  0.6395096738371109   F   F   F
  0.9142640949184226  0.8132383240402064  0.6414813871711118   F   F   F
  0.5821922667752446  0.0654165681172287  0.6397234563831518   F   F   F
  0.5832397037044075  0.3197688920890016  0.6342957571695962   F   F   F
  0.5928899139678947  0.5646043233959830  0.6398043026757989   F   F   F
  0.2476790191715139  0.5732871928839245  0.6290100691765304   F   F   F
  0.2620254651418321  0.7983995892566327  0.6469249699043260   F   F   F
  0.2495334282774380  0.3162195714744840  0.6413740744481515   F   F   F
  0.2509932399339192  0.0594126652361098  0.6423217955528244   F   F   F
  0.9166666865332829  0.5625000000092442  0.3605200052333331   F   F   F
  0.4994505893136605  0.3739534644743756  0.4995340520839733   F   F   F
  0.4997962427293317  0.8735632159894351  0.5006635112443334   F   F   F
  0.5000493447137231  0.6209264008312090  0.4999824328185483   F   F   F
  0.8324011967757912  0.6231035690951501  0.4999728484994037   F   F   F
  0.8327094324052098  0.8740845492018749  0.4989780632808589   F   F   F
  0.8324733041174781  0.3732008614148086  0.4996985029659911   F   F   F
  0.8328388095095463  0.1244945504708781  0.4997147661045034   F   F   F
  0.1667499221060424  0.3762526885752067  0.4977692848047539   F   F   F
  0.1678326249381286  0.6243890791783357  0.4997738689621656   F   F   F
  0.5815313466806913  0.4388820029965714  0.6459241662878057   F   F   F
  0.5796835291316782  0.6849362959418315  0.6386846154502948   F   F   F
  0.9170638793660189  0.1866223790379848  0.6406952218141981   F   F   F
  0.5822123955086198  0.9354640967910228  0.6394525861708331   F   F   F
  0.8307456808844975  0.7507833301211946  0.5927904928871186   F   F   F
  0.8315546383795009  0.2479343395147566  0.5914466665342815   F   F   F
  0.8332762726212906  0.5030117706042887  0.5887237139073562   F   F   F
  0.8322324863337656  0.0019581522841250  0.5923065568753429   F   F   F
  0.4994354206565248  0.7554643849677234  0.5926325953352531   F   F   F
  0.4177422438531835  0.0651612644291717  0.6400075618698224   F   F   F
  0.4271046647074286  0.3050912705161224  0.6550356348040438   F   F   F
  0.4119936646754283  0.8127008819393140  0.6395343766074291   F   F   F
  0.3971403524087407  0.5505435173052717  0.6515808346498275   F   F   F
  0.7525030941708977  0.5710271523205463  0.6328102702497986   F   F   F
  0.7411964449966248  0.8087195782665333  0.6407074831932107   F   F   F
  0.7465475642101254  0.3127001523287518  0.6400853959343848   F   F   F
  0.7475992590396032  0.0668506418493351  0.6391720810552286   F   F   F
  0.0837751946629055  0.3116732083921363  0.6403313444938163   F   F   F
  0.6664368395314497  0.8741388924173350  0.4992442382971234   F   F   F
  0.0874600938832586  0.5618972137734204  0.6412928847597925   F   F   F
  0.0842793163942375  0.0606087013883325  0.6421351415123482   F   F   F
  0.0866113068960672  0.4363588954856112  0.6393123832044836   F   F   F
  0.0834790307220672  0.1858068988989956  0.6409484591908807   F   F   F
  0.4184640408970566  0.1879209636211243  0.6397676490599480   F   F   F
  0.4149905225999504  0.4190756234168944  0.6297787010991485   F   F   F
  0.0844143877284296  0.9355571411322430  0.6407270024111043   F   F   F
  0.0830778244841213  0.6870645179091710  0.6398320160149922   F   F   F
  0.9127868951017746  0.4358041810525890  0.6393778223211299   F   F   F
  0.9163361844069442  0.6874838067431241  0.6395935866499727   F   F   F
  0.9146269062889800  0.9368639517870889  0.6407506997399963   F   F   F
  0.2407951525645231  0.4419744978742486  0.6416782527629792   F   F   F
  0.2559295282850371  0.6763507295917321  0.6633771797628469   F   F   F
  0.5787027079000424  0.1907009898818544  0.6441751608601791   F   F   F
  0.2520061041817883  0.9300689060274721  0.6372904624581821   F   F   F
  0.0843684265222677  0.8121197061172509  0.6420552078252726   F   F   F
  0.9166666865332829  0.8124999999834799  0.3605200052333331   F   F   F
  0.0007055121984862  0.1226132782785285  0.6196880377914411   F   F   F
  0.8333332538436267  0.6249999999803961  0.4070133268666680   F   F   F
  0.9999157493188662  0.5005869872098501  0.5069700218926130   F   F   F
  0.3310805777887822  0.4992573103528244  0.5009421075817571   F   F   F
  0.3300593054120213  0.2480215512770698  0.5027446525056050   F   F   F
  0.3331270276997031  0.0010232271437332  0.5057278519270625   F   F   F
  0.3341292066402914  0.7510034734106412  0.5018020810362387   F   F   F
  0.6660636304038192  0.0000316563921672  0.5056584227956975   F   F   F
  0.6684996850135434  0.4996054844672102  0.5005360543094355   F   F   F
  0.6669560052498085  0.2476629022612755  0.5029943530034515   F   F   F
  0.6659064213420507  0.7520728110676558  0.5020439199989326   F   F   F
  0.1660646121122014  0.0010510740062912  0.5065359797800681   F   F   F
  0.1663939732171613  0.2481915859294404  0.5062329586700685   F   F   F
  0.1637489831564665  0.4998155045708543  0.5021296015258443   F   F   F
  0.5001221605816539  0.9993549087134497  0.5055596558749329   F   F   F
  0.1648168660456690  0.7514244492161453  0.5035090841261649   F   F   F
  0.5009632251965996  0.7527957548828539  0.5038103297972896   F   F   F
  0.8342147413784247  0.0003183133523450  0.5064588590986574   F   F   F
  0.5012681766339853  0.4997454589572357  0.5002422684353860   F   F   F
  0.5010006069012007  0.2478589873000985  0.5019154982429939   F   F   F
  0.8354604693115490  0.2482239249841456  0.5033111305847768   F   F   F
  0.0001574556896102  0.7506581601089479  0.5066767954131208   F   F   F
  0.0007312478750379  0.2497277633048753  0.5057992904317175   F   F   F
  0.0001427098376894  0.9999106587248292  0.5066671560474205   F   F   F
  0.8333332538436267  0.8749999404036828  0.4070133268666680   F   F   F
  0.0000000000000000  0.6249999999803961  0.4070133268666680   F   F   F
  0.0000000000000000  0.8749999404036828  0.4070133268666680   F   F   F
  0.3333333432766779  0.1249999999871179  0.4070133268666680   F   F   F
  0.3333333432766779  0.3750000000061604  0.4070133268666680   F   F   F
  0.3333333432766779  0.6249999999803961  0.4070133268666680   F   F   F
  0.3333333432766779  0.8749999404036828  0.4070133268666680   F   F   F
  0.6666666865533486  0.1249999999871179  0.4070133268666680   F   F   F
  0.6666666865533486  0.3750000000061604  0.4070133268666680   F   F   F
  0.6666666865533486  0.6249999999803961  0.4070133268666680   F   F   F
  0.8364087608144288  0.4998759828525152  0.5025555083079141   F   F   F
  0.6666666865533486  0.8749999404036828  0.4070133268666680   F   F   F
  0.1666666716383389  0.3750000000061604  0.4070133268666680   F   F   F
  0.1666666716383389  0.6249999999803961  0.4070133268666680   F   F   F
  0.1666666716383389  0.8749999404036828  0.4070133268666680   F   F   F
  0.5000000000021103  0.1249999999871179  0.4070133268666680   F   F   F
  0.5000000000021103  0.3750000000061604  0.4070133268666680   F   F   F
  0.5000000000021103  0.6249999999803961  0.4070133268666680   F   F   F
  0.5000000000021103  0.8749999404036828  0.4070133268666680   F   F   F
  0.8333332538436267  0.1249999999871179  0.4070133268666680   F   F   F
  0.8333332538436267  0.3750000000061604  0.4070133268666680   F   F   F
  0.1666666716383389  0.1249999999871179  0.4070133268666680   F   F   F
  0.0000000000000000  0.3750000000061604  0.4070133268666680   F   F   F
  0.8361236290887959  0.7516037156794653  0.5027416332176315   F   F   F
  0.8370325862416266  0.3721199427788449  0.6042717846652579   F   F   F
  0.8324002425444519  0.8759100792409100  0.6168032744141954   F   F   F
  0.8400704685075766  0.6269297918192152  0.6026832244338181   F   F   F
  0.9993910152281629  0.8750097132373469  0.6218405154331208   F   F   F
  0.3316349172109270  0.1197994403941394  0.6133390005670449   F   F   F
  0.3343341017837744  0.6243635545876955  0.5955207106509945   F   F   F
  0.3259806089574298  0.3735380972941442  0.5927146688371252   F   F   F
  0.6708064501456619  0.3717820781866266  0.5940442274417919   F   F   F
  0.6653312068025130  0.1244920711571069  0.6117770552316131   F   F   F
  0.3346017073447740  0.8785154412661598  0.6028234660954368   F   F   F
  0.1593810422579693  0.6270624168764485  0.6016748026371630   F   F   F
  0.1661624791049690  0.8733330893197717  0.6175075626645992   F   F   F
  0.5016499176996518  0.3712626154626193  0.5949364830988770   F   F   F
  0.5002233223477432  0.1218911930142355  0.6060733238358509   F   F   F
  0.1677059258941682  0.1228136195327281  0.6220465659259133   F   F   F
  0.1633427927162430  0.3714061112432745  0.6078091760201119   F   F   F
  0.6655992938188859  0.8805157368074816  0.6076140027745893   F   F   F
  0.6665557388401666  0.6272835173094506  0.5936419092919181   F   F   F
  0.0000180924602589  0.3745056177593256  0.6224743692569277   F   F   F
  0.9996695874135284  0.6217481408358410  0.6364900096146471   F   F   F
  0.8334792024657460  0.1249894840930850  0.6199906709881375   F   F   F
  0.5006129097040102  0.8763711119196245  0.6099807392450884   F   F   F
  0.0000000000000000  0.1249999999871179  0.4070133268666680   F   F   F
  0.5037577635267496  0.6251778081196662  0.5936965989417473   F   F   F
  0.9164096116901206  0.0002585228011398  0.6037950856608774   F   F   F
  0.5856244490426761  0.7515786758928016  0.5988977098450903   F   F   F
  0.5907340258819431  0.5010694079843745  0.5937103535312502   F   F   F
  0.2426177161086329  0.4975888038499434  0.5941253878381687   F   F   F
  0.2501876323740362  0.7526236901985897  0.5921598051081034   F   F   F
  0.5839923903423099  0.2474027237822938  0.5968846148548153   F   F   F
  0.5827077753836463  0.0007921774667494  0.6042736047484993   F   F   F
  0.2497153061651289  0.9976596920150413  0.6042660761920828   F   F   F
  0.2490983768779245  0.2456192125871937  0.6036291271300058   F   F   F
  0.4171438586667833  0.0000343899423854  0.6046624947149795   F   F   F
  0.4146772082444485  0.2487232022119130  0.5910823191362624   F   F   F
  0.4177969817019260  0.7501649106912254  0.5946900448921895   F   F   F
  0.7563182748299582  0.5009821226643609  0.5940287904002375   F   F   F
  0.7524928905727890  0.7514589508306813  0.5911355862975043   F   F   F
  0.7537067379385505  0.2480688501131354  0.5943389272399244   F   F   F
  0.7497463009603536  0.0016220885951697  0.6041983276379028   F   F   F
  0.0834805713299573  0.2480679837866262  0.6034590209463389   F   F   F
  0.0814973870775333  0.5001339794750805  0.6031871178243264   F   F   F
  0.0811173443771409  0.7509499057861859  0.6034872115364038   F   F   F
  0.0835895526898724  0.9988097246289058  0.6037449051705934   F   F   F