Au O  Sr Ti H 
 1.0000000000000000
    23.6707801818999997    0.0000000000000000    0.0000000000000000
     0.0000000000000000   22.3170261383000010    0.0000000000000000
     0.0000000000000000    0.0000000000000000   30.0000000000000000
 Au  O   Sr  Ti  H  
  50 264  72  72   1
Selective dynamics
Cartesian
 16.9720493512735970 11.7382716315597389 22.6062107007768063   F   F   F
 14.7488375525031365 12.7771541411644769 21.1374862055985275   F   F   F
 17.0075633591577748  5.7870460138503965 20.7514646466372135   F   F   F
  6.9613529763867561 16.6411369502578061 20.9240606367419133   F   F   F
 12.1028030653841832 13.4828330134003629 23.2803168764872552   F   F   F
 13.6910695968453382 16.0958259398329453 23.7165642637687704   F   F   F
 12.9958878080516786  8.5747894757014347 24.8778419823273076   F   F   F
  5.7136878972397369 10.4311975524594818 21.2907915663772513   F   F   F
  6.7166554640988299 14.7584075267386829 22.9527181296021041   F   F   F
 14.2552194969719679  6.4620169847525872 23.6196743449136974   F   F   F
 12.1706298492162368 10.7958706786533618 20.3391764268186961   F   F   F
 13.3053283552532271 10.8463229851514331 22.8740815487986353   F   F   F
 10.9672509238657252 15.5238434788232702 24.8957384533693649   F   F   F
 18.0914178077006120  9.6433112871099418 21.1642237009562457   F   F   F
 17.4135891577357143 13.6807199847666965 20.7662890019532327   F   F   F
 15.0052225648611390 13.0478188065706480 23.9723507812096521   F   F   F
 13.9958565822632455 17.5249074281310335 21.3674161088413612   F   F   F
 11.4755444258783719 17.3710426761566659 22.7053772220585408   F   F   F
  8.2649193188838357 11.1717264091761823 20.9278238284443070   F   F   F
 10.1751208663111470  8.2929477890339474 24.4566822926180976   F   F   F
  8.8097385269034074  6.6579438104243227 22.6578487892314513   F   F   F
 10.4502971079846390  5.0903371856905011 20.9090874803873810   F   F   F
  9.2536656125129682 18.2430436327672112 21.1973918195388364   F   F   F
  6.8591170905003489 11.9879162384664042 23.3328317914795242   F   F   F
 13.1690893599527730  4.6878334660258520 21.3391111640640041   F   F   F
 10.7119873562562287 12.9404967398490598 21.0628908943907369   F   F   F
 14.5407527016603932  7.1692863866364176 20.9255653910253727   F   F   F
 16.9515724516558244 17.0218375566247175 20.8562169498947512   F   F   F
 15.5161717655366402  9.8599535773784943 24.3663062557671388   F   F   F
  8.7319118160831373 13.8088274371391506 24.5695282497981253   F   F   F
 13.4967256273079830 11.3821403723706034 25.6972851285790398   F   F   F
 15.7358214805225440  4.3352422548752960 22.5721486086773560   F   F   F
 11.1501633967315978 10.0507931751267243 26.3784855669518166   F   F   F
 12.2073444594342355  8.4190162979491934 22.0141001951317534   F   F   F
  6.7027516724314671  7.5398483735123554 21.0767360452698114   F   F   F
 16.0601997118062236 15.1358308815315219 22.6090184494832123   F   F   F
  9.4110210941065464  8.5278676445405139 20.7012807681131434   F   F   F
  8.8811419674675172 10.9918617249391612 25.0021079722712933   F   F   F
 10.9460603609458023 12.7896046004078059 25.9010410061428686   F   F   F
  7.7239579749512073  9.2429557025021438 23.0807887859795251   F   F   F
 11.5307710048998597  5.9920715021800310 23.2562511164861263   F   F   F
  9.9442823397092077 15.5565082231046521 20.9904578403248969   F   F   F
 16.5759227941766127  7.7358232584676987 22.7000149476322868   F   F   F
 18.3191040690752871  9.5987464791059178 23.8775790899254083   F   F   F
  6.0835807555228101 13.2084029129226312 20.8436301373348805   F   F   F
 15.3249364930557448  9.9255218724615855 20.9003190934817624   F   F   F
 13.3501004063151818 14.2708917629587564 25.8278583189559114   F   F   F
 12.8633894544940883 14.9002579687930989 21.0287136228541343   F   F   F
 10.4819798868569904 10.5940760613054348 22.6851954641886415   F   F   F
  8.8338724831665125 16.4992822894113687 23.3503721505228903   F   F   F
  5.9161927280476201  4.2108410918287813 13.6298328789502587   F   F   F
 17.7413420726669386 20.9387760053127430 13.6626704922531736   F   F   F
 17.7308011541903099 15.3670891520259030 13.7184041972492441   F   F   F
 17.7428717757099719  9.7814181865284251 13.6729633787042939   F   F   F
 17.7573516953176274  4.2348180322128037 13.6680442781922054   F   F   F
  9.8690536589164104 20.8839887588825341 13.6162597907192193   F   F   F
  9.8673184435649475 15.2794651582885823 13.6435965891547628   F   F   F
  9.8577901555049330  9.7180979440179076 13.6137651391054746   F   F   F
  2.0022943241613320 15.3303529214133416 13.5915788340013020   F   F   F
  1.9921004327897840 20.9058770826880149 13.6085460783687306   F   F   F
  1.9594256035586970  9.7486761577869103 13.5863467947132808   F   F   F
  1.9851747456529261  4.1634421290711847 13.5887646036415273   F   F   F
 21.6965280446239888 18.1248367720630270 13.6225933245758899   F   F   F
 21.6900413649533093 12.5533194158181605 13.6123579552446792   F   F   F
  5.9457136936735653  9.8042915041552323 13.6471144163694742   F   F   F
 21.6859831136877688  1.3874699138321689 13.6228706945632396   F   F   F
 21.6882342390350082  6.9679259454774503 13.6153728069520703   F   F   F
  9.8788363939014356  4.1731945836134559 13.6055973663345835   F   F   F
  5.9730660018179726 15.3413193687393914 13.6777741773246557   F   F   F
 21.6924699668547198 20.9122847019627507 13.6097525146841498   F   F   F
 13.7921737396665893  4.2229390711750332 13.6551009277252078   F   F   F
  0.0017049982259687  2.7919051573337907 14.9525356904277942   F   F   F
 13.8073195161655260 18.0824843368955470 13.6578890896758711   F   F   F
 -0.0004888393851767  8.3331176446635933 14.9524288675047998   F   F   F
  0.0080483206969347 13.9931094081184764 14.9318109842117348   F   F   F
  7.8964996482175502  2.8032907538535827 14.9548952404701865   F   F   F
  0.0043596696306423 19.5308973120242513 14.9883954643061372   F   F   F
  7.8914278062099283 19.4959624333237507 14.9691211421783592   F   F   F
 15.7646143347716592  2.8124417720848625 14.9737883884149774   F   F   F
  7.9383642985030880 13.9494930995493291 15.1243607740255612   F   F   F
  7.9143387241015990  8.4461183966864120 15.0877438115958036   F   F   F
 15.7512343924845535  8.4489352185828910 15.0993749377609774   F   F   F
 21.6719174535147800 15.3275168151473231 13.5936328925309997   F   F   F
 21.6779184520091270  9.7526499186915636 13.6095882323566375   F   F   F
 21.6780545496766734  4.1719850140306498 13.5962378759764082   F   F   F
 13.7983342511936993 20.8959608351620005 13.6255453984688000   F   F   F
 13.7931952642249467 15.3094613525148855 13.6389861250565563   F   F   F
 13.7939709344111225  9.7958950277980570 13.6799154559726315   F   F   F
  5.9176605864594700 20.8890361876536303 13.6213067709904063   F   F   F
 15.7485069603583607 13.9715209217855634 15.0900350479348582   F   F   F
 13.8342617549540670 12.5509817235482277 13.6515174098681378   F   F   F
 13.7989877317582916  1.3985440631899089 13.6364412743689964   F   F   F
 21.6982156369999721 15.3429554700000619 10.8156001569999933   F   F   F
 21.6982156369999721  9.7636982699999884 10.8156001569999933   F   F   F
 21.6982156369999721  4.1844424010000720 10.8156001569999933   F   F   F
 13.8079546360000549 20.9222120050000342 10.8156001569999933   F   F   F
 13.8079546360000549 15.3429554700000619 10.8156001569999933   F   F   F
 13.8079546360000549  9.7636982699999884 10.8156001569999933   F   F   F
 13.8079546360000549  4.1844424010000720 10.8156001569999933   F   F   F
  5.9176950450000287 20.9222120050000342 10.8156001569999933   F   F   F
 21.6982156369999721 20.9222120050000342 10.8156001569999933   F   F   F
  5.9176950450000287 15.3429554700000619 10.8156001569999933   F   F   F
  5.9176950450000287  4.1844424010000720 10.8156001569999933   F   F   F
 17.7530837259999217 20.9222120050000342 10.8156001569999933   F   F   F
 17.7530837259999217 15.3429554700000619 10.8156001569999933   F   F   F
 17.7530837259999217  9.7636982699999884 10.8156001569999933   F   F   F
 17.7530837259999217  4.1844424010000720 10.8156001569999933   F   F   F
  9.8628241350000643 20.9222120050000342 10.8156001569999933   F   F   F
  9.8628241350000643 15.3429554700000619 10.8156001569999933   F   F   F
  9.8628241350000643  9.7636982699999884 10.8156001569999933   F   F   F
  5.9176950450000287  9.7636982699999884 10.8156001569999933   F   F   F
  1.9725650740000149  1.3948141340000613 10.8156001569999933   F   F   F
  1.9725650740000149  6.9740706679999214 10.8156001569999933   F   F   F
  1.9725650740000149 12.5533272030000536 10.8156001569999933   F   F   F
 21.6982156369999721  6.9740706679999214 10.8156001569999933   F   F   F
 21.6982156369999721  1.3948141340000613 10.8156001569999933   F   F   F
 13.8079546360000549 18.1325837370000720 10.8156001569999933   F   F   F
 13.8079546360000549 12.5533272030000536 10.8156001569999933   F   F   F
 13.8079546360000549  6.9740706679999214 10.8156001569999933   F   F   F
 13.8079546360000549  1.3948141340000613 10.8156001569999933   F   F   F
  5.9176950450000287 18.1325837370000720 10.8156001569999933   F   F   F
  5.9176950450000287 12.5533272030000536 10.8156001569999933   F   F   F
  5.9176950450000287  6.9740706679999214 10.8156001569999933   F   F   F
  5.9176950450000287  1.3948141340000613 10.8156001569999933   F   F   F
 17.7530837259999217 18.1325837370000720 10.8156001569999933   F   F   F
 17.7530837259999217 12.5533272030000536 10.8156001569999933   F   F   F
 17.7530837259999217  6.9740706679999214 10.8156001569999933   F   F   F
 17.7530837259999217  1.3948141340000613 10.8156001569999933   F   F   F
  9.8628241350000643 18.1325837370000720 10.8156001569999933   F   F   F
  9.8628241350000643 12.5533272030000536 10.8156001569999933   F   F   F
  9.8628241350000643  6.9740706679999214 10.8156001569999933   F   F   F
  9.8628241350000643  1.3948141340000613 10.8156001569999933   F   F   F
  1.9725650740000149 18.1325837370000720 10.8156001569999933   F   F   F
  9.8628241350000643  4.1844424010000720 10.8156001569999933   F   F   F
  1.9725650740000149 20.9222120050000342 10.8156001569999933   F   F   F
  1.9725650740000149 15.3429554700000619 10.8156001569999933   F   F   F
  1.9725650740000149  9.7636982699999884 10.8156001569999933   F   F   F
 19.7256482699999580 11.1585130689999925 12.2103998060000407   F   F   F
 19.7256482699999580 16.7377696039999648 12.2103998060000407   F   F   F
  1.9806836028434742  1.3807288794644597 13.6264001348001038   F   F   F
  1.9779592975243054  6.9641993875110497 13.6175670453377258   F   F   F
  1.9888688497815636 12.5529302219366929 13.6138169059470631   F   F   F
  1.9775250731723979 18.1231106638807979 13.6266090955690089   F   F   F
  9.8678663199100001  1.3737665960961210 13.6602814025403809   F   F   F
  9.8302773646367854  6.9462817937616013 13.7202494769440086   F   F   F
  9.8449454796476736 12.4849008532872112 13.7334609216601198   F   F   F
  9.8711426285592516 18.0740739452873669 13.6520349369572980   F   F   F
 17.7425079711340139  1.4290443849026766 13.6009959302745180   F   F   F
 17.6903564915301565  7.0113602885030293 13.6434526090100707   F   F   F
 17.7093456998640022 12.5932520771035712 13.6117112688519661   F   F   F
 17.7369032189279601 18.1421271960151280 13.6008834861482075   F   F   F
  5.9292927606238557  1.3838765234942880 13.6267466778611404   F   F   F
 21.6643822311481031  6.9769012635652867 16.4005291253356447   F   F   F
  5.9696088039365431  7.0150834017713590 13.6189536780528773   F   F   F
  5.9628948236901396 12.5987416742456926 13.6121746945059456   F   F   F
  5.9199492933163063 18.0875371769221260 13.6638888939612748   F   F   F
 19.7256482699999580  5.5792565349999723 12.2103998060000407   F   F   F
 13.8333680952026263  7.0225153794648634 13.6226811999317725   F   F   F
 19.7256482699999580  0.0000000000000000 12.2103998060000407   F   F   F
 11.8353900909999528 11.1585130689999925 12.2103998060000407   F   F   F
  1.9725650740000149  4.1844424010000720 10.8156001569999933   F   F   F
  0.0000000000000000  0.0000000000000000 12.2103998060000407   F   F   F
  0.0000000000000000  5.5792565349999723 12.2103998060000407   F   F   F
  0.0000000000000000 11.1585130689999925 12.2103998060000407   F   F   F
  0.0000000000000000 16.7377696039999648 12.2103998060000407   F   F   F
  7.8902602960000570  0.0000000000000000 12.2103998060000407   F   F   F
  7.8902602960000570  5.5792565349999723 12.2103998060000407   F   F   F
  7.8902602960000570 11.1585130689999925 12.2103998060000407   F   F   F
  7.8902602960000570 16.7377696039999648 12.2103998060000407   F   F   F
 15.7805205919999434  0.0000000000000000 12.2103998060000407   F   F   F
 15.7805205919999434  5.5792565349999723 12.2103998060000407   F   F   F
 15.7805205919999434 11.1585130689999925 12.2103998060000407   F   F   F
 15.7805205919999434 16.7377696039999648 12.2103998060000407   F   F   F
  3.9451301480000271  0.0000000000000000 12.2103998060000407   F   F   F
  3.9451301480000271  5.5792565349999723 12.2103998060000407   F   F   F
  3.9451301480000271 11.1585130689999925 12.2103998060000407   F   F   F
  3.9451301480000271 16.7377696039999648 12.2103998060000407   F   F   F
 11.8353900909999528  0.0000000000000000 12.2103998060000407   F   F   F
 11.8353900909999528  5.5792565349999723 12.2103998060000407   F   F   F
 11.8353900909999528 16.7377696039999648 12.2103998060000407   F   F   F
  3.9545773658331749  2.7742767564251989 14.9792129750778003   F   F   F
 21.7229918411615799  1.4114050404729754 16.4240345492544222   F   F   F
  3.9717709471303442 19.4878175774009286 14.9971351967865871   F   F   F
  5.9626857575333743  4.1967636369996795 16.4203232895362987   F   F   F
 17.7378943073893751 20.8438646722133889 16.4311176056631183   F   F   F
 17.7949850225913586 15.1852418317402833 16.5895217396178154   F   F   F
 17.8102395462939285  9.7068122650358433 16.4792364281004176   F   F   F
 10.0164112825395684  9.9039383564829233 16.3649173102705205   F   F   F
  9.9999406487920321 15.3453307481567904 16.4021199706544429   F   F   F
 17.7155032392772789  4.0981379884385047 16.5234155216330407   F   F   F
  9.8416892863367860 20.9124129579717568 16.3804008342501604   F   F   F
  1.9912555878491587 20.9404077178940220 16.3831423977515378   F   F   F
  9.8405659614763028  4.2711775299231727 16.3941222167770420   F   F   F
  2.0550350742568395 15.3860646898389515 16.3604938824625350   F   F   F
  1.9523638946880870  9.7865349285521717 16.3519967246360309   F   F   F
  1.9803318960819452  4.2167085317392647 16.3649996731986178   F   F   F
 11.8241734317060789  2.7976695990575586 14.9927458571496057   F   F   F
 23.6642971608004764 11.1745620323892947 17.8312093710303294   F   F   F
 -0.0001825361143140 16.8109867152536196 17.7702952452539371   F   F   F
  7.9232920626686765  5.6743043336316212 17.7781214840100183   F   F   F
  7.9061508797657725 22.3139052241641558 17.7597732942875943   F   F   F
 23.6687220316948448 22.2988425789768989 17.7928782003953785   F   F   F
  0.0179121791052997  5.5774785180645541 17.7481796589625631   F   F   F
  7.8883913434823612 11.0781759464630447 17.7184145330727034   F   F   F
  7.9267422375740839 16.5187658511201860 17.7160326189762358   F   F   F
 15.7037594718463058  5.5253275207306194 17.7156648197182776   F   F   F
 15.7627392840473295  0.0050970069608473 17.7585478423667027   F   F   F
 15.7419266698842915 16.5754232463245081 17.6880932449218591   F   F   F
 15.7844361467203189 11.0053899527484518 17.7231655801891534   F   F   F
  3.9651491271060753 22.2808077689971960 17.7688008081038902   F   F   F
  3.9881657518753424  5.5533252768785788 17.7958906488153623   F   F   F
  4.0458669802833951 16.7287658695347865 17.8557642880137628   F   F   F
  5.8835811819059440  9.7259616736701631 16.4694067384695018   F   F   F
  3.9198783475608692 11.2074414237254807 17.6270251859393596   F   F   F
  5.8906354513701240 15.2490358674527293 16.5516509608933156   F   F   F
 13.7484138825569655  4.1476775937038317 16.4827352085566297   F   F   F
 21.6754118076438864 18.1416854124755282 16.4083356421456266   F   F   F
 21.7035732835519930 12.5754378029721927 16.3917696664068977   F   F   F
 13.7561488878225529 12.5023109987037202 16.4823343428812699   F   F   F
 13.8374998781265166 18.1541438598118674 16.4877873004715916   F   F   F
 13.7948933812221863  6.9566099033682427 16.3655339303161682   F   F   F
 13.8016201653310819  1.4031649335576339 16.3971083718481694   F   F   F
  5.9906928049119070 18.1410542552688767 16.5373014858851093   F   F   F
  5.9618274038785009 12.4764169168426431 16.3216269650648655   F   F   F
  5.9055198386467493  7.0002099537480555 16.3779612895840110   F   F   F
  5.9429680588380158  1.3944456785115751 16.4182078712374135   F   F   F
 17.7146520903378999 18.0365242006583699 16.3920729089686859   F   F   F
 17.6741663469101340 12.4425649549898765 16.3257831892880141   F   F   F
  9.8001747249194455 18.1140196363225137 16.4354821120186010   F   F   F
 17.7120517194509048  1.3297263052996888 16.3370930658981841   F   F   F
 17.7079012961184006  6.9516725657527614 16.4384673935150403   F   F   F
  9.8461541774849568  7.1351703979837104 16.5771414066597949   F   F   F
  9.9478499765150534 12.6056592853980316 16.6589009405580271   F   F   F
  9.8592392927697485  1.4571813728867451 16.4197769944353809   F   F   F
  2.0198633871265983 18.1364783434195225 16.4224228545489268   F   F   F
  1.9677766274579194 12.5855557605747208 16.3837286603797345   F   F   F
  2.0456887935985524  6.9947830811285350 16.4068023514121961   F   F   F
  1.9504181867339707  1.4096580079301009 16.4276150340024607   F   F   F
 21.6742082042816264 20.9450360561740645 16.3918492713430908   F   F   F
 21.6342468152247918 15.3786918143710469 16.3549149662029514   F   F   F
 13.8178789648015758 20.9218629033545618 16.3840734935832977   F   F   F
 21.7032377920092756  4.2153097809374165 16.3636395585888685   F   F   F
 21.6839991343375189  9.7655764077159155 16.3721729965076221   F   F   F
 13.6396063069960434  9.7354846171294334 16.5486346545241929   F   F   F
 13.6987949493980050 15.3019773720974168 16.4230976568832361   F   F   F
  5.9553464921747565 20.9192279293145198 16.3547066901793485   F   F   F
 11.7791021600523553 11.2620902607377715 18.2748219089056079   F   F   F
 11.8026702465292210  5.6451508748538606 17.7094587164682764   F   F   F
 11.8276548136002706 -0.0009047159645313 17.7306526822640294   F   F   F
 17.7315972334072072 15.4212143529732462 19.6194241726443543   F   F   F
 17.7215820181750665 20.8979310399819624 19.1976998860645871   F   F   F
  6.0009452513391022  4.1614396419860018 19.2385745008530300   F   F   F
 17.6484140244008039  4.3410645653035997 19.4049363872871403   F   F   F
 17.8897853691960016  9.7303250463388995 19.1681557674086704   F   F   F
  9.8798221051399899 20.8658884715356052 19.1939613575097461   F   F   F
  9.9580709531562164 15.0789992484619138 19.0164710750937793   F   F   F
 13.9323971157005140 18.0881414899239559 19.3354978705098048   F   F   F
 21.6829596962652396  1.3953573310061491 19.2514974100760945   F   F   F
 21.5994535533322924 12.5336945584886426 19.2569756261036389   F   F   F
 21.6615267782781658  6.9577927527583716 19.1852902151134259   F   F   F
 21.6413444190177096 18.1490609342725477 19.2444416151334181   F   F   F
 13.7809451704389652  1.4599032605500131 19.1917036914945385   F   F   F
 13.8057388197435191  7.1362907229654429 19.0288727150879780   F   F   F
 14.0341668255997085 12.6002894430253907 19.1941290802739069   F   F   F
  5.8627556184775322 12.7940652683431200 18.8703020752958999   F   F   F
  6.2023471874323350 17.8179045022481866 19.4077490971298801   F   F   F
  5.9066509287911373  7.0570804420380755 19.2412222334446064   F   F   F
  5.9412058096187597  1.3259140030202610 19.2696538665846795   F   F   F
 21.6982156369999721 12.5533272030000536 10.8156001569999933   F   F   F
 11.8223851113640581  8.3455292411825166 14.9860215625190971   F   F   F
 11.8305669973855121 19.4953331246936266 15.0199053373299911   F   F   F
 11.8365581188215998 13.8572307173107134 14.9994729845563555   F   F   F
 19.7035857520302073 13.9058186383644280 14.9991854549821557   F   F   F
 19.7108819298584663 19.5069677316224244 14.9693418984257676   F   F   F
 19.7052925890648645  8.3287333790304388 14.9909550889796659   F   F   F
 19.7139443868557400  2.7783481369344640 14.9914429831350855   F   F   F
  3.9471007515211411  8.3968410855385134 14.9330785441427185   F   F   F
  3.9727291722617051 13.9345074004920217 14.9932160688648803   F   F   F
 13.7653006761629300  9.7945411325039675 19.3777249886341920   F   F   F
 13.7215613931440110 15.2857412196041711 19.1605384635088498   F   F   F
 21.7076175012335639  4.1648565109823918 19.2208566544259192   F   F   F
 13.7814216332620045 20.8767766995264061 19.1835775851249117   F   F   F
 19.6643983992798184 16.7552512025146640 17.7837147866136469   F   F   F
 19.6835470543205382  5.5331571355330365 17.7433999960285256   F   F   F
 19.7242994800115028 11.2257268324485242 17.6617114172207117   F   F   F
 19.6995922442427300  0.0437001357075248 17.7691967062603773   F   F   F
 11.8220260574154210 16.8597184258793789 17.7789778600576263   F   F   F
  9.8882848269423747  1.4542056414704896 19.2002268560947016   F   F   F
 10.1099006329537033  6.8087298586755338 19.6510690441214138   F   F   F
  9.7522114728674385 18.1370668248591791 19.1860312982229111   F   F   F
  9.4006219832296853 12.2864940659733932 19.5474250394948541   F   F   F
 17.8123353283189481 12.7436278840166963 18.9843081074939803   F   F   F
 17.5446981211209021 18.0482159667292130 19.2212244957962710   F   F   F
 17.6713632877508324  6.9785374729711744 19.2025618780316378   F   F   F
 17.6962577248777073  1.4919075215138147 19.1751624316569114   F   F   F
  1.9830242175614423  6.9556191382951154 19.2099403348144158   F   F   F
 15.7750799336690282 19.5081805105822141 14.9773271489137123   F   F   F
  2.0702486569988703 12.5398748068193395 19.2387865427936973   F   F   F
  1.9949571722487589  1.3526059730918649 19.2640542453705486   F   F   F
  2.0501572068038341  9.7382328762321784 19.1793714961345358   F   F   F
  1.9760137860200819  4.1466574194053019 19.2284537757264076   F   F   F
  9.9053703261039043  4.1938370570672108 19.1930294717984609   F   F   F
  9.8231494380351947  9.3525216417191341 18.8933610329745498   F   F   F
  1.9981544161092986 20.8788531725215023 19.2218100723330778   F   F   F
  1.9665169213540625 15.3332368048774903 19.1949604804497085   F   F   F
 21.6063779468731738  9.7258532997311349 19.1813346696338165   F   F   F
 21.6903923938177563 15.3425940847443307 19.1878075994992088   F   F   F
 21.6499324472176156 20.9080173000635767 19.2225209921999145   F   F   F
  5.6998091252219023  9.8635564215216007 19.2503475828893968   F   F   F
  6.0580516060924259 15.0941369109569727 19.9013153928853548   F   F   F
 13.6983445893722244  4.2558789757929789 19.3252548258053878   F   F   F
  5.9651810965841161 20.7563720862352135 19.1187138737455093   F   F   F
  1.9970664785013759 18.1240967088471479 19.2616562347580782   F   F   F
 21.6982156369999721 18.1325837370000720 10.8156001569999933   F   F   F
  0.0167000241660371  2.7363637362445701 18.5906411337431621   F   F   F
 19.7256482699999580 13.9481413360000008 12.2103998060000407   F   F   F
 23.6687859025466523 11.1716128780549973 15.2091006567783218   F   F   F
  7.8369355793346243 11.1419384448812906 15.0282632274528023   F   F   F
  7.8127612653984935  5.5351034427120611 15.0823395751681595   F   F   F
  7.8853766453294671  0.0228353869121141 15.1718355578119208   F   F   F
  7.9090990027349042 16.7601641460593598 15.0540624310871411   F   F   F
 15.7662457824470383  0.0007064765315089 15.1697526838709944   F   F   F
 15.8239090956250177 11.1497086556928409 15.0160816292831711   F   F   F
 15.7873689912662982  5.5270994632521777 15.0898305901035492   F   F   F
 15.7625245213033569 16.7840285825015840 15.0613175999678823   F   F   F
  3.9308789293003792  0.0234568460717487 15.1960793934020781   F   F   F
  3.9386751636164332  5.5388981104934407 15.1869887601021265   F   F   F
  3.8760661853064304 11.1543956798354138 15.0638880457753785   F   F   F
 11.8382817272252492 22.3026296191964093 15.1667896762480297   F   F   F
  3.9013438064367385 16.7695590741144187 15.1052725237849579   F   F   F
 11.8581903828443274 16.8001625385218745 15.1143098939186000   F   F   F
 19.7465137676691818  0.0071038074045180 15.1937657729596349   F   F   F
 11.8654088212848787 11.1528324700453485 15.0072680530615994   F   F   F
 11.8590752369567731  5.5314754981889083 15.0574649472898088   F   F   F
 19.7760011197407053  5.5396198220226722 15.0993339175432890   F   F   F
  0.0037270990172306 16.7524577800796024 15.2003038623937012   F   F   F
  0.0173092077084255  5.5731810211340918 15.1739787129515875   F   F   F
  0.0033780531977309 -0.0019938315732426 15.2000146814225161   F   F   F
 19.7256482699999580 19.5273965409999306 12.2103998060000407   F   F   F
  0.0000000000000000 13.9481413360000008 12.2103998060000407   F   F   F
  0.0000000000000000 19.5273965409999306 12.2103998060000407   F   F   F
  7.8902602960000570  2.7896282670000101 12.2103998060000407   F   F   F
  7.8902602960000570  8.3688848019999824 12.2103998060000407   F   F   F
  7.8902602960000570 13.9481413360000008 12.2103998060000407   F   F   F
  7.8902602960000570 19.5273965409999306 12.2103998060000407   F   F   F
 15.7805205919999434  2.7896282670000101 12.2103998060000407   F   F   F
 15.7805205919999434  8.3688848019999824 12.2103998060000407   F   F   F
 15.7805205919999434 13.9481413360000008 12.2103998060000407   F   F   F
 19.7984479194536895 11.1557453752279248 15.0766652492374416   F   F   F
 15.7805205919999434 19.5273965409999306 12.2103998060000407   F   F   F
  3.9451301480000271  8.3688848019999824 12.2103998060000407   F   F   F
  3.9451301480000271 13.9481413360000008 12.2103998060000407   F   F   F
  3.9451301480000271 19.5273965409999306 12.2103998060000407   F   F   F
 11.8353900909999528  2.7896282670000101 12.2103998060000407   F   F   F
 11.8353900909999528  8.3688848019999824 12.2103998060000407   F   F   F
 11.8353900909999528 13.9481413360000008 12.2103998060000407   F   F   F
 11.8353900909999528 19.5273965409999306 12.2103998060000407   F   F   F
 19.7256482699999580  2.7896282670000101 12.2103998060000407   F   F   F
 19.7256482699999580  8.3688848019999824 12.2103998060000407   F   F   F
  3.9451301480000271  2.7896282670000101 12.2103998060000407   F   F   F
  0.0000000000000000  8.3688848019999824 12.2103998060000407   F   F   F
 19.7916986290534425 16.7735597684620679 15.0822489965289002   F   F   F
 19.8132143540127608  8.3046104895782449 18.1281535399577010   F   F   F
 19.7035631646299265 19.5477081332198352 18.5040982324257826   F   F   F
 19.8851233973485186 13.9912085509084498 18.0804967330145026   F   F   F
 23.6563650372316694 19.5276146415843250 18.6552154629935316   F   F   F
  7.8500572259423747  2.6735672426297845 18.4001700170113054   F   F   F
  7.9139490306367613 13.9339377675355127 17.8656213195298363   F   F   F
  7.7162153381931562  8.3362594809642747 17.7814400651137277   F   F   F
 15.8785120259985408  8.2970703566424024 17.8213268232537771   F   F   F
 15.7489087443804987  2.7782928060242358 18.3533116569483639   F   F   F
  7.9202834630466201 19.6058520656370874 18.0847039828630933   F   F   F
  3.7726736164505299 13.9941683477772063 18.0502440791148508   F   F   F
  3.9331955173733344 19.4901973817916385 18.5252268799378896   F   F   F
 11.8744449301367023  8.2854774934529267 17.8480944929663572   F   F   F
 11.8406763051531438  2.7202489405271995 18.1821997150755301   F   F   F
  3.9697301070429325  2.7408347572511444 18.6613969777774287   F   F   F
  3.8664513406837946  8.2886798925404932 18.2342752806033239   F   F   F
 15.7552545732147919 19.6504927135169822 18.2284200832377223   F   F   F
 15.7778943730694721 13.9991026519197828 17.8092572787575349   F   F   F
  0.0004282626496553  8.3578516604750543 18.6742310777077343   F   F   F
 23.6629590581962432 13.8755695104728343 19.0947002884394195   F   F   F
 19.7291029877519719  2.7893935835180099 18.5997201296440977   F   F   F
 11.8498981418249159 19.5579970115613655 18.2994221773525894   F   F   F
  0.0000000000000000  2.7896282670000101 12.2103998060000407   F   F   F
 11.9243392853673065 13.9521094848916700 17.8108979682524442   F   F   F
 21.6921304748971160  0.0057694601104571 18.1138525698262924   F   F   F
 13.8621876024355561 16.7730009548884880 17.9669312953527900   F   F   F
 13.9831352726203448 11.1823790750897167 17.8113106059374040   F   F   F
  5.7429506262420871 11.1047023416445523 17.8237616351451535   F   F   F
  5.9221364501557687 16.7963225664657863 17.7647941532430202   F   F   F
 13.8235554996951304  5.5212930533361284 17.9065384456445607   F   F   F
 13.7931476613901829  0.0176790452315517 18.1282081424549517   F   F   F
  5.9109561202905505 22.2647974238280746 18.1279822857624566   F   F   F
  5.8963529227455149  5.4814903873771357 18.1088738139001215   F   F   F
  9.8741205827310345  0.0007674812430940 18.1398748414494548   F   F   F
  9.8157330427982803  5.5507622049648964 17.7324695740879648   F   F   F
  9.8895805145276210 16.7414499199315436 17.8407013467655879   F   F   F
 17.9026436310538379 11.1804311263215403 17.8208637120070676   F   F   F
 17.8120938011910717 16.7703290475477935 17.7340675889252140   F   F   F
 17.8408265153602592  5.5361590120728206 17.8301678171976725   F   F   F
 17.7470798822250977  0.0362001935770115 18.1259498291370065   F   F   F
  1.9760502534109063  5.5361396782415762 18.1037706283901763   F   F   F
  1.9291067349115012 11.1615030925974477 18.0956135347298641   F   F   F
  1.9201108276907841 16.7589686759842955 18.1046163460920546   F   F   F
  1.9786299272253363 22.2904627317314805 18.1123471551178099   F   F   F