Au  C  H  O Sr Ti                       
   1.00000000000000     
    23.6707801818999997    0.0000000000000000    0.0000000000000000
     0.0000000000000000   22.3170261383000010    0.0000000000000000
     0.0000000000000000    0.0000000000000000   30.0000000000000000
   Au   C    H    O    Sr   Ti
    50     3     7   265    72    72
Selective dynamics
Direct
  0.7156401665348255  0.5235698741845383  0.7520724250893451   F   F   F
  0.6551068169977725  0.4398548620232887  0.8120456066645190   F   F   F
  0.3692326962321886  0.6187754216573680  0.8207031032926722   F   F   F
  0.5703478931860886  0.5089374696581359  0.8560802469752815   F   F   F
  0.6630719508004219  0.1870196348800519  0.7473919459403575   T   T   T
  0.4714957827345998  0.4496361629642678  0.8775782809541255   F   F   F
  0.5172766808294043  0.3771391868019336  0.7317563935671032   F   F   F
  0.2812616847706835  0.3406281160139812  0.7023063498017592   F   F   F
  0.4521353080550057  0.5794893614103458  0.7027858161066334   F   F   F
  0.3974760793221748  0.3815993344149149  0.6904780903587096   F   F   F
  0.6206360831463797  0.5709969568102693  0.7040237826008067   F   F   F
  0.3246758191478989  0.4151204368023258  0.7695133561825713   F   F   F
  0.4633856108447887  0.5725545402301293  0.8644581516779581   F   F   F
  0.3757699753338528  0.7409790661156848  0.7797642198242585   F   F   F
  0.6480574121838885  0.4450277637319076  0.6945493070695576   F   F   F
  0.6695021445627702  0.6811404107017651  0.7486908886501595   F   F   F
  0.6989761292625474  0.3429857563336327  0.7570436673820353   F   F   F
  0.7731304596648272  0.4271083770308692  0.7938172466517344   F   F   F
  0.4434590833452390  0.4731541818909974  0.7563150910209444   F   F   F
  0.5651897276719637  0.6388814639320302  0.8607330247462386   F   F   F
  0.5396186858441894  0.6679965273353332  0.7018190938302169   F   F   F
  0.3752592783699953  0.4931517848027980  0.8329089014435027   F   F   F
  0.2573106022870206  0.5929325369721354  0.6941852945994995   F   F   F
  0.6158736939307161  0.3201881411469429  0.6957955036064334   F   F   F
  0.5518589986122109  0.2130274555657294  0.7097931997197264   F   F   F
  0.4146916336841429  0.6949796603930594  0.7000110683242227   F   F   F
  0.3928435205150365  0.8172167569892679  0.7066810548853439   F   F   F
  0.7193300947097967  0.2561145822692623  0.6911774489919154   F   F   F
  0.2952125911835992  0.7464979391105757  0.6956461036823711   F   F   F
  0.5117778475914037  0.6034843684370585  0.7768378446201893   F   F   F
  0.5788873779512187  0.7256987180991601  0.7940397396987393   F   F   F
  0.2403244463252605  0.4695366900728288  0.7091719647496930   F   F   F
  0.2888309398347175  0.6623568548422583  0.7630846074634405   F   F   F
  0.5998708381113289  0.2856822215363692  0.7840343570803014   F   F   F
  0.5142526570613271  0.4845910791709613  0.6777747090986139   F   F   F
  0.7066656751173994  0.7568210925954801  0.6883236417563339   F   F   F
  0.2896273611892326  0.5384930410849194  0.7772995926762789   F   F   F
  0.7630162991829081  0.4287647215942201  0.7039004726187201   F   F   F
  0.4836814317972227  0.2707161679298267  0.7748443090863475   F   F   F
  0.4645198804712933  0.6951846320825439  0.8309542248191164   F   F   F
  0.5473852580942591  0.3822181747068072  0.8268198479584470   F   F   F
  0.4867637448030706  0.7761496870249474  0.7547538063294539   F   F   F
  0.5625170853281602  0.4857938428222184  0.7621489595942208   F   F   F
  0.6352919691685273  0.5835258020091061  0.7995413572296854   F   F   F
  0.5968132818223779  0.7845270820771972  0.7129415389620206   F   F   F
  0.7325409790604667  0.6144485602741625  0.6939687025295669   F   F   F
  0.4266946665015752  0.3709375195691607  0.8159535516950882   F   F   F
  0.3493422884895239  0.4995115259900089  0.6977009542143904   F   F   F
  0.3685780748813201  0.2985980679852034  0.7555530777035102   F   F   F
  0.4357822047043669  0.2274211202445713  0.6978771555493921   F   F   F
  0.6467326341339046  0.0508890652379961  0.7935527833862679   T   T   T
  0.7224829467219749  0.1123303151059218  0.7511443445715997   T   T   T
  0.6875531676904956  0.0554545851440196  0.7539269490569538   T   T   T
  0.7454124940735269  0.1179017143323478  0.7199260057137096   T   T   T
  0.7418486034292755  0.1099280584520983  0.8138201530069580   T   T   T
  0.7189100112594886  0.0190412603987014  0.7554866325145113   T   T   T
  0.6649781564928290  0.0493195518812826  0.7224711287596506   T   T   T
  0.6305523016395398  0.0052206558668928  0.7962854089813050   T   T   T
  0.6667422045147973  0.0615953767344593  0.8255637534501687   T   T   T
  0.6104922831354500  0.0807560404477030  0.7893003881362191   T   T   T
  0.9144080597939066  0.6889071749751778  0.5455098734317900   F   F   F
  0.9156296189304243  0.9385212364698674  0.5464467070145815   F   F   F
  0.0823654225946200  0.0632031849372581  0.5476132985089350   F   F   F
  0.0867090157454768  0.3135017248304308  0.5471924662117402   F   F   F
  0.0848999391062932  0.8129353036914893  0.5473069149175416   F   F   F
  0.4165123906121337  0.0652424662038555  0.5472929390615562   F   F   F
  0.9156258682101281  0.4375574369917814  0.5456290142598235   F   F   F
  0.4123644168152438  0.8128644038060315  0.6394586849736896   F   F   F
  0.4158388625024401  0.3194584064391321  0.5524200091112874   F   F   F
  0.2523540917230491  0.5590192133333360  0.5436951232964446   F   F   F
  0.5811729087519240  0.5602491225978099  0.5488468238377280   F   F   F
  0.5838741071687181  0.9378634004550932  0.5461154039217391   F   F   F
  0.7488403904368539  0.1843170625149071  0.5506372226459320   F   F   F
  0.5766376948757994  0.4361916534576480  0.5517493227292860   F   F   F
  0.2515254957867157  0.9372842052110144  0.5452584977765795   F   F   F
  0.9179969438185864  0.5638414700657179  0.5471127886988398   F   F   F
  0.4199005091765429  0.5648904927902123  0.5553389213934423   F   F   F
  0.9155044030965200  0.8127828253330520  0.5468275022965656   F   F   F
  0.0835842094183263  0.9389505234705098  0.5457372281069652   F   F   F
  0.2489163458062293  0.6832962749542801  0.5517885987437552   F   F   F
  0.7493546961688864  0.9339881348057730  0.5477109727879608   F   F   F
  0.7518290079813568  0.6803812823689697  0.5532034515419255   F   F   F
  0.7519958796579971  0.4356517976440344  0.5487225123853108   F   F   F
  0.4231285125600195  0.4436220935297186  0.5458348288551420   F   F   F
  0.4229092527992293  0.6877442109368914  0.5468585900208325   F   F   F
  0.9167374226612566  0.1889067893101242  0.5455269241851610   F   F   F
  0.7478154552294569  0.3121548465722626  0.5485935398982704   F   F   F
  0.5795182921134270  0.6862152859603370  0.5473997522575331   F   F   F
  0.4974626204629047  0.5043619414915810  0.6088648152963856   F   F   F
  0.6654255094080455  0.6261017646770100  0.5029723563018464   F   F   F
  0.9998564734571787  0.7532270701535992  0.5924102680340511   F   F   F
  0.4160797363235815  0.9371714951015377  0.5461294212913188   F   F   F
  0.9998883187001297  0.4989050185744688  0.5938963451825003   F   F   F
  0.5807575944048864  0.1857599308347417  0.5494738488958149   F   F   F
  0.7411673046951748  0.8098532493080910  0.6399726626044782   F   F   F
  0.3340552089486337  0.9998576171690274  0.5920054658242151   F   F   F
  0.9997995014480381  0.9991607542353051  0.5932493906996115   F   F   F
  0.0011498148689242  0.2493936784689694  0.5922801841578220   F   F   F
  0.3331892262932499  0.4962384122560266  0.5908935602182552   F   F   F
  0.3353769387178929  0.7411114477638634  0.5902561550959433   F   F   F
  0.6633809279812724  0.2477927300627627  0.5904703987618376   F   F   F
  0.6660799765244079  0.0004519451182432  0.5921678514994468   F   F   F
  0.6657312245230784  0.7412766596321063  0.5906029183500365   F   F   F
  0.3972372425144002  0.5504671755305992  0.6518865348095844   F   F   F
  0.0829179977608021  0.4387743911152882  0.5448331389843233   F   F   F
  0.6666659901947654  0.4947880989719238  0.5912069974068430   F   F   F
  0.5860105378758078  0.8144578536176965  0.5504629034920043   F   F   F
  0.1708170007925673  0.7505195258770954  0.5949000828949877   F   F   F
  0.1656243658690855  0.5025877572671362  0.5870787986736872   F   F   F
  0.3345610858847721  0.2545468626161664  0.5926540351392973   F   F   F
  0.4999438289771589  0.0001567670375024  0.5911673761286238   F   F   F
  0.8326807287864071  0.8742265194787535  0.4986446065836674   F   F   F
  0.7485261934745040  0.9372837439245743  0.6406737642544869   F   F   F
  0.8321372455420359  0.0021049412288363  0.5922777799044283   F   F   F
  0.5006240891875890  0.7565466056338366  0.5924950109168847   F   F   F
  0.4178128836399395  0.0651830596658058  0.6400643564899440   F   F   F
  0.4265532702573225  0.3044063247315378  0.6554100074203504   F   F   F
  0.4156237350905059  0.1912627202332331  0.5464643271955438   F   F   F
  0.4982588978961004  0.2530635993968389  0.5904840880716122   F   F   F
  0.1674888550216664  0.9983448092379561  0.5922994764168763   F   F   F
  0.1685113956891229  0.2481525654862011  0.5931396147794459   F   F   F
  0.9161023013186309  0.0623056895964282  0.4541097812531234   F   F   F
  0.2484631956001309  0.4356640952063344  0.5490532013271618   F   F   F
  0.0833333358191695  0.3124999999901945  0.3605200052333331   F   F   F
  0.5911503661994857  0.8101469086562005  0.6460174433873433   F   F   F
  0.5831844826844730  0.3208311983650916  0.6331840146704550   F   F   F
  0.7479453198314658  0.0678327893644521  0.6397146858507767   F   F   F
  0.0843480778364736  0.3112054176089742  0.6409261567605782   F   F   F
  0.0867862336426128  0.5629511849656907  0.6398550565168080   F   F   F
  0.0841978573501905  0.0603459436404847  0.6422101822523487   F   F   F
  0.0874015110118123  0.4366361549172453  0.6396816416903164   F   F   F
  0.0840249635565868  0.1852851900082655  0.6414334883397004   F   F   F
  0.4177478815374300  0.1872409598652425  0.6395370858091596   F   F   F
  0.0842816413841732  0.9355745352292928  0.6407097359492013   F   F   F
  0.9125183958548320  0.4360815465709322  0.6397829985817154   F   F   F
  0.9164999167886663  0.6873398797041688  0.6388475036450032   F   F   F
  0.9142553570220571  0.9370302565681854  0.6411750904639248   F   F   F
  0.4150869806735074  0.4186941068870027  0.6301276216017442   F   F   F
  0.7549718824038791  0.4332689543024060  0.6373009606530076   F   F   F
  0.4176315436425284  0.9349447867195195  0.6397681626757432   F   F   F
  0.0833791683135203  0.6871294961206118  0.6388454479976957   F   F   F
  0.2520192870371005  0.9303042265850792  0.6374609262796440   F   F   F
  0.7457200320976085  0.1934643879309306  0.6460171161064210   F   F   F
  0.2536013521736962  0.1864964314837820  0.6415210166982419   F   F   F
  0.8304501722725277  0.7507118909129531  0.5927616067422434   F   F   F
  0.8314563135767230  0.2493704522972422  0.5912661498952900   F   F   F
  0.5823133697802803  0.9359106087018532  0.6396272161605125   F   F   F
  0.9166666865332829  0.8124999999834799  0.3605200052333331   F   F   F
  0.0842752976662311  0.8126158012521643  0.6423396057971900   F   F   F
  0.7461962068017272  0.3115547230468678  0.6418744222511208   F   F   F
  0.5784911366860754  0.1915217818485999  0.6442749035621276   F   F   F
  0.2554795111601678  0.6774001367207774  0.6623125270167947   F   F   F
  0.8334026212629979  0.5031276536686065  0.5888313850795157   F   F   F
  0.2403751577196758  0.4419776586757678  0.6415848012318364   F   F   F
  0.4204010014077753  0.6761949797557207  0.6338876530359414   F   F   F
  0.6665374802046458  0.8743836588347520  0.4989402417657445   F   F   F
  0.0858316080105297  0.6893184971827679  0.5453995463414003   F   F   F
  0.5812997422288575  0.4390752338027184  0.6459130701656335   F   F   F
  0.2519253953621927  0.1879623681672058  0.5473761116076190   F   F   F
  0.2474274225420601  0.5734101500183186  0.6285193798586022   F   F   F
  0.7539928368096156  0.6917514340773252  0.6571744942525086   F   F   F
  0.2624271753752367  0.8002704272856107  0.6459975810943277   F   F   F
  0.2510332847470664  0.0593522927179393  0.6423033367132405   F   F   F
  0.9166666865332829  0.5625000000092442  0.3605200052333331   F   F   F
  0.4994024583267276  0.3742596335382089  0.4997260255809124   F   F   F
  0.5000414384005722  0.8734213981251955  0.5008992875035005   F   F   F
  0.5002602531350675  0.6211331426479347  0.5000332186903051   F   F   F
  0.8325239071882464  0.6230847016265955  0.5002160475206026   F   F   F
  0.8324219183591595  0.3730817603327168  0.4997830437017825   F   F   F
  0.8328853559058302  0.1244916751047711  0.5003266286079651   F   F   F
  0.1667410764750130  0.3761981414974258  0.4977058137392021   F   F   F
  0.1676369381219089  0.6243280453410875  0.5000351783628290   F   F   F
  0.5830730383026932  0.0662120580932850  0.6398103618768403   F   F   F
  0.9157482802156025  0.0626786016972360  0.6414521043344408   F   F   F
  0.5770233675226351  0.6862981570754556  0.6395484395738436   F   F   F
  0.1677105312692078  0.8733197648368645  0.4998577346801838   F   F   F
  0.5827710558778563  0.6861499361585643  0.4545871558547887   F   F   F
  0.5827640345331204  0.9371159666923887  0.4543086689074229   F   F   F
  0.9157575867534149  0.1867927280642121  0.4532070127961347   F   F   F
  0.9159186183106556  0.4368647724809378  0.4536032572739614   F   F   F
  0.1670818334330235  0.1243095478869520  0.4993156891973456   F   F   F
  0.7478908571966159  0.0604376525670247  0.5449391812449846   F   F   F
  0.7533861866548577  0.5681310845436300  0.6357875236648951   F   F   F
  0.9153869443655793  0.3118719788221540  0.6398488191058362   F   F   F
  0.9141751914175913  0.5626041816214027  0.6408430935546363   F   F   F
  0.4996071473306145  0.1253882505589843  0.4996984838938445   F   F   F
  0.5826139689234253  0.4394780339458606  0.4561734353620253   F   F   F
  0.9138580084894699  0.8132178290725349  0.6416366083310052   F   F   F
  0.9160465702204803  0.1862302073905013  0.6399002857278973   F   F   F
  0.2490223518974659  0.3163514799994331  0.6411340993079904   F   F   F
  0.0836953214691860  0.1888116211170967  0.5456834724920228   F   F   F
  0.2500213512963825  0.9360927606289522  0.4540123462471257   F   F   F
  0.2532680224644324  0.8126058939163343  0.5505041612028450   F   F   F
  0.9166666865332829  0.1875000000030838  0.3605200052333331   F   F   F
  0.5833333134730552  0.9375000000154046  0.3605200052333331   F   F   F
  0.5833333134730552  0.6874999999963620  0.3605200052333331   F   F   F
  0.5833333134730552  0.4374999701794380  0.3605200052333331   F   F   F
  0.5833333134730552  0.1875000000030838  0.3605200052333331   F   F   F
  0.2499999999799343  0.9375000000154046  0.3605200052333331   F   F   F
  0.9166666865332829  0.9375000000154046  0.3605200052333331   F   F   F
  0.2499999999799343  0.6874999999963620  0.3605200052333331   F   F   F
  0.2499999999799343  0.1875000000030838  0.3605200052333331   F   F   F
  0.7499999404149307  0.9375000000154046  0.3605200052333331   F   F   F
  0.7499999404149307  0.6874999999963620  0.3605200052333331   F   F   F
  0.7496330685185910  0.4383614321399918  0.4557191724963019   F   F   F
  0.7499999404149307  0.4374999701794380  0.3605200052333331   F   F   F
  0.2505307477371304  0.8108226489957460  0.4553245167555744   F   F   F
  0.4166666269218169  0.9375000000154046  0.3605200052333331   F   F   F
  0.4166666269218169  0.4374999701794380  0.3605200052333331   F   F   F
  0.2499999999799343  0.4374999701794380  0.3605200052333331   F   F   F
  0.0833333358191695  0.0625000000159659  0.3605200052333331   F   F   F
  0.9153104714747045  0.6868656561736870  0.4533200067648693   F   F   F
  0.6653754302033903  0.3785521437809933  0.5030742669506623   F   F   F
  0.3342705750492101  0.3784138231015248  0.5029224154170890   F   F   F
  0.3355708884716435  0.6257792994280820  0.5037630661790971   F   F   F
  0.9175818817957762  0.0633510683406655  0.5474604351340844   F   F   F
  0.2499934740949996  0.1887414604015163  0.4543230486926788   F   F   F
  0.7494795615051117  0.9384259990739778  0.4553607279472871   F   F   F
  0.7491907834396301  0.6886598900201761  0.4573906722966754   F   F   F
  0.7507708175438168  0.1898032558171181  0.4556417099651853   F   F   F
  0.7499999404149307  0.1875000000030838  0.3605200052333331   F   F   F
  0.2518824010637530  0.5647875088973748  0.4535940725069239   F   F   F
  0.9166666865332829  0.4374999701794380  0.3605200052333331   F   F   F
  0.4172385936071592  0.9360524014684444  0.4540280649671402   F   F   F
  0.4171887076011558  0.6851598403280335  0.4550039656634439   F   F   F
  0.0000000000000000  0.0000000000000000  0.4070133268666680   F   F   F
  0.5906633807782669  0.5660250835959246  0.6387112603095702   F   F   F
  0.2522174229590206  0.3144118650214551  0.4538970674594864   F   F   F
  0.2521623169556904  0.6876033887381183  0.4559841694615514   F   F   F
  0.4173105473858314  0.1870915482598292  0.4535506915648355   F   F   F
  0.9161409998518053  0.3121306733382099  0.4539034863799927   F   F   F
  0.5825112395120442  0.3113725940638759  0.5449206517117773   F   F   F
  0.9161190635286260  0.5621828214439475  0.4540825417425509   F   F   F
  0.9165617738066558  0.8121224745038589  0.4540661302339828   F   F   F
  0.0838543964951910  0.1865729550268043  0.4529770026250404   F   F   F
  0.0827192358108135  0.4367434205084137  0.4527968449194262   F   F   F
  0.0838814771961651  0.9367025082130738  0.4534808008427689   F   F   F
  0.0844010842688618  0.6869599434505673  0.4531452703351277   F   F   F
  0.4164263528206433  0.4354641468543790  0.4538408903330478   F   F   F
  0.9164292399787186  0.9371888758513620  0.4536730739251311   F   F   F
  0.4166666269218169  0.6874999999963620  0.3605200052333331   F   F   F
  0.0001296552216701  0.1251143071807590  0.4984485213330885   F   F   F
  0.0000176559339025  0.3734361223734624  0.4984112695832934   F   F   F
  0.9998553245589790  0.6271213837023808  0.4976637911993151   F   F   F
  0.3336389676093106  0.1256379718041671  0.4984970178128876   F   F   F
  0.0000309535563403  0.8751253183199879  0.4995521215504439   F   F   F
  0.3335634241556065  0.8742391155367244  0.4991642780406025   F   F   F
  0.6661917941251545  0.1267003058820251  0.4991672592100826   F   F   F
  0.2512178301378967  0.4395416566608361  0.4549897273746950   F   F   F
  0.0833333358191695  0.5625000000092442  0.3605200052333331   F   F   F
  0.9166666865332829  0.0625000000159659  0.3605200052333331   F   F   F
  0.7494224763174131  0.8131688370355334  0.4530587853914056   F   F   F
  0.2505041405360444  0.0620641211580732  0.4542409648253809   F   F   F
  0.9155477790787572  0.3126447479124366  0.5468057343686965   F   F   F
  0.5826627061528171  0.1897869725196699  0.4553151160915405   F   F   F
  0.5835421586497631  0.0627283604419162  0.5462258242736340   F   F   F
  0.5832678846921908  0.8104787109820961  0.4553743791657183   F   F   F
  0.0816954450867655  0.5644357111428917  0.5463242407298523   F   F   F
  0.7583082207108233  0.1242671830336093  0.7856912034782035   T   T   T
  0.8333332538436267  0.0000000000000000  0.4070133268666680   F   F   F
  0.0833333358191695  0.1875000000030838  0.3605200052333331   F   F   F
  0.0000000000000000  0.2500000000190425  0.4070133268666680   F   F   F
  0.0000000000000000  0.4999999999932783  0.4070133268666680   F   F   F
  0.7482478874995522  0.5643038905953048  0.4538008016123669   F   F   F
  0.3333333432766779  0.0000000000000000  0.4070133268666680   F   F   F
  0.3333333432766779  0.4999999999932783  0.4070133268666680   F   F   F
  0.3333333432766779  0.7500000000123208  0.4070133268666680   F   F   F
  0.6666666865533486  0.0000000000000000  0.4070133268666680   F   F   F
  0.6666666865533486  0.2500000000190425  0.4070133268666680   F   F   F
  0.6666666865533486  0.4999999999932783  0.4070133268666680   F   F   F
  0.5844892646805775  0.5628212027672816  0.4548592217940097   F   F   F
  0.5841829572708406  0.3152313340420676  0.4536374614344183   F   F   F
  0.1666666716383389  0.2500000000190425  0.4070133268666680   F   F   F
  0.1666666716383389  0.7500000000123208  0.4070133268666680   F   F   F
  0.5000000000021103  0.4999999999932783  0.4070133268666680   F   F   F
  0.5000000000021103  0.2500000000190425  0.4070133268666680   F   F   F
  0.9166666865332829  0.3124999999901945  0.3605200052333331   F   F   F
  0.3333333432766779  0.2500000000190425  0.4070133268666680   F   F   F
  0.7472868613149686  0.3141065976238764  0.4548437343598124   F   F   F
  0.0000000000000000  0.7500000000123208  0.4070133268666680   F   F   F
  0.4168717608829269  0.8104002226873703  0.4549573899370074   F   F   F
  0.5833333134730552  0.5625000000092442  0.3605200052333331   F   F   F
  0.7496991872662520  0.0640087043548547  0.4535600015212822   F   F   F
  0.5833333134730552  0.8124999999834799  0.3605200052333331   F   F   F
  0.1666666716383389  0.0000000000000000  0.4070133268666680   F   F   F
  0.8333332538436267  0.2500000000190425  0.4070133268666680   F   F   F
  0.1666666716383389  0.4999999999932783  0.4070133268666680   F   F   F
  0.6666666865533486  0.7500000000123208  0.4070133268666680   F   F   F
  0.5833450472982591  0.0634412267480684  0.4541637905847793   F   F   F
  0.2499999999799343  0.3124999999901945  0.3605200052333331   F   F   F
  0.5000000000021103  0.7500000000123208  0.4070133268666680   F   F   F
  0.5833333134730552  0.3124999999901945  0.3605200052333331   F   F   F
  0.5000000000021103  0.0000000000000000  0.4070133268666680   F   F   F
  0.9166666865332829  0.6874999999963620  0.3605200052333331   F   F   F
  0.2499999999799343  0.0625000000159659  0.3605200052333331   F   F   F
  0.2499999999799343  0.8124999999834799  0.3605200052333331   F   F   F
  0.5833333134730552  0.0625000000159659  0.3605200052333331   F   F   F
  0.7499999404149307  0.3124999999901945  0.3605200052333331   F   F   F
  0.7499999404149307  0.0625000000159659  0.3605200052333331   F   F   F
  0.4166666269218169  0.8124999999834799  0.3605200052333331   F   F   F
  0.4166666269218169  0.5625000000092442  0.3605200052333331   F   F   F
  0.4166666269218169  0.3124999999901945  0.3605200052333331   F   F   F
  0.7499999404149307  0.8124999999834799  0.3605200052333331   F   F   F
  0.4169080060909138  0.0616089923148166  0.4553441540767480   F   F   F
  0.0834577106085774  0.8121725234071633  0.4541750928512869   F   F   F
  0.0839534672826332  0.5624941914988710  0.4538883134349376   F   F   F
  0.4160189580244378  0.5595824758029480  0.4578613207868329   F   F   F
  0.0837065753413526  0.0618555986984219  0.4542339522166117   F   F   F
  0.0834948342107609  0.3119611311242778  0.4540437040293526   F   F   F
  0.4166666269218169  0.0625000000159659  0.3605200052333331   F   F   F
  0.7480785653333797  0.8080104727558179  0.5456684564656555   F   F   F
  0.2492263624029221  0.3135579358734333  0.5458189409034020   F   F   F
  0.4154954425862627  0.3112842256419128  0.4573515534207928   F   F   F
  0.2512023384999864  0.0623423152760623  0.5471558897817630   F   F   F
  0.7465379421217193  0.5581954071070214  0.5446728894205748   F   F   F
  0.7499999404149307  0.5625000000092442  0.3605200052333331   F   F   F
  0.2499999999799343  0.5625000000092442  0.3605200052333331   F   F   F
  0.4142639486042299  0.8117242068756880  0.5477638819120827   F   F   F
  0.8333332538436267  0.4999999999932783  0.4070133268666680   F   F   F
  0.4166666269218169  0.1875000000030838  0.3605200052333331   F   F   F
  0.0833333358191695  0.9375000000154046  0.3605200052333331   F   F   F
  0.0833333358191695  0.6874999999963620  0.3605200052333331   F   F   F
  0.0833333358191695  0.4374999701794380  0.3605200052333331   F   F   F
  0.8333332538436267  0.7500000000123208  0.4070133268666680   F   F   F
  0.0833333358191695  0.8124999999834799  0.3605200052333331   F   F   F
  0.8333332538436267  0.3750000000061604  0.4070133268666680   F   F   F
  0.8379193564265819  0.3723605447113059  0.6034427278835750   F   F   F
  0.8333332538436267  0.1249999999871179  0.4070133268666680   F   F   F
  0.1666666716383389  0.1249999999871179  0.4070133268666680   F   F   F
  0.3345966530595419  0.8788124853127925  0.6029923017843686   F   F   F
  0.8319087963692766  0.8764638237674660  0.6177876780902309   F   F   F
  0.1666666716383389  0.8749999404036828  0.4070133268666680   F   F   F
  0.8395224581174716  0.6269006370058037  0.6040544179504721   F   F   F
  0.8360917669337198  0.7516691167556786  0.5026170648573398   F   F   F
  0.6654900697247186  0.1244361249701527  0.6082847000534670   F   F   F
  0.3315561113173899  0.1196598564514275  0.6129258282966390   F   F   F
  0.1663800074854720  0.2481070564067167  0.5062593118030918   F   F   F
  0.0004669614285575  0.3750807711231730  0.6249212357774212   F   F   F
  0.3340067161335512  0.6245842318673169  0.5950101059879387   F   F   F
  0.5000000000021103  0.1249999999871179  0.4070133268666680   F   F   F
  0.9999907739175171  0.6233868913402887  0.6242398255437038   F   F   F
  0.1666666716383389  0.6249999999803961  0.4070133268666680   F   F   F
  0.0000000000000000  0.1249999999871179  0.4070133268666680   F   F   F
  0.5004422611324060  0.1220770600953429  0.6064303200243017   F   F   F
  0.5000000000021103  0.8749999404036828  0.4070133268666680   F   F   F
  0.8342682923905542  0.1241825648260431  0.6145847034875089   F   F   F
  0.6666276450632438  0.6260388034795241  0.5933563549526042   F   F   F
  0.6655135026003052  0.8811691843132579  0.6070893395049737   F   F   F
  0.1632853751719665  0.3712568384203223  0.6074649540135155   F   F   F
  0.1679001667026370  0.1226264152310748  0.6219713235407553   F   F   F
  0.1598164346624316  0.6275031730577538  0.6013463054239523   F   F   F
  0.6710295989210309  0.3724889723760256  0.5935250587953576   F   F   F
  0.1663033409179775  0.8736155562783807  0.6180684752701779   F   F   F
  0.5003811756224934  0.9993685340159359  0.5056622479736816   F   F   F
  0.6666666865533486  0.8749999404036828  0.4070133268666680   F   F   F
  0.5000000000021103  0.3750000000061604  0.4070133268666680   F   F   F
  0.5035869399104342  0.6250538071722076  0.5940560606910665   F   F   F
  0.5015252813852342  0.3715184525120634  0.5946323647719893   F   F   F
  0.9990388650080035  0.8750031169328665  0.6226683727798417   F   F   F
  0.5000000000021103  0.6249999999803961  0.4070133268666680   F   F   F
  0.5011954214491396  0.4998499996029722  0.5002170190307282   F   F   F
  0.1666666716383389  0.3750000000061604  0.4070133268666680   F   F   F
  0.6654324251257862  0.7518964982199421  0.5022232572345757   F   F   F
  0.8361679448200690  0.5000080650071297  0.5027892581424709   F   F   F
  0.3339307467045103  0.7511967902390353  0.5014766638820305   F   F   F
  0.3331262797762236  0.0010450743967212  0.5057592651280558   F   F   F
  0.3300573350794309  0.2480232796168522  0.5028253719283526   F   F   F
  0.0006776945912534  0.1227726669245541  0.6203033353005480   F   F   F
  0.1643911173478827  0.7515363698050379  0.5033783616989709   F   F   F
  0.6660572070295672  0.9999340279939375  0.5056600223582919   F   F   F
  0.6666666865533486  0.3750000000061604  0.4070133268666680   F   F   F
  0.3260759753670612  0.3733194423445525  0.5926703584729509   F   F   F
  0.9997670407145876  0.4999800683164182  0.5067110547429721   F   F   F
  0.8333332538436267  0.6249999999803961  0.4070133268666680   F   F   F
  0.5010902364196141  0.7528542589507410  0.5038518810541248   F   F   F
  0.0000000000000000  0.3750000000061604  0.4070133268666680   F   F   F
  0.6669885819599273  0.2481053277332350  0.5026582162289444   F   F   F
  0.0000057093706189  0.0000238828513233  0.5067155874153642   F   F   F
  0.6687019314335174  0.4998651884268099  0.5006612641354735   F   F   F
  0.3333333432766779  0.3750000000061604  0.4070133268666680   F   F   F
  0.5009549217696474  0.8769893810638081  0.6094305397982325   F   F   F
  0.8356480510339921  0.2485479196636575  0.5029594881319781   F   F   F
  0.1636018249490192  0.4998029974935250  0.5019518391968205   F   F   F
  0.3311662839648193  0.4991908501787634  0.5009045326410728   F   F   F
  0.1660017696267175  0.0011371732430447  0.5065502876678138   F   F   F
  0.0000000000000000  0.8749999404036828  0.4070133268666680   F   F   F
  0.3333333432766779  0.8749999404036828  0.4070133268666680   F   F   F
  0.8341125945259904  0.0002538122508469  0.5065174475865177   F   F   F
  0.0000000000000000  0.6249999999803961  0.4070133268666680   F   F   F
  0.3333333432766779  0.1249999999871179  0.4070133268666680   F   F   F
  0.3333333432766779  0.6249999999803961  0.4070133268666680   F   F   F
  0.8333332538436267  0.8749999404036828  0.4070133268666680   F   F   F
  0.6666666865533486  0.6249999999803961  0.4070133268666680   F   F   F
  0.0009777835934344  0.2497952276740492  0.5061505196918645   F   F   F
  0.9999359029768726  0.7510992222163821  0.5065461705001866   F   F   F
  0.5010687952603163  0.2478832835521061  0.5019073331025083   F   F   F
  0.6666666865533486  0.1249999999871179  0.4070133268666680   F   F   F
  0.7499999404149307  0.4999999999932783  0.4070133268666680   F   F   F
  0.0833333358191695  0.0000000000000000  0.4070133268666680   F   F   F
  0.0811602505363993  0.7518743316304040  0.6035095578837684   F   F   F
  0.0833333358191695  0.2500000000190425  0.4070133268666680   F   F   F
  0.4167326727485019  0.7505116074889386  0.5942835327514402   F   F   F
  0.7524990554002073  0.6247047281859679  0.5024249296904983   F   F   F
  0.4166666269218169  0.4999999999932783  0.4070133268666680   F   F   F
  0.0833333358191695  0.4999999999932783  0.4070133268666680   F   F   F