Au  C  O Sr Ti                          
   1.00000000000000     
    23.6707801818999997    0.0000000000000000    0.0000000000000000
     0.0000000000000000   22.3170261383000010    0.0000000000000000
     0.0000000000000000    0.0000000000000000   30.0000000000000000
   Au   C    O    Sr   Ti
    50     2   266    72    72
Selective dynamics
Direct
  0.7123213713209674  0.5239898763153615  0.7523858507257848   T   T   T
  0.5481284965762965  0.2162927067311309  0.7091252154354575   T   T   T
  0.6192491518602570  0.5713589882776098  0.7040934201933661   T   T   T
  0.7823413985602474  0.2795881937171131  0.6973287783554749   T   T   T
  0.2929031254127027  0.7468122816898897  0.6966824607580118   T   T   T
  0.5086903604425174  0.6072148710668356  0.7775094350752412   T   T   T
  0.5778445691208075  0.7265578417827191  0.7943501287662410   T   T   T
  0.2391313311568412  0.4698840211032790  0.7094727268171277   T   T   T
  0.2847034294282095  0.6633272359151868  0.7643125968671970   T   T   T
  0.5959433567587583  0.2983711792423158  0.7856422950316433   T   T   T
  0.5127664956565272  0.4843923750532821  0.6777828049882488   T   T   T
  0.2885983321214899  0.5395131297474022  0.7770951180394087   T   T   T
  0.5586071148666578  0.4896438349797788  0.7627657885255732   T   T   T
  0.7615774918527597  0.4288905584874253  0.7053031589076340   T   T   T
  0.4626432044369931  0.6986053711274809  0.8317598333256925   T   T   T
  0.4324116802383408  0.2277750848306498  0.6988151165736721   T   T   T
  0.3671718864045382  0.3005309758711009  0.7565737259861962   T   T   T
  0.3475487524575735  0.4997677841460411  0.6967305485920253   T   T   T
  0.4236346756632286  0.3735974951775153  0.8184943637014817   T   T   T
  0.5958743382873497  0.7845311807261962  0.7130045655271421   T   T   T
  0.6318500718933079  0.5849085985310808  0.7995380829352300   T   T   T
  0.7305734942255258  0.6149112845534184  0.6937904990062903   T   T   T
  0.4852832765282846  0.7757444111235983  0.7545599911292765   T   T   T
  0.5410042810402094  0.3885458781686948  0.8308194316087150   T   T   T
  0.4818384583611514  0.2732428882788924  0.7746977120847769   T   T   T
  0.3911179497865698  0.8172081628103157  0.7064242418568257   T   T   T
  0.4612897006814892  0.5766224434496476  0.8653403587618228   T   T   T
  0.4509087477824619  0.5793420734318732  0.7035778999683251   T   T   T
  0.7061451263084532  0.7568676800260881  0.6885284570001781   T   T   T
  0.6496236178030226  0.4401426362026239  0.8120760004209799   T   T   T
  0.3678994776365985  0.6206919113853177  0.8201230614879657   T   T   T
  0.5669320842365445  0.5114099707920562  0.8572594559308577   T   T   T
  0.4663831174159209  0.4546766155603584  0.8823777356888388   T   T   T
  0.5188795741184822  0.3790586569375304  0.7328909241874118   T   T   T
  0.2808841643310990  0.3412788274999167  0.7022405028707488   T   T   T
  0.6684041433871416  0.6816952419666925  0.7490606258180381   T   T   T
  0.3969069115284358  0.3818042674077355  0.6905822113436906   T   T   T
  0.6198227222328518  0.3164542055141840  0.6952507407173020   T   T   T
  0.6702868973721907  0.2208321625364102  0.7397314858973288   T   T   T
  0.3229666333754024  0.4165586391252665  0.7701140607425571   T   T   T
  0.3734488914699261  0.7410460404750612  0.7791801538665220   T   T   T
  0.3735222670063825  0.4954992077419360  0.8332738625041115   T   T   T
  0.4403874786429781  0.4718560421930547  0.7558013672240435   T   T   T
  0.5388237435720269  0.6681460687551000  0.7015269839492724   T   T   T
  0.6454651583070863  0.4441806430502261  0.6957689257867027   T   T   T
  0.5636982054191227  0.6413653545022959  0.8620289521016858   T   T   T
  0.2569275256703607  0.5939154007570054  0.6941581626444386   T   T   T
  0.7696699881906410  0.4290904711766693  0.7958023247293984   T   T   T
  0.6993353381571128  0.3440642582370308  0.7593694527906965   T   T   T
  0.4143169665067272  0.6951861342042586  0.6999269255416760   T   T   T
  0.6972025132374851  0.1365438497373409  0.7416026661703415   T   T   T
  0.8199597415747792  0.2485071228843085  0.7481011090473286   T   T   T
  0.0838212007540582  0.9366667707444105  0.4534470902806185   T   T   T
  0.0838228843881005  0.1865470684182761  0.4529634939347248   T   T   T
  0.0833333358191695  0.3124999999901945  0.3605200052333331   F   F   F
  0.0827908036650125  0.4367832232500126  0.4528544122193712   T   T   T
  0.0843087085830763  0.6869582391977203  0.4531382155169614   T   T   T
  0.7494162129502064  0.4387688601819944  0.4549361309076373   T   T   T
  0.4172051923119804  0.6846590257834835  0.4547564603750745   T   T   T
  0.4170669460294990  0.9359138553350914  0.4540173958883690   T   T   T
  0.7499629067444950  0.1877910951784795  0.4537359387834023   T   T   T
  0.9161133580794638  0.5621928926449490  0.4541036744367349   T   T   T
  0.7491700949695318  0.6888501140262285  0.4572253370676319   T   T   T
  0.4176260144536834  0.4353127802437600  0.4542243979102343   T   T   T
  0.9162434368491013  0.0622621695168511  0.4538710286317176   T   T   T
  0.6661619353934031  0.1254699206807862  0.4995453473118331   T   T   T
  0.4169375601064134  0.1872565127171302  0.4539380856989214   T   T   T
  0.2520648773316819  0.6875737584507048  0.4560997568269507   T   T   T
  0.9163883744656711  0.9370820072617477  0.4535673519647924   T   T   T
  0.5831656553319617  0.1902693782558153  0.4556679131854627   T   T   T
  0.9997592934592432  0.1249684597012433  0.4985381456502807   T   T   T
  0.5832380659712917  0.8104839631410049  0.4553318683057501   T   T   T
  0.9998143692560001  0.3736945775121579  0.4981258559743634   T   T   T
  0.9996199189913655  0.6270890073590084  0.4976510135807072   T   T   T
  0.3338887650903822  0.1255998546894203  0.4991843291700340   T   T   T
  0.0000770132763282  0.8746626814739684  0.4993874662673037   T   T   T
  0.3333793093390513  0.8736054295938335  0.4990569051789370   T   T   T
  0.2510421963652344  0.4391268314346184  0.4550344665120392   T   T   T
  0.0833333358191695  0.5625000000092442  0.3605200052333331   F   F   F
  0.7497920339387416  0.9373395292661775  0.4546882396648211   T   T   T
  0.9163827347906491  0.3122464827161970  0.4536980802445330   T   T   T
  0.2502343002690330  0.1884371484953588  0.4541417597628995   T   T   T
  0.5833868355521932  0.0635852157885239  0.4541113189615100   T   T   T
  0.3355143701585621  0.6255988786067779  0.5037296997371252   T   T   T
  0.5827075010967117  0.9371745850643327  0.4543107772652206   T   T   T
  0.5826871566884346  0.6861204928992595  0.4546119637814358   T   T   T
  0.5822704146053503  0.4395588687885355  0.4563380168905926   T   T   T
  0.2500144744772333  0.9360463186335454  0.4540175492829848   T   T   T
  0.6653410660135977  0.6265540871752667  0.5028507263329001   T   T   T
  0.5845590099673982  0.5628798074997826  0.4547903797482838   T   T   T
  0.7107508915910754  0.0874987728778407  0.7439990384249312   T   T   T
  0.9166666865332829  0.6874999999963620  0.3605200052333331   F   F   F
  0.9166666865332829  0.4374999701794380  0.3605200052333331   F   F   F
  0.9166666865332829  0.1875000000030838  0.3605200052333331   F   F   F
  0.5833333134730552  0.9375000000154046  0.3605200052333331   F   F   F
  0.5833333134730552  0.6874999999963620  0.3605200052333331   F   F   F
  0.5833333134730552  0.4374999701794380  0.3605200052333331   F   F   F
  0.5833333134730552  0.1875000000030838  0.3605200052333331   F   F   F
  0.9160313583947658  0.0622739344967253  0.5467827323751827   T   T   T
  0.2499999999799343  0.9375000000154046  0.3605200052333331   F   F   F
  0.2499999999799343  0.6874999999963620  0.3605200052333331   F   F   F
  0.2499999999799343  0.1875000000030838  0.3605200052333331   F   F   F
  0.7499999404149307  0.9375000000154046  0.3605200052333331   F   F   F
  0.7499999404149307  0.6874999999963620  0.3605200052333331   F   F   F
  0.7499999404149307  0.4374999701794380  0.3605200052333331   F   F   F
  0.7499999404149307  0.1875000000030838  0.3605200052333331   F   F   F
  0.4166666269218169  0.9375000000154046  0.3605200052333331   F   F   F
  0.4166666269218169  0.6874999999963620  0.3605200052333331   F   F   F
  0.4166666269218169  0.4374999701794380  0.3605200052333331   F   F   F
  0.2499999999799343  0.4374999701794380  0.3605200052333331   F   F   F
  0.0833333358191695  0.0625000000159659  0.3605200052333331   F   F   F
  0.9153007275938916  0.6868665891126922  0.4533176343920949   T   T   T
  0.6656244199142924  0.3795253135270746  0.5028421902867759   T   T   T
  0.3346190726020273  0.3782820871463833  0.5031253370946154   T   T   T
  0.9166666865332829  0.9375000000154046  0.3605200052333331   F   F   F
  0.9166666865332829  0.0625000000159659  0.3605200052333331   F   F   F
  0.1666666716383389  0.4999999999932783  0.4070133268666680   F   F   F
  0.2504895115580022  0.0620992769293479  0.4543044883445322   T   T   T
  0.5833333134730552  0.8124999999834799  0.3605200052333331   F   F   F
  0.5833333134730552  0.3124999999901945  0.3605200052333331   F   F   F
  0.5833333134730552  0.0625000000159659  0.3605200052333331   F   F   F
  0.2499999999799343  0.8124999999834799  0.3605200052333331   F   F   F
  0.2499999999799343  0.5625000000092442  0.3605200052333331   F   F   F
  0.2499999999799343  0.3124999999901945  0.3605200052333331   F   F   F
  0.2499999999799343  0.0625000000159659  0.3605200052333331   F   F   F
  0.7499999404149307  0.5625000000092442  0.3605200052333331   F   F   F
  0.7499999404149307  0.3124999999901945  0.3605200052333331   F   F   F
  0.7499999404149307  0.0625000000159659  0.3605200052333331   F   F   F
  0.4166666269218169  0.8124999999834799  0.3605200052333331   F   F   F
  0.4166666269218169  0.5625000000092442  0.3605200052333331   F   F   F
  0.4166666269218169  0.3124999999901945  0.3605200052333331   F   F   F
  0.7499999404149307  0.8124999999834799  0.3605200052333331   F   F   F
  0.0834672880388582  0.3119863815234998  0.4540232342944202   T   T   T
  0.4166666269218169  0.0625000000159659  0.3605200052333331   F   F   F
  0.4170077494655814  0.0616839836326358  0.4553928524609037   T   T   T
  0.0835536557891583  0.8120436065232102  0.4542039591714769   T   T   T
  0.0839567808264189  0.5624858932514049  0.4539337107485355   T   T   T
  0.4159039033557223  0.5594065240217029  0.4578435708616554   T   T   T
  0.0836771137441991  0.0618931899827475  0.4542396996117350   T   T   T
  0.4155457831571043  0.3113254707870672  0.4573756847201407   T   T   T
  0.8333332538436267  0.7500000000123208  0.4070133268666680   F   F   F
  0.0833333358191695  0.4374999701794380  0.3605200052333331   F   F   F
  0.0833333358191695  0.6874999999963620  0.3605200052333331   F   F   F
  0.0833333358191695  0.9375000000154046  0.3605200052333331   F   F   F
  0.4166666269218169  0.1875000000030838  0.3605200052333331   F   F   F
  0.0833333358191695  0.8124999999834799  0.3605200052333331   F   F   F
  0.8333332538436267  0.4999999999932783  0.4070133268666680   F   F   F
  0.7492011809735677  0.0625640050773029  0.4539626660201664   T   T   T
  0.5833333134730552  0.5625000000092442  0.3605200052333331   F   F   F
  0.4170388802590853  0.8099723302601661  0.4550494698505946   T   T   T
  0.0000000000000000  0.7500000000123208  0.4070133268666680   F   F   F
  0.9155694573739950  0.3126929809609800  0.5468413987958178   T   T   T
  0.2522800101357659  0.3141028830316241  0.4541648943525049   T   T   T
  0.2517763966705189  0.5645294501285713  0.4538236398298851   T   T   T
  0.2502385059473586  0.8106808975679214  0.4553280648008063   T   T   T
  0.8333332538436267  0.2500000000190425  0.4070133268666680   F   F   F
  0.5844075058622001  0.3154945075519608  0.4535630899762761   T   T   T
  0.8333332538436267  0.0000000000000000  0.4070133268666680   F   F   F
  0.5000000000021103  0.4999999999932783  0.4070133268666680   F   F   F
  0.0833333358191695  0.1875000000030838  0.3605200052333331   F   F   F
  0.0000000000000000  0.0000000000000000  0.4070133268666680   F   F   F
  0.0000000000000000  0.2500000000190425  0.4070133268666680   F   F   F
  0.0000000000000000  0.4999999999932783  0.4070133268666680   F   F   F
  0.7481904213008764  0.5645529463147858  0.4537583527233911   T   T   T
  0.3333333432766779  0.0000000000000000  0.4070133268666680   F   F   F
  0.7493242730826873  0.8130542172078031  0.4531927116271429   T   T   T
  0.3333333432766779  0.4999999999932783  0.4070133268666680   F   F   F
  0.6666666865533486  0.0000000000000000  0.4070133268666680   F   F   F
  0.6666666865533486  0.2500000000190425  0.4070133268666680   F   F   F
  0.6666666865533486  0.4999999999932783  0.4070133268666680   F   F   F
  0.6666666865533486  0.7500000000123208  0.4070133268666680   F   F   F
  0.1666666716383389  0.0000000000000000  0.4070133268666680   F   F   F
  0.1666666716383389  0.2500000000190425  0.4070133268666680   F   F   F
  0.9159499580130374  0.1868736407876665  0.4531513945257425   T   T   T
  0.1666666716383389  0.7500000000123208  0.4070133268666680   F   F   F
  0.5000000000021103  0.0000000000000000  0.4070133268666680   F   F   F
  0.5000000000021103  0.2500000000190425  0.4070133268666680   F   F   F
  0.5000000000021103  0.7500000000123208  0.4070133268666680   F   F   F
  0.9166666865332829  0.3124999999901945  0.3605200052333331   F   F   F
  0.3333333432766779  0.2500000000190425  0.4070133268666680   F   F   F
  0.7474585095660865  0.3136994504448860  0.4542937591918215   T   T   T
  0.3333333432766779  0.7500000000123208  0.4070133268666680   F   F   F
  0.9162113889134241  0.4370623083886914  0.4534490200439147   T   T   T
  0.9164801463505481  0.8120950707014627  0.4540346821008818   T   T   T
  0.7494971721524423  0.0617532901944096  0.5461551967721111   T   T   T
  0.7518928430822471  0.6807638494739497  0.5531068879922187   T   T   T
  0.7531674311878462  0.4365832173657496  0.5482326980705575   T   T   T
  0.4233207115890390  0.4432761402509454  0.5460610353974681   T   T   T
  0.4228978114635109  0.6875476393930844  0.5468540985470419   T   T   T
  0.7497513986160678  0.1869257169830951  0.5466221942986031   T   T   T
  0.4158153169515106  0.9368135009944456  0.5461217543732457   T   T   T
  0.5008885858582937  0.2537824782652940  0.5917905125852542   T   T   T
  0.4175607534132805  0.1907672755016790  0.5474852803403690   T   T   T
  0.0857369278896580  0.6891126435277003  0.5452463720260488   T   T   T
  0.0827487351032960  0.4384724106610253  0.5448420931263730   T   T   T
  0.0830313778752559  0.1889508999950751  0.5455164673243209   T   T   T
  0.4998612341672293  0.1256587540779184  0.4995963757754499   T   T   T
  0.9991237751115523  0.4976624885821309  0.5942892458588716   T   T   T
  0.5817982807380712  0.1851948183280108  0.5505753813541640   T   T   T
  0.7484147956556716  0.9348702946301521  0.5467515410502107   T   T   T
 -0.0000014329419241  0.7532918282911450  0.5923540915945631   T   T   T
  0.9996747948070804  0.9977841776334716  0.5923920792415808   T   T   T
  0.9989786890064480  0.2483969329985967  0.5927725482454099   T   T   T
  0.3331006901485729  0.4955761134048773  0.5911516880692425   T   T   T
  0.3352919757955207  0.7411418339917880  0.5903431515458709   T   T   T
  0.6661568575925493  0.2465440897881320  0.5913185284502470   T   T   T
  0.6657958854246827  0.9998300466098778  0.5918100061926044   T   T   T
  0.6655361079155325  0.7415820402584279  0.5905815369281031   T   T   T
  0.6668183743190969  0.4931120774766404  0.5910765382012277   T   T   T
  0.1673146184567262  0.9985165434634351  0.5923232037993553   T   T   T
  0.1679068384535578  0.2493385421634686  0.5931599644595164   T   T   T
  0.1704973575433739  0.7499680415719158  0.5947428447799421   T   T   T
  0.2482866914128130  0.4355546585699329  0.5491698118571553   T   T   T
  0.1653023737556717  0.5024203327564779  0.5870486494171611   T   T   T
  0.3351923275174532  0.2539510424975178  0.5928149113303360   T   T   T
  0.3339767986076477  0.9999422660967860  0.5919232371536769   T   T   T
  0.4996460789698856 -0.0000774603587194  0.5911901665666940   T   T   T
  0.2490736021771817  0.6831036350180315  0.5518884829510836   T   T   T
  0.9155400909764309  0.8124290470291335  0.5468654002536207   T   T   T
  0.1669530815562839  0.1247347632904021  0.4995772896991695   T   T   T
  0.4142899345228217  0.8115470820275961  0.5477472116199995   T   T   T
  0.2510281228903590  0.0625964550149603  0.5472404087959740   T   T   T
  0.7460826524300094  0.5586601201336568  0.5447091910387512   T   T   T
  0.7481025451508578  0.8083336144281662  0.5458513441466668   T   T   T
  0.2497291283627111  0.3134643275164236  0.5459839695674321   T   T   T
  0.5846418453974193  0.3102644106315313  0.5449255268674967   T   T   T
  0.2528905687963789  0.8124737329593491  0.5507285043831175   T   T   T
  0.5828527429993660  0.0621450891069565  0.5459067609127667   T   T   T
  0.5856985870025661  0.8142538898117986  0.5503315585643360   T   T   T
  0.7481706037822370  0.3137899285941551  0.5469950461063637   T   T   T
  0.5816931775588523  0.5597433366919007  0.5487829332022744   T   T   T
  0.2524235901484871  0.5589540191340873  0.5439872124491119   T   T   T
  0.4164704229606667  0.3188518634849735  0.5528539392397208   T   T   T
  0.0836273665254886  0.9389585866630067  0.5456106744756718   T   T   T
  0.5764029417455607  0.4354894904374110  0.5520687707765481   T   T   T
  0.0852002159457446  0.8128861220318561  0.5474978482525409   T   T   T
  0.0807474886109514  0.5642587446752815  0.5464093099449439   T   T   T
  0.0846034082919894  0.3131936451468779  0.5470890793748282   T   T   T
  0.0823623660658406  0.0632212403819357  0.5474774839793316   T   T   T
  0.9159641161947255  0.9381126186555711  0.5461093068307905   T   T   T
  0.9142797366166368  0.6887002057318021  0.5456176261877101   T   T   T
  0.5837807906522750  0.9376958818849411  0.5461587713852774   T   T   T
  0.9163045112568033  0.1878248378195021  0.5457838497585350   T   T   T
  0.9152378404974671  0.4374549910365608  0.5455529909716457   T   T   T
  0.5791479659193586  0.6859155360314404  0.5475147314167353   T   T   T
  0.2515182483134130  0.9372726642564716  0.5451958887627806   T   T   T
  0.4971577395537792  0.5045613788536795  0.6090089383428829   T   T   T
  0.9179076510714158  0.5637854981699496  0.5473037532136389   T   T   T
  0.4197301056662045  0.5645641667608592  0.5554011105419975   T   T   T
  0.4168585550856760  0.0649100816057449  0.5473994533261950   T   T   T
  0.8326339565428146  0.8742391796372643  0.4987564798990183   T   T   T
  0.8414201737545474  0.2277867384926031  0.7788399219404138   T   T   T
  0.8322094288388028  0.9978932931263738  0.5922758428815005   T   T   T
  0.7552969346062961  0.4362888748528406  0.6386823189120571   T   T   T
  0.4172668079803322  0.9349944566179381  0.6398296903396958   T   T   T
  0.4202009081107445  0.6759138827191462  0.6338054777165328   T   T   T
  0.5907009004279242  0.8097083625449946  0.6460375317836684   T   T   T
  0.9161269615997090  0.0610332571943006  0.6405161096260339   T   T   T
  0.9139012944753017  0.5616441775855908  0.6413643417770241   T   T   T
  0.9127403055005495  0.3109943095681926  0.6406264348149805   T   T   T
  0.9147093115818778  0.8121637409884764  0.6426316064449469   T   T   T
  0.5829088682923692  0.0654760152678565  0.6392103723188116   T   T   T
  0.5887044652382425  0.3214324807374293  0.6327440795248500   T   T   T
  0.5912717308096699  0.5651758425110478  0.6383786538041859   T   T   T
  0.2474687674028794  0.5735170722458344  0.6285947103586167   T   T   T
  0.7538024726220897  0.6921496844129691  0.6575120464901596   T   T   T
  0.2618248455025051  0.7998912470218674  0.6461425863952761   T   T   T
  0.7492408272116966  0.1859637962152057  0.6412029717227786   T   T   T
  0.9166666865332829  0.5625000000092442  0.3605200052333331   F   F   F
  0.4999801124844636  0.8734493756207780  0.5008864155885340   T   T   T
  0.5002238642001269  0.6208408663366101  0.5000958258622228   T   T   T
  0.8323823151329420  0.6230609862495222  0.5000970829121454   T   T   T
  0.2518353719853855  0.1884252374797164  0.5471922308079382   T   T   T
  0.8331268357480136  0.3734180075386662  0.4988408825699997   T   T   T
  0.8329763568401257  0.1242224476401136  0.4989177425898491   T   T   T
  0.1665166526250171  0.3755253830064430  0.4980778558826538   T   T   T
  0.1675344620203066  0.6241217587829987  0.5001409092822032   T   T   T
  0.5795805319599762  0.4381586844842261  0.6462199658725583   T   T   T
  0.5773415816021282  0.6855269515926748  0.6394362180475315   T   T   T
  0.9132377275100778  0.1849912449527299  0.6403890726213854   T   T   T
  0.2496877086648928  0.3168036779453816  0.6407724604496693   T   T   T
  0.1676745264695002  0.8733395092708688  0.4998465829538163   T   T   T
  0.7473473921613958  0.9336091376404201  0.6399959204840804   T   T   T
  0.4998909325260358  0.3725769060143499  0.5007950464944613   T   T   T
  0.2530149939035209  0.1865041544468564  0.6409849116944123   T   T   T
  0.2509475047410780  0.0595127477157324  0.6422673992737422   T   T   T
  0.8305536886954543  0.7511451578489582  0.5931045600309268   T   T   T
  0.4176284442320914  0.0651832731261579  0.6400928450015924   T   T   T
  0.5817285238255089  0.9349277413215160  0.6394641535110469   T   T   T
  0.5005769597609441  0.7562624665361087  0.5926548257688501   T   T   T
  0.4255405388104259  0.3042009894129269  0.6557097171892138   T   T   T
  0.4123069983139726  0.8127519105847212  0.6393941016038321   T   T   T
  0.3971168059779001  0.5503502267676090  0.6519362927998597   T   T   T
  0.7518265397877433  0.5701059000622712  0.6350376643908224   T   T   T
  0.7411373139255265  0.8094644938355983  0.6402294376217993   T   T   T
  0.7490151239300398  0.3124859220152870  0.6420522865237374   T   T   T
  0.0826934995876030  0.3112590208804364  0.6403899874838326   T   T   T
  0.6664058625816003  0.8742977240964188  0.4987887320619911   T   T   T
  0.0862979785560792  0.5617046801847354  0.6398684116862539   T   T   T
  0.0828878634505577  0.0605836391002798  0.6413890808697282   T   T   T
  0.0867384713782159  0.4355739983298313  0.6396211091053144   T   T   T
  0.0833209104870094  0.1853685699542611  0.6409136841759969   T   T   T
  0.7484476632989824  0.0623422365241969  0.6401994829231882   T   T   T
  0.5803359936048706  0.1916991236973992  0.6458257630007410   T   T   T
  0.4180851114314584  0.1873630551461349  0.6400112914014398   T   T   T
  0.9166666865332829  0.8124999999834799  0.3605200052333331   F   F   F
  0.0851512142968131  0.8118301192753908  0.6427235567974420   T   T   T
  0.2520254218179186  0.9303091089534006  0.6373197304610089   T   T   T
  0.2544825460205978  0.6780656480721439  0.6620019524269114   T   T   T
  0.8329634608308432  0.5039683727761872  0.5890280667266414   T   T   T
  0.2392906966204253  0.4422516534104693  0.6419540604243167   T   T   T
  0.8312642069351902  0.2492761828933267  0.5909094259886409   T   T   T
  0.9166263002416216  0.6869810794576346  0.6387569927483575   T   T   T
  0.9108978796653660  0.4348190043522550  0.6396534541864525   T   T   T
  0.0830318879523436  0.6864618509799478  0.6387766382556817   T   T   T
  0.0845619751226018  0.9355735374802771  0.6408182920908735   T   T   T
  0.4156198181962995  0.4181891649820999  0.6302330894286279   T   T   T
  0.9154581698619380  0.9358185461935484  0.6416097741304406   T   T   T
  0.9993321663486141  0.1233475821466808  0.6193309865434894   T   T   T
  0.1666666716383389  0.3750000000061604  0.4070133268666680   F   F   F
  0.1659152902842078  0.0011665873253988  0.5065200160936666   T   T   T
  0.8333332538436267  0.6249999999803961  0.4070133268666680   F   F   F
  0.5009055772730570  0.7527690021957405  0.5039509967882901   T   T   T
  0.1642858914726335  0.7513178373842082  0.5033180616044225   T   T   T
  0.9992534211464539  0.4997648840395494  0.5067752969210974   T   T   T
  0.6679165322591083  0.2475053962082394  0.5035761982466387   T   T   T
  0.3302606295053492  0.2479221274396854  0.5027622875595806   T   T   T
  0.3330387703329267  0.0010436657218771  0.5057306757770443   T   T   T
  0.3337564581319288  0.7510579132533063  0.5015116695656927   T   T   T
  0.6689306676147799  0.4994483552248982  0.5005722862957379   T   T   T
  0.6662573905994279  0.0003290412317685  0.5055383382146793   T   T   T
  0.3310624579289489  0.4989978121810353  0.5009976106196232   T   T   T
  0.5012767998431183  0.4995528303983242  0.5003303640779744   T   T   T
  0.8337493911320339  0.2482515503064938  0.5045926826572333   T   T   T
  0.6666666865533486  0.6249999999803961  0.4070133268666680   F   F   F
  0.1659239062143146  0.2482118468396113  0.5062744725274982   T   T   T
  0.0000000000000000  0.8749999404036828  0.4070133268666680   F   F   F
  0.5013972361632748  0.2478336450116127  0.5024146530616723   T   T   T
 -0.0000606022918015  0.7507925122987166  0.5066054803334384   T   T   T
  0.9997475016679301  0.2495252911115786  0.5062596085593185   T   T   T
 -0.0000993562873873  0.9998196778397632  0.5062873141303309   T   T   T
  0.8333332538436267  0.8749999404036828  0.4070133268666680   F   F   F
  0.0000000000000000  0.6249999999803961  0.4070133268666680   F   F   F
  0.3333333432766779  0.6249999999803961  0.4070133268666680   F   F   F
  0.3333333432766779  0.1249999999871179  0.4070133268666680   F   F   F
  0.3333333432766779  0.3750000000061604  0.4070133268666680   F   F   F
  0.8339738783291554 -0.0000933253259142  0.5062168825829340   T   T   T
  0.3333333432766779  0.8749999404036828  0.4070133268666680   F   F   F
  0.6666666865533486  0.1249999999871179  0.4070133268666680   F   F   F
  0.6666666865533486  0.3750000000061604  0.4070133268666680   F   F   F
  0.8355476539413368  0.4996167464309872  0.5027881686607725   T   T   T
  0.1634200939742268  0.4995664654938063  0.5019357362796792   T   T   T
  0.6653617713414636  0.7517609878063349  0.5021869625808064   T   T   T
  0.6666666865533486  0.8749999404036828  0.4070133268666680   F   F   F
  0.3263769177386737  0.3731719605248059  0.5925266689442622   T   T   T
  0.0000000000000000  0.3750000000061604  0.4070133268666680   F   F   F
  0.3339689783598268  0.6243035010892697  0.5948864019870507   T   T   T
  0.5000000000021103  0.8749999404036828  0.4070133268666680   F   F   F
  0.8333332538436267  0.1249999999871179  0.4070133268666680   F   F   F
  0.8333332538436267  0.3750000000061604  0.4070133268666680   F   F   F
  0.1666666716383389  0.1249999999871179  0.4070133268666680   F   F   F
  0.5000000000021103  0.6249999999803961  0.4070133268666680   F   F   F
  0.8395244549708185  0.6266548693217354  0.6043185547879940   T   T   T
  0.3313775463454096  0.1198836966930013  0.6128532800239308   T   T   T
 -0.0000586129242964  0.8739470058846625  0.6238536906697707   T   T   T
  0.5000000000021103  0.1249999999871179  0.4070133268666680   F   F   F
  0.8326434431731908  0.8749917571636135  0.6197290876659316   T   T   T
  0.8356794269216099  0.3719022973035551  0.6015403597245738   T   T   T
  0.5001316541282065  0.9991228965630808  0.5056147126057938   T   T   T
  0.5001919957975499  0.8764492376991138  0.6096483768707700   T   T   T
  0.6663139646920829  0.1213289212232776  0.6094270725739515   T   T   T
  0.8360485241946209  0.7513615957088190  0.5027420913544403   T   T   T
  0.5033618300163362  0.6245300200031855  0.5940433278260110   T   T   T
  0.5000000000021103  0.3750000000061604  0.4070133268666680   F   F   F
  0.1666666716383389  0.6249999999803961  0.4070133268666680   F   F   F
  0.6735206946119757  0.3718826758398404  0.5941826321416764   T   T   T
  0.3344367487901037  0.8787191209252204  0.6027943232640820   T   T   T
  0.1592570409144484  0.6265699443025208  0.6012187115075938   T   T   T
  0.1666666716383389  0.8749999404036828  0.4070133268666680   F   F   F
  0.5027100658003389  0.3707669944343046  0.5954387286283986   T   T   T
  0.5004784721631730  0.1217727534947349  0.6069641724360905   T   T   T
  0.1663725639789849  0.8735083827825958  0.6179293197373625   T   T   T
  0.1628479722086499  0.3706241963235295  0.6075645326341984   T   T   T
  0.6643022208361576  0.8794580665090490  0.6067830104010581   T   T   T
  0.6661443088232930  0.6263315462078647  0.5931301041396593   T   T   T
  0.9985160970638536  0.3740033909166076  0.6235456692492274   T   T   T
  0.9997258464356331  0.6223677737735782  0.6241554700223182   T   T   T
  0.8330511370675512  0.1206347942557655  0.6129711418509634   T   T   T
  0.0000000000000000  0.1249999999871179  0.4070133268666680   F   F   F
  0.1671818444971916  0.1223858568469086  0.6216708122616269   T   T   T
  0.7495341236292260  0.9981755796427096  0.6041884444970003   T   T   T
  0.5823823544438238  0.0000473013528867  0.6043629109689790   T   T   T
  0.9167437061121476  0.9977044448821755  0.6033799658387548   T   T   T
  0.5841875672868501  0.7494433984261586  0.5996339841104288   T   T   T
  0.5906652699144028  0.5009608338308214  0.5935223598064534   T   T   T
  0.2422026365270225  0.4973511154552296  0.5941034898092007   T   T   T
  0.4162650358490397  0.7502343010317434  0.5945243123138607   T   T   T
  0.5836926326544797  0.2466322576956573  0.5970941904674055   T   T   T
  0.2495400048879980  0.9978068219485708  0.6041823455594804   T   T   T
  0.7502521737493949  0.2423573814757368  0.5995887607172428   T   T   T
  0.2483085492960085  0.2458258661380232  0.6035215578825567   T   T   T
  0.4169697778779300  0.0000891741726944  0.6047117114101184   T   T   T
  0.4142702496340835  0.2485989793586782  0.5915108889437398   T   T   T
  0.2493238420333017  0.7525727215507183  0.5919504045386542   T   T   T
  0.0820564838098421  0.2477507065831755  0.6034630738907210   T   T   T
  0.4168459484092357  0.6260794015383623  0.5009997186143930   T   T   T