 C  O Sr Ti                             
   1.00000000000000     
    23.6707801818999997    0.0000000000000000    0.0000000000000000
     0.0000000000000000   22.3170261383000010    0.0000000000000000
     0.0000000000000000    0.0000000000000000   30.0000000000000000
   C    O    Sr   Ti
     1   265    72    72
Selective dynamics
Direct
  0.4165332854028063  0.4995532146258421  0.6758862326454943   T   T   T
  0.1667864706377518  0.6245822248676476  0.4983538052122867   T   T   T
  0.1665984640248389  0.8754079085553516  0.4982882848887795   T   T   T
  0.6666087155842514  0.8754841529864238  0.4983634972863910   T   T   T
  0.1666220314560511  0.1246383333044136  0.4982738945547089   T   T   T
  0.6665698917879088  0.6246892335811175  0.4983935850953505   T   T   T
  0.6665686277153078  0.3753582074137276  0.4983062061752737   T   T   T
  0.3336544459619624  0.3758272688275220  0.4985861520593623   T   T   T
  0.3336507841036885  0.6241498912886757  0.4985505081302147   T   T   T
  0.6667011819271016  0.1245147153980264  0.4984310317688565   T   T   T
  0.3332347744816304  0.8756665637328006  0.4984198516310123   T   T   T
 -0.0000156728298352  0.8749072383942090  0.4986930907814288   T   T   T
  0.3332443426954064  0.1244402217985396  0.4986329801275003   T   T   T
  0.0000703709903940  0.6251487970095124  0.4986638831308758   T   T   T
  0.0000676080495969  0.3748584469487998  0.4986575352798486   T   T   T
  0.0000178433270521  0.1250766515299240  0.4987053587312064   T   T   T
  0.9168303860819049  0.9371734582653723  0.4530814187046670   T   T   T
  0.9166987130635081  0.6872018499617889  0.4532667332247638   T   T   T
  0.9168737787354677  0.4372037806446132  0.4531089817019289   T   T   T
  0.9168822750457855  0.1873015219310724  0.4533524506849159   T   T   T
  0.5830303026249964  0.9372325154627678  0.4531613240892395   T   T   T
  0.5829715995618504  0.6872494883874122  0.4533806858711736   T   T   T
  0.1667486085540648  0.3754334539902001  0.4983263016766568   T   T   T
  0.8333952767070418  0.1244852087990108  0.4983602516458138   T   T   T
  0.8332980213182131  0.3756079668853361  0.4983493845486583   T   T   T
  0.8333268007485102  0.8755456809631491  0.4984132580665769   T   T   T
  0.5834677327820729  0.1878688842863523  0.5459008276925007   T   T   T
  0.2496697930133548  0.9382365273317600  0.5461095139387458   T   T   T
  0.2503693683885628  0.6882154938629695  0.5456653257221789   T   T   T
  0.2506507545174554  0.4380428697811886  0.5460060202357915   T   T   T
  0.2498007197058519  0.1876672619033069  0.5462113939689339   T   T   T
  0.7497654283617832  0.9382618864476677  0.5460773023108455   T   T   T
  0.7502710539656876  0.6881116158209331  0.5458036963095299   T   T   T
  0.7497433619965800  0.4381429961888199  0.5460871758696506   T   T   T
  0.4170077814062605  0.4347222788917219  0.5505296414695450   T   T   T
  0.4161627008899206  0.6901614480631805  0.5438836829405390   T   T   T
  0.5827896025133495  0.4374402855079336  0.4532686407274386   T   T   T
  0.7502023454094092  0.1883197442347460  0.5457698544371025   T   T   T
  0.0833219543928948  0.9383830397238180  0.5456843365632695   T   T   T
  0.4162098940140411  0.1865883479212076  0.5470639881668811   T   T   T
  0.0834795774301801  0.6879733223498614  0.5459272492456627   T   T   T
  0.0832734243592477  0.4382667546085974  0.5457116285118939   T   T   T
  0.0835193577428836  0.1879835247850130  0.5459111648037472   T   T   T
  0.4998556822927360  0.1250907471864497  0.4988283742301428   T   T   T
  0.4995477297106206  0.3751122479865936  0.4989194415197805   T   T   T
  0.4997664897098890  0.8749037427722173  0.4988314198560011   T   T   T
  0.4994967186028924  0.6249611113515267  0.4988979494499829   T   T   T
  0.8332589127572165  0.6244049217379534  0.4983692797160290   T   T   T
  0.4166492964860952  0.9387432711821933  0.5458101050393782   T   T   T
  0.5830416837808732  0.1873144803791113  0.4533900784779961   T   T   T
  0.2498349532920238  0.9375640295588821  0.4533895599407907   T   T   T
  0.2503120092042704  0.6871639613005508  0.4533232421902938   T   T   T
  0.7499953030444937  0.8127283575701482  0.4533559692941984   T   T   T
  0.7498347146376535  0.5624960347115547  0.4533891601340829   T   T   T
  0.7499828713103904  0.3127376735518528  0.4533130030974528   T   T   T
  0.7500534045302025  0.0623394566087759  0.4535027948081907   T   T   T
  0.4165635437126688  0.8116419098437068  0.4540505363008731   T   T   T
  0.4170431528555473  0.5609344331219055  0.4551516384073777   T   T   T
  0.4165754951259709  0.3142943504553765  0.4529985251959933   T   T   T
  0.4168190580496239  0.0629553537577917  0.4531986075667290   T   T   T
  0.0830925947959248  0.8126856007014817  0.4533549711017609   T   T   T
  0.0832439667244072  0.5628271077325717  0.4531591101049507   T   T   T
  0.2500139021509664  0.0626146806041621  0.4533427018560830   T   T   T
  0.0831753680386197  0.3127168585961546  0.4533344617872740   T   T   T
  0.8333332538436267  0.7500000000123208  0.4070133268666680   F   F   F
  0.8333332538436267  0.4999999999932783  0.4070133268666680   F   F   F
  0.8333332538436267  0.2500000000190425  0.4070133268666680   F   F   F
  0.8333332538436267  0.0000000000000000  0.4070133268666680   F   F   F
  0.5000000000021103  0.7500000000123208  0.4070133268666680   F   F   F
  0.5000000000021103  0.4999999999932783  0.4070133268666680   F   F   F
  0.5000000000021103  0.2500000000190425  0.4070133268666680   F   F   F
  0.5000000000021103  0.0000000000000000  0.4070133268666680   F   F   F
  0.1666666716383389  0.7500000000123208  0.4070133268666680   F   F   F
  0.1666666716383389  0.4999999999932783  0.4070133268666680   F   F   F
  0.0831104363649845  0.0626533965787803  0.4531951342315117   T   T   T
  0.5833045687761872  0.6878380425257085  0.5458362719818460   T   T   T
  0.2503224648105306  0.3128500961580249  0.4533570256592063   T   T   T
  0.2500386811470798  0.8127286185451591  0.4533812240666809   T   T   T
  0.2505162848163671  0.4376857455518953  0.4534842702777737   T   T   T
  0.2500923062164239  0.1873102584350076  0.4533826403600742   T   T   T
  0.7499762078950047  0.9374108279674043  0.4533404431250853   T   T   T
  0.7500010284359996  0.6871322896262385  0.4532201292602006   T   T   T
  0.7498494815787794  0.4375139986865019  0.4533849220349561   T   T   T
  0.7499984235143146  0.1870368978167768  0.4531678825317056   T   T   T
  0.4168334991681650  0.9370416933772632  0.4531542436049806   T   T   T
  0.4165348873474501  0.6856445121339195  0.4529479510371409   T   T   T
  0.4168423869571252  0.4386243539103600  0.4548456022641114   T   T   T
  0.4166016345615779  0.1883551434180417  0.4540750839336241   T   T   T
  0.2504573881259515  0.5622596315764049  0.4535055892394608   T   T   T
  0.0831711964253928  0.9371843771516455  0.4531027678235025   T   T   T
  0.0832633291079964  0.4373812563165113  0.4532646540893451   T   T   T
  0.0831960585441031  0.1873369393643005  0.4533440050878036   T   T   T
  0.9168035138530640  0.8126739441018391  0.4533720980368827   T   T   T
  0.9169036287515293  0.5627079734737531  0.4531536642447739   T   T   T
  0.9168317625919520  0.3127146010131033  0.4533317796811984   T   T   T
  0.9168873941078778  0.0627298736968480  0.4531446876060725   T   T   T
  0.5830073068901048  0.8127282687152865  0.4533908572289104   T   T   T
  0.5828428085959924  0.5626779743322795  0.4532654821700162   T   T   T
  0.5829355594470865  0.3127782174127380  0.4533907198521372   T   T   T
  0.5830724290222083  0.0628267855403542  0.4531750468552661   T   T   T
  0.0832041610275505  0.6873243147436228  0.4533510680212845   T   T   T
  0.1666666716383389  0.2500000000190425  0.4070133268666680   F   F   F
  0.1666666716383389  0.0000000000000000  0.4070133268666680   F   F   F
  0.9165074922572507  0.1878862003824076  0.5458942824049301   T   T   T
  0.2506568339376667  0.4378647372954185  0.6402337735313975   T   T   T
  0.9168315031237289  0.9373590478904084  0.6402159992955131   T   T   T
  0.9171178637067027  0.6873387614726115  0.6402406935276869   T   T   T
  0.9166701656941151  0.4375871660963976  0.6400973311034291   T   T   T
  0.0828532712539452  0.6872201384588539  0.6405554626447489   T   T   T
  0.0838989312159668  0.9369280552096217  0.6400063570372553   T   T   T
  0.4166547668615072  0.4499176482182294  0.6507694227548318   T   T   T
  0.4168352396116294  0.1889097174182666  0.6406378633732399   T   T   T
  0.0830295273116137  0.1876057133984983  0.6399636284542223   T   T   T
  0.0836731294005301  0.4376823491261014  0.6402233830844787   T   T   T
  0.0838276208028436  0.0626679180636987  0.6401229446473033   T   T   T
  0.0830793015960983  0.8122748535952287  0.6399873272452415   T   T   T
  0.0837013999200277  0.5624213343976824  0.6402257997627228   T   T   T
  0.0828195043464220  0.3127927032039751  0.6405799970101276   T   T   T
  0.7497471310672059  0.0625270353170526  0.6402924544000435   T   T   T
  0.7498607600206926  0.3127152019961216  0.6405831804014861   T   T   T
  0.7497718958855742  0.8120946641505806  0.6402004795004246   T   T   T
  0.7500572543418013  0.5623366292720271  0.6404617036182430   T   T   T
  0.4167401043619150  0.5494812994893440  0.6511295543517578   T   T   T
  0.4168586323463014  0.8108362024256570  0.6407061510182296   T   T   T
  0.4170940803110218  0.3171787103160013  0.6371396247038488   T   T   T
  0.2519313223792820  0.6861453121896487  0.6400192327132056   T   T   T
  0.5829328957442047  0.1878176273936010  0.6399939631444875   T   T   T
  0.2509135975806148  0.9369846198606629  0.6402468359139102   T   T   T
  0.5826424803853465  0.9371931661107249  0.6400195597137558   T   T   T
  0.2505976912679372  0.0627323417164286  0.6402357238139786   T   T   T
  0.2519330128372759  0.3136816277976603  0.6399242519904003   T   T   T
  0.2506124725859000  0.8115161059391768  0.6405413284973862   T   T   T
  0.2506350346855620  0.5619691093669417  0.6403308292308963   T   T   T
  0.5826083814107498  0.5619356861192095  0.6401694046497844   T   T   T
  0.5818096575129772  0.3133805894229426  0.6399235925086062   T   T   T
  0.5827755888831390  0.0625665930779103  0.6401096435821452   T   T   T
  0.9170181888596211  0.8124497783578487  0.6399475758415794   T   T   T
  0.9171536994605713  0.3126878029752689  0.6403647040998404   T   T   T
  0.9166526477331095  0.5624544096607147  0.6400850640330960   T   T   T
  0.4163746692875777  0.0628266180507082  0.6399698269728606   T   T   T
  0.9166336067256344  0.0625059340396901  0.6401144313786867   T   T   T
  0.4172610205282679  0.6825763585905438  0.6370179490141061   T   T   T
  0.4161742144674442  0.9369534179829581  0.6399486956366147   T   T   T
  0.7501057775436569  0.4375803196757666  0.6405899894646644   T   T   T
  0.7500234328870174  0.1877858419130957  0.6400466214661765   T   T   T
  0.2504269111030806  0.1882823613960989  0.6404820905773582   T   T   T
  0.7498093138072042  0.9371182888369667  0.6404299491968203   T   T   T
  0.7498741223082156  0.6872417203873279  0.6405844585582599   T   T   T
  0.5825265174272133  0.4379097727755482  0.6402740674219866   T   T   T
  0.5817700747251251  0.6864373120211363  0.6399604121944236   T   T   T
  0.9170026521355980  0.1875205393244223  0.6399251498265280   T   T   T
  0.5828777275183749  0.8120060753616678  0.6400557811537695   T   T   T
  0.4997193132019720  0.7498534618060528  0.5908280313813743   T   T   T
  0.8333023176826104 -0.0003668402149809  0.5917779136682918   T   T   T
  0.8333191623178733  0.4999933679934014  0.5915287000150508   T   T   T
  0.5834710305941005  0.8121499345264406  0.5459160219742358   T   T   T
  0.5833029501593959  0.3121717948159477  0.5458433817923305   T   T   T
  0.5832567059384041  0.0615653987820964  0.5457151980300481   T   T   T
  0.2498995477133060  0.8124812522869848  0.5462258788660110   T   T   T
  0.2506704720417623  0.5619899374802461  0.5460420146620989   T   T   T
  0.2504192207014002  0.3120073179915616  0.5457902845705681   T   T   T
  0.2496773914407604  0.0617879721406174  0.5460960399928048   T   T   T
  0.7500127869211209  0.8122587805496582  0.5461474741869288   T   T   T
  0.7497013419035750  0.5618573169831526  0.5460767247575774   T   T   T
  0.4161622966740299  0.8134793044891446  0.5471241588116242   T   T   T
  0.5827190725844233  0.5615545960286153  0.5455843864845743   T   T   T
  0.7500258643986137  0.0620792380796652  0.5462541108585973   T   T   T
  0.4160867107911361  0.3099715572850331  0.5440160108781826   T   T   T
  0.4170066597341295  0.5654366860640481  0.5507256382469221   T   T   T
  0.4166902786243016  0.0612987542977456  0.5458071998762389   T   T   T
  0.0835511974363570  0.8120932431421444  0.5459394658679804   T   T   T
  0.0832971372573827  0.5617104698020777  0.5456827564748349   T   T   T
  0.0834684486484951  0.3120422572305136  0.5459343597421153   T   T   T
  0.0834788992092035  0.0618159116995617  0.5458236190520028   T   T   T
  0.9168365457865232  0.9384807173140753  0.5456755864582523   T   T   T
  0.9166064745307209  0.6878481288565587  0.5458394959540583   T   T   T
  0.5832521789790900  0.9384254582797231  0.5456820114716848   T   T   T
  0.7502405783986156  0.3121716358244071  0.5459039471225284   T   T   T
  0.9169121591746856  0.4384433587793756  0.5455760376394884   T   T   T
  0.9168590503194163  0.5615992843768780  0.5455785599974844   T   T   T
  0.9165664679436073  0.3122221575431733  0.5458984582384970   T   T   T
  0.8332821922925840  0.2506312544374035  0.5915694201344114   T   T   T
  0.8331896940119444  0.7494432490097674  0.5915371334309173   T   T   T
  0.4996734244702814 -0.0000004931656132  0.5913398674250514   T   T   T
  0.4996413242421173  0.2501480185173560  0.5908789019991133   T   T   T
  0.4983751936470556  0.4999806449982035  0.5919798202280258   T   T   T
  0.1669786403342233  0.4999506794671501  0.5913686972871819   T   T   T
  0.1670557003469121  0.7490752748993365  0.5920205576939992   T   T   T
  0.1669465820012918  0.2508291853783542  0.5919155176554700   T   T   T
  0.1669837931533918 -0.0000885947253467  0.5918882508085221   T   T   T
  0.6663768586505191  0.4999167608504939  0.5918868211794125   T   T   T
  0.9165250709797520  0.8121636440865543  0.5458920640046272   T   T   T
  0.6665729314959443  0.7492789019876638  0.5915420340976195   T   T   T
  0.6665957949505782  0.2506944864157692  0.5915353959756772   T   T   T
  0.3334902808135646  0.7495404374920440  0.5912644935440117   T   T   T
  0.3350067042034614  0.5000381323266816  0.5917528291460546   T   T   T
  0.0000393508838923  0.2501852403786882  0.5909140863462534   T   T   T
  0.0003329848803469 -0.0000236494247607  0.5915992446076953   T   T   T
  0.3334433249484672  0.0001359970861644  0.5912560918327359   T   T   T
  0.3334441150110049  0.2502717952763551  0.5912092944099943   T   T   T
  0.0001006809459341  0.7498387082365783  0.5909426242811633   T   T   T
  0.0003193220486627  0.5000152033107135  0.5915786093056665   T   T   T
  0.9167282772800606  0.0616934917172141  0.5457955271721083   T   T   T
  0.6663195275728094 -0.0001835752528617  0.5919417048960263   T   T   T
  0.5827490989716885  0.4384618478309442  0.5456077889720646   T   T   T
  0.4163061710104907  0.4992532008307696  0.7168544349605313   T   T   T
  0.6666666865533486  0.4999999999932783  0.4070133268666680   F   F   F
  0.0833333358191695  0.5625000000092442  0.3605200052333331   F   F   F
  0.0833333358191695  0.3124999999901945  0.3605200052333331   F   F   F
  0.0833333358191695  0.0625000000159659  0.3605200052333331   F   F   F
  0.9166666865332829  0.9375000000154046  0.3605200052333331   F   F   F
  0.9166666865332829  0.6874999999963620  0.3605200052333331   F   F   F
  0.9166666865332829  0.4374999701794380  0.3605200052333331   F   F   F
  0.9166666865332829  0.1875000000030838  0.3605200052333331   F   F   F
  0.5833333134730552  0.9375000000154046  0.3605200052333331   F   F   F
  0.5833333134730552  0.6874999999963620  0.3605200052333331   F   F   F
  0.5833333134730552  0.4374999701794380  0.3605200052333331   F   F   F
  0.5833333134730552  0.1875000000030838  0.3605200052333331   F   F   F
  0.2499999999799343  0.9375000000154046  0.3605200052333331   F   F   F
  0.2499999999799343  0.6874999999963620  0.3605200052333331   F   F   F
  0.2499999999799343  0.4374999701794380  0.3605200052333331   F   F   F
  0.7499999404149307  0.9375000000154046  0.3605200052333331   F   F   F
  0.7499999404149307  0.6874999999963620  0.3605200052333331   F   F   F
  0.7499999404149307  0.4374999701794380  0.3605200052333331   F   F   F
  0.7499999404149307  0.1875000000030838  0.3605200052333331   F   F   F
  0.4166666269218169  0.9375000000154046  0.3605200052333331   F   F   F
  0.4166666269218169  0.6874999999963620  0.3605200052333331   F   F   F
  0.4166666269218169  0.4374999701794380  0.3605200052333331   F   F   F
  0.4166666269218169  0.1875000000030838  0.3605200052333331   F   F   F
  0.0833333358191695  0.9375000000154046  0.3605200052333331   F   F   F
  0.0833333358191695  0.6874999999963620  0.3605200052333331   F   F   F
  0.0833333358191695  0.4374999701794380  0.3605200052333331   F   F   F
  0.0833333358191695  0.1875000000030838  0.3605200052333331   F   F   F
  0.6666666865533486  0.7500000000123208  0.4070133268666680   F   F   F
  0.0833333358191695  0.8124999999834799  0.3605200052333331   F   F   F
  0.4166666269218169  0.0625000000159659  0.3605200052333331   F   F   F
  0.2499999999799343  0.1875000000030838  0.3605200052333331   F   F   F
  0.4166666269218169  0.5625000000092442  0.3605200052333331   F   F   F
  0.6666666865533486  0.2500000000190425  0.4070133268666680   F   F   F
  0.4166666269218169  0.3124999999901945  0.3605200052333331   F   F   F
  0.6666666865533486  0.0000000000000000  0.4070133268666680   F   F   F
  0.3333333432766779  0.7500000000123208  0.4070133268666680   F   F   F
  0.3333333432766779  0.4999999999932783  0.4070133268666680   F   F   F
  0.3333333432766779  0.2500000000190425  0.4070133268666680   F   F   F
  0.3333333432766779  0.0000000000000000  0.4070133268666680   F   F   F
  0.0000000000000000  0.7500000000123208  0.4070133268666680   F   F   F
  0.0000000000000000  0.2500000000190425  0.4070133268666680   F   F   F
  0.0000000000000000  0.0000000000000000  0.4070133268666680   F   F   F
  0.9166666865332829  0.8124999999834799  0.3605200052333331   F   F   F
  0.9166666865332829  0.5625000000092442  0.3605200052333331   F   F   F
  0.9166666865332829  0.3124999999901945  0.3605200052333331   F   F   F
  0.0000000000000000  0.4999999999932783  0.4070133268666680   F   F   F
  0.7499999404149307  0.8124999999834799  0.3605200052333331   F   F   F
  0.5833333134730552  0.8124999999834799  0.3605200052333331   F   F   F
  0.5833333134730552  0.5625000000092442  0.3605200052333331   F   F   F
  0.5833333134730552  0.3124999999901945  0.3605200052333331   F   F   F
  0.5833333134730552  0.0625000000159659  0.3605200052333331   F   F   F
  0.2499999999799343  0.8124999999834799  0.3605200052333331   F   F   F
  0.4166666269218169  0.8124999999834799  0.3605200052333331   F   F   F
  0.2499999999799343  0.5625000000092442  0.3605200052333331   F   F   F
  0.2499999999799343  0.3124999999901945  0.3605200052333331   F   F   F
  0.2499999999799343  0.0625000000159659  0.3605200052333331   F   F   F
  0.7499999404149307  0.5625000000092442  0.3605200052333331   F   F   F
  0.7499999404149307  0.3124999999901945  0.3605200052333331   F   F   F
  0.7499999404149307  0.0625000000159659  0.3605200052333331   F   F   F
  0.9166666865332829  0.0625000000159659  0.3605200052333331   F   F   F
  0.8332843863399600  0.7500946249222621  0.5053959251522371   T   T   T
  0.1664683811904681  0.5000246050961696  0.5053641296934051   T   T   T
  0.0000871734544206  0.6245732893248460  0.6201320572964832   T   T   T
  0.8333672388318072  0.5000190269748646  0.5052360007778548   T   T   T
  0.0001126928628547  0.3755068864247361  0.6200964347858610   T   T   T
  0.0001430290508550  0.1248174137163105  0.6198750869983426   T   T   T
  0.8333501107071188  0.2499720689198191  0.5053746727664467   T   T   T
  0.1667584619464514  0.7500277487232203  0.5056276555663206   T   T   T
  0.5021553847412472  0.5000010073253989  0.5027749031357825   T   T   T
  0.8333299246919346  0.0000352194936590  0.5053817989660719   T   T   T
  0.5004998530759386  0.7509774510881960  0.5052510160600828   T   T   T
  0.5000507623543776 -0.0000039776476763  0.5051266879814226   T   T   T
  0.6663492242051541  0.6246448528829363  0.6219507622771745   T   T   T
  0.5004990576228767  0.2490559243773580  0.5052194142611144   T   T   T
  0.6662691388316363  0.8746999008163122  0.6207363328145580   T   T   T
  0.8333551643663418  0.6250488005421625  0.6207587852686386   T   T   T
  0.1670872482194586  0.1254547936603521  0.6207208848507226   T   T   T
  0.1667005017609159  0.2500156117727525  0.5055937424609885   T   T   T
  0.8333911830682841  0.3749237857628627  0.6207725820591845   T   T   T
  0.8332613522007954  0.1250961772435976  0.6203869430552834   T   T   T
  0.8332498110986633  0.8747696417905161  0.6205770153710650   T   T   T
  0.0002106999917540  0.8749968935300479  0.6198449528085022   T   T   T
  0.3336026486076797  0.1260750496665992  0.6203746428499547   T   T   T
  0.3335488547837110  0.6223883667581510  0.6194220158857499   T   T   T
  0.3334627346753314  0.3773893433441254  0.6190694118734156   T   T   T
  0.6663184200505513  0.3752809987133357  0.6220260825140392   T   T   T
  0.6663733599280514  0.1251469577164338  0.6208003703221751   T   T   T
  0.3337277129325297  0.8735781324246205  0.6202638195817468   T   T   T
  0.1670380822782158  0.6251221782290904  0.6221635923127272   T   T   T
  0.1673086994832018  0.8742982338258626  0.6207967754490579   T   T   T
  0.5001215160512895  0.3772964489227111  0.6191554733452589   T   T   T
  0.4995498711806813  0.1257886839085903  0.6200181197994631   T   T   T
  0.1669959294333178  0.3748908734824217  0.6221884762417007   T   T   T
  0.1665221518173987  0.0000237993598814  0.5054102353280718   T   T   T
  0.3333333432766779  0.8749999404036828  0.4070133268666680   F   F   F
  0.6668543206602892  0.2500376267621234  0.5054705642888375   T   T   T
  0.1666666716383389  0.6249999999803961  0.4070133268666680   F   F   F
  0.1666666716383389  0.3750000000061604  0.4070133268666680   F   F   F
  0.1666666716383389  0.1249999999871179  0.4070133268666680   F   F   F
  0.6666666865533486  0.8749999404036828  0.4070133268666680   F   F   F
  0.6666666865533486  0.6249999999803961  0.4070133268666680   F   F   F
  0.6666666865533486  0.3750000000061604  0.4070133268666680   F   F   F
  0.1666666716383389  0.8749999404036828  0.4070133268666680   F   F   F
  0.6666666865533486  0.1249999999871179  0.4070133268666680   F   F   F
  0.3333333432766779  0.6249999999803961  0.4070133268666680   F   F   F
  0.3333333432766779  0.3750000000061604  0.4070133268666680   F   F   F
  0.3333333432766779  0.1249999999871179  0.4070133268666680   F   F   F
  0.0000000000000000  0.8749999404036828  0.4070133268666680   F   F   F
  0.0000000000000000  0.6249999999803961  0.4070133268666680   F   F   F
  0.0000000000000000  0.3750000000061604  0.4070133268666680   F   F   F
  0.4995195753069928  0.8740193366386754  0.6200398574454176   T   T   T
  0.5000000000021103  0.1249999999871179  0.4070133268666680   F   F   F
  0.5000000000021103  0.3750000000061604  0.4070133268666680   F   F   F
  0.5000000000021103  0.6249999999803961  0.4070133268666680   F   F   F
  0.6668157445327468  0.5000074587585706  0.5055249670510907   T   T   T
  0.6667628799372626  0.0000679233589952  0.5054145866971167   T   T   T
  0.3326198856215541  0.7510605577736431  0.5053156986384841   T   T   T
  0.3330950872661092  0.0000298915834469  0.5051970284514967   T   T   T
  0.3326285866204126  0.2489634126189006  0.5052988056264541   T   T   T
  0.3312095017971480  0.5000141545107872  0.5028801174860068   T   T   T
  0.0000421612648616  0.5000086743840880  0.5051301414705553   T   T   T
  0.0000019937690644  0.7501396091234692  0.5051617248477550   T   T   T
 -0.0000180203626853  0.2498882880913435  0.5051595786059401   T   T   T
  0.0000562771997690  0.0000460667716024  0.5052799387572413   T   T   T
  0.8333332538436267  0.8749999404036828  0.4070133268666680   F   F   F
  0.8333332538436267  0.6249999999803961  0.4070133268666680   F   F   F
  0.8333332538436267  0.3750000000061604  0.4070133268666680   F   F   F
  0.8333332538436267  0.1249999999871179  0.4070133268666680   F   F   F
  0.5000000000021103  0.8749999404036828  0.4070133268666680   F   F   F
  0.6668431475042164  0.7499936484717510  0.5055028071340090   T   T   T
  0.5001671542769675  0.6223541192652812  0.6193527724852548   T   T   T
  0.0000000000000000  0.1249999999871179  0.4070133268666680   F   F   F
  0.0833333358191695  0.2500000000190425  0.4070133268666680   F   F   F
  0.7498508371593746  0.2505560036999694  0.6024635765473243   T   T   T
  0.7498263721487827 -0.0003187179181732  0.6026783564261284   T   T   T
  0.0832593458210498  0.2506023521761427  0.6024915073979095   T   T   T
  0.0836325261932971  0.5000660145121023  0.6022214441332840   T   T   T
  0.0834382525380213  0.7493792376901525  0.6024225628779447   T   T   T
  0.0835566122053142 -0.0001860673441988  0.6025130194972688   T   T   T
  0.7497797644447862  0.7494845908292270  0.6024784555934093   T   T   T
  0.9167087139801364  0.8751063103869314  0.5061152809404856   T   T   T
  0.5834838841931755  0.8751271225551335  0.5061153103420652   T   T   T
  0.9167355350714760  0.1249177920159320  0.5061377692469050   T   T   T
  0.9167413465444898  0.3750483835892687  0.5060130947113536   T   T   T
  0.5835433215345111  0.3750472169167595  0.5061302341137610   T   T   T
  0.5835382385769161  0.6249514964914745  0.5061396053674379   T   T   T
  0.5835468828360417  0.1248522073742194  0.5061342710094562   T   T   T
  0.9167415333165533  0.6249675809814572  0.5060217779353340   T   T   T
  0.2496592493159124  0.8753266262429975  0.5062005679325685   T   T   T
  0.7500628604867873  0.4998681195879531  0.6025155165710624   T   T   T
  0.4167643762096521  0.7486152097922574  0.6025596684187198   T   T   T
  0.9166943318591603  0.5000101927428945  0.6021889290670281   T   T   T
  0.9168000753746218  0.7496330882490504  0.6023070907979976   T   T   T
  0.9167108110373564 -0.0001426851100248  0.6024068206936712   T   T   T
  0.9168018458397480  0.2504392767911470  0.6023768141454766   T   T   T
  0.5830876880165519  0.7491634029212352  0.6024645860767619   T   T   T
  0.5840216422333757  0.4998736727920647  0.6020097019513827   T   T   T
  0.4171696863763618  0.4999733183472785  0.5895591644828386   T   T   T
  0.2496108743463228  0.4999742257630335  0.6020514720154791   T   T   T
  0.5831190155010564  0.2506714440311512  0.6024119170800681   T   T   T
  0.5829090251991150 -0.0000982682730165  0.6024170152542448   T   T   T
  0.2503370841570260 -0.0002201773556526  0.6026909879556839   T   T   T
  0.2501849814317202  0.2506797183325373  0.6025776539067165   T   T   T
  0.4165106955055398 -0.0000803592541810  0.6023869251532736   T   T   T
  0.4166711220791715  0.2512422578424319  0.6025567437850465   T   T   T
  0.2503799596581421  0.7490512987585453  0.6026519300128061   T   T   T
  0.4165195990031405  0.8752149314628771  0.5062804235021346   T   T   T
  0.7501609747934561  0.1248567165298001  0.5063242770445058   T   T   T
  0.7500844223491729  0.6247291336664323  0.5061635548946900   T   T   T
  0.2499999999799343  0.7500000000123208  0.4070133268666680   F   F   F
  0.2499999999799343  0.4999999999932783  0.4070133268666680   F   F   F
  0.2499999999799343  0.2500000000190425  0.4070133268666680   F   F   F
  0.2499999999799343  0.0000000000000000  0.4070133268666680   F   F   F
  0.7499999404149307  0.7500000000123208  0.4070133268666680   F   F   F
  0.7499999404149307  0.4999999999932783  0.4070133268666680   F   F   F
  0.5833333134730552  0.0000000000000000  0.4070133268666680   F   F   F
  0.7499999404149307  0.2500000000190425  0.4070133268666680   F   F   F
  0.4166666269218169  0.7500000000123208  0.4070133268666680   F   F   F
  0.4166666269218169  0.4999999999932783  0.4070133268666680   F   F   F
  0.4166666269218169  0.2500000000190425  0.4070133268666680   F   F   F
  0.4166666269218169  0.0000000000000000  0.4070133268666680   F   F   F
  0.0833333358191695  0.7500000000123208  0.4070133268666680   F   F   F
  0.0833333358191695  0.4999999999932783  0.4070133268666680   F   F   F
  0.7499999404149307  0.0000000000000000  0.4070133268666680   F   F   F
  0.5833333134730552  0.2500000000190425  0.4070133268666680   F   F   F
  0.5833333134730552  0.4999999999932783  0.4070133268666680   F   F   F
  0.5833333134730552  0.7500000000123208  0.4070133268666680   F   F   F
  0.7500818341603672  0.3752960302335849  0.5061390037276462   T   T   T
  0.2497906224992525  0.3752280269517755  0.5061369233758184   T   T   T
  0.2498379415213808  0.6247931278519520  0.5061559026817120   T   T   T
  0.2496890451893425  0.1246769200184988  0.5062301424971773   T   T   T
  0.7500663947147059  0.8752464769528018  0.5063181223026014   T   T   T
  0.4166581457738038  0.1247476204201561  0.5062628073667991   T   T   T
  0.4166966382133331  0.6282021590055110  0.5042507265179280   T   T   T
  0.0832692030512969  0.6250267995482235  0.5061170278169771   T   T   T
  0.0832238711529129  0.8749794062593917  0.5061466247276994   T   T   T
  0.0832622678201902  0.3749784606735236  0.5061208289645912   T   T   T
  0.0832474389619616  0.1250358240736623  0.5061756157204056   T   T   T
  0.9166666865332829  0.7500000000123208  0.4070133268666680   F   F   F
  0.9166666865332829  0.4999999999932783  0.4070133268666680   F   F   F