 C  O Sr Ti 
 1.0000000000000000
    23.6707801818999997    0.0000000000000000    0.0000000000000000
     0.0000000000000000   22.3170261383000010    0.0000000000000000
     0.0000000000000000    0.0000000000000000   30.0000000000000000
 C   O   Sr  Ti 
   1 265  72  72
Selective dynamics
Cartesian
  9.8680000000000003 11.1199999999999992 19.5820000000000007   T   T   T
  3.9451301480000271 13.9481413360000008 14.9202441293259529   T   T   T
  3.9451301480000271 19.5273965409999306 14.9202441293259529   T   T   T
 15.7805205919999434 19.5273965409999306 14.9202441293259529   T   T   T
  3.9451301480000271  2.7896282670000101 14.9202441293259529   T   T   T
 15.7805205919999434 13.9481413360000008 14.9202441293259529   T   T   T
 15.7805205919999434  8.3688848019999824 14.9202441293259529   T   T   T
  7.8902602960000570  8.3688848019999824 14.9202441293259529   T   T   T
  7.8902602960000570 13.9481413360000008 14.9202441293259529   T   T   T
 15.7805205919999434  2.7896282670000101 14.9202441293259529   T   T   T
  7.8902602960000570 19.5273965409999306 14.9202441293259529   T   T   T
  0.0000000000000000 19.5273965409999306 14.9202441293259529   T   T   T
  7.8902602960000570  2.7896282670000101 14.9202441293259529   T   T   T
  0.0000000000000000 13.9481413360000008 14.9202441293259529   T   T   T
  0.0000000000000000  8.3688848019999824 14.9202441293259529   T   T   T
  0.0000000000000000  2.7896282670000101 14.9202441293259529   T   T   T
 21.6982156369999721 20.9145995873495600 13.5910955069286441   T   T   T
 21.6982156369999721 15.3353430523495859 13.5910955069286441   T   T   T
 21.6982156369999721  9.7560858523495142 13.5910955069286441   T   T   T
 21.6982156369999721  4.1768299833495970 13.5910955069286441   T   T   T
 13.8079546360000549 20.9145995873495600 13.5910955069286441   T   T   T
 13.8079546360000549 15.3353430523495859 13.5910955069286441   T   T   T
  3.9451301480000271  8.3688848019999824 14.9202441293259529   T   T   T
 19.7256482699999580  2.7896282670000101 14.9202441293259529   T   T   T
 19.7256482699999580  8.3688848019999824 14.9202441293259529   T   T   T
 19.7256482699999580 19.5273965409999306 14.9202441293259529   T   T   T
 13.8079546360000549  4.1959320194885859 16.3453837123804924   T   T   T
  5.9176950450000287 20.9337016234885454 16.3453837123804924   T   T   T
  5.9176950450000287 15.3544450884885730 16.3453837123804924   T   T   T
  5.9176950450000287  9.7751878884885066 16.3453837123804924   T   T   T
  5.9176950450000287  4.1959320194885859 16.3453837123804924   T   T   T
 17.7530837259999217 20.9337016234885454 16.3453837123804924   T   T   T
 17.7530837259999217 15.3544450884885730 16.3453837123804924   T   T   T
 17.7530837259999217  9.7751878884885066 16.3453837123804924   T   T   T
  9.8628241350000643  9.7751878884885066 16.3453837123804924   T   T   T
  9.8628241350000643 15.3544450884885730 16.3453837123804924   T   T   T
 13.8079546360000549  9.7560858523495142 13.5910955069286441   T   T   T
 17.7530837259999217  4.1959320194885859 16.3453837123804924   T   T   T
  1.9725650740000149 20.9337016234885454 16.3453837123804924   T   T   T
  9.8628241350000643  4.1959320194885859 16.3453837123804924   T   T   T
  1.9725650740000149 15.3544450884885730 16.3453837123804924   T   T   T
  1.9725650740000149  9.7751878884885066 16.3453837123804924   T   T   T
  1.9725650740000149  4.1959320194885859 16.3453837123804924   T   T   T
 11.8353900909999528  2.7896282670000101 14.9202441293259529   T   T   T
 11.8353900909999528  8.3688848019999824 14.9202441293259529   T   T   T
 11.8353900909999528 19.5273965409999306 14.9202441293259529   T   T   T
 11.8353900909999528 13.9481413360000008 14.9202441293259529   T   T   T
 19.7256482699999580 13.9481413360000008 14.9202441293259529   T   T   T
  9.8628241350000643 20.9337016234885454 16.3453837123804924   T   T   T
 13.8079546360000549  4.1768299833495970 13.5910955069286441   T   T   T
  5.9176950450000287 20.9145995873495600 13.5910955069286441   T   T   T
  5.9176950450000287 15.3353430523495859 13.5910955069286441   T   T   T
 17.7530837259999217 18.1401961546505461 13.5910955069286441   T   T   T
 17.7530837259999217 12.5609396206505277 13.5910955069286441   T   T   T
 17.7530837259999217  6.9816830856503955 13.5910955069286441   T   T   T
 17.7530837259999217  1.4024265516505363 13.5910955069286441   T   T   T
  9.8628241350000643 18.1401961546505461 13.5910955069286441   T   T   T
  9.8628241350000643 12.5609396206505277 13.5910955069286441   T   T   T
  9.8628241350000643  6.9816830856503955 13.5910955069286441   T   T   T
  9.8628241350000643  1.4024265516505363 13.5910955069286441   T   T   T
  1.9725650740000149 18.1401961546505461 13.5910955069286441   T   T   T
  1.9725650740000149 12.5609396206505277 13.5910955069286441   T   T   T
  5.9176950450000287  1.4024265516505363 13.5910955069286441   T   T   T
  1.9725650740000149  6.9816830856503955 13.5910955069286441   T   T   T
 19.7256482699999580 16.7377696039999648 12.2103998060000407   F   F   F
 19.7256482699999580 11.1585130689999925 12.2103998060000407   F   F   F
 19.7256482699999580  5.5792565349999723 12.2103998060000407   F   F   F
 19.7256482699999580  0.0000000000000000 12.2103998060000407   F   F   F
 11.8353900909999528 16.7377696039999648 12.2103998060000407   F   F   F
 11.8353900909999528 11.1585130689999925 12.2103998060000407   F   F   F
 11.8353900909999528  5.5792565349999723 12.2103998060000407   F   F   F
 11.8353900909999528  0.0000000000000000 12.2103998060000407   F   F   F
  3.9451301480000271 16.7377696039999648 12.2103998060000407   F   F   F
  3.9451301480000271 11.1585130689999925 12.2103998060000407   F   F   F
  1.9725650740000149  1.4024265516505363 13.5910955069286441   T   T   T
 13.8079546360000549 15.3544450884885730 16.3453837123804924   T   T   T
  5.9176950450000287  6.9816830856503955 13.5910955069286441   T   T   T
  5.9176950450000287 18.1401961546505461 13.5910955069286441   T   T   T
  5.9176950450000287  9.7560858523495142 13.5910955069286441   T   T   T
  5.9176950450000287  4.1768299833495970 13.5910955069286441   T   T   T
 17.7530837259999217 20.9145995873495600 13.5910955069286441   T   T   T
 17.7530837259999217 15.3353430523495859 13.5910955069286441   T   T   T
 17.7530837259999217  9.7560858523495142 13.5910955069286441   T   T   T
 17.7530837259999217  4.1768299833495970 13.5910955069286441   T   T   T
  9.8628241350000643 20.9145995873495600 13.5910955069286441   T   T   T
  9.8628241350000643 15.3353430523495859 13.5910955069286441   T   T   T
  9.8628241350000643  9.7560858523495142 13.5910955069286441   T   T   T
  9.8628241350000643  4.1768299833495970 13.5910955069286441   T   T   T
  5.9176950450000287 12.5609396206505277 13.5910955069286441   T   T   T
  1.9725650740000149 20.9145995873495600 13.5910955069286441   T   T   T
  1.9725650740000149  9.7560858523495142 13.5910955069286441   T   T   T
  1.9725650740000149  4.1768299833495970 13.5910955069286441   T   T   T
 21.6982156369999721 18.1401961546505461 13.5910955069286441   T   T   T
 21.6982156369999721 12.5609396206505277 13.5910955069286441   T   T   T
 21.6982156369999721  6.9816830856503955 13.5910955069286441   T   T   T
 21.6982156369999721  1.4024265516505363 13.5910955069286441   T   T   T
 13.8079546360000549 18.1401961546505461 13.5910955069286441   T   T   T
 13.8079546360000549 12.5609396206505277 13.5910955069286441   T   T   T
 13.8079546360000549  6.9816830856503955 13.5910955069286441   T   T   T
 13.8079546360000549  1.4024265516505363 13.5910955069286441   T   T   T
  1.9725650740000149 15.3353430523495859 13.5910955069286441   T   T   T
  3.9451301480000271  5.5792565349999723 12.2103998060000407   F   F   F
  3.9451301480000271  0.0000000000000000 12.2103998060000407   F   F   F
 21.6982156369999721  4.1959320194885859 16.3453837123804924   T   T   T
  5.9176950450000287  9.7750740467129997 19.1934111424111080   T   T   T
 21.6982156369999721 20.9335877817130473 19.1934111424111080   T   T   T
 21.6982156369999721 15.3543312467130750 19.1934111424111080   T   T   T
 21.6982156369999721  9.7750740467129997 19.1934111424111080   T   T   T
  1.9725650740000149 15.3543312467130750 19.1934111424111080   T   T   T
  1.9725650740000149 20.9335877817130473 19.1934111424111080   T   T   T
  9.8628241350000643  9.7750740467129997 19.1934111424111080   T   T   T
  9.8628241350000643  4.1958181777130834 19.1934111424111080   T   T   T
  1.9725650740000149  4.1958181777130834 19.1934111424111080   T   T   T
  1.9725650740000149  9.7750740467129997 19.1934111424111080   T   T   T
  1.9725650740000149  1.3834383572870477 19.1934111424111080   T   T   T
  1.9725650740000149 18.1212079602870588 19.1934111424111080   T   T   T
  1.9725650740000149 12.5419514262870386 19.1934111424111080   T   T   T
  1.9725650740000149  6.9626948912869100 19.1934111424111080   T   T   T
 17.7530837259999217  1.3834383572870477 19.1934111424111080   T   T   T
 17.7530837259999217  6.9626948912869100 19.1934111424111080   T   T   T
 17.7530837259999217 18.1212079602870588 19.1934111424111080   T   T   T
 17.7530837259999217 12.5419514262870386 19.1934111424111080   T   T   T
  9.8628241350000643 12.5419514262870386 19.1934111424111080   T   T   T
  9.8628241350000643 18.1212079602870588 19.1934111424111080   T   T   T
  9.8628241350000643  6.9626948912869100 19.1934111424111080   T   T   T
  5.9176950450000287 15.3543312467130750 19.1934111424111080   T   T   T
 13.8079546360000549  4.1958181777130834 19.1934111424111080   T   T   T
  5.9176950450000287 20.9335877817130473 19.1934111424111080   T   T   T
 13.8079546360000549 20.9335877817130473 19.1934111424111080   T   T   T
  5.9176950450000287  1.3834383572870477 19.1934111424111080   T   T   T
  5.9176950450000287  6.9626948912869100 19.1934111424111080   T   T   T
  5.9176950450000287 18.1212079602870588 19.1934111424111080   T   T   T
  5.9176950450000287 12.5419514262870386 19.1934111424111080   T   T   T
 13.8079546360000549 12.5419514262870386 19.1934111424111080   T   T   T
 13.8079546360000549  6.9626948912869100 19.1934111424111080   T   T   T
 13.8079546360000549  1.3834383572870477 19.1934111424111080   T   T   T
 21.6982156369999721 18.1212079602870588 19.1934111424111080   T   T   T
 21.6982156369999721  6.9626948912869100 19.1934111424111080   T   T   T
 21.6982156369999721 12.5419514262870386 19.1934111424111080   T   T   T
  9.8628241350000643  1.3834383572870477 19.1934111424111080   T   T   T
 21.6982156369999721  1.3834383572870477 19.1934111424111080   T   T   T
  9.8628241350000643 15.3543312467130750 19.1934111424111080   T   T   T
  9.8628241350000643 20.9335877817130473 19.1934111424111080   T   T   T
 17.7530837259999217  9.7750740467129997 19.1934111424111080   T   T   T
 17.7530837259999217  4.1958181777130834 19.1934111424111080   T   T   T
  5.9176950450000287  4.1958181777130834 19.1934111424111080   T   T   T
 17.7530837259999217 20.9335877817130473 19.1934111424111080   T   T   T
 17.7530837259999217 15.3543312467130750 19.1934111424111080   T   T   T
 13.8079546360000549  9.7750740467129997 19.1934111424111080   T   T   T
 13.8079546360000549 15.3543312467130750 19.1934111424111080   T   T   T
 21.6982156369999721  4.1958181777130834 19.1934111424111080   T   T   T
 13.8079546360000549 18.1212079602870588 19.1934111424111080   T   T   T
 11.8353900909999528 16.7377696039999648 17.7145855043574301   T   T   T
 19.7256482699999580  0.0000000000000000 17.7145855043574301   T   T   T
 19.7256482699999580 11.1585130689999925 17.7145855043574301   T   T   T
 13.8079546360000549 18.1210941185115608 16.3453837123804924   T   T   T
 13.8079546360000549  6.9625810495114031 16.3453837123804924   T   T   T
 13.8079546360000549  1.3833245155115466 16.3453837123804924   T   T   T
  5.9176950450000287 18.1210941185115608 16.3453837123804924   T   T   T
  5.9176950450000287 12.5418375845115442 16.3453837123804924   T   T   T
  5.9176950450000287  6.9625810495114031 16.3453837123804924   T   T   T
  5.9176950450000287  1.3833245155115466 16.3453837123804924   T   T   T
 17.7530837259999217 18.1210941185115608 16.3453837123804924   T   T   T
 17.7530837259999217 12.5418375845115406 16.3453837123804924   T   T   T
  9.8628241350000643 18.1210941185115608 16.3453837123804924   T   T   T
 13.8079546360000549 12.5418375845115442 16.3453837123804924   T   T   T
 17.7530837259999217  1.3833245155115466 16.3453837123804924   T   T   T
  9.8628241350000643  6.9625810495114031 16.3453837123804924   T   T   T
  9.8628241350000643 12.5418375845115442 16.3453837123804924   T   T   T
  9.8628241350000643  1.3833245155115466 16.3453837123804924   T   T   T
  1.9725650740000149 18.1210941185115608 16.3453837123804924   T   T   T
  1.9725650740000149 12.5418375845115442 16.3453837123804924   T   T   T
  1.9725650740000149  6.9625810495114031 16.3453837123804924   T   T   T
  1.9725650740000149  1.3833245155115466 16.3453837123804924   T   T   T
 21.6982156369999721 20.9337016234885454 16.3453837123804924   T   T   T
 21.6982156369999721 15.3544450884885730 16.3453837123804924   T   T   T
 13.8079546360000549 20.9337016234885454 16.3453837123804924   T   T   T
 17.7530837259999217  6.9625810495114031 16.3453837123804924   T   T   T
 21.6982156369999721  9.7751878884885066 16.3453837123804924   T   T   T
 21.6982156369999721 12.5418375845115406 16.3453837123804924   T   T   T
 21.6982156369999721  6.9625810495114031 16.3453837123804924   T   T   T
 19.7256482699999580  5.5792565349999723 17.7145855043574301   T   T   T
 19.7256482699999580 16.7377696039999648 17.7145855043574301   T   T   T
 11.8353900909999528  0.0000000000000000 17.7145855043574301   T   T   T
 11.8353900909999528  5.5792565349999723 17.7145855043574301   T   T   T
 11.8353900909999528 11.1585130689999925 17.7145855043574301   T   T   T
  3.9451301480000271 11.1585130689999925 17.7145855043574301   T   T   T
  3.9451301480000271 16.7377696039999648 17.7145855043574301   T   T   T
  3.9451301480000271  5.5792565349999723 17.7145855043574301   T   T   T
  3.9451301480000271  0.0000000000000000 17.7145855043574301   T   T   T
 15.7805205919999434 11.1585130689999925 17.7145855043574301   T   T   T
 21.6982156369999721 18.1210941185115608 16.3453837123804924   T   T   T
 15.7805205919999434 16.7377696039999648 17.7145855043574301   T   T   T
 15.7805205919999434  5.5792565349999723 17.7145855043574301   T   T   T
  7.8902602960000570 16.7377696039999648 17.7145855043574301   T   T   T
  7.8902602960000570 11.1585130689999925 17.7145855043574301   T   T   T
  0.0000000000000000  5.5792565349999723 17.7145855043574301   T   T   T
  0.0000000000000000  0.0000000000000000 17.7145855043574301   T   T   T
  7.8902602960000570  0.0000000000000000 17.7145855043574301   T   T   T
  7.8902602960000570  5.5792565349999723 17.7145855043574301   T   T   T
  0.0000000000000000 16.7377696039999648 17.7145855043574301   T   T   T
  0.0000000000000000 11.1585130689999925 17.7145855043574301   T   T   T
 21.6982156369999721  1.3833245155115466 16.3453837123804924   T   T   T
 15.7805205919999434  0.0000000000000000 17.7145855043574301   T   T   T
 13.8079546360000549  9.7751878884885066 16.3453837123804924   T   T   T
  9.8680000000000003 11.1199999999999992 20.7220000000000013   T   T   T
 15.7805205919999434 11.1585130689999925 12.2103998060000407   F   F   F
  1.9725650740000149 12.5533272030000536 10.8156001569999933   F   F   F
  1.9725650740000149  6.9740706679999214 10.8156001569999933   F   F   F
  1.9725650740000149  1.3948141340000613 10.8156001569999933   F   F   F
 21.6982156369999721 20.9222120050000342 10.8156001569999933   F   F   F
 21.6982156369999721 15.3429554700000619 10.8156001569999933   F   F   F
 21.6982156369999721  9.7636982699999884 10.8156001569999933   F   F   F
 21.6982156369999721  4.1844424010000720 10.8156001569999933   F   F   F
 13.8079546360000549 20.9222120050000342 10.8156001569999933   F   F   F
 13.8079546360000549 15.3429554700000619 10.8156001569999933   F   F   F
 13.8079546360000549  9.7636982699999884 10.8156001569999933   F   F   F
 13.8079546360000549  4.1844424010000720 10.8156001569999933   F   F   F
  5.9176950450000287 20.9222120050000342 10.8156001569999933   F   F   F
  5.9176950450000287 15.3429554700000619 10.8156001569999933   F   F   F
  5.9176950450000287  9.7636982699999884 10.8156001569999933   F   F   F
 17.7530837259999217 20.9222120050000342 10.8156001569999933   F   F   F
 17.7530837259999217 15.3429554700000619 10.8156001569999933   F   F   F
 17.7530837259999217  9.7636982699999884 10.8156001569999933   F   F   F
 17.7530837259999217  4.1844424010000720 10.8156001569999933   F   F   F
  9.8628241350000643 20.9222120050000342 10.8156001569999933   F   F   F
  9.8628241350000643 15.3429554700000619 10.8156001569999933   F   F   F
  9.8628241350000643  9.7636982699999884 10.8156001569999933   F   F   F
  9.8628241350000643  4.1844424010000720 10.8156001569999933   F   F   F
  1.9725650740000149 20.9222120050000342 10.8156001569999933   F   F   F
  1.9725650740000149 15.3429554700000619 10.8156001569999933   F   F   F
  1.9725650740000149  9.7636982699999884 10.8156001569999933   F   F   F
  1.9725650740000149  4.1844424010000720 10.8156001569999933   F   F   F
 15.7805205919999434 16.7377696039999648 12.2103998060000407   F   F   F
  1.9725650740000149 18.1325837370000720 10.8156001569999933   F   F   F
  9.8628241350000643  1.3948141340000613 10.8156001569999933   F   F   F
  5.9176950450000287  4.1844424010000720 10.8156001569999933   F   F   F
  9.8628241350000643 12.5533272030000536 10.8156001569999933   F   F   F
 15.7805205919999434  5.5792565349999723 12.2103998060000407   F   F   F
  9.8628241350000643  6.9740706679999214 10.8156001569999933   F   F   F
 15.7805205919999434  0.0000000000000000 12.2103998060000407   F   F   F
  7.8902602960000570 16.7377696039999648 12.2103998060000407   F   F   F
  7.8902602960000570 11.1585130689999925 12.2103998060000407   F   F   F
  7.8902602960000570  5.5792565349999723 12.2103998060000407   F   F   F
  7.8902602960000570  0.0000000000000000 12.2103998060000407   F   F   F
  0.0000000000000000 16.7377696039999648 12.2103998060000407   F   F   F
  0.0000000000000000  5.5792565349999723 12.2103998060000407   F   F   F
  0.0000000000000000  0.0000000000000000 12.2103998060000407   F   F   F
 21.6982156369999721 18.1325837370000720 10.8156001569999933   F   F   F
 21.6982156369999721 12.5533272030000536 10.8156001569999933   F   F   F
 21.6982156369999721  6.9740706679999214 10.8156001569999933   F   F   F
  0.0000000000000000 11.1585130689999925 12.2103998060000407   F   F   F
 17.7530837259999217 18.1325837370000720 10.8156001569999933   F   F   F
 13.8079546360000549 18.1325837370000720 10.8156001569999933   F   F   F
 13.8079546360000549 12.5533272030000536 10.8156001569999933   F   F   F
 13.8079546360000549  6.9740706679999214 10.8156001569999933   F   F   F
 13.8079546360000549  1.3948141340000613 10.8156001569999933   F   F   F
  5.9176950450000287 18.1325837370000720 10.8156001569999933   F   F   F
  9.8628241350000643 18.1325837370000720 10.8156001569999933   F   F   F
  5.9176950450000287 12.5533272030000536 10.8156001569999933   F   F   F
  5.9176950450000287  6.9740706679999214 10.8156001569999933   F   F   F
  5.9176950450000287  1.3948141340000613 10.8156001569999933   F   F   F
 17.7530837259999217 12.5533272030000536 10.8156001569999933   F   F   F
 17.7530837259999217  6.9740706679999214 10.8156001569999933   F   F   F
 17.7530837259999217  1.3948141340000613 10.8156001569999933   F   F   F
 21.6982156369999721  1.3948141340000613 10.8156001569999933   F   F   F
 19.7256482699999580 16.7377696039999648 15.1101990516002296   T   T   T
  3.9451301480000271 11.1585130689999925 15.1101990516002296   T   T   T
  0.0000000000000000 13.9481413360000008 18.6199310477087465   T   T   T
 19.7256482699999580 11.1585130689999925 15.1101990516002296   T   T   T
  0.0000000000000000  8.3688848019999824 18.6199310477087465   T   T   T
  0.0000000000000000  2.7896282670000101 18.6199310477087465   T   T   T
 19.7256482699999580  5.5792565349999723 15.1101990516002296   T   T   T
  3.9451301480000271 16.7377696039999648 15.1101990516002296   T   T   T
 11.8353900909999528 11.1585130689999925 15.1101990516002296   T   T   T
 19.7256482699999580  0.0000000000000000 15.1101990516002296   T   T   T
 11.8353900909999528 16.7377696039999648 15.1101990516002296   T   T   T
 11.8353900909999528  0.0000000000000000 15.1101990516002296   T   T   T
 15.7805205919999434 13.9481413360000008 18.6199310477087465   T   T   T
 11.8353900909999528  5.5792565349999723 15.1101990516002296   T   T   T
 15.7805205919999434 19.5273965409999306 18.6199310477087465   T   T   T
 19.7256482699999580 13.9481413360000008 18.6199310477087465   T   T   T
  3.9451301480000271  2.7896282670000101 18.6199310477087465   T   T   T
  3.9451301480000271  5.5792565349999723 15.1101990516002296   T   T   T
 19.7256482699999580  8.3688848019999824 18.6199310477087465   T   T   T
 19.7256482699999580  2.7896282670000101 18.6199310477087465   T   T   T
 19.7256482699999580 19.5273965409999306 18.6199310477087465   T   T   T
  0.0000000000000000 19.5273965409999306 18.6199310477087465   T   T   T
  7.8902602960000570  2.7896282670000101 18.6199310477087465   T   T   T
  7.8902602960000570 13.9481413360000008 18.6199310477087465   T   T   T
  7.8902602960000570  8.3688848019999824 18.6199310477087465   T   T   T
 15.7805205919999434  8.3688848019999824 18.6199310477087465   T   T   T
 15.7805205919999434  2.7896282670000101 18.6199310477087465   T   T   T
  7.8902602960000570 19.5273965409999306 18.6199310477087465   T   T   T
  3.9451301480000271 13.9481413360000008 18.6199310477087465   T   T   T
  3.9451301480000271 19.5273965409999306 18.6199310477087465   T   T   T
 11.8353900909999528  8.3688848019999824 18.6199310477087465   T   T   T
 11.8353900909999528  2.7896282670000101 18.6199310477087465   T   T   T
  3.9451301480000271  8.3688848019999824 18.6199310477087465   T   T   T
  3.9451301480000271  0.0000000000000000 15.1101990516002296   T   T   T
  7.8902602960000570 19.5273965409999306 12.2103998060000407   F   F   F
 15.7805205919999434  5.5792565349999723 15.1101990516002296   T   T   T
  3.9451301480000271 13.9481413360000008 12.2103998060000407   F   F   F
  3.9451301480000271  8.3688848019999824 12.2103998060000407   F   F   F
  3.9451301480000271  2.7896282670000101 12.2103998060000407   F   F   F
 15.7805205919999434 19.5273965409999306 12.2103998060000407   F   F   F
 15.7805205919999434 13.9481413360000008 12.2103998060000407   F   F   F
 15.7805205919999434  8.3688848019999824 12.2103998060000407   F   F   F
  3.9451301480000271 19.5273965409999306 12.2103998060000407   F   F   F
 15.7805205919999434  2.7896282670000101 12.2103998060000407   F   F   F
  7.8902602960000570 13.9481413360000008 12.2103998060000407   F   F   F
  7.8902602960000570  8.3688848019999824 12.2103998060000407   F   F   F
  7.8902602960000570  2.7896282670000101 12.2103998060000407   F   F   F
  0.0000000000000000 19.5273965409999306 12.2103998060000407   F   F   F
  0.0000000000000000 13.9481413360000008 12.2103998060000407   F   F   F
  0.0000000000000000  8.3688848019999824 12.2103998060000407   F   F   F
 11.8353900909999528 19.5273965409999306 18.6199310477087465   T   T   T
 11.8353900909999528  2.7896282670000101 12.2103998060000407   F   F   F
 11.8353900909999528  8.3688848019999824 12.2103998060000407   F   F   F
 11.8353900909999528 13.9481413360000008 12.2103998060000407   F   F   F
 15.7805205919999434 11.1585130689999925 15.1101990516002296   T   T   T
 15.7805205919999434  0.0000000000000000 15.1101990516002296   T   T   T
  7.8902602960000570 16.7377696039999648 15.1101990516002296   T   T   T
  7.8902602960000570  0.0000000000000000 15.1101990516002296   T   T   T
  7.8902602960000570  5.5792565349999723 15.1101990516002296   T   T   T
  7.8902602960000570 11.1585130689999925 15.1101990516002296   T   T   T
  0.0000000000000000 11.1585130689999925 15.1101990516002296   T   T   T
  0.0000000000000000 16.7377696039999648 15.1101990516002296   T   T   T
  0.0000000000000000  5.5792565349999723 15.1101990516002296   T   T   T
  0.0000000000000000  0.0000000000000000 15.1101990516002296   T   T   T
 19.7256482699999580 19.5273965409999306 12.2103998060000407   F   F   F
 19.7256482699999580 13.9481413360000008 12.2103998060000407   F   F   F
 19.7256482699999580  8.3688848019999824 12.2103998060000407   F   F   F
 19.7256482699999580  2.7896282670000101 12.2103998060000407   F   F   F
 11.8353900909999528 19.5273965409999306 12.2103998060000407   F   F   F
 15.7805205919999434 16.7377696039999648 15.1101990516002296   T   T   T
 11.8353900909999528 13.9481413360000008 18.6199310477087465   T   T   T
  0.0000000000000000  2.7896282670000101 12.2103998060000407   F   F   F
  1.9725650740000149  5.5792565349999723 12.2103998060000407   F   F   F
 17.7530837259999217  5.5792565349999723 18.0536282023827219   T   T   T
 17.7530837259999217  0.0000000000000000 18.0536282023827219   T   T   T
  1.9725650740000149  5.5792565349999723 18.0536282023827219   T   T   T
  1.9725650740000149 11.1585130689999925 18.0536282023827219   T   T   T
  1.9725650740000149 16.7377696039999648 18.0536282023827219   T   T   T
  1.9725650740000149  0.0000000000000000 18.0536282023827219   T   T   T
 17.7530837259999217 16.7377696039999648 18.0536282023827219   T   T   T
 21.6982156369999721 19.5273965409999306 15.1598415921598715   T   T   T
 13.8079546360000549 19.5273965409999306 15.1598415921598715   T   T   T
 21.6982156369999721  2.7896282670000101 15.1598415921598715   T   T   T
 21.6982156369999721  8.3688848019999824 15.1598415921598715   T   T   T
 13.8079546360000549  8.3688848019999824 15.1598415921598715   T   T   T
 13.8079546360000549 13.9481413360000008 15.1598415921598715   T   T   T
 13.8079546360000549  2.7896282670000101 15.1598415921598715   T   T   T
 21.6982156369999721 13.9481413360000008 15.1598415921598715   T   T   T
  5.9176950450000287 19.5273965409999306 15.1598415921598715   T   T   T
 17.7530837259999217 11.1585130689999925 18.0536282023827219   T   T   T
  9.8628241350000643 16.7377696039999648 18.0536282023827219   T   T   T
 21.6982156369999721 11.1585130689999925 18.0536282023827219   T   T   T
 21.6982156369999721 16.7377696039999648 18.0536282023827219   T   T   T
 21.6982156369999721  0.0000000000000000 18.0536282023827219   T   T   T
 21.6982156369999721  5.5792565349999723 18.0536282023827219   T   T   T
 13.8079546360000549 16.7377696039999648 18.0536282023827219   T   T   T
 13.8079546360000549 11.1585130689999925 18.0536282023827219   T   T   T
  9.8628241350000643 11.1585130689999925 18.0536282023827219   T   T   T
  5.9176950450000287 11.1585130689999925 18.0536282023827219   T   T   T
 13.8079546360000549  5.5792565349999723 18.0536282023827219   T   T   T
 13.8079546360000549  0.0000000000000000 18.0536282023827219   T   T   T
  5.9176950450000287  0.0000000000000000 18.0536282023827219   T   T   T
  5.9176950450000287  5.5792565349999723 18.0536282023827219   T   T   T
  9.8628241350000643  0.0000000000000000 18.0536282023827219   T   T   T
  9.8628241350000643  5.5792565349999723 18.0536282023827219   T   T   T
  5.9176950450000287 16.7377696039999648 18.0536282023827219   T   T   T
  9.8628241350000643 19.5273965409999306 15.1598415921598715   T   T   T
 17.7530837259999217  2.7896282670000101 15.1598415921598715   T   T   T
 17.7530837259999217 13.9481413360000008 15.1598415921598715   T   T   T
  5.9176950450000287 16.7377696039999648 12.2103998060000407   F   F   F
  5.9176950450000287 11.1585130689999925 12.2103998060000407   F   F   F
  5.9176950450000287  5.5792565349999723 12.2103998060000407   F   F   F
  5.9176950450000287  0.0000000000000000 12.2103998060000407   F   F   F
 17.7530837259999217 16.7377696039999648 12.2103998060000407   F   F   F
 17.7530837259999217 11.1585130689999925 12.2103998060000407   F   F   F
 13.8079546360000549  0.0000000000000000 12.2103998060000407   F   F   F
 17.7530837259999217  5.5792565349999723 12.2103998060000407   F   F   F
  9.8628241350000643 16.7377696039999648 12.2103998060000407   F   F   F
  9.8628241350000643 11.1585130689999925 12.2103998060000407   F   F   F
  9.8628241350000643  5.5792565349999723 12.2103998060000407   F   F   F
  9.8628241350000643  0.0000000000000000 12.2103998060000407   F   F   F
  1.9725650740000149 16.7377696039999648 12.2103998060000407   F   F   F
  1.9725650740000149 11.1585130689999925 12.2103998060000407   F   F   F
 17.7530837259999217  0.0000000000000000 12.2103998060000407   F   F   F
 13.8079546360000549  5.5792565349999723 12.2103998060000407   F   F   F
 13.8079546360000549 11.1585130689999925 12.2103998060000407   F   F   F
 13.8079546360000549 16.7377696039999648 12.2103998060000407   F   F   F
 17.7530837259999217  8.3688848019999824 15.1598415921598715   T   T   T
  5.9176950450000287  8.3688848019999824 15.1598415921598715   T   T   T
  5.9176950450000287 13.9481413360000008 15.1598415921598715   T   T   T
  5.9176950450000287  2.7896282670000101 15.1598415921598715   T   T   T
 17.7530837259999217 19.5273965409999306 15.1598415921598715   T   T   T
  9.8628241350000643  2.7896282670000101 15.1598415921598715   T   T   T
  9.8628241350000643 13.9481413360000008 15.1598415921598715   T   T   T
  1.9725650740000149 13.9481413360000008 15.1598415921598715   T   T   T
  1.9725650740000149 19.5273965409999306 15.1598415921598715   T   T   T
  1.9725650740000149  8.3688848019999824 15.1598415921598715   T   T   T
  1.9725650740000149  2.7896282670000101 15.1598415921598715   T   T   T
 21.6982156369999721 16.7377696039999648 12.2103998060000407   F   F   F
 21.6982156369999721 11.1585130689999925 12.2103998060000407   F   F   F