Au  C  H  O Sr Ti                       
   1.00000000000000     
    23.6707801818999997    0.0000000000000000    0.0000000000000000
     0.0000000000000000   22.3170261383000010    0.0000000000000000
     0.0000000000000000    0.0000000000000000   30.0000000000000000
   Au   C    H    O    Sr   Ti
    50     2     3   265    72    72
Selective dynamics
Direct
  0.7135123747379072  0.5270258194566037  0.7533121915019036   T   T   T
  0.5681612382346900  0.5115977293625195  0.8571011408566312   T   T   T
  0.6614758737391331  0.1919884841089194  0.7495630475717913   T   T   T
  0.4687536555003231  0.4525171159039069  0.8794981240413745   T   T   T
  0.2809619219338403  0.3415076403644572  0.7025710058751579   T   T   T
  0.6685016540314520  0.6825570424392622  0.7487391594603611   T   T   T
  0.3970620278997236  0.3822843710846470  0.6908303773314769   T   T   T
  0.4508960725687306  0.5802945538666012  0.7034773571535402   T   T   T
  0.3739647228621053  0.4954053396578098  0.8331391070942259   T   T   T
  0.3234106644492352  0.4164872923383839  0.7699380802558176   T   T   T
  0.3686048311332910  0.6207094798399921  0.8201461332522739   T   T   T
  0.2886492075577263  0.5397235381465711  0.7770870421058829   T   T   T
  0.5172266082503111  0.3789012067280002  0.7329094855500828   T   T   T
  0.2561229590881823  0.5942388534793789  0.6945010883020917   T   T   T
  0.6485133500947012  0.4476859751848535  0.6942668005585566   T   T   T
  0.5633953081356529  0.6416098224714460  0.8622286037489738   T   T   T
  0.5384903935767296  0.6689165699717315  0.7023103645799151   T   T   T
  0.4413723561616055  0.4735947386059705  0.7560648793121358   T   T   T
  0.7063207168056979  0.7575179583500375  0.6880982703939356   T   T   T
  0.3743393963250776  0.7419665023237056  0.7794348089797059   T   T   T
  0.4617382626824839  0.5753712560805108  0.8653535986655577   T   T   T
  0.6531266974601218  0.4422500772515240  0.8125797767851696   T   T   T
  0.4141596163406473  0.6961158369233732  0.6999414600080192   T   T   T
  0.7714186168546223  0.4318241859420009  0.7951598857404013   T   T   T
  0.3477261090176949  0.5003675936322728  0.6969263466986116   T   T   T
  0.6988270163962632  0.3468353266352348  0.7567256296088261   T   T   T
  0.5523938463301703  0.2160718146209097  0.7101030566602858   T   T   T
  0.5776301941205424  0.7264833295157038  0.7942093720739613   T   T   T
  0.2392779014239266  0.4702595496478155  0.7091701191402224   T   T   T
  0.2861246587267610  0.6637121548261299  0.7639701913642966   T   T   T
  0.5981554367885648  0.2922062156399113  0.7843369296637860   T   T   T
  0.5133953318930969  0.4855578668978273  0.6781021144814224   T   T   T
  0.5607454217649146  0.4885495793391401  0.7624630534494679   T   T   T
  0.4829412126027911  0.2717202538531446  0.7749123301755159   T   T   T
  0.5455620342745716  0.3871291519227652  0.8285054762989882   T   T   T
  0.6163135277660106  0.3230700201316339  0.6955637945007065   T   T   T
  0.3914915479014959  0.8184043425159611  0.7065716673602362   T   T   T
  0.4353244845307542  0.2279188179930211  0.6980810264881397   T   T   T
  0.3682265006556608  0.3001343799401693  0.7561832346014312   T   T   T
  0.4257320828590447  0.3730970435252761  0.8166856842671467   T   T   T
  0.5962446509474654  0.7850977299847584  0.7127290128674623   T   T   T
  0.6321291311288205  0.5864220546476400  0.8000089139343391   T   T   T
  0.7310261837796728  0.6159350248543587  0.6934667187073655   T   T   T
  0.4857095683048669  0.7772607560679345  0.7544834539141830   T   T   T
  0.7633509217349017  0.4330426374776978  0.7048622193071881   T   T   T
  0.7197567066048998  0.2583316764353418  0.6914609077120507   T   T   T
  0.6194968953130512  0.5726174008723811  0.7039333980134662   T   T   T
  0.4630638442445781  0.6982528600343630  0.8317065868969978   T   T   T
  0.5093009407091477  0.6058515693437593  0.7778455875047761   T   T   T
  0.2942084867376830  0.7475342932331456  0.6959582593805945   T   T   T
  0.7215865977030549  0.0723417211167990  0.7471259021404794   T   T   T
  0.7294715290484461  0.1342036139311610  0.7657451118494731   T   T   T
  0.7508461580082078  0.0419371141821649  0.7638410482616641   T   T   T
  0.7307443056877939  0.0736055935834749  0.7111236845738749   T   T   T
  0.6779419431967845  0.0574783054362665  0.7510574403607359   T   T   T
  0.0843697698385958  0.6869787922721989  0.4531638031022145   T   T   T
  0.5856721241884508  0.8141602892903880  0.5503859622123688   T   T   T
  0.7481345214575127  0.3118453215443106  0.5485160691037804   T   T   T
  0.5811425422214065  0.5599414683834394  0.5487853060162864   T   T   T
  0.2525525638175284  0.5591062111249837  0.5438522506566130   T   T   T
  0.4159191597354752  0.3195909742179711  0.5524658423124363   T   T   T
  0.5765645139634203  0.4357882497506557  0.5522661460518654   T   T   T
  0.4166888001091020  0.0654727354596755  0.5473474517514355   T   T   T
  0.0850742165443764  0.8126157726778884  0.5473287082085773   T   T   T
  0.4998403264283012  0.7571359285736891  0.5925489216947131   T   T   T
  0.0824144705425585  0.0631307971785969  0.5475911419728974   T   T   T
  0.0833333358191695  0.3124999999901945  0.3605200052333331   F   F   F
  0.9144930773401774  0.6885956001561301  0.5459210007872120   T   T   T
  0.9168485092866591  0.1888844724516665  0.5454559840254373   T   T   T
  0.9153809111971707  0.4374215865526522  0.5457042312910458   T   T   T
  0.5790849105692650  0.6860011634437296  0.5476299644918131   T   T   T
  0.2515406378261889  0.9372948817441422  0.5452133446711712   T   T   T
  0.4973867104470960  0.5044010169600980  0.6089244504183896   T   T   T
  0.9180535065733594  0.5637208413529287  0.5470457494768056   T   T   T
  0.4199198890260156  0.5649017552585529  0.5553518761517491   T   T   T
  0.9155375270242312  0.8126494169607933  0.5468169662108655   T   T   T
  0.0840999294884411  0.9383649551122472  0.5461063842790140   T   T   T
  0.2488231420400450  0.6833261655207952  0.5516774691233021   T   T   T
  0.7492751730117483  0.9337787734718663  0.5477048125912496   T   T   T
  0.7516874557134875  0.6801860837457074  0.5534106602229425   T   T   T
  0.9155336026863943  0.9384804258183217  0.5463144976797023   T   T   T
  0.4178159422139123  0.0652431777496950  0.6401021987432217   T   T   T
  0.5839186136565174  0.9375090136292739  0.5463572108103962   T   T   T
  0.4118265546166825  0.8128602117901643  0.6394217185047708   T   T   T
  0.5825299505747945  0.0618151229586616  0.5454377428411387   T   T   T
  0.7500823114136725  0.1898334589106146  0.4559051848816071   T   T   T
  0.9157682627387611  0.1868352140388840  0.4532159673585174   T   T   T
  0.5825303242731280  0.9372089054179630  0.4544805288088671   T   T   T
  0.0836587581693787  0.1888271492859773  0.5456691106711298   T   T   T
  0.4993981715717869  0.1257263850686443  0.4989966809360640   T   T   T
  0.9995870001107642  0.4984815322263347  0.5941040088304255   T   T   T
  0.5795852700938274  0.1848780169719582  0.5504534005553742   T   T   T
  0.9997214558856091  0.7537110503196566  0.5928706898928539   T   T   T
  0.3340683360275508  0.9998829991477682  0.5919624857601565   T   T   T
  0.9999021388391039  0.9988806500699494  0.5930672195555313   T   T   T
  0.0012453491389228  0.2497843947099605  0.5921709807603892   T   T   T
  0.3331725712442051  0.4963567297619515  0.5909918666303973   T   T   T
  0.3349104157985501  0.7407907049355001  0.5902490872880758   T   T   T
  0.6632252905587626  0.2478121264283156  0.5903154032489435   T   T   T
  0.6661603485095188  0.0011240117370884  0.5918900508141887   T   T   T
  0.6652571349646121  0.7413410573163653  0.5909257574193812   T   T   T
  0.6666014486460382  0.4946042412858111  0.5914831439953572   T   T   T
  0.7669364685325155  0.1534590881911743  0.7882526793904570   T   T   T
  0.1674827015744552  0.9983149900791376  0.5923243056280976   T   T   T
  0.1708406954657746  0.7502918056249644  0.5948778573895099   T   T   T
  0.2482989000703808  0.4359082316461310  0.5491267464260077   T   T   T
  0.1654524563475712  0.5033863457639630  0.5872569958237298   T   T   T
  0.3345745470224444  0.2546133014091910  0.5926318273332980   T   T   T
  0.4997837245043515  0.0001539425856181  0.5911248142806493   T   T   T
  0.8326182625575809  0.8740608180551215  0.4987094729405722   T   T   T
  0.7483716772278266  0.9375568673477439  0.6404835889792700   T   T   T
  0.8321596238047282  0.0021104983763080  0.5922553570000760   T   T   T
  0.7484787695076317  0.1837673611056842  0.5510603498324756   T   T   T
  0.4228484369545419  0.6877316088761208  0.5468585449027065   T   T   T
  0.4230641359443826  0.4436061578148542  0.5459220206713659   T   T   T
  0.7521023514815772  0.4354617212743336  0.5490092291165773   T   T   T
  0.5824598423260189  0.3110707258644148  0.5448531720249459   T   T   T
  0.2532881324346105  0.8126325306288110  0.5505014529821078   T   T   T
  0.1685236796366037  0.2484709913017435  0.5931596198500823   T   T   T
  0.9141855540242109  0.5626992260751069  0.6408787361629656   T   T   T
  0.9132089638163162  0.8134072488802095  0.6419662255248865   T   T   T
  0.5828433928747103  0.0669553088937229  0.6389865957951060   T   T   T
  0.4176235085419374  0.9349310480367705  0.6397757342740419   T   T   T
  0.7460801996359488  0.3121682072717288  0.6412500228541717   T   T   T
  0.7480147346857372  0.0678479316737967  0.6397226229298342   T   T   T
  0.0843389928944138  0.3112220594835967  0.6409227388264597   T   T   T
  0.6664072258282167  0.8743257562684174  0.4988435272741523   T   T   T
  0.0864073112019743  0.5629888947149938  0.6398840838333675   T   T   T
  0.0874253318247666  0.4366911360919530  0.6397090754167311   T   T   T
  0.4176153093723300  0.1874059729291017  0.6397346898548485   T   T   T
  0.4148337969599227  0.4188688398385705  0.6303637419546188   T   T   T
  0.0843995920915545  0.9356162335194335  0.6410677011562315   T   T   T
  0.0833458655654089  0.6871815352646706  0.6388716884522697   T   T   T
  0.0841804956576936  0.0602380411307442  0.6421666813151684   T   T   T
  0.8332364947588438  0.5037773935352600  0.5890377502717318   T   T   T
  0.0839381264725317  0.1852514177680009  0.6412423401766945   T   T   T
  0.2400942131979770  0.4423638634163606  0.6416297698243605   T   T   T
  0.9123858468091753  0.4361123283896313  0.6399599434473783   T   T   T
  0.2521272948922550  0.9303634198501987  0.6373976702030798   T   T   T
  0.9162929979796961  0.6876481563670673  0.6390455776213511   T   T   T
  0.9142073494835099  0.9371940836738074  0.6410789074275537   T   T   T
  0.3971914023824646  0.5506352991840799  0.6519936134968377   T   T   T
  0.2544210328641900  0.6785866240547318  0.6626214998224073   T   T   T
  0.2535808713736153  0.1865161097913404  0.6412092947299377   T   T   T
  0.5793770694179484  0.1927807952036110  0.6454484725752229   T   T   T
  0.5823864146674050  0.9365666157007563  0.6396485165010191   T   T   T
  0.9166666865332829  0.8124999999834799  0.3605200052333331   F   F   F
  0.7456224348512893  0.1944333622646801  0.6468460614493762   T   T   T
  0.8314302352656855  0.2486317098532011  0.5913435224412127   T   T   T
  0.8303969685719297  0.7509885974447013  0.5926798859617743   T   T   T
  0.0847052916677887  0.8126896524477825  0.6425019387700015   T   T   T
  0.7525437711549884  0.5688607267509267  0.6356875426755944   T   T   T
  0.0829374628388018  0.4389316376889772  0.5448228819109131   T   T   T
  0.7411615479554949  0.8102032157345861  0.6397438674783290   T   T   T
  0.8327956950045127  0.1245398498283370  0.5001639706500667   T   T   T
  0.2492582498515268  0.3137751046584012  0.5459300439451965   T   T   T
  0.5903847293967615  0.5667861627699020  0.6384243915815337   T   T   T
  0.7539163001251059  0.6929295790364258  0.6566293976973964   T   T   T
  0.2624738277574638  0.8010611313388765  0.6458209871204216   T   T   T
  0.2510376580800072  0.0594223768605552  0.6423225414175485   T   T   T
  0.9166666865332829  0.5625000000092442  0.3605200052333331   F   F   F
  0.4995093038725058  0.3743494683150309  0.4997435486501752   T   T   T
  0.5001984230454768  0.6211202817474418  0.4999916954507701   T   T   T
  0.8324666192055657  0.6230925675311348  0.5001878786981969   T   T   T
  0.2519946534517800  0.1882318143868637  0.5471845614938428   T   T   T
  0.8324413775028121  0.3730766374997742  0.4997395360801029   T   T   T
  0.9151634231296963  0.3118182251694833  0.6397699531211908   T   T   T
  0.1667514364504257  0.3762013968731569  0.4977119415917250   T   T   T
  0.5808838288477605  0.4398765606231207  0.6469076114940364   T   T   T
  0.5759147066458785  0.6871013241347556  0.6399788753684026   T   T   T
  0.9167259089089347  0.1860875270878653  0.6398517956243038   T   T   T
  0.2491703161110972  0.3164448571788431  0.6413263577800672   T   T   T
  0.1677303244783878  0.8732807473982587  0.4998382943256381   T   T   T
  0.9158917832061551  0.4369074968074260  0.4536513208555328   T   T   T
  0.1670555240674154  0.1243486209822520  0.4993217351806163   T   T   T
  0.7484033974053127  0.0598247439998495  0.5446489061565732   T   T   T
  0.4259478256682748  0.3047721531694031  0.6561243400489977   T   T   T
  0.5901828397140082  0.8112616833915116  0.6458064074449232   T   T   T
  0.4203098338526401  0.6763114166832704  0.6339242365241607   T   T   T
  0.7553970358551223  0.4341993717253094  0.6380252511469994   T   T   T
  0.4982238111308929  0.2535953702199053  0.5911607530296508   T   T   T
  0.9159140707417694  0.0626040933084417  0.6414462641348719   T   T   T
  0.1675121598272770  0.6242074104167027  0.5001661828962487   T   T   T
  0.4999665998574280  0.8733457245175797  0.5009885698061098   T   T   T
  0.4159589683737542  0.1914567145566418  0.5465062073113228   T   T   T
  0.0855745402815783  0.6892984422975901  0.5454352886111211   T   T   T
  0.2475848967599530  0.5740323595790605  0.6287521483363930   T   T   T
  0.4169364097022594  0.1872220255295670  0.4535496620257224   T   T   T
  0.9166666865332829  0.4374999701794380  0.3605200052333331   F   F   F
  0.9166666865332829  0.1875000000030838  0.3605200052333331   F   F   F
  0.5833333134730552  0.9375000000154046  0.3605200052333331   F   F   F
  0.0808519473203989  0.5644464431936195  0.5463935241141605   T   T   T
  0.5833333134730552  0.4374999701794380  0.3605200052333331   F   F   F
  0.5833333134730552  0.1875000000030838  0.3605200052333331   F   F   F
  0.2499999999799343  0.9375000000154046  0.3605200052333331   F   F   F
  0.9166666865332829  0.9375000000154046  0.3605200052333331   F   F   F
  0.2499999999799343  0.6874999999963620  0.3605200052333331   F   F   F
  0.2499999999799343  0.1875000000030838  0.3605200052333331   F   F   F
  0.7499999404149307  0.9375000000154046  0.3605200052333331   F   F   F
  0.7499999404149307  0.6874999999963620  0.3605200052333331   F   F   F
  0.4172206647160577  0.9359410748138611  0.4539169135525814   T   T   T
  0.7499999404149307  0.4374999701794380  0.3605200052333331   F   F   F
  0.9166666865332829  0.6874999999963620  0.3605200052333331   F   F   F
  0.4166666269218169  0.9375000000154046  0.3605200052333331   F   F   F
  0.4166666269218169  0.4374999701794380  0.3605200052333331   F   F   F
  0.2499999999799343  0.4374999701794380  0.3605200052333331   F   F   F
  0.0833333358191695  0.0625000000159659  0.3605200052333331   F   F   F
  0.9152836572009964  0.6868637485726893  0.4533262414732502   T   T   T
  0.6654390761712027  0.3785561650253388  0.5032853710112755   T   T   T
  0.3342897927549397  0.3785197871396588  0.5029998372525046   T   T   T
  0.3354820314324704  0.6256731704989620  0.5036830430154754   T   T   T
  0.9175951634940346  0.0633634401409815  0.5474551327662630   T   T   T
  0.7495018036554232  0.9384514933862153  0.4553774751534742   T   T   T
  0.2499847466722468  0.9360860018387440  0.4539813780363232   T   T   T
  0.2498987866919685  0.1884997424308244  0.4540907567500046   T   T   T
  0.7490959557983565  0.6886737258723031  0.4574417822923212   T   T   T
  0.7499999404149307  0.1875000000030838  0.3605200052333331   F   F   F
  0.5833333134730552  0.0625000000159659  0.3605200052333331   F   F   F
  0.4166666269218169  0.6874999999963620  0.3605200052333331   F   F   F
  0.4168878002119942  0.8103691007264322  0.4549251985850287   T   T   T
  0.5832704800067091  0.0637315678608002  0.4538709569773941   T   T   T
  0.5833333134730552  0.6874999999963620  0.3605200052333331   F   F   F
  0.5834031867009369  0.3218067096654096  0.6328947344771400   T   T   T
  0.2520239508163076  0.6875614425211751  0.4559909260787405   T   T   T
  0.0840552852869488  0.9368910266533302  0.4536710819797473   T   T   T
  0.0827235053223259  0.4367833690987627  0.4528112663859237   T   T   T
  0.0838956891672662  0.1865354233066643  0.4529972079216142   T   T   T
  0.9165838458943005  0.8121148664072603  0.4540515912862920   T   T   T
  0.7463518379948983  0.5579840630249221  0.5446448994790170   T   T   T
  0.9160803080602082  0.5622266824556802  0.4540533479632858   T   T   T
  0.9161291644761022  0.0622689812585712  0.4541008986530657   T   T   T
  0.9161268615689380  0.3121775281671708  0.4538498638267205   T   T   T
  0.4164573125829838  0.4354719846117042  0.4539051345404793   T   T   T
  0.5828063558247226  0.4396558056192271  0.4564199245977565   T   T   T
  0.5832228646024286  0.1903003711319531  0.4556660551700651   T   T   T
  0.9164319423128908  0.9370881688809670  0.4536592146313767   T   T   T
  0.2504831791322482  0.0620174675994213  0.4542249244499680   T   T   T
  0.5832506550524135  0.8105091271774578  0.4553268742811732   T   T   T
  0.9997041417361240  0.6272164160155975  0.4975980111962625   T   T   T
  0.3336202352405760  0.1256078304201102  0.4985661215496593   T   T   T
  0.0001055261779566  0.8751572496515271  0.4995440518601761   T   T   T
  0.3334774195603901  0.8742394254445413  0.4989098122401386   T   T   T
  0.6658176175961632  0.1263058945097537  0.5002422021968087   T   T   T
  0.2511263259595307  0.4392953142988729  0.4549116447549949   T   T   T
  0.0833333358191695  0.5625000000092442  0.3605200052333331   F   F   F
  0.9166666865332829  0.0625000000159659  0.3605200052333331   F   F   F
  0.7493051177781674  0.8132116190768333  0.4529673128722829   T   T   T
  0.7496075454498773  0.4382962047608998  0.4557813412209917   T   T   T
  0.9154575045586794  0.3123552203287194  0.5466857565791622   T   T   T
  0.4170757514368078  0.6850613123430886  0.4549429312132952   T   T   T
  0.0001226501616576  0.1250817621529825  0.4984320059561051   T   T   T
  0.4158905062600193  0.9373022070505518  0.5459624092041325   T   T   T
  0.0000093475210578  0.3734578641778086  0.4984298087243656   T   T   T
  0.7477704720324365  0.8076006048301582  0.5454150136780047   T   T   T
  0.0866788726367451  0.3135207104511061  0.5471213189658253   T   T   T
  0.2499999999799343  0.3124999999901945  0.3605200052333331   F   F   F
  0.0000000000000000  0.0000000000000000  0.4070133268666680   F   F   F
  0.0000000000000000  0.2500000000190425  0.4070133268666680   F   F   F
  0.0000000000000000  0.4999999999932783  0.4070133268666680   F   F   F
  0.7482412260851661  0.5642911534672427  0.4538054073282673   T   T   T
  0.3333333432766779  0.0000000000000000  0.4070133268666680   F   F   F
  0.3333333432766779  0.4999999999932783  0.4070133268666680   F   F   F
  0.3333333432766779  0.7500000000123208  0.4070133268666680   F   F   F
  0.6666666865533486  0.0000000000000000  0.4070133268666680   F   F   F
  0.6666666865533486  0.2500000000190425  0.4070133268666680   F   F   F
  0.6666666865533486  0.4999999999932783  0.4070133268666680   F   F   F
  0.8333332538436267  0.2500000000190425  0.4070133268666680   F   F   F
  0.1666666716383389  0.0000000000000000  0.4070133268666680   F   F   F
  0.5843736234244744  0.3154737549096050  0.4536118361110947   T   T   T
  0.1666666716383389  0.4999999999932783  0.4070133268666680   F   F   F
  0.0833333358191695  0.1875000000030838  0.3605200052333331   F   F   F
  0.5000000000021103  0.2500000000190425  0.4070133268666680   F   F   F
  0.9166666865332829  0.3124999999901945  0.3605200052333331   F   F   F
  0.3333333432766779  0.2500000000190425  0.4070133268666680   F   F   F
  0.7472978659785768  0.3141053467649444  0.4548451671508429   T   T   T
  0.0000000000000000  0.7500000000123208  0.4070133268666680   F   F   F
  0.5844576193858402  0.5628819080649117  0.4548079437279277   T   T   T
  0.7492355510387233  0.0643223549401954  0.4534133735999492   T   T   T
  0.8333332538436267  0.0000000000000000  0.4070133268666680   F   F   F
  0.5827582473319738  0.6861544924379069  0.4546346475200866   T   T   T
  0.2517979667000201  0.5646643247282297  0.4536553294966879   T   T   T
  0.1666666716383389  0.2500000000190425  0.4070133268666680   F   F   F
  0.2504525395348132  0.8108234281700004  0.4552939982125400   T   T   T
  0.1666666716383389  0.7500000000123208  0.4070133268666680   F   F   F
  0.6653078421972922  0.6260806218621792  0.5030136837632128   T   T   T
  0.2499999999799343  0.8124999999834799  0.3605200052333331   F   F   F
  0.5000000000021103  0.7500000000123208  0.4070133268666680   F   F   F
  0.5000000000021103  0.4999999999932783  0.4070133268666680   F   F   F
  0.5000000000021103  0.0000000000000000  0.4070133268666680   F   F   F
  0.5833333134730552  0.8124999999834799  0.3605200052333331   F   F   F
  0.7499999404149307  0.5625000000092442  0.3605200052333331   F   F   F
  0.6666666865533486  0.7500000000123208  0.4070133268666680   F   F   F
  0.2499999999799343  0.0625000000159659  0.3605200052333331   F   F   F
  0.7499999404149307  0.3124999999901945  0.3605200052333331   F   F   F
  0.7499999404149307  0.0625000000159659  0.3605200052333331   F   F   F
  0.4166666269218169  0.8124999999834799  0.3605200052333331   F   F   F
  0.4166666269218169  0.3124999999901945  0.3605200052333331   F   F   F
  0.7499999404149307  0.8124999999834799  0.3605200052333331   F   F   F
  0.0834826944124018  0.3119692687398627  0.4540478874360201   T   T   T
  0.4168254934527065  0.0615422796194287  0.4553294420218070   T   T   T
  0.0834839990312094  0.8121057271812074  0.4541502562922775   T   T   T
  0.4166666269218169  0.5625000000092442  0.3605200052333331   F   F   F
  0.4137892316168217  0.8118166395026979  0.5476595059466756   T   T   T
  0.5833333134730552  0.3124999999901945  0.3605200052333331   F   F   F
  0.0839397558649833  0.5624883268075356  0.4539520669232858   T   T   T
  0.4166666269218169  0.0625000000159659  0.3605200052333331   F   F   F
  0.0837305788151456  0.0618749522158656  0.4541801050100590   T   T   T
  0.8333332538436267  0.4999999999932783  0.4070133268666680   F   F   F
  0.4166666269218169  0.1875000000030838  0.3605200052333331   F   F   F
  0.0833333358191695  0.9375000000154046  0.3605200052333331   F   F   F
  0.0833333358191695  0.8124999999834799  0.3605200052333331   F   F   F
  0.0833333358191695  0.4374999701794380  0.3605200052333331   F   F   F
  0.8333332538436267  0.7500000000123208  0.4070133268666680   F   F   F
  0.4154870136544774  0.3113800284095128  0.4573503972611123   T   T   T
  0.2499999999799343  0.5625000000092442  0.3605200052333331   F   F   F
  0.4160297383768608  0.5595319912337713  0.4578783990928713   T   T   T
  0.0833333358191695  0.6874999999963620  0.3605200052333331   F   F   F
  0.2522619794493536  0.3141237222098183  0.4541635390097907   T   T   T
  0.2510950860015635  0.0625356856880955  0.5472651569057740   T   T   T
  0.5833333134730552  0.5625000000092442  0.3605200052333331   F   F   F
  0.5000000000021103  0.1249999999871179  0.4070133268666680   F   F   F
  0.1666666716383389  0.8749999404036828  0.4070133268666680   F   F   F
  0.8333332538436267  0.1249999999871179  0.4070133268666680   F   F   F
  0.9997699089265254  0.6237275934641524  0.6240529944138246   T   T   T
  0.1666666716383389  0.6249999999803961  0.4070133268666680   F   F   F
  0.8360660936477697  0.5000231631821636  0.5028942304862097   T   T   T
  0.8360983886892202  0.7515778368222225  0.5026127094223306   T   T   T
  0.5000000000021103  0.6249999999803961  0.4070133268666680   F   F   F
  0.8317574228432215  0.8768114797383462  0.6175959295981824   T   T   T
  0.1634776055580875  0.4998577086964429  0.5019734921679250   T   T   T
  0.5000000000021103  0.8749999404036828  0.4070133268666680   F   F   F
  0.8394626049304746  0.6269638679316355  0.6042626790446798   T   T   T
  0.3316213928705367  0.1197589182788824  0.6129151394270889   T   T   T
  0.8333332538436267  0.3750000000061604  0.4070133268666680   F   F   F
  0.8375720887108605  0.3723273164759872  0.6039221417918892   T   T   T
  0.5004495034779216  0.1226285671036007  0.6068002830911587   T   T   T
  0.6663632327253203  0.6259888282698420  0.5929822195159172   T   T   T
  0.0000000000000000  0.3750000000061604  0.4070133268666680   F   F   F
  0.5012841297842644  0.3717807455133049  0.5948109294786189   T   T   T
  0.9990303927915714  0.8748677465508029  0.6238456279295230   T   T   T
  0.8343211621967658  0.1244590735790484  0.6156008919022082   T   T   T
  0.0003473830097855  0.3750931011186268  0.6251695756578958   T   T   T
  0.6654134615077471  0.8815765653546818  0.6071165677027016   T   T   T
  0.1632993683796596  0.3712806815991354  0.6075041080454818   T   T   T
  0.1678689973350087  0.1226079575048751  0.6218788006691516   T   T   T
  0.1596254046319350  0.6275878408402051  0.6013681336949407   T   T   T
  0.6710623416572596  0.3727669632492079  0.5933085829942537   T   T   T
  0.1664649061915019  0.8737102188170818  0.6178300104174765   T   T   T
  0.3346996778419373  0.8789251494025075  0.6026179586522210   T   T   T
  0.3341022092303464  0.6247101843128529  0.5950358556456807   T   T   T
  0.6666666865533486  0.8749999404036828  0.4070133268666680   F   F   F
  0.5000000000021103  0.3750000000061604  0.4070133268666680   F   F   F
  0.5035550411649287  0.6249258808229395  0.5942440533805989   T   T   T
  0.1666666716383389  0.1249999999871179  0.4070133268666680   F   F   F
  0.0000000000000000  0.1249999999871179  0.4070133268666680   F   F   F
  0.6655629264477730  0.1249662210995380  0.6090723854493034   T   T   T
  0.3331895066097339  0.0011437950341330  0.5057297533294718   T   T   T
  0.0000000000000000  0.8749999404036828  0.4070133268666680   F   F   F
  0.5010495455882147  0.7528748883977910  0.5038743010468983   T   T   T
  0.3311082000434376  0.4992647841566513  0.5009343791649475   T   T   T
  0.6685417243245934  0.4998432557015213  0.5006724994606022   T   T   T
  0.8333332538436267  0.6249999999803961  0.4070133268666680   F   F   F
  0.1644380674441540  0.7513853086311730  0.5034594379589129   T   T   T
  0.6660143350331038 -0.0000215869391778  0.5055848578634540   T   T   T
  0.3301278904927249  0.2480149600098949  0.5028242842458372   T   T   T
  0.0008571891843216  0.1226097455603211  0.6198703558677735   T   T   T
  0.6666666865533486  0.3750000000061604  0.4070133268666680   F   F   F
  0.8356706209635306  0.2485302358596943  0.5029926890900189   T   T   T
  0.6669801539139144  0.2481825376889737  0.5026752325619958   T   T   T
  0.3259735340136902  0.3735147812889780  0.5927594949879421   T   T   T
  0.1666666716383389  0.3750000000061604  0.4070133268666680   F   F   F
  0.5011173210827821  0.8771810206616784  0.6097550324180625   T   T   T
  0.9999026613365001  0.7510749633393972  0.5067687052995322   T   T   T
  0.3339677930507151  0.7511558471646638  0.5015371372957330   T   T   T
  0.6653502350793912  0.7518419036982910  0.5022026753174234   T   T   T
  0.3333333432766779  0.1249999999871179  0.4070133268666680   F   F   F
  0.5011507179356937  0.4998005372654641  0.5002480798911355   T   T   T
  0.9995236037881857  0.4998892493112754  0.5067326240546253   T   T   T
  0.1660259761516972  0.0011159564674518  0.5065435565752201   T   T   T
  0.5003196238097856  0.9992392751414881  0.5055478757115610   T   T   T
  0.1663987523057178  0.2482082286598924  0.5062426650147861   T   T   T
  0.6666666865533486  0.1249999999871179  0.4070133268666680   F   F   F
  0.8341962177957838  0.0001649750965752  0.5064998814905860   T   T   T
  0.0000000000000000  0.6249999999803961  0.4070133268666680   F   F   F
  0.3333333432766779  0.8749999404036828  0.4070133268666680   F   F   F
  0.3333333432766779  0.6249999999803961  0.4070133268666680   F   F   F
  0.8333332538436267  0.8749999404036828  0.4070133268666680   F   F   F
  0.6666666865533486  0.6249999999803961  0.4070133268666680   F   F   F
  0.0001283446336190  0.9998456828748283  0.5066975599176025   T   T   T
  0.0009998808208914  0.2498519713642799  0.5060924402512536   T   T   T
  0.5010397008552123  0.2480094041584475  0.5021478114276218   T   T   T
  0.3333333432766779  0.3750000000061604  0.4070133268666680   F   F   F
  0.0833333358191695  0.7500000000123208  0.4070133268666680   F   F   F
  0.9185363587805424  0.3742028653136846  0.5059530788187714   T   T   T
  0.0833333358191695  0.2500000000190425  0.4070133268666680   F   F   F
  0.7520635917719641  0.7524143936712541  0.5905641995696582   T   T   T
  0.2499999999799343  0.2500000000190425  0.4070133268666680   F   F   F
  0.0833333358191695  0.4999999999932783  0.4070133268666680   F   F   F
  0.4166666269218169  0.4999999999932783  0.4070133268666680   F   F   F
  0.9166666865332829  0.7500000000123208  0.4070133268666680   F   F   F
  0.9182933204086714  0.4999240158518385  0.6038381323088317   T   T   T
  0.5832833886890185  0.1235311958364648  0.5045972077196051   T   T   T
  0.7523771058521440  0.6245130675825689  0.5024351252483009   T   T   T
  0.5838654929032777  0.8758848176730615  0.5057648700082333   T   T   T
  0.9178678930355274  0.1249514162250237  0.5063571350935800   T   T   T