Au  C  H  O Sr Ti                       
   1.00000000000000     
    23.6707801818999997    0.0000000000000000    0.0000000000000000
     0.0000000000000000   22.3170261383000010    0.0000000000000000
     0.0000000000000000    0.0000000000000000   30.0000000000000000
   Au   C    H    O    Sr   Ti
    50     2     3   265    72    72
Selective dynamics
Direct
  0.7135381168260753  0.5269509658429313  0.7534234476784244   T   T   T
  0.5679131498924029  0.5118651876374084  0.8570930116210203   T   T   T
  0.6628205361662224  0.1937975480444691  0.7514525038657902   T   T   T
  0.4685259558896506  0.4533422496543968  0.8802274790875181   T   T   T
  0.2811363967114489  0.3414265892970485  0.7026147863206966   T   T   T
  0.6684157429547603  0.6825514672008880  0.7487577431031776   T   T   T
  0.3970675078523378  0.3823783873833717  0.6907585751358379   T   T   T
  0.4508968729964712  0.5801718206819115  0.7035067098175263   T   T   T
  0.3739254888725244  0.4954778285348017  0.8331411005269147   T   T   T
  0.3236022591322753  0.4165330196524245  0.7698557199749121   T   T   T
  0.3681673801341697  0.6207570665351566  0.8200873906849974   T   T   T
  0.2886057794913324  0.5396065993561774  0.7770687407684094   T   T   T
  0.5169135737227959  0.3790085895096655  0.7329418848527953   T   T   T
  0.2559310629575708  0.5941696635367411  0.6945018211193649   T   T   T
  0.6485519292620452  0.4476909288667102  0.6941944076206823   T   T   T
  0.5632796418876834  0.6416777674657773  0.8622596454777910   T   T   T
  0.5384552196914397  0.6688187555821047  0.7021555233153940   T   T   T
  0.4412959581431405  0.4735095437529652  0.7560907869111492   T   T   T
  0.7062716589916784  0.7574489567288835  0.6880656377668506   T   T   T
  0.3738710556679095  0.7418071388859114  0.7793993916013585   T   T   T
  0.4614384374587641  0.5758483544674731  0.8653687313510072   T   T   T
  0.6525134731243071  0.4415960408708089  0.8124875082408484   T   T   T
  0.4137341430606794  0.6957033640896196  0.6999802818719373   T   T   T
  0.7711773663367454  0.4318843127307188  0.7952523288841450   T   T   T
  0.3477025574962037  0.5003630008854987  0.6968862280064675   T   T   T
  0.6989778806143949  0.3465868314892560  0.7568288721624489   T   T   T
  0.5534049734353338  0.2158615531123387  0.7107639317156039   T   T   T
  0.5775592051752347  0.7264907399330700  0.7942163659998783   T   T   T
  0.2392639688708460  0.4701417447256770  0.7091338282565892   T   T   T
  0.2854718605566964  0.6635931451861691  0.7641440006153690   T   T   T
  0.5977869994822133  0.2930615075562515  0.7849154624002385   T   T   T
  0.5134553406121918  0.4854842730206838  0.6781110603218279   T   T   T
  0.5606493889932149  0.4884298699713721  0.7625047353737890   T   T   T
  0.4828182938263942  0.2720352781464532  0.7751734639387224   T   T   T
  0.5447558842478124  0.3874389489572309  0.8289850660571912   T   T   T
  0.6161893694560181  0.3231202161742804  0.6958128407645294   T   T   T
  0.3915243060574930  0.8182611994718626  0.7065225030933765   T   T   T
  0.4360412531187632  0.2277950861741830  0.6982161909054142   T   T   T
  0.3684899462918791  0.3004026117427910  0.7563453738524261   T   T   T
  0.4254880295027699  0.3735124678090281  0.8174204595301384   T   T   T
  0.5960784746372865  0.7850199284574459  0.7127968168202240   T   T   T
  0.6320510449021689  0.5863930847511000  0.8000162454390990   T   T   T
  0.7310522717854380  0.6158525841300654  0.6935665169519758   T   T   T
  0.4853125025254424  0.7769466532339034  0.7545986088043144   T   T   T
  0.7633266440096825  0.4329691003296495  0.7048813717603276   T   T   T
  0.7199425504979543  0.2584658375951079  0.6915274520625398   T   T   T
  0.6195703639671759  0.5725262815817984  0.7040273142677710   T   T   T
  0.4628129421563245  0.6983974981793530  0.8315600194922333   T   T   T
  0.5092800092856584  0.6058092250575864  0.7778517682796018   T   T   T
  0.2943818155158486  0.7473024735728191  0.6959711180934643   T   T   T
  0.7185562496100381  0.0724405419127051  0.7627492283603545   T   T   T
  0.7302604878304635  0.1379463171390685  0.7707397815646828   T   T   T
  0.7453240250618058  0.0459267946222939  0.7850423403400281   T   T   T
  0.7291480065770312  0.0626308397754626  0.7279027589198827   T   T   T
  0.6740764450398460  0.0620929179711481  0.7677615143455683   T   T   T
  0.0843904439546876  0.6869802885578045  0.4531576265854947   T   T   T
  0.5857472267872537  0.8141651817969536  0.5504073363173995   T   T   T
  0.7479839997806218  0.3117557398336085  0.5483719693031996   T   T   T
  0.5811475020641433  0.5600350925403630  0.5488923376488911   T   T   T
  0.2525704743579640  0.5591260849167506  0.5438555173308048   T   T   T
  0.4160112045242385  0.3196201874367500  0.5526095393944991   T   T   T
  0.5764727546866090  0.4359296067721437  0.5522669742076488   T   T   T
  0.4165785317907909  0.0654560385365403  0.5473259248926010   T   T   T
  0.0850735370157344  0.8126373505492813  0.5473373422169943   T   T   T
  0.5001168628301718  0.7567678408024130  0.5925597164032199   T   T   T
  0.0823831608316316  0.0631591395890167  0.5475546368160831   T   T   T
  0.0833333358191695  0.3124999999901945  0.3605200052333331   F   F   F
  0.9143300126682894  0.6886955729775376  0.5457246292251549   T   T   T
  0.9169570433914269  0.1890595769509675  0.5453159475700931   T   T   T
  0.9153750422916408  0.4374230873180365  0.5457275552259795   T   T   T
  0.5790711962977433  0.6859926417702350  0.5476246142683885   T   T   T
  0.2515108764048045  0.9372857758729508  0.5452292117263635   T   T   T
  0.4973641070779001  0.5044347322737119  0.6089494785194447   T   T   T
  0.9180112435034824  0.5637501102639887  0.5470682453380193   T   T   T
  0.4198150509789878  0.5648357618478489  0.5554258110999589   T   T   T
  0.9154979289031371  0.8126985837548520  0.5468280875051998   T   T   T
  0.0841089571961364  0.9384100272679574  0.5460939810835942   T   T   T
  0.2488725889733418  0.6833042366933164  0.5517584975858586   T   T   T
  0.7493162327506981  0.9338553050312177  0.5477028674243543   T   T   T
  0.7516701556411581  0.6801275094052228  0.5534106274262603   T   T   T
  0.9155431309791322  0.9384948923011412  0.5463182740792790   T   T   T
  0.4178066630217745  0.0651847193724624  0.6400757733668827   T   T   T
  0.5838505015830643  0.9375325296675298  0.5463300554031985   T   T   T
  0.4122342070693377  0.8128323147715886  0.6394410297141789   T   T   T
  0.5825304490464422  0.0617703137122045  0.5454329722982771   T   T   T
  0.7501451812628281  0.1898722763400399  0.4558301374487251   T   T   T
  0.9158033370507642  0.1868187636863276  0.4531780421359266   T   T   T
  0.5825165522629878  0.9372206871379493  0.4544816647391723   T   T   T
  0.0837267914684167  0.1888655919514528  0.5456545171779732   T   T   T
  0.4993972068056252  0.1256762681525729  0.4991080408010684   T   T   T
  0.9995887587678330  0.4984948742213158  0.5940942441753219   T   T   T
  0.5797708234001936  0.1848977847537946  0.5505008219786900   T   T   T
  0.9996503771133644  0.7537237512140380  0.5928222846411662   T   T   T
  0.3340956730367060  0.9998817811147509  0.5919776943773324   T   T   T
  0.9999206086094552  0.9988752071293775  0.5930443340218731   T   T   T
  0.0012347205853248  0.2497076742794181  0.5920803065650436   T   T   T
  0.3330689523930858  0.4961224512043382  0.5911116355660229   T   T   T
  0.3351091796785674  0.7408189488904863  0.5904137579978253   T   T   T
  0.6632419840729850  0.2476650268905511  0.5904084387893039   T   T   T
  0.6661416612704965  0.0011122276082985  0.5919125468001114   T   T   T
  0.6653533055224931  0.7412751754641634  0.5908888898466348   T   T   T
  0.6666017028830411  0.4946495412542099  0.5915002935798204   T   T   T
  0.7713878060339815  0.1599501233225405  0.7871470521087244   T   T   T
  0.1675101186972292  0.9983732530753143  0.5923100959698945   T   T   T
  0.1708161255431440  0.7503382365115008  0.5950218756475439   T   T   T
  0.2481705302692397  0.4359965708872424  0.5490660151046536   T   T   T
  0.1654285247285335  0.5034328097455127  0.5872552628040711   T   T   T
  0.3346050062499044  0.2547362834669766  0.5926044854954150   T   T   T
  0.4997613158147645  0.0001408603089892  0.5911282598534240   T   T   T
  0.8326474754649954  0.8740822341213706  0.4986763715634608   T   T   T
  0.7485161506711276  0.9372230784105791  0.6404031339608366   T   T   T
  0.8321854846996185  0.0020688637596606  0.5922965835440749   T   T   T
  0.7484953528803573  0.1837354819384868  0.5509980205174734   T   T   T
  0.4228881129173597  0.6876857531810463  0.5468915028963663   T   T   T
  0.4231060156621671  0.4436497180194293  0.5458746513780184   T   T   T
  0.7521309676771130  0.4354837314348226  0.5489986152560608   T   T   T
  0.5824722968978910  0.3110363048924814  0.5448998738148844   T   T   T
  0.2532033256363493  0.8125695087843792  0.5505696666112908   T   T   T
  0.1686123474730631  0.2486281111669774  0.5931780124780971   T   T   T
  0.9141474822484500  0.5627192937224355  0.6408629080051285   T   T   T
  0.9132257809767598  0.8134224123846586  0.6419539980248744   T   T   T
  0.5828413627639161  0.0669309761357476  0.6389750664953623   T   T   T
  0.4175577945348268  0.9349538643634603  0.6398159746103093   T   T   T
  0.7458766337608147  0.3121407735771683  0.6411439415531636   T   T   T
  0.7481389098781163  0.0676264201578556  0.6399324011215083   T   T   T
  0.0843032547796775  0.3112159605851147  0.6409298613046026   T   T   T
  0.6664246358378204  0.8743499138430971  0.4988848188911723   T   T   T
  0.0863736972222342  0.5629983926806040  0.6398967425552630   T   T   T
  0.0874263264657665  0.4366850301691796  0.6397326688694822   T   T   T
  0.4174989054317719  0.1874725659261193  0.6398310133623932   T   T   T
  0.4150894040170586  0.4187576452007074  0.6302425716043769   T   T   T
  0.0844753472029353  0.9356575267092198  0.6409895498795714   T   T   T
  0.0832989541782279  0.6871350806999340  0.6388792437208298   T   T   T
  0.0841952563475236  0.0603197989008552  0.6421636244119129   T   T   T
  0.8332678069452424  0.5036941475922855  0.5890539920206331   T   T   T
  0.0839846860312882  0.1852924777387905  0.6412264013588485   T   T   T
  0.2400035850367954  0.4422275358701790  0.6415790591789137   T   T   T
  0.9124242809825109  0.4361176073148628  0.6399564707081449   T   T   T
  0.2520728068506975  0.9302987744161322  0.6373371813385603   T   T   T
  0.9162711167495748  0.6876754212479408  0.6390409585320166   T   T   T
  0.9142693586224799  0.9371782650686458  0.6410657078701770   T   T   T
  0.3971716185687671  0.5506474462791923  0.6519586080129935   T   T   T
  0.2544459996493422  0.6785355136863620  0.6625712293209247   T   T   T
  0.2536102540126363  0.1864778362172463  0.6412195121470085   T   T   T
  0.5794809758666315  0.1928645282224291  0.6457096011323570   T   T   T
  0.5823825396331189  0.9364732398058636  0.6396254045993285   T   T   T
  0.9166666865332829  0.8124999999834799  0.3605200052333331   F   F   F
  0.7457354602814680  0.1946587508116158  0.6467834357338157   T   T   T
  0.8315318529386621  0.2488576673299353  0.5913344989225572   T   T   T
  0.8303420750613615  0.7509177393713512  0.5926780545815352   T   T   T
  0.0846295308893296  0.8126852316031534  0.6424551835427940   T   T   T
  0.7526625669507498  0.5686421858298965  0.6357843607814535   T   T   T
  0.0828986791351500  0.4389676707748345  0.5448294375087384   T   T   T
  0.7411628003401791  0.8100736369609718  0.6397608386065429   T   T   T
  0.8328403398206147  0.1245644163399915  0.4999347646904160   T   T   T
  0.2492732188351005  0.3137845630777670  0.5459324792753003   T   T   T
  0.5903701916854550  0.5666679490527534  0.6385771119195960   T   T   T
  0.7540066114574947  0.6926800890310426  0.6567715387139534   T   T   T
  0.2625449911165638  0.8008628681464093  0.6459067426509273   T   T   T
  0.2510556764809988  0.0593706177516005  0.6423302520832661   T   T   T
  0.9166666865332829  0.5625000000092442  0.3605200052333331   F   F   F
  0.4994949708943178  0.3743252233498073  0.4996707380127491   T   T   T
  0.5001557358375255  0.6210052688947516  0.5000325590832542   T   T   T
  0.8324439205272971  0.6230914909949794  0.5001439767668678   T   T   T
  0.2520104048871980  0.1882595921230907  0.5472095044552666   T   T   T
  0.8323932578464530  0.3731284786871987  0.4997364227116092   T   T   T
  0.9153008281172104  0.3118271039356392  0.6396811888263689   T   T   T
  0.1666931038550509  0.3762046280482929  0.4976879429309188   T   T   T
  0.5809404804798496  0.4398999896991378  0.6468433182523313   T   T   T
  0.5765210469905955  0.6867697079419317  0.6399366016992010   T   T   T
  0.9167708249352879  0.1860671614213057  0.6398776445253881   T   T   T
  0.2492756281442477  0.3164254902458144  0.6413702424561355   T   T   T
  0.1677586318776888  0.8732667785875557  0.4998828406859181   T   T   T
  0.9158480554785214  0.4369141678073404  0.4536353299628172   T   T   T
  0.1670454519944821  0.1243464391017985  0.4993569469278579   T   T   T
  0.7484395093047869  0.0598648114606919  0.5446310973016403   T   T   T
  0.4263141720746303  0.3047791044417286  0.6565198902143401   T   T   T
  0.5903680829825984  0.8108865602881036  0.6458409246050580   T   T   T
  0.4202839585960074  0.6762008319279643  0.6339162533427726   T   T   T
  0.7553634361233367  0.4341074153068632  0.6380176420794933   T   T   T
  0.4982557695826963  0.2533453485877961  0.5911210123361670   T   T   T
  0.9159524403800138  0.0625887047120569  0.6414424088330309   T   T   T
  0.1675427981737178  0.6242254694135730  0.5002067627675337   T   T   T
  0.4999621730651880  0.8730856824673375  0.5009062656336334   T   T   T
  0.4157995581181673  0.1914468306379831  0.5465449343200810   T   T   T
  0.0856473782217571  0.6893234016257910  0.5454328405005734   T   T   T
  0.2475615769772095  0.5740106621558886  0.6287384728924004   T   T   T
  0.4170514441748094  0.1871681499896885  0.4535048731191716   T   T   T
  0.9166666865332829  0.4374999701794380  0.3605200052333331   F   F   F
  0.9166666865332829  0.1875000000030838  0.3605200052333331   F   F   F
  0.5833333134730552  0.9375000000154046  0.3605200052333331   F   F   F
  0.0808982852898329  0.5644955847742481  0.5464063675212858   T   T   T
  0.5833333134730552  0.4374999701794380  0.3605200052333331   F   F   F
  0.5833333134730552  0.1875000000030838  0.3605200052333331   F   F   F
  0.2499999999799343  0.9375000000154046  0.3605200052333331   F   F   F
  0.9166666865332829  0.9375000000154046  0.3605200052333331   F   F   F
  0.2499999999799343  0.6874999999963620  0.3605200052333331   F   F   F
  0.2499999999799343  0.1875000000030838  0.3605200052333331   F   F   F
  0.7499999404149307  0.9375000000154046  0.3605200052333331   F   F   F
  0.7499999404149307  0.6874999999963620  0.3605200052333331   F   F   F
  0.4174584438032332  0.9357880649510488  0.4538999213731700   T   T   T
  0.7499999404149307  0.4374999701794380  0.3605200052333331   F   F   F
  0.9166666865332829  0.6874999999963620  0.3605200052333331   F   F   F
  0.4166666269218169  0.9375000000154046  0.3605200052333331   F   F   F
  0.4166666269218169  0.4374999701794380  0.3605200052333331   F   F   F
  0.2499999999799343  0.4374999701794380  0.3605200052333331   F   F   F
  0.0833333358191695  0.0625000000159659  0.3605200052333331   F   F   F
  0.9153038251634444  0.6868803816269363  0.4533112614025462   T   T   T
  0.6653862290962869  0.3786235861548659  0.5032557056462550   T   T   T
  0.3342983095151227  0.3785004078572577  0.5030369018701054   T   T   T
  0.3355019705586539  0.6257203101667393  0.5036818147423635   T   T   T
  0.9176130454783745  0.0633838592621097  0.5474430578595056   T   T   T
  0.7494995727285051  0.9384107789809601  0.4553531051648761   T   T   T
  0.2499826761650218  0.9360541007483066  0.4539813470795578   T   T   T
  0.2498441565934743  0.1885025109561864  0.4540955934944332   T   T   T
  0.7491047577708846  0.6887183098995402  0.4574754344993743   T   T   T
  0.7499999404149307  0.1875000000030838  0.3605200052333331   F   F   F
  0.5833333134730552  0.0625000000159659  0.3605200052333331   F   F   F
  0.4166666269218169  0.6874999999963620  0.3605200052333331   F   F   F
  0.4166051266848253  0.8099889095262999  0.4550419356388434   T   T   T
  0.5832513523827574  0.0636786057156248  0.4538540746184855   T   T   T
  0.5833333134730552  0.6874999999963620  0.3605200052333331   F   F   F
  0.5833692448748543  0.3217239815251471  0.6330571019212901   T   T   T
  0.2520343294007230  0.6875508874306988  0.4559972755221554   T   T   T
  0.0840612799511982  0.9368417678452772  0.4536512134684853   T   T   T
  0.0827194906641464  0.4368249395834630  0.4528170307690365   T   T   T
  0.0838974167692258  0.1865811994797488  0.4529978669773199   T   T   T
  0.9166093785113489  0.8121271956671262  0.4540566826231364   T   T   T
  0.7463677240152247  0.5579996319601677  0.5446747340774010   T   T   T
  0.9160981976807224  0.5621937443573828  0.4540700820544921   T   T   T
  0.9161313920340151  0.0622175750835362  0.4540986309699869   T   T   T
  0.9161194279661709  0.3121815006875254  0.4538809697670037   T   T   T
  0.4163806085853591  0.4354269641133073  0.4538839490134258   T   T   T
  0.5827480667487749  0.4396370956836036  0.4563702070555201   T   T   T
  0.5830812923558985  0.1903372935155962  0.4556718529683513   T   T   T
  0.9164468423757595  0.9370941953388278  0.4536747517124670   T   T   T
  0.2503658310256243  0.0619423789835975  0.4542216191818657   T   T   T
  0.5832591424715270  0.8104529384819756  0.4553272503232522   T   T   T
  0.9997265833548098  0.6272423294798736  0.4976289575616428   T   T   T
  0.3336072082040594  0.1256335210862581  0.4984791358564142   T   T   T
  0.0000882851026185  0.8751731073710828  0.4995533437135071   T   T   T
  0.3334600120757167  0.8742010671176981  0.4990454366414603   T   T   T
  0.6658606659149777  0.1261662134800548  0.4998824167767650   T   T   T
  0.2511695187845514  0.4393041626480996  0.4549091437986873   T   T   T
  0.0833333358191695  0.5625000000092442  0.3605200052333331   F   F   F
  0.9166666865332829  0.0625000000159659  0.3605200052333331   F   F   F
  0.7491158581824818  0.8132830964027734  0.4528964456065471   T   T   T
  0.7495049735240656  0.4383706586010467  0.4557901375401008   T   T   T
  0.9154096090811792  0.3124761907526682  0.5467348866557168   T   T   T
  0.4171264447211129  0.6848118115208455  0.4547879519582937   T   T   T
  0.0001738656130436  0.1250922377945616  0.4983572922139585   T   T   T
  0.4159941205190039  0.9371321263018911  0.5460367616987977   T   T   T
 -0.0000122890540606  0.3734193258022959  0.4984511583111216   T   T   T
  0.7477816769976781  0.8076318555018520  0.5453970996184085   T   T   T
  0.0867036747933504  0.3135106794190692  0.5471341413298092   T   T   T
  0.2499999999799343  0.3124999999901945  0.3605200052333331   F   F   F
  0.0000000000000000  0.0000000000000000  0.4070133268666680   F   F   F
  0.0000000000000000  0.2500000000190425  0.4070133268666680   F   F   F
  0.0000000000000000  0.4999999999932783  0.4070133268666680   F   F   F
  0.7482438199756853  0.5642889138726284  0.4537938869329862   T   T   T
  0.3333333432766779  0.0000000000000000  0.4070133268666680   F   F   F
  0.3333333432766779  0.4999999999932783  0.4070133268666680   F   F   F
  0.3333333432766779  0.7500000000123208  0.4070133268666680   F   F   F
  0.6666666865533486  0.0000000000000000  0.4070133268666680   F   F   F
  0.6666666865533486  0.2500000000190425  0.4070133268666680   F   F   F
  0.6666666865533486  0.4999999999932783  0.4070133268666680   F   F   F
  0.8333332538436267  0.2500000000190425  0.4070133268666680   F   F   F
  0.1666666716383389  0.0000000000000000  0.4070133268666680   F   F   F
  0.5843775086403366  0.3154800142886949  0.4536018207852953   T   T   T
  0.1666666716383389  0.4999999999932783  0.4070133268666680   F   F   F
  0.0833333358191695  0.1875000000030838  0.3605200052333331   F   F   F
  0.5000000000021103  0.2500000000190425  0.4070133268666680   F   F   F
  0.9166666865332829  0.3124999999901945  0.3605200052333331   F   F   F
  0.3333333432766779  0.2500000000190425  0.4070133268666680   F   F   F
  0.7473361315054462  0.3141421612717786  0.4548031488768725   T   T   T
  0.0000000000000000  0.7500000000123208  0.4070133268666680   F   F   F
  0.5844739552075131  0.5628428446752978  0.4548413795468330   T   T   T
  0.7492619604552920  0.0642797229708064  0.4533625226209227   T   T   T
  0.8333332538436267  0.0000000000000000  0.4070133268666680   F   F   F
  0.5827408969633930  0.6861566467301445  0.4546464109564726   T   T   T
  0.2517975023924272  0.5646156221822783  0.4537086814717165   T   T   T
  0.1666666716383389  0.2500000000190425  0.4070133268666680   F   F   F
  0.2504872597106338  0.8108312968934284  0.4553038429172379   T   T   T
  0.1666666716383389  0.7500000000123208  0.4070133268666680   F   F   F
  0.6653058241423043  0.6261148435759674  0.5029936662444513   T   T   T
  0.2499999999799343  0.8124999999834799  0.3605200052333331   F   F   F
  0.5000000000021103  0.7500000000123208  0.4070133268666680   F   F   F
  0.5000000000021103  0.4999999999932783  0.4070133268666680   F   F   F
  0.5000000000021103  0.0000000000000000  0.4070133268666680   F   F   F
  0.5833333134730552  0.8124999999834799  0.3605200052333331   F   F   F
  0.7499999404149307  0.5625000000092442  0.3605200052333331   F   F   F
  0.6666666865533486  0.7500000000123208  0.4070133268666680   F   F   F
  0.2499999999799343  0.0625000000159659  0.3605200052333331   F   F   F
  0.7499999404149307  0.3124999999901945  0.3605200052333331   F   F   F
  0.7499999404149307  0.0625000000159659  0.3605200052333331   F   F   F
  0.4166666269218169  0.8124999999834799  0.3605200052333331   F   F   F
  0.4166666269218169  0.3124999999901945  0.3605200052333331   F   F   F
  0.7499999404149307  0.8124999999834799  0.3605200052333331   F   F   F
  0.0834728810285070  0.3119845953439894  0.4540499067095027   T   T   T
  0.4168642160513859  0.0615087457948401  0.4553571592793777   T   T   T
  0.0834995192946054  0.8121745842739601  0.4541551752186807   T   T   T
  0.4166666269218169  0.5625000000092442  0.3605200052333331   F   F   F
  0.4138566963069270  0.8117130962706752  0.5476825250837439   T   T   T
  0.5833333134730552  0.3124999999901945  0.3605200052333331   F   F   F
  0.0839583646133775  0.5625195283717191  0.4539670078924586   T   T   T
  0.4166666269218169  0.0625000000159659  0.3605200052333331   F   F   F
  0.0837707321628023  0.0618928130621765  0.4541520891677922   T   T   T
  0.8333332538436267  0.4999999999932783  0.4070133268666680   F   F   F
  0.4166666269218169  0.1875000000030838  0.3605200052333331   F   F   F
  0.0833333358191695  0.9375000000154046  0.3605200052333331   F   F   F
  0.0833333358191695  0.8124999999834799  0.3605200052333331   F   F   F
  0.0833333358191695  0.4374999701794380  0.3605200052333331   F   F   F
  0.8333332538436267  0.7500000000123208  0.4070133268666680   F   F   F
  0.4154861974359755  0.3113145941141708  0.4574125539044195   T   T   T
  0.2499999999799343  0.5625000000092442  0.3605200052333331   F   F   F
  0.4160383729893806  0.5594817166865478  0.4578541254940631   T   T   T
  0.0833333358191695  0.6874999999963620  0.3605200052333331   F   F   F
  0.2522401862574359  0.3141407221088597  0.4541555111487023   T   T   T
  0.2511115384385509  0.0625841024654443  0.5472493692430593   T   T   T
  0.5833333134730552  0.5625000000092442  0.3605200052333331   F   F   F
  0.5000000000021103  0.1249999999871179  0.4070133268666680   F   F   F
  0.1666666716383389  0.8749999404036828  0.4070133268666680   F   F   F
  0.8333332538436267  0.1249999999871179  0.4070133268666680   F   F   F
  0.9997445637950187  0.6237018329263161  0.6241485486546889   T   T   T
  0.1666666716383389  0.6249999999803961  0.4070133268666680   F   F   F
  0.8360779390112691  0.5000265875230446  0.5028934188819175   T   T   T
  0.8360617930393349  0.7515615896816333  0.5026364311123226   T   T   T
  0.5000000000021103  0.6249999999803961  0.4070133268666680   F   F   F
  0.8318543473442476  0.8767378417310502  0.6174658380670995   T   T   T
  0.1635191601205596  0.4998600592819740  0.5019862313539017   T   T   T
  0.5000000000021103  0.8749999404036828  0.4070133268666680   F   F   F
  0.8394361056250662  0.6270132874945139  0.6042982843306449   T   T   T
  0.3316634230831681  0.1196637541964435  0.6130081273979455   T   T   T
  0.8333332538436267  0.3750000000061604  0.4070133268666680   F   F   F
  0.8377316486846309  0.3724153207802798  0.6037802332403172   T   T   T
  0.5004264567839364  0.1227609857393950  0.6069303282129112   T   T   T
  0.6663350519172290  0.6259623215738936  0.5930822349494399   T   T   T
  0.0000000000000000  0.3750000000061604  0.4070133268666680   F   F   F
  0.5014649470919812  0.3716288200209058  0.5948879738622789   T   T   T
  0.9990448057734754  0.8749182361444114  0.6237306732400365   T   T   T
  0.8342296661668579  0.1244326944367619  0.6163015619203169   T   T   T
  0.0003646975977886  0.3751684727619929  0.6250880462169859   T   T   T
  0.6653636230211273  0.8814672130009686  0.6071099748613550   T   T   T
  0.1633149223991373  0.3712282933579742  0.6075673574653063   T   T   T
  0.1679248746424886  0.1225768420631393  0.6218312749534197   T   T   T
  0.1595638347022144  0.6275463668200272  0.6013595443902572   T   T   T
  0.6709459347825580  0.3727639195165491  0.5933035660967907   T   T   T
  0.1663582528207148  0.8737815156298008  0.6176124023252197   T   T   T
  0.3346909735451717  0.8788733139508910  0.6026870756902513   T   T   T
  0.3340815055276876  0.6246137659877349  0.5950315536661128   T   T   T
  0.6666666865533486  0.8749999404036828  0.4070133268666680   F   F   F
  0.5000000000021103  0.3750000000061604  0.4070133268666680   F   F   F
  0.5034725059925576  0.6249713562350198  0.5942264890324358   T   T   T
  0.1666666716383389  0.1249999999871179  0.4070133268666680   F   F   F
  0.0000000000000000  0.1249999999871179  0.4070133268666680   F   F   F
  0.6656497470595487  0.1249516007491369  0.6101881582537607   T   T   T
  0.3331609666939251  0.0011255908462346  0.5057697060517212   T   T   T
  0.0000000000000000  0.8749999404036828  0.4070133268666680   F   F   F
  0.5010291344070519  0.7528200341622605  0.5039202302724921   T   T   T
  0.3311436566553942  0.4992409358505989  0.5009509589473929   T   T   T
  0.6685410526212929  0.4998367120106122  0.5006617060919656   T   T   T
  0.8333332538436267  0.6249999999803961  0.4070133268666680   F   F   F
  0.1644015246749894  0.7514360839091137  0.5034458677502738   T   T   T
  0.6660104791076175 -0.0000020535005612  0.5056197930750254   T   T   T
  0.3300568194310165  0.2480923433812535  0.5028497873441091   T   T   T
  0.0008858847614018  0.1226445561843466  0.6198202120051609   T   T   T
  0.6666666865533486  0.3750000000061604  0.4070133268666680   F   F   F
  0.8357121261603950  0.2485447524145467  0.5029207893006872   T   T   T
  0.6669676248455801  0.2480769643844830  0.5026981482054280   T   T   T
  0.3259161903269285  0.3735563218699267  0.5927739075017933   T   T   T
  0.1666666716383389  0.3750000000061604  0.4070133268666680   F   F   F
  0.5010899649372459  0.8770554479375923  0.6098439219678070   T   T   T
  0.9998831665888901  0.7511347042090344  0.5067569550705581   T   T   T
  0.3338266500199991  0.7511154733308383  0.5015412868420188   T   T   T
  0.6653087290493163  0.7518170870608438  0.5022096160013986   T   T   T
  0.3333333432766779  0.1249999999871179  0.4070133268666680   F   F   F
  0.5011486333963725  0.4997470657484412  0.5002647385697571   T   T   T
  0.9995770210734534  0.4999595749317575  0.5067589709390359   T   T   T
  0.1660383214805900  0.0011683489001481  0.5065319350060630   T   T   T
  0.5002747272678028  0.9992580385399451  0.5055785539132995   T   T   T
  0.1664122286955599  0.2482564932072311  0.5062636098422743   T   T   T
  0.6666666865533486  0.1249999999871179  0.4070133268666680   F   F   F
  0.8342162259766949  0.0002202998118654  0.5064948050412618   T   T   T
  0.0000000000000000  0.6249999999803961  0.4070133268666680   F   F   F
  0.3333333432766779  0.8749999404036828  0.4070133268666680   F   F   F
  0.3333333432766779  0.6249999999803961  0.4070133268666680   F   F   F
  0.8333332538436267  0.8749999404036828  0.4070133268666680   F   F   F
  0.6666666865533486  0.6249999999803961  0.4070133268666680   F   F   F
  0.0001350128388912  0.9998874643427214  0.5066805036804725   T   T   T
  0.0010397297038983  0.2498848334058634  0.5060464947827379   T   T   T
  0.5010826640897028  0.2479236769030430  0.5021934194106026   T   T   T
  0.3333333432766779  0.3750000000061604  0.4070133268666680   F   F   F
  0.0833333358191695  0.7500000000123208  0.4070133268666680   F   F   F
  0.9185564779622896  0.3742492761461051  0.5059309753959188   T   T   T
  0.0833333358191695  0.2500000000190425  0.4070133268666680   F   F   F
  0.7519096354912088  0.7524479596972157  0.5905083350426910   T   T   T
  0.2499999999799343  0.2500000000190425  0.4070133268666680   F   F   F
  0.0833333358191695  0.4999999999932783  0.4070133268666680   F   F   F
  0.4166666269218169  0.4999999999932783  0.4070133268666680   F   F   F
  0.9166666865332829  0.7500000000123208  0.4070133268666680   F   F   F
  0.9183210374665197  0.4999442749153576  0.6038511855729930   T   T   T
  0.5832823003228486  0.1234859696700197  0.5046736960462145   T   T   T
  0.7523334392009163  0.6245106933950443  0.5024629919036863   T   T   T
  0.5838180632311063  0.8758399595835986  0.5057947793852114   T   T   T
  0.9178525100332822  0.1249414507102544  0.5063427802160828   T   T   T