Au  C  O Sr Ti                          
   1.00000000000000     
    23.6707801818999997    0.0000000000000000    0.0000000000000000
     0.0000000000000000   22.3170261383000010    0.0000000000000000
     0.0000000000000000    0.0000000000000000   30.0000000000000000
   Au   C    O    Sr   Ti
    50     2   265    72    72
Selective dynamics
Direct
  0.7155144523381836  0.5245616620402274  0.7529528804938295   F   F   F
  0.5543018577462746  0.2130771545370393  0.7114809937965987   F   F   F
  0.6209855613893893  0.5709009852255704  0.7039312011782926   F   F   F
  0.7216431581265752  0.2567555209252035  0.6915817826616149   F   F   F
  0.2934989755960657  0.7468440334246154  0.6972023363604478   F   F   F
  0.5119371373808690  0.6033010991188235  0.7767872921961470   F   F   F
  0.5785613914675949  0.7257494637491533  0.7939315955002257   F   F   F
  0.2405240919373526  0.4694509721819458  0.7092132960700894   F   F   F
  0.2850673539944495  0.6621666941396640  0.7645996762463909   F   F   F
  0.5979054605071212  0.2927744372254679  0.7851221638873014   F   F   F
  0.5142642603341940  0.4842706913853405  0.6779835701030663   F   F   F
  0.5630640217746645  0.4860963374661793  0.7621563902968660   F   F   F
  0.5469522347098348  0.3875753130663284  0.8287695317414716   F   F   F
  0.7633359628971874  0.4305993275206887  0.7044392271955360   F   F   F
  0.3917576535048966  0.8171674259171198  0.7065052993660643   F   F   F
  0.4637703410872192  0.6952170951854413  0.8299275769171430   F   F   F
  0.4379156565064051  0.2269940899610035  0.6976644403166148   F   F   F
  0.3699059771087647  0.2987216956826728  0.7554860117485944   F   F   F
  0.3494417363047049  0.4996725165301825  0.6977409121252052   F   F   F
  0.4279390801121892  0.3718667926780626  0.8162244588263405   F   F   F
  0.5964439427338277  0.7845897014003214  0.7130057306989670   F   F   F
  0.6348237097408713  0.5839076570452235  0.8000733772988369   F   F   F
  0.2893900117920225  0.5380750866812676  0.7775252036019964   F   F   F
  0.4837576196821871  0.2697386509347410  0.7751901744126428   F   F   F
  0.4521984452399792  0.5795837268461455  0.7027512425015132   F   F   F
  0.4625693451649084  0.5737068320166685  0.8640272732545284   F   F   F
  0.7065183329815952  0.7568341211942666  0.6883653358947797   F   F   F
  0.6556285099100947  0.4404193313397187  0.8123295448133021   F   F   F
  0.3682769035009201  0.6189547185415449  0.8202619776426943   F   F   F
  0.5695666988261863  0.5101291800647161  0.8568859171784240   F   F   F
  0.6615977771843902  0.1978846505104315  0.7534550385063667   T   T   T
  0.4696057281038861  0.4515423248494912  0.8802139070426449   F   F   F
  0.5174966461771859  0.3770107459660750  0.7325418332419389   F   F   F
  0.2821457359313939  0.3398773455237034  0.7022997583890884   F   F   F
  0.6694561924207747  0.6811092362100482  0.7487871796732790   F   F   F
  0.3976346548422214  0.3817096224978087  0.6900604764167610   F   F   F
  0.7327886337642227  0.6145910275805306  0.6940523831571781   F   F   F
  0.6169388038307630  0.3202144609134621  0.6960764044663819   F   F   F
  0.3253385222840848  0.4147372006908228  0.7692582338140141   F   F   F
  0.4153044353372906  0.6951630086059026  0.6994500926122527   F   F   F
  0.7007249388273564  0.3432656923921016  0.7572819571561809   F   F   F
  0.7737337559222937  0.4283408529672244  0.7944258876450050   F   F   F
  0.2568087469832534  0.5928472055898411  0.6945773991016750   F   F   F
  0.6484148944179537  0.4453456139021910  0.6945180938901530   F   F   F
  0.5646367040020337  0.6394793587283445  0.8610502126767301   F   F   F
  0.5401373847409729  0.6678297821067005  0.7017391802509394   F   F   F
  0.4437712465914245  0.4733891590051940  0.7560928498730419   F   F   F
  0.3740688675200161  0.7397254304323724  0.7787830335220463   F   F   F
  0.3752583921435857  0.4931113451556470  0.8325905138614402   F   F   F
  0.4857785952406672  0.7752202544732469  0.7544788485924556   F   F   F
  0.7672296362747630  0.1264869683222329  0.7384787049638177   T   T   T
  0.7202874752460104  0.1379048227244155  0.7600977336282710   T   T   T
  0.4143456039512898  0.8117454277549072  0.5479563900990030   F   F   F
  0.7490802102486214  0.6886629081852291  0.4574497413824261   F   F   F
  0.7498847645674900  0.4382231440271553  0.4557245359591278   F   F   F
  0.7507595411097654  0.1895579126447799  0.4552828637352064   F   F   F
  0.4171692245232421  0.9358247846787222  0.4540299089321920   F   F   F
  0.4171303527020811  0.6847299735398096  0.4547043464861815   F   F   F
  0.4164419909029959  0.4354534312644986  0.4538125041517702   F   F   F
  0.0845319453761491  0.6868736488447951  0.4530947332590287   F   F   F
  0.0838812028428109  0.9366538140196781  0.4535042662501070   F   F   F
  0.0827745013687249  0.4367745364068298  0.4528490402215013   F   F   F
  0.0838652226921113  0.1865778558996212  0.4529641599316889   F   F   F
  0.8108203417182835  0.1090828201159511  0.7227600378716539   T   T   T
  0.0833333358191695  0.3124999999901945  0.3605200052333331   F   F   F
  0.9161262096954346  0.5621688112746313  0.4540740562878796   F   F   F
  0.9163193660805007  0.0618804793562902  0.4542021371792657   F   F   F
  0.9162216430538237  0.3121537267686918  0.4538819438630313   F   F   F
  0.4171023530237719  0.1871319029633156  0.4535072177031125   F   F   F
  0.2520886504775248  0.6876240061002576  0.4561040691664289   F   F   F
  0.9165029944962484  0.9368113769323756  0.4535123092378726   F   F   F
  0.5826873737294278  0.1903166386322042  0.4555664665546075   F   F   F
  0.0001651451466671  0.1249434561376290  0.4983212267516706   F   F   F
  0.5828780109583320  0.8106324993613256  0.4552614360608658   F   F   F
  0.0000451246262045  0.3734279956835280  0.4984061841553924   F   F   F
  0.9998569837779243  0.6271164153397564  0.4977053863147489   F   F   F
  0.3336215209041882  0.1256628217131421  0.4984988408905338   F   F   F
  0.0001068618421129  0.8752030834378814  0.4996500827164567   F   F   F
  0.3333979675614316  0.8736500172434134  0.4992213226812581   F   F   F
  0.6659605955125940  0.1263474423040520  0.4989169492195984   F   F   F
  0.2511635638952754  0.4392690190706858  0.4549236485519259   F   F   F
  0.7495015017708582  0.9384100031765712  0.4553296815761243   F   F   F
  0.2498621122368547  0.1884980106961578  0.4541002194684864   F   F   F
  0.9179295000891656  0.0632212556755150  0.5475252953640322   F   F   F
  0.3356179042369902  0.6257877996028185  0.5037688499036079   F   F   F
  0.5827367910503654  0.9371599426602444  0.4543266177233463   F   F   F
  0.5828088614796982  0.6861572667374816  0.4546088095075262   F   F   F
  0.5827943018660093  0.4396284846279528  0.4563976300500627   F   F   F
  0.2500481385670383  0.9360810367436372  0.4540320276749839   F   F   F
  0.6653974233383622  0.6259542941756209  0.5029994992004774   F   F   F
  0.5844898881722500  0.5628476926873631  0.4548315196894350   F   F   F
  0.5832112919663430  0.0636431699037203  0.4538337778671675   F   F   F
  0.9166666865332829  0.6874999999963620  0.3605200052333331   F   F   F
  0.9166666865332829  0.4374999701794380  0.3605200052333331   F   F   F
  0.9166666865332829  0.1875000000030838  0.3605200052333331   F   F   F
  0.5833333134730552  0.9375000000154046  0.3605200052333331   F   F   F
  0.5833333134730552  0.6874999999963620  0.3605200052333331   F   F   F
  0.5833333134730552  0.4374999701794380  0.3605200052333331   F   F   F
  0.5833333134730552  0.1875000000030838  0.3605200052333331   F   F   F
  0.0833333358191695  0.5625000000092442  0.3605200052333331   F   F   F
  0.2499999999799343  0.9375000000154046  0.3605200052333331   F   F   F
  0.2499999999799343  0.6874999999963620  0.3605200052333331   F   F   F
  0.2499999999799343  0.1875000000030838  0.3605200052333331   F   F   F
  0.7499999404149307  0.9375000000154046  0.3605200052333331   F   F   F
  0.7499999404149307  0.6874999999963620  0.3605200052333331   F   F   F
  0.7499999404149307  0.4374999701794380  0.3605200052333331   F   F   F
  0.7499999404149307  0.1875000000030838  0.3605200052333331   F   F   F
  0.4166666269218169  0.9375000000154046  0.3605200052333331   F   F   F
  0.4166666269218169  0.6874999999963620  0.3605200052333331   F   F   F
  0.4166666269218169  0.4374999701794380  0.3605200052333331   F   F   F
  0.2499999999799343  0.4374999701794380  0.3605200052333331   F   F   F
  0.0833333358191695  0.0625000000159659  0.3605200052333331   F   F   F
  0.9153899846161195  0.6867033425528106  0.4531845840089446   F   F   F
  0.6656096551602602  0.3784572533608639  0.5031264878738071   F   F   F
  0.3343529569907915  0.3784536761474087  0.5029598827910249   F   F   F
  0.9166666865332829  0.9375000000154046  0.3605200052333331   F   F   F
  0.9166666865332829  0.0625000000159659  0.3605200052333331   F   F   F
  0.7494253146627656  0.8131715876400278  0.4530483715500608   F   F   F
  0.2505284758151944  0.0620083654710086  0.4542444786016375   F   F   F
  0.5833333134730552  0.8124999999834799  0.3605200052333331   F   F   F
  0.5833333134730552  0.3124999999901945  0.3605200052333331   F   F   F
  0.5833333134730552  0.0625000000159659  0.3605200052333331   F   F   F
  0.2499999999799343  0.8124999999834799  0.3605200052333331   F   F   F
  0.2499999999799343  0.5625000000092442  0.3605200052333331   F   F   F
  0.2499999999799343  0.3124999999901945  0.3605200052333331   F   F   F
  0.2499999999799343  0.0625000000159659  0.3605200052333331   F   F   F
  0.7499999404149307  0.5625000000092442  0.3605200052333331   F   F   F
  0.7499999404149307  0.3124999999901945  0.3605200052333331   F   F   F
  0.7499999404149307  0.0625000000159659  0.3605200052333331   F   F   F
  0.4166666269218169  0.8124999999834799  0.3605200052333331   F   F   F
  0.4166666269218169  0.5625000000092442  0.3605200052333331   F   F   F
  0.4166666269218169  0.3124999999901945  0.3605200052333331   F   F   F
  0.7499999404149307  0.8124999999834799  0.3605200052333331   F   F   F
  0.0835558096679421  0.3120437765126525  0.4539737439858271   F   F   F
  0.4166666269218169  0.0625000000159659  0.3605200052333331   F   F   F
  0.4168690674793822  0.0615408330308043  0.4553540749560270   F   F   F
  0.0835381334586600  0.8120246903370543  0.4541813650589717   F   F   F
  0.0839577287305389  0.5624881561149522  0.4538871828397504   F   F   F
  0.4160678895084047  0.5595098943442238  0.4578704045284780   F   F   F
  0.0837710887626315  0.0618709080301656  0.4541658020991761   F   F   F
  0.4155708962012099  0.3113521050462538  0.4573730646441803   F   F   F
  0.8333332538436267  0.7500000000123208  0.4070133268666680   F   F   F
  0.0833333358191695  0.4374999701794380  0.3605200052333331   F   F   F
  0.0833333358191695  0.6874999999963620  0.3605200052333331   F   F   F
  0.0833333358191695  0.9375000000154046  0.3605200052333331   F   F   F
  0.4166666269218169  0.1875000000030838  0.3605200052333331   F   F   F
  0.0833333358191695  0.8124999999834799  0.3605200052333331   F   F   F
  0.8333332538436267  0.4999999999932783  0.4070133268666680   F   F   F
  0.7494567120604501  0.0640409953745547  0.4533170645521380   F   F   F
  0.9159961548874449  0.1866311287743301  0.4529731126018532   F   F   F
  0.5833333134730552  0.5625000000092442  0.3605200052333331   F   F   F
  0.0000000000000000  0.7500000000123208  0.4070133268666680   F   F   F
  0.9153846905154026  0.3127567981092270  0.5467403218703808   F   F   F
  0.2522557762995490  0.3141355463406867  0.4541528894442806   F   F   F
  0.2518813666771962  0.5645996369319661  0.4537526562363965   F   F   F
  0.8333332538436267  0.2500000000190425  0.4070133268666680   F   F   F
  0.5843687034667866  0.3154582683340905  0.4535745481396276   F   F   F
  0.8333332538436267  0.0000000000000000  0.4070133268666680   F   F   F
  0.5000000000021103  0.4999999999932783  0.4070133268666680   F   F   F
  0.0833333358191695  0.1875000000030838  0.3605200052333331   F   F   F
  0.0000000000000000  0.0000000000000000  0.4070133268666680   F   F   F
  0.0000000000000000  0.2500000000190425  0.4070133268666680   F   F   F
  0.0000000000000000  0.4999999999932783  0.4070133268666680   F   F   F
  0.7482514869206440  0.5642641009374856  0.4538185224533109   F   F   F
  0.3333333432766779  0.0000000000000000  0.4070133268666680   F   F   F
  0.3333333432766779  0.4999999999932783  0.4070133268666680   F   F   F
  0.3333333432766779  0.7500000000123208  0.4070133268666680   F   F   F
  0.6666666865533486  0.0000000000000000  0.4070133268666680   F   F   F
  0.6666666865533486  0.2500000000190425  0.4070133268666680   F   F   F
  0.6666666865533486  0.4999999999932783  0.4070133268666680   F   F   F
  0.6666666865533486  0.7500000000123208  0.4070133268666680   F   F   F
  0.1666666716383389  0.0000000000000000  0.4070133268666680   F   F   F
  0.1666666716383389  0.2500000000190425  0.4070133268666680   F   F   F
  0.1666666716383389  0.4999999999932783  0.4070133268666680   F   F   F
  0.1666666716383389  0.7500000000123208  0.4070133268666680   F   F   F
  0.5000000000021103  0.0000000000000000  0.4070133268666680   F   F   F
  0.5000000000021103  0.2500000000190425  0.4070133268666680   F   F   F
  0.5000000000021103  0.7500000000123208  0.4070133268666680   F   F   F
  0.9166666865332829  0.3124999999901945  0.3605200052333331   F   F   F
  0.3333333432766779  0.2500000000190425  0.4070133268666680   F   F   F
  0.7473446045625778  0.3140043894665183  0.4548477057240632   F   F   F
  0.4166987448366299  0.8099009021743626  0.4551430333085875   F   F   F
  0.9159216973272137  0.4368980217378109  0.4535896921545515   F   F   F
  0.2503267515884389  0.8108141079006970  0.4552967497803522   F   F   F
  0.7476802483098695  0.0599495287161318  0.5444545024748848   F   F   F
  0.7519139169006834  0.4353438474372311  0.5488954897826375   F   F   F
  0.4231187527493745  0.4439318247969126  0.5455118013271445   F   F   F
  0.4230343983563358  0.6881085934038751  0.5466191860878951   F   F   F
  0.7477129931200963  0.1851712744836433  0.5494345479406348   F   F   F
  0.4158192243573424  0.9370372839121615  0.5460306483560800   F   F   F
  0.4986109793694453  0.2529139810459924  0.5906311041736174   F   F   F
  0.4157256454954492  0.1914793006400259  0.5464831472816130   F   F   F
  0.0860165566611784  0.6892035305761723  0.5453762033235634   F   F   F
  0.0828779558554942  0.4389075644691616  0.5448639472168679   F   F   F
  0.0835330727521963  0.1889082899607928  0.5454404346157844   F   F   F
  0.4994711697544361  0.1256456198525129  0.4995513658004853   F   F   F
  0.9997539866068124  0.4993800965828825  0.5941862318912285   F   F   F
  0.5806492673592771  0.1849814282445266  0.5501310749720290   F   F   F
  0.9998375469488465  0.7531765802988275  0.5923346091626343   F   F   F
  0.3340247479617204  0.9998495335637188  0.5919995578604755   F   F   F
  0.0002664256907892  0.9981028562512435  0.5924652105828940   F   F   F
  0.0012346252686584  0.2502293947731573  0.5918652674778926   F   F   F
  0.3332939875397471  0.4963905092241419  0.5908827026377708   F   F   F
  0.3354110191451056  0.7411667228885648  0.5904989190597831   F   F   F
  0.6633065073971309  0.2473815064378897  0.5906925569322681   F   F   F
  0.6658462059915138  0.0002173553624303  0.5918910117103522   F   F   F
  0.6657697954615429  0.7413501635381721  0.5904510593154129   F   F   F
  0.6666568024519819  0.4946649213308518  0.5912565223660948   F   F   F
  0.1675216230442160  0.9983023652863992  0.5923225197524573   F   F   F
  0.1685405835168865  0.2483119128798350  0.5930027552425798   F   F   F
  0.1707606618633264  0.7500396822386648  0.5950199405622385   F   F   F
  0.2484865304357626  0.4358113950401403  0.5491348110543726   F   F   F
  0.1657513957874173  0.5027615813986799  0.5874013490447467   F   F   F
  0.3346381825318616  0.2544925060526353  0.5926365836467440   F   F   F
  0.7519328094773456  0.6802282658305856  0.5533166333617032   F   F   F
  0.7495932056036239  0.9342980903717830  0.5475678546990537   F   F   F
  0.2491584446800985  0.6831493400336512  0.5520052666154243   F   F   F
  0.0844360496184891  0.9383659466406087  0.5459450360290532   F   F   F
  0.1670828609614148  0.1243049857334526  0.4993213644452084   F   F   F
  0.2510910218124636  0.0625194232508051  0.5472625020978654   F   F   F
  0.7465748960132430  0.5580207852038725  0.5447833977194776   F   F   F
  0.7480900283432277  0.8080547035199359  0.5456173076969293   F   F   F
  0.2492756204393984  0.3137144987809179  0.5459095804360388   F   F   F
  0.5828603741438911  0.3109684462506905  0.5448847788120901   F   F   F
  0.2530341399473457  0.8125409080132258  0.5506952922792721   F   F   F
  0.5829392706440615  0.0618014790508781  0.5454220680652355   F   F   F
  0.5859476479722829  0.8143269658911194  0.5503946511205413   F   F   F
  0.7484186579019578  0.3118607619854359  0.5485904263357000   F   F   F
  0.5811387376659738  0.5600381684183802  0.5488586904577346   F   F   F
  0.2525546510982224  0.5590843977355533  0.5439193689267725   F   F   F
  0.4159709261166213  0.3197168352612039  0.5525697500822133   F   F   F
  0.5767148520205154  0.4357680587318029  0.5521200920342437   F   F   F
  0.4996047525042187  0.0000112959479921  0.5909701657953192   F   F   F
  0.4164971942627105  0.0653629048268698  0.5473271840153089   F   F   F
  0.0818490097729736  0.5643288976777043  0.5463242789129126   F   F   F
  0.0867108798791918  0.3135378069450283  0.5470282759211429   F   F   F
  0.0823302034178042  0.0632042001565765  0.5475772412718030   F   F   F
  0.9151956348334949  0.9385328230874848  0.5462752418915073   F   F   F
  0.9140251858487289  0.6890016350991388  0.5453534740148669   F   F   F
  0.5838153145381213  0.9377033054378217  0.5461275014445164   F   F   F
  0.9178549732765973  0.1893813979882992  0.5450575092041277   F   F   F
  0.9157364986892276  0.4376321680312643  0.5456563694940968   F   F   F
  0.5795417767762387  0.6861208772159841  0.5474159162198475   F   F   F
  0.2515538715685466  0.9373043753080808  0.5452152106832884   F   F   F
  0.4974928443446771  0.5043938561404886  0.6088510745239972   F   F   F
  0.9177295129613867  0.5638650904092728  0.5471507144102645   F   F   F
  0.4200601134818172  0.5650464419372767  0.5553078806729843   F   F   F
  0.9155365886163551  0.8127588439408058  0.5468499104405566   F   F   F
  0.0851048963722718  0.8125977352442817  0.5473185057431280   F   F   F
  0.8326630363345515  0.8741513701729033  0.4985828600688365   F   F   F
  0.9165622183184752  0.8120367598970333  0.4540524311108314   F   F   F
  0.8324804224143065  0.0036014164652016  0.5934938370121685   F   F   F
  0.7543826591253620  0.4331919492370204  0.6378370045850019   F   F   F
  0.4174764874180568  0.9348779639068567  0.6397869292297074   F   F   F
  0.4204275350842579  0.6756581956046617  0.6335062701237817   F   F   F
  0.5911928157217901  0.8100054589797736  0.6460656915541989   F   F   F
  0.9194326883057897  0.0612250677485235  0.6428149882585146   F   F   F
  0.9133539570459135  0.5622325072836389  0.6411514397421882   F   F   F
  0.9151303219734501  0.3117334881942639  0.6394125292330912   F   F   F
  0.9140135463797847  0.8129591603450521  0.6417592590388921   F   F   F
  0.5821977497599562  0.0663423078414311  0.6386848667431337   F   F   F
  0.5837220120060564  0.3208224326121041  0.6334352447489096   F   F   F
  0.5906673321580769  0.5659645502854858  0.6387578053405605   F   F   F
  0.2476830669255605  0.5737842937815856  0.6288504888926312   F   F   F
  0.7537124620778997  0.6918978041992077  0.6570590811958965   F   F   F
  0.2619207169642053  0.7996370750542070  0.6463216461236101   F   F   F
  0.7461280983951823  0.1935869552700353  0.6459157412299277   F   F   F
  0.9166666865332829  0.5625000000092442  0.3605200052333331   F   F   F
  0.4999548575099837  0.8733415146589252  0.5009961452094132   F   F   F
  0.5003156135052578  0.6211698437997910  0.5000328866612307   F   F   F
  0.8324121807635478  0.6230461642163974  0.5000226489082564   F   F   F
  0.2519998252909801  0.1882197529899017  0.5471665813107904   F   F   F
  0.8325104841588811  0.3730880630261311  0.4997418018127888   F   F   F
  0.8329526634815210  0.1243214591915631  0.4993165212538599   F   F   F
  0.1667509904160056  0.3762648219964859  0.4977515322245409   F   F   F
  0.1677253699644368  0.6242814789387339  0.5000908406723283   F   F   F
  0.5813999237441436  0.4389894808886083  0.6460856354247184   F   F   F
  0.5782547954227439  0.6858633368809564  0.6395651982186408   F   F   F
  0.9184339444839509  0.1868079124733555  0.6408615332975884   F   F   F
  0.2491669269584875  0.3161545486293562  0.6412430120442210   F   F   F
  0.1677883312321029  0.8732392970202767  0.4998277209315916   F   F   F
  0.7487176875128156  0.9367475107225118  0.6396903482592577   F   F   F
  0.4996063781546738  0.3742624794372347  0.4997599960398702   F   F   F
  0.2535690511604329  0.1864620202449245  0.6412231448398344   F   F   F
  0.2510107137755213  0.0594000187466719  0.6423269525858117   F   F   F
  0.8304528313189721  0.7509195018274966  0.5928306969895232   F   F   F
  0.4177129935817447  0.0651318391059021  0.6400585839386110   F   F   F
  0.5816770684652184  0.9355510611861675  0.6392315859394131   F   F   F
  0.5008025176859547  0.7562846703752086  0.5927510187271707   F   F   F
  0.4269172672423238  0.3044299903269945  0.6554180528880522   F   F   F
  0.4128863270555314  0.8126017442710634  0.6396739817800920   F   F   F
  0.3972964187197476  0.5505168578569268  0.6518962607298846   F   F   F
  0.7533995531682862  0.5681436008746559  0.6357898830148230   F   F   F
  0.7411494937352003  0.8097594405426847  0.6400083287686442   F   F   F
  0.7464999582697089  0.3108899674981771  0.6409990338133085   F   F   F
  0.0844542273192843  0.3116123730895026  0.6405660670449222   F   F   F
  0.6665040480852724  0.8743042286365323  0.4987872787224390   F   F   F
  0.0868538253245248  0.5627148802670376  0.6401702467995491   F   F   F
  0.0841446942428732  0.0601482079381555  0.6420403414681601   F   F   F
  0.0871702873517179  0.4365581997407872  0.6397169118517141   F   F   F
  0.0836629881663669  0.1856577478841146  0.6409078048924997   F   F   F
  0.7458258033247702  0.0664509599785248  0.6398032744884290   F   F   F
  0.5790398039340516  0.1920621802086089  0.6456709918031009   F   F   F
  0.4179727225057022  0.1873496959760743  0.6396109424933982   F   F   F
  0.9166666865332829  0.8124999999834799  0.3605200052333331   F   F   F
  0.0844247749464628  0.8122978651539157  0.6422779386492365   F   F   F
  0.2520904694072001  0.9302445064330982  0.6373806917287013   F   F   F
  0.8321127084864486  0.2477384869993458  0.5915408107792004   F   F   F
  0.2544993238201627  0.6775261906574954  0.6635416399300098   F   F   F
  0.8331741220881170  0.5024260270869547  0.5889964861368782   F   F   F
  0.2408224466255433  0.4420410370372778  0.6416757274726450   F   F   F
  0.9164663259173338  0.6872476025821825  0.6388322223446465   F   F   F
  0.9124686008279994  0.4360032147123647  0.6398808576544894   F   F   F
  0.0831336829105283  0.6869981337815503  0.6389615735531464   F   F   F
  0.0844229168103325  0.9353883785040580  0.6409214606292153   F   F   F
  0.4152651254309276  0.4188678788635229  0.6298107126732049   F   F   F
  0.9147219470149182  0.9366309681700571  0.6405830895288034   F   F   F
  0.8333332538436267  0.6249999999803961  0.4070133268666680   F   F   F
  0.0013965398239435  0.1227579266366305  0.6183957444466230   F   F   F
  0.1660643064416263  0.0010861850124613  0.5065496520138666   F   F   F
  0.1645296548366630  0.7513881702067593  0.5034206885385899   F   F   F
  0.5011163122409314  0.7528161042677723  0.5038381199212907   F   F   F
  0.1666666716383389  0.3750000000061604  0.4070133268666680   F   F   F
  0.9997147965357769  0.5001495017611006  0.5068359919880265   F   F   F
  0.6671186604343760  0.2477982516052180  0.5028082354477164   F   F   F
  0.3301882062056123  0.2480090580842074  0.5027940892435154   F   F   F
  0.3331640190634957  0.0011345127001405  0.5057759384606300   F   F   F
  0.3339087443009419  0.7510991505099938  0.5015539490054906   F   F   F
  0.6687042621868500  0.4997090526151311  0.5006855685815310   F   F   F
  0.6659207887174645  0.0000322762052463  0.5053814275794579   F   F   F
  0.3312390124692044  0.4991819921002119  0.5009374759827026   F   F   F
  0.5012557820199106  0.4997683270060023  0.5002400114280334   F   F   F
  0.8359242706085936  0.2479323383619629  0.5030102997950934   F   F   F
  0.6666666865533486  0.6249999999803961  0.4070133268666680   F   F   F
  0.1664185192015495  0.2481416644371137  0.5061315440112111   F   F   F
  0.0000000000000000  0.8749999404036828  0.4070133268666680   F   F   F
  0.5011969395206748  0.2478559254863271  0.5021710400803414   F   F   F
  0.9999136288314716  0.7509650308274942  0.5065385752733533   F   F   F
  0.0009808957724005  0.2498835330184406  0.5058046851411433   F   F   F
  0.0001307330406348  0.9996904668368458  0.5064353240368717   F   F   F
  0.8333332538436267  0.8749999404036828  0.4070133268666680   F   F   F
  0.0000000000000000  0.6249999999803961  0.4070133268666680   F   F   F
  0.3333333432766779  0.6249999999803961  0.4070133268666680   F   F   F
  0.3333333432766779  0.1249999999871179  0.4070133268666680   F   F   F
  0.3333333432766779  0.3750000000061604  0.4070133268666680   F   F   F
  0.8342523334432599  0.0008052254989508  0.5071401889545868   F   F   F
  0.3333333432766779  0.8749999404036828  0.4070133268666680   F   F   F
  0.6666666865533486  0.1249999999871179  0.4070133268666680   F   F   F
  0.6666666865533486  0.3750000000061604  0.4070133268666680   F   F   F
  0.8360910334306979  0.4999388176984283  0.5028047539953846   F   F   F
  0.1636917345259974  0.4998729990835926  0.5020770483684842   F   F   F
  0.6653875446223196  0.7519445199521897  0.5021940312539428   F   F   F
  0.6666666865533486  0.8749999404036828  0.4070133268666680   F   F   F
  0.3260958786830983  0.3734607497642202  0.5926887259197642   F   F   F
  0.0000000000000000  0.3750000000061604  0.4070133268666680   F   F   F
  0.3341457979398186  0.6243795707189008  0.5950557164006298   F   F   F
  0.5000000000021103  0.8749999404036828  0.4070133268666680   F   F   F
  0.8333332538436267  0.1249999999871179  0.4070133268666680   F   F   F
  0.8333332538436267  0.3750000000061604  0.4070133268666680   F   F   F
  0.1666666716383389  0.1249999999871179  0.4070133268666680   F   F   F
  0.8360234239353943  0.7516704844794191  0.5026032214822180   F   F   F
  0.8395152950470504  0.6268755897974287  0.6038687741985669   F   F   F
  0.3316729917534147  0.1198000227995593  0.6133138957953008   F   F   F
  0.9992740167164911  0.8747024347542052  0.6226922896985414   F   F   F
  0.5000000000021103  0.1249999999871179  0.4070133268666680   F   F   F
  0.8320949714363550  0.8757741472183866  0.6185925145810813   F   F   F
  0.8376152677204303  0.3723828465379384  0.6034916529458414   F   F   F
  0.5001889279561738  0.9993262383329764  0.5054571942699511   F   F   F
  0.5005777693591966  0.8767191100492155  0.6094191526395534   F   F   F
  0.6649856788777768  0.1246894588314404  0.6111216226713196   F   F   F
  0.5000000000021103  0.6249999999803961  0.4070133268666680   F   F   F
  0.5037598145936784  0.6249594606156705  0.5940484733386597   F   F   F
  0.5000000000021103  0.3750000000061604  0.4070133268666680   F   F   F
  0.1666666716383389  0.6249999999803961  0.4070133268666680   F   F   F
  0.6711729297601323  0.3720401606560912  0.5934982118200480   F   F   F
  0.3346067277513285  0.8785809141830541  0.6029663223640895   F   F   F
  0.1596891970663137  0.6273276095449063  0.6015647877748833   F   F   F
  0.1666666716383389  0.8749999404036828  0.4070133268666680   F   F   F
  0.5016473622614512  0.3712419246590244  0.5949133522979437   F   F   F
  0.5001709013746876  0.1223580214661908  0.6063600535058811   F   F   F
  0.1664534845274233  0.8732657894472950  0.6182964026499747   F   F   F
  0.1635198117192758  0.3715078468867361  0.6075436979459354   F   F   F
  0.6652778852770851  0.8810842042058908  0.6073777075712954   F   F   F
  0.6666414114700814  0.6260455711519342  0.5933987620091372   F   F   F
  0.0002380743786077  0.3747824229163612  0.6245485985124972   F   F   F
  0.9997536893194550  0.6228345921063507  0.6258451705541788   F   F   F
  0.8346662352492231  0.1229598668386416  0.6320086508261085   F   F   F
  0.0000000000000000  0.1249999999871179  0.4070133268666680   F   F   F
  0.1677450632226822  0.1226908600663990  0.6223167624457346   F   F   F
  0.7496345608675270  0.0018725748841746  0.6041148518220467   F   F   F
  0.5824438172391382  0.0008509173146152  0.6041364932843152   F   F   F
  0.9167584725300770  0.0003216940565238  0.6038360809500674   F   F   F
  0.5847840992113973  0.7497743394928804  0.5996873350189773   F   F   F
  0.5902838363106042  0.5013625902398644  0.5934904365288958   F   F   F
  0.2426530241479199  0.4977668671589512  0.5940731147349396   F   F   F
  0.4167140237398215  0.7503591657406972  0.5942314592165587   F   F   F
  0.5846956847544718  0.2477412861630555  0.5970825564271962   F   F   F
  0.2497534349756947  0.9976911570118290  0.6042065810809518   F   F   F
  0.7549115288661454  0.2474680869660943  0.5929730800835884   F   F   F
  0.2493086038714623  0.2456445563070844  0.6035762284595947   F   F   F
  0.4170944739582652  0.0000811466727129  0.6047421906788983   F   F   F
  0.4148350451056615  0.2486356882825262  0.5912230461211152   F   F   F
  0.2496721742402528  0.7528776664140509  0.5920505145356287   F   F   F
  0.0838580274554985  0.2481704035364771  0.6035608815898925   F   F   F
  0.4169989169993400  0.6260655740212044  0.5009808125000177   F   F   F
  0.0820898286381748  0.3747652045381002  0.5060581850589330   F   F   F