Au  C  O Sr Ti 
 1.0000000000000000
    23.6707801818999997    0.0000000000000000    0.0000000000000000
     0.0000000000000000   22.3170261383000010    0.0000000000000000
     0.0000000000000000    0.0000000000000000   30.0000000000000000
 Au  C   O   Sr  Ti 
  50   2 265  72  72
Selective dynamics
Cartesian
 16.9367853182696741 11.7066563229017966 22.5885864148148876   F   F   F
 13.1207574291308511  4.7552484272777571 21.3444298138979356   F   F   F
 14.6992127197820519 12.7408122096603496 21.1179360353487446   F   F   F
 17.0818565657862962  5.7300196716405623 20.7474534798483639   F   F   F
  6.9473497349473625 16.6673378151706153 20.9160700908134771   F   F   F
 12.1179514458937074 13.4638863982998380 23.3036187658844831   F   F   F
 13.6949995191636464 16.1965697523471377 23.8179478650067473   F   F   F
  5.6933929087002291 10.4767496168349048 21.2763988821025940   F   F   F
  6.7477666734384298 14.7775914210266226 22.9379902873916564   F   F   F
 14.1528887252216986  6.5338547681868553 23.5536649166189527   F   F   F
 12.1730362617781491 10.8074816776593003 20.3395071030919645   F   F   F
 13.3281646877647226 10.8482246689646136 22.8646917089060757   F   F   F
 12.9467861178155026  8.6495283922610877 24.8630859522442158   F   F   F
 18.0687577826783752  9.6096964474135529 21.1331768158660260   F   F   F
  9.2732093006914074 18.2367468035597255 21.1951589809820184   F   F   F
 10.9778057987603432 15.5151780850464451 24.8978273075142127   F   F   F
 10.3658052433756254  5.0658330388992878 20.9299332094983903   F   F   F
  8.7559630721125536  6.6665798906275224 22.6645803524579073   F   F   F
  8.2715585264500859 11.1512046119941797 20.9322273637560770   F   F   F
 10.1296518965801123  8.2989609321621547 24.4867337647902872   F   F   F
 14.1182934592782487 17.5097088739919577 21.3901719209690349   F   F   F
 15.0267724875344726 13.0310824446317355 24.0022013189651808   F   F   F
  6.8500873559664317 12.0082357738338903 23.3257561080598173   F   F   F
 11.4509202768162268  6.0197645234203607 23.2557052323792952   F   F   F
 10.7038899958724727 12.9345851813588038 21.0825372750454072   F   F   F
 10.9493772882839906 12.8034303658372313 25.9208181976358567   F   F   F
 16.7238401544897108 16.8902868650497773 20.6509600768434929   F   F   F
 15.5192383390685045  9.8288497293211172 24.3698863443991698   F   F   F
  8.7174016288410918 13.8132286321158126 24.6078593292807817   F   F   F
 13.4820881268450439 11.3845662454138257 25.7065775153527625   F   F   F
 15.6605355525653067  4.4161969178096676 22.6036511551909811   T   T   T
 11.1159339621081408 10.0770818662148312 26.4064172112792654   F   F   F
 12.2495493565305935  8.4137586721449313 21.9762549972582448   F   F   F
  6.6786096944924367  7.5850516038685907 21.0689927516727309   F   F   F
 15.8465503722039589 15.2003326275372217 22.4636153901984059   F   F   F
  9.4123225074759471  8.5186236225242347 20.7018142925027604   F   F   F
 17.3456786696277767 13.7158440268793260 20.8215714947153039   F   F   F
 14.6034228111623907  7.1462344940673459 20.8822921339914451   F   F   F
  7.7010166456907179  9.2557009483424881 23.0777470144204671   F   F   F
  9.8305799974371357 15.5139710334372776 20.9835027783675727   F   F   F
 16.5867059949576081  7.6606694294962061 22.7184587146855250   F   F   F
 18.3148816557523979  9.5592940117711898 23.8327766293502243   F   F   F
  6.0788633986297116 13.2305865831666303 20.8373219730503578   F   F   F
 15.3484864324373174  9.9387897060325265 20.8355428167045211   F   F   F
 13.3653913030647153 14.2712775636437801 25.8315063803018532   F   F   F
 12.7854733022299332 14.9039747032104888 21.0521754075280931   F   F   F
 10.5044116291132870 10.5646382351067096 22.6827854961911690   F   F   F
  8.8545019359586128 16.5084717661244689 23.3634910056613343   F   F   F
  8.8826589118440094 11.0047787789308043 24.9777154158433135   F   F   F
 11.4987583450140889 17.3006106820189558 22.6343654577735904   F   F   F
 18.1609240692989857  2.8228129782015912 22.1543611489146315   T   T   T
 17.0497664943240252  3.0776255333383644 22.8029320088480318   T   T   T
  9.8078837104675607 18.1157439288518454 16.4386917029701998   F   F   F
 17.7313129954065118 15.3689081224473885 13.7234922414727567   F   F   F
 17.7503574238329485  9.7798373596620447 13.6717360787738844   F   F   F
 17.7710640670733113  4.2303688912151545 13.6584859120562356   F   F   F
  9.8747210123432811 20.8848261805439854 13.6208972679657432   F   F   F
  9.8738008860093593 15.2811367171654595 13.6411303945854598   F   F   F
  9.8575068251775537  9.7180256075422431 13.6143751245530726   F   F   F
  2.0009370973472058 15.3289771749788102 13.5928419977707833   F   F   F
  1.9855335138855470 20.9033276500155161 13.6051279875032520   F   F   F
  1.9593370265654251  9.7475087455350184 13.5854712066450993   F   F   F
  1.9851552512510489  4.1638628869397927 13.5889247979505683   F   F   F
 19.1927500758265168  2.4344041477672271 21.6978011361495362   T   T   T
  1.9725650740000149  6.9740706679999214 10.8156001569999933   F   F   F
 21.6854221285778479 12.5459360553530388 13.6222216886363938   F   F   F
 21.6899942909095245  1.3809882752448017 13.6260641153780693   F   F   F
 21.6876811106263716  6.9663428794646673 13.6164583158909895   F   F   F
  9.8731381117788981  4.1762275697421893 13.6052165310932978   F   F   F
  5.9671350318052641 15.3457229174620142 13.6831220749929585   F   F   F
 21.6943409187737863 20.9068439856566393 13.6053692771362194   F   F   F
 13.7926647383178818  4.2473013989083350 13.6669939966382881   F   F   F
  0.0039091144649261  2.7883663764330686 14.9496368025501756   F   F   F
 13.7971772702577233 18.0909066768021134 13.6578430818258862   F   F   F
  0.0010681351077268  8.3338023404423485 14.9521855246618713   F   F   F
 23.6673948763448259 13.9953734328943007 14.9311615894425547   F   F   F
  7.8970816852741139  2.8044204767847409 14.9549652267159239   F   F   F
  0.0025295031745513 19.5319300894039998 14.9895024814936164   F   F   F
  7.8917900032388593 19.4972702705475456 14.9766396804377226   F   F   F
 15.7638068661858188  2.8196991724069331 14.9675084765878879   F   F   F
  5.9452375106676092  9.8031781803459186 13.6477094565578128   F   F   F
 17.7412852944219921 20.9425205693337340 13.6598904472838267   F   F   F
  5.9144311345437899  4.2067150317237578 13.6230065840546732   F   F   F
 21.7281074190920762  1.4109104154066578 16.4257588609209755   F   F   F
  7.9443376363037350 13.9657226807652783 15.1130654971083445   F   F   F
 13.7938344848589161 20.9146229361164693 13.6297985317003310   F   F   F
 13.7955404481493531 15.3129896567648611 13.6382642852257110   F   F   F
 13.7951958107342278  9.8112003825833103 13.6919289015018535   F   F   F
  5.9188345229136816 20.8905449645746586 13.6209608302494960   F   F   F
 15.7504761414449455 13.9694383444984442 15.0899849760142519   F   F   F
 13.8353316614686328 12.5610866695858068 13.6449455906829868   F   F   F
 13.8050662917372353  1.4203262862656609 13.6150133360150125   F   F   F
 21.6982156369999721 15.3429554700000619 10.8156001569999933   F   F   F
 21.6982156369999721  9.7636982699999884 10.8156001569999933   F   F   F
 21.6982156369999721  4.1844424010000720 10.8156001569999933   F   F   F
 13.8079546360000549 20.9222120050000342 10.8156001569999933   F   F   F
 13.8079546360000549 15.3429554700000619 10.8156001569999933   F   F   F
 13.8079546360000549  9.7636982699999884 10.8156001569999933   F   F   F
 13.8079546360000549  4.1844424010000720 10.8156001569999933   F   F   F
  1.9725650740000149 12.5533272030000536 10.8156001569999933   F   F   F
  5.9176950450000287 20.9222120050000342 10.8156001569999933   F   F   F
  5.9176950450000287 15.3429554700000619 10.8156001569999933   F   F   F
  5.9176950450000287  4.1844424010000720 10.8156001569999933   F   F   F
 17.7530837259999217 20.9222120050000342 10.8156001569999933   F   F   F
 17.7530837259999217 15.3429554700000619 10.8156001569999933   F   F   F
 17.7530837259999217  9.7636982699999884 10.8156001569999933   F   F   F
 17.7530837259999217  4.1844424010000720 10.8156001569999933   F   F   F
  9.8628241350000643 20.9222120050000342 10.8156001569999933   F   F   F
  9.8628241350000643 15.3429554700000619 10.8156001569999933   F   F   F
  9.8628241350000643  9.7636982699999884 10.8156001569999933   F   F   F
  5.9176950450000287  9.7636982699999884 10.8156001569999933   F   F   F
  1.9725650740000149  1.3948141340000613 10.8156001569999933   F   F   F
 21.6679951065610368 15.3251764450090366 13.5955375202684188   F   F   F
 15.7554998342487345  8.4460404154836208 15.0937946362141666   F   F   F
  7.9143953480973188  8.4459605827174808 15.0887964837308068   F   F   F
 21.6982156369999721 20.9222120050000342 10.8156001569999933   F   F   F
 21.6982156369999721  1.3948141340000613 10.8156001569999933   F   F   F
 17.7394818861335786 18.1475715762854470 13.5914511465017522   F   F   F
  5.9302044803278902  1.3838423130097983 13.6273343580491151   F   F   F
 13.8079546360000549 18.1325837370000720 10.8156001569999933   F   F   F
 13.8079546360000549  6.9740706679999214 10.8156001569999933   F   F   F
 13.8079546360000549  1.3948141340000613 10.8156001569999933   F   F   F
  5.9176950450000287 18.1325837370000720 10.8156001569999933   F   F   F
  5.9176950450000287 12.5533272030000536 10.8156001569999933   F   F   F
  5.9176950450000287  6.9740706679999214 10.8156001569999933   F   F   F
  5.9176950450000287  1.3948141340000613 10.8156001569999933   F   F   F
 17.7530837259999217 12.5533272030000536 10.8156001569999933   F   F   F
 17.7530837259999217  6.9740706679999214 10.8156001569999933   F   F   F
 17.7530837259999217  1.3948141340000613 10.8156001569999933   F   F   F
  9.8628241350000643 18.1325837370000720 10.8156001569999933   F   F   F
  9.8628241350000643 12.5533272030000536 10.8156001569999933   F   F   F
  9.8628241350000643  6.9740706679999214 10.8156001569999933   F   F   F
 17.7530837259999217 18.1325837370000720 10.8156001569999933   F   F   F
  1.9778312035706127  6.9638891167266612 13.6192123195747623   F   F   F
  9.8628241350000643  1.3948141340000613 10.8156001569999933   F   F   F
  9.8676160609381256  1.3734083793212024 13.6606222486808306   F   F   F
  1.9774127939061663 18.1219762391970605 13.6254409517692423   F   F   F
  1.9873449413521360 12.5530628825016066 13.6166154851924315   F   F   F
  9.8486515533004617 12.4865969367174809 13.7361121358543308   F   F   F
  1.9829270276987141  1.3807746717095031 13.6249740629753155   F   F   F
  9.8368873339739995  6.9484530665320081 13.7211919393254131   F   F   F
 19.7256482699999580 16.7377696039999648 12.2103998060000407   F   F   F
  1.9725650740000149  9.7636982699999884 10.8156001569999933   F   F   F
  1.9725650740000149 15.3429554700000619 10.8156001569999933   F   F   F
  1.9725650740000149 20.9222120050000342 10.8156001569999933   F   F   F
  9.8628241350000643  4.1844424010000720 10.8156001569999933   F   F   F
  1.9725650740000149 18.1325837370000720 10.8156001569999933   F   F   F
 19.7256482699999580 11.1585130689999925 12.2103998060000407   F   F   F
 17.7402250870324103  1.4292045676966845 13.5995119365640615   F   F   F
 21.6823436298063719  4.1650517790772073 13.5891933780555831   F   F   F
 13.8079546360000549 12.5533272030000536 10.8156001569999933   F   F   F
  0.0000000000000000 16.7377696039999648 12.2103998060000407   F   F   F
 21.6678697910666855  6.9798016383345809 16.4022096561113493   F   F   F
  5.9710910304011220  7.0105711986541941 13.6245866833283777   F   F   F
  5.9622284625324600 12.6001848550853595 13.6125796870919551   F   F   F
 19.7256482699999580  5.5792565349999723 12.2103998060000407   F   F   F
 13.8324631249442103  7.0400904199547067 13.6072364441888762   F   F   F
 19.7256482699999580  0.0000000000000000 12.2103998060000407   F   F   F
 11.8353900909999528 11.1585130689999925 12.2103998060000407   F   F   F
  1.9725650740000149  4.1844424010000720 10.8156001569999933   F   F   F
  0.0000000000000000  0.0000000000000000 12.2103998060000407   F   F   F
  0.0000000000000000  5.5792565349999723 12.2103998060000407   F   F   F
  0.0000000000000000 11.1585130689999925 12.2103998060000407   F   F   F
 17.7116964676783653 12.5926966895262744 13.6145556735992486   F   F   F
  7.8902602960000570  0.0000000000000000 12.2103998060000407   F   F   F
  7.8902602960000570 11.1585130689999925 12.2103998060000407   F   F   F
  7.8902602960000570 16.7377696039999648 12.2103998060000407   F   F   F
 15.7805205919999434  0.0000000000000000 12.2103998060000407   F   F   F
 15.7805205919999434  5.5792565349999723 12.2103998060000407   F   F   F
 15.7805205919999434 11.1585130689999925 12.2103998060000407   F   F   F
 15.7805205919999434 16.7377696039999648 12.2103998060000407   F   F   F
  3.9451301480000271  0.0000000000000000 12.2103998060000407   F   F   F
  3.9451301480000271  5.5792565349999723 12.2103998060000407   F   F   F
  3.9451301480000271 11.1585130689999925 12.2103998060000407   F   F   F
  3.9451301480000271 16.7377696039999648 12.2103998060000407   F   F   F
 11.8353900909999528  0.0000000000000000 12.2103998060000407   F   F   F
 11.8353900909999528  5.5792565349999723 12.2103998060000407   F   F   F
 11.8353900909999528 16.7377696039999648 12.2103998060000407   F   F   F
 21.6982156369999721  6.9740706679999214 10.8156001569999933   F   F   F
  7.8902602960000570  5.5792565349999723 12.2103998060000407   F   F   F
 17.6902298547298322  7.0076441672652088 13.6454311717218992   F   F   F
  9.8635843911015826 18.0745796032579555 13.6542909992576966   F   F   F
 21.6805811612651560  9.7502645708943323 13.6076907646366081   F   F   F
  5.9254295104989811 18.0949596393222372 13.6589024934106025   F   F   F
 17.6981748040912770  1.3378951993367401 16.3336350742465584   F   F   F
 17.7983890426675622  9.7155800224047795 16.4668646934791703   F   F   F
 10.0155509871701831  9.9072381376159733 16.3653540398142958   F   F   F
 10.0135542528750658 15.3565374649831501 16.3985755826368766   F   F   F
 17.6989498992962453  4.1324721727137899 16.4830364382189849   F   F   F
  9.8427654551707437 20.9118855576293470 16.3809194506822955   F   F   F
 11.8025108889359487  5.6442879257449254 17.7189331252084408   F   F   F
  9.8405503705011963  4.2732485573268937 16.3944944184483070   F   F   F
  2.0360790047307709 15.3809732064770550 16.3612860997068772   F   F   F
  1.9617858749805939  9.7951115885559101 16.3459184165060094   F   F   F
  1.9772930030359037  4.2158712447965971 16.3632130384734857   F   F   F
 11.8228722664537305  2.8040365824114044 14.9865409740145861   F   F   F
 23.6649568529479986 11.1446786683869181 17.8255869567367888   F   F   F
 13.7444211704427861  4.1282353692331730 16.5039322491609326   F   F   F
 23.6669347914362938 16.8086614292843421 17.7700382748791341   F   F   F
  7.9066263843164677 22.3136681749085426 17.7599867358142234   F   F   F
  0.0063065039614441 22.2746875316708532 17.7739563174869204   F   F   F
  0.0292245433413494  5.5843759437235772 17.7559580243368416   F   F   F
  7.8893287150022324 11.0779599691591848 17.7264810791330696   F   F   F
  7.9394405047708334 16.5406371275422970 17.7149675717934159   F   F   F
 15.7009825298213403  5.5208195453063986 17.7207767079681204   F   F   F
 15.7610991769771474  0.0048507253046946 17.7567303513105301   F   F   F
 15.7592904801187768 16.5447309773143161 17.7135317794623504   F   F   F
 15.7802866276092466 11.0394499790406702 17.7376956709828555   F   F   F
  3.9653675147947811 22.2791399800232881 17.7696755925736269   F   F   F
  3.9894871041573579  5.5415834501904815 17.7900826572774307   F   F   F
  4.0420380906825892 16.7386551932825824 17.8505982168672226   F   F   F
  5.8818700401079020  9.7260142944797963 16.4740443316312266   F   F   F
  3.9234648545269803 11.2201433534073178 17.6220404713424124   F   F   F
  7.9211468591821959  5.6795159095781269 17.7790975094023906   F   F   F
 17.7988362446967265 15.1806719885516532 16.5994990008510186   F   F   F
 17.7434559956890858 20.8507549037909392 16.4270356409715603   F   F   F
  5.8977747744867335 15.2458616778934619 16.5601579984627563   F   F   F
  1.9986671699473042 20.9415373584690450 16.3783510808716279   F   F   F
  3.9549816739806110  2.7741176157344500 14.9796409333561922   F   F   F
  5.9435203829714736  1.3952476028397209 16.4178750629360621   F   F   F
 17.6720102528542462 12.4533644491095394 16.3435019315843206   F   F   F
 17.7078746171839398 18.0333779396306824 16.3685192309078538   F   F   F
  5.9005484161277995  7.0011746692573755 16.3772874130812340   F   F   F
 13.7967597931000583  6.9398909431631388 16.3465433643627378   F   F   F
  5.9895155052097886 18.1334966825691595 16.5208587683782291   F   F   F
 13.7986273348126822  1.3792252233639817 16.3626620419570692   F   F   F
 13.8698379732531585 18.1733561829146346 16.5118395336162358   F   F   F
 17.7156535352297837  6.9598047767390749 16.4577127900709961   F   F   F
 13.7560073144780741 12.4983864430386600 16.4657607137319815   F   F   F
  5.9781656300624215 12.4771011177800446 16.3175810678032107   F   F   F
  9.8463563541678809  7.1351289693788047 16.5770925024664209   F   F   F
 13.6512904898145742  9.7250471569538330 16.5636027610273437   F   F   F
 11.8260342743599303  0.0002520919666300 17.7291049738595561   F   F   F
  9.8588135317706680  1.4587056554964752 16.4198155204593412   F   F   F
  1.9374299184423185 12.5941427600713833 16.3897283673874163   F   F   F
  2.0525141769994066  6.9972314329374425 16.4108482776343649   F   F   F
  1.9488201474338938  1.4105297869447229 16.4273172381540000   F   F   F
 21.6633946955780985 20.9452615444959243 16.3882572567452875   F   F   F
 21.6356892549455466 15.3764674998389701 16.3606042204459783   F   F   F
 13.8193639772586607 20.9267491774261316 16.3838250433355128   F   F   F
 21.7263433112940412  4.2264296090127331 16.3517252761238190   F   F   F
 21.6761973650154545  9.7666485329146795 16.3696910848228541   F   F   F
 13.7182060042981160 15.3121775508624509 16.4224774865955325   F   F   F
  5.9544763978049193 20.9178462432934538 16.3564563204985838   F   F   F
 11.7760437605509729 11.2565708714852022 18.2655322357199239   F   F   F
 21.7233735677512172 12.5837919611386688 16.4145214323079642   F   F   F
  9.9431506094120046 12.6101562140676382 16.6592364201896075   F   F   F
 21.6714653376243760 18.1383603643614251 16.4054973132167063   F   F   F
  2.0144992944315048 18.1347648973699869 16.4195551722937587   F   F   F
 19.7097836986685948 19.5084589769794512 14.9574858020651362   F   F   F
 21.6957427928512061 18.1222455958825392 13.6215729333250160   F   F   F
 19.7054610847042966  0.0803729053887501 17.8048151103650270   F   F   F
 17.8568260971935651  9.6675560540236347 19.1351101375501607   F   F   F
  9.8819941647846079 20.8636959566300355 19.1936078768911997   F   F   F
  9.9518477653975186 15.0786816118659281 19.0051881037133974   F   F   F
 13.9939951860690623 18.0769130002172886 19.3819707466258642   F   F   F
 21.7636890569396755  1.3663614372629651 19.2844496477554088   F   F   F
 21.6198007455024381 12.5473575608508483 19.2345431922655941   F   F   F
 21.6618486892249926  6.9569644042148600 19.1823758769927792   F   F   F
 21.6354137396347959 18.1428308307908992 19.2527777711666594   F   F   F
 13.7810749569647957  1.4805630181723919 19.1605460022939837   F   F   F
 13.8171554335316760  7.1598026143573943 19.0030573424673079   F   F   F
 13.9815565801432005 12.6306456620724727 19.1627341602169103   F   F   F
  5.8628514319736862 12.8051590820695846 18.8655146667789921   F   F   F
 17.8409620102045459 15.4411013813460247 19.7117724358768811   F   F   F
  6.1998677163452811 17.8455215051385032 19.3896493837082033   F   F   F
 17.6614342046513784  4.3202851407952485 19.3774722368978196   F   F   F
 21.6982156369999721 12.5533272030000536 10.8156001569999933   F   F   F
 11.8343215329919111 19.4903854103057270 15.0298843562823876   F   F   F
 11.8428609088553216 13.8626636404036976 15.0009865998369207   F   F   F
 19.7038457515900198 13.9045375321849214 15.0006794672477000   F   F   F
  5.9650324703399429  4.2005051472200821 16.4149974393237557   F   F   F
 19.7061726696520694  8.3262160544418240 14.9922540543837108   F   F   F
 19.7166393991991313  2.7744852543297354 14.9794956376157966   F   F   F
  3.9471260392514389  8.3971118674183742 14.9325459667361784   F   F   F
  3.9701903633561093 13.9321060831322310 15.0027252201699230   F   F   F
 13.7621897927210188  9.7969397194297834 19.3825690627414673   F   F   F
 13.6877421515812969 15.3064300164740192 19.1869559465592552   F   F   F
 21.7400480114748653  4.1689970655091670 19.2258459989276851   F   F   F
  5.8979755566339360  7.0556293255038485 19.2372903613266821   F   F   F
  3.9716807056828940 19.4881042165923049 14.9948316279477361   F   F   F
 17.7227317994163229 20.9054186817817325 19.1907104477778034   F   F   F
 11.8260727547744402  8.3524255361856543 14.9927998811962144   F   F   F
  6.0021772709515968  4.1612777796062570 19.2366943451949766   F   F   F
  5.9416194290822189  1.3256317709849088 19.2698085775744232   F   F   F
 19.6574664215878236 16.7582901500433969 17.7849209096856704   F   F   F
  9.8875924501969017  1.4535489557619203 19.2017575181583773   F   F   F
 13.7687500244921672 20.8787174862060461 19.1769475781823253   F   F   F
 11.8543863106862659 16.8780247567590678 17.7825305618151042   F   F   F
 10.1054647887505276  6.7939720514099147 19.6625415866416340   F   F   F
  9.7733414878435489 18.1348543669255626 19.1902194534026691   F   F   F
  9.4043161945713045 12.2858991063678875 19.5568878218965203   F   F   F
 17.8335552121882621 12.6792755910275705 19.0736964904446040   F   F   F
 17.5435867481324159 18.0714226003262048 19.2002498630593266   F   F   F
 17.6702364179997886  6.9381395307920624 19.2299710143992080   F   F   F
  1.9990974503070138  6.9542614752561702 19.2169820113477208   F   F   F
 15.7766708125729700 19.5118703233077113 14.9636183616732303   F   F   F
  2.0558978072139849 12.5581226913297570 19.2051074039865100   F   F   F
  1.9917705608962097  1.3423291287276531 19.2612102440447792   F   F   F
  2.0633887102955462  9.7426807545043435 19.1915073555513871   F   F   F
  1.9803682022469435  4.1433288123077618 19.2272341467750039   F   F   F
 17.6542786444896365  1.4829878107558205 19.1940982346529303   F   F   F
 13.7063239154934955  4.2862566958944415 19.3701297540931030   F   F   F
  9.8937404364628208  4.1810880621005504 19.1883282748020036   F   F   F
 21.6982156369999721 18.1325837370000720 10.8156001569999933   F   F   F
  1.9984002896641631 18.1280726887253039 19.2683381594771568   F   F   F
  5.9671780872898257 20.7602909650773668 19.1214207518610060   F   F   F
 19.6967570091481079  5.5287862898272815 17.7462243233760972   F   F   F
  6.0241975505892880 15.1203697062862066 19.9062491979002196   F   F   F
 19.7218814971953407 11.2126547790617810 17.6698945841062915   F   F   F
  5.7004551969406050  9.8650413777621679 19.2502718241793254   F   F   F
 21.6934729449027266 15.3373227103105467 19.1649666703394921   F   F   F
 21.5988436730854865  9.7302951391187342 19.1964257296346581   F   F   F
  1.9678391338868613 15.3317553085662510 19.1688472065943145   F   F   F
  1.9983563061322724 20.8750868925370732 19.2276438188763557   F   F   F
  9.8296495012845941  9.3478854010915970 18.8943213801962244   F   F   F
 21.6521821353496655 20.9028177985924088 19.2174926858641086   F   F   F
 19.7256482699999580 13.9481413360000008 12.2103998060000407   F   F   F
  0.0330571871877720  2.7395918574332079 18.5518723333986451   F   F   F
  3.9308716938394519  0.0242404193141509 15.1964895604159977   F   F   F
  3.8945452930424875 16.7687494345136336 15.1026206561576046   F   F   F
 11.8618140726194206 16.8006166762770413 15.1151435976387667   F   F   F
  3.9451301480000271  8.3688848019999824 12.2103998060000407   F   F   F
 23.6640291933912614 11.1618495038602017 15.2050797596407801   F   F   F
 15.7912191663856536  5.5301200580986549 15.0842470634315475   F   F   F
  7.8158124477489377  5.5348246318004861 15.0838226773053723   F   F   F
  7.8862522597704210  0.0253189495832376 15.1732781538188721   F   F   F
  7.9038804871617652 16.7622993743864761 15.0466184701647236   F   F   F
 15.8287515969246080 11.1520199887570275 15.0205670574459198   F   F   F
 15.7628646082885755  0.0007203089161380 15.1614428273838282   F   F   F
  7.8406858518280966 11.1402575654691116 15.0281242794811440   F   F   F
 11.8651154310997597 11.1533428168873865 15.0072003428410703   F   F   F
 19.7869796582911910  5.5331124757537307 15.0903089938527053   F   F   F
 15.7805205919999434 13.9481413360000008 12.2103998060000407   F   F   F
  3.9392561862171802  5.5377840112443319 15.1839463203364389   F   F   F
  0.0000000000000000 19.5273965409999306 12.2103998060000407   F   F   F
 11.8637225832348641  5.5314071676109124 15.0651312024102033   F   F   F
 23.6687357089556798 16.7593062219264652 15.1961572582006674   F   F   F
  0.0232185682099088  5.5766573379033320 15.1741405542343291   F   F   F
  0.0030945530674227 22.3101182786072165 15.1930597211061791   F   F   F
 19.7256482699999580 19.5273965409999306 12.2103998060000407   F   F   F
  0.0000000000000000 13.9481413360000008 12.2103998060000407   F   F   F
  7.8902602960000570 13.9481413360000008 12.2103998060000407   F   F   F
  7.8902602960000570  2.7896282670000101 12.2103998060000407   F   F   F
  7.8902602960000570  8.3688848019999824 12.2103998060000407   F   F   F
 19.7474036011725040  0.0179702385073263 15.2142056686376872   F   F   F
  7.8902602960000570 19.5273965409999306 12.2103998060000407   F   F   F
 15.7805205919999434  2.7896282670000101 12.2103998060000407   F   F   F
 15.7805205919999434  8.3688848019999824 12.2103998060000407   F   F   F
 19.7909270643956248 11.1571476621265901 15.0841426198614919   F   F   F
  3.8747110655588650 11.1556787863788909 15.0623114510546028   F   F   F
 15.7502423045291220 16.7811655063244949 15.0658209376183514   F   F   F
 15.7805205919999434 19.5273965409999306 12.2103998060000407   F   F   F
  7.7189438625312263  8.3345333141171523 17.7806617775929006   F   F   F
  0.0000000000000000  8.3688848019999824 12.2103998060000407   F   F   F
  7.9094917317390276 13.9342951999543185 17.8516714920189514   F   F   F
 11.8353900909999528 19.5273965409999306 12.2103998060000407   F   F   F
 19.7256482699999580  2.7896282670000101 12.2103998060000407   F   F   F
 19.7256482699999580  8.3688848019999824 12.2103998060000407   F   F   F
  3.9451301480000271  2.7896282670000101 12.2103998060000407   F   F   F
 19.7893266948940472 16.7750498495158098 15.0780966444664948   F   F   F
 19.8719820084016590 13.9899989229714858 18.1160632259569248   F   F   F
  7.8509584800682539  2.6735802401867454 18.3994168738591348   F   F   F
 23.6535955911803910 19.5207570996442428 18.6807686909562385   F   F   F
 11.8353900909999528  2.7896282670000101 12.2103998060000407   F   F   F
 19.6963371593343624 19.5446745347200945 18.5577754374324684   F   F   F
 19.8270068792136556  8.3104777196417476 18.1047495883752774   F   F   F
 11.8398621630707499 22.3019897815660819 15.1637158280985549   F   F   F
 11.8490663424473670 19.5657632949154667 18.2825745791866687   F   F   F
 15.7407298288273285  2.7826979119117596 18.3336486801395040   F   F   F
 11.8353900909999528 13.9481413360000008 12.2103998060000407   F   F   F
 11.9243878357217117 13.9472366179378273 17.8214542001598986   F   F   F
 11.8353900909999528  8.3688848019999824 12.2103998060000407   F   F   F
  3.9451301480000271 13.9481413360000008 12.2103998060000407   F   F   F
 15.8871868843939001  8.3028299898593296 17.8049463546013662   F   F   F
  7.9204022999866170 19.6073132264347549 18.0889896709226221   F   F   F
  3.7799678811808506 14.0000866594909166 18.0469436332464106   F   F   F
  3.9451301480000271 19.5273965409999306 12.2103998060000407   F   F   F
 11.8743844409207480  8.2850157362482797 17.8474005689382942   F   F   F
 11.8394354598230880  2.7306671632915882 18.1908016051764498   F   F   F
  3.9400838427599774 19.4886954487784081 18.5488920794993355   F   F   F
  3.8706415185926173  8.2909503295549154 18.2263109383780844   F   F   F
 15.7476465822732141 19.6631792153060481 18.2213312271387622   F   F   F
 15.7799223110598010 13.9714753751646725 17.8019628602740809   F   F   F
  0.0056354062829440  8.3640291283998476 18.7364579553748918   F   F   F
 23.6649498159244338 13.8998158718748144 18.7753551166254304   F   F   F
 19.7572009798383554  2.7440985621998522 18.9602595247832824   F   F   F
  0.0000000000000000  2.7896282670000101 12.2103998060000407   F   F   F
  3.9706565181431039  2.7380951310322650 18.6695028733720960   F   F   F
 17.7444349070504295  0.0417903026360263 18.1234455546614726   F   F   F
 13.7868995661744034  0.0189899439518776 18.1240947985295477   F   F   F
 21.7003882831538064  0.0071792546679707 18.1150824285021237   F   F   F
 13.8422958663034201 16.7327335322891955 17.9906200505693619   F   F   F
 13.9724789342368751 11.1889220311489108 17.8047130958668447   F   F   F
  5.7437863950786827 11.1086761851660452 17.8221934420482953   F   F   F
  9.8639460546603033 16.7457851149481023 17.8269437764967336   F   F   F
 13.8402030271286804  5.5288487588369435 17.9124766928159964   F   F   F
  5.9118586589840465 22.2654996289837328 18.1261974324284623   F   F   F
 17.8693448565726385  5.5227517652173823 17.7891924025077195   F   F   F
  5.9013291596978101  5.4820559838362950 18.1072868537879366   F   F   F
  9.8729516081512418  0.0018109524159409 18.1422657203670425   F   F   F
  9.8194691644446301  5.5488091543153173 17.7366913836335343   F   F   F
  5.9099351539780782 16.8019905603047022 17.7615154360688017   F   F   F
  1.9849849343868591  5.5384253824760652 18.1068264476967542   F   F   F
  9.8706897003818135 13.9719217797210931 15.0294243750005645   F   F   F
  1.9431302888641486  8.3636448654022004 15.1817455517680155   F   F   F