Au  C  H  O Sr Ti                       
   1.00000000000000     
    23.6707801818999997    0.0000000000000000    0.0000000000000000
     0.0000000000000000   22.3170261383000010    0.0000000000000000
     0.0000000000000000    0.0000000000000000   30.0000000000000000
   Au   C    H    O    Sr   Ti
    50     3     7   264    72    72
Selective dynamics
Direct
  0.7160288761044455  0.5238128081519235  0.7526824635000153   F   F   F
  0.7200197619750881  0.2535603271259887  0.6918907869115429   F   F   F
  0.2936394624171115  0.7461850851370571  0.6968907867882734   F   F   F
  0.5118281794532962  0.6034394997942627  0.7768233181224034   F   F   F
  0.5783498737150978  0.7256259027622534  0.7939738350462591   F   F   F
  0.2404563335857119  0.4695788840266317  0.7091667537119477   F   F   F
  0.2854896973645609  0.6621510206831616  0.7646252539762841   F   F   F
  0.6012664284568956  0.2845744941143806  0.7838422384672654   F   F   F
  0.5144263355321996  0.4843322219867474  0.6780519326488061   F   F   F
  0.4849643065687133  0.2706829836491949  0.7748937873388400   F   F   F
  0.2894957490054608  0.5380569127438264  0.7775260074132220   F   F   F
  0.7629827760792267  0.4292069978807973  0.7038979261834086   F   F   F
  0.5630142479807034  0.4856959886110843  0.7623561447817622   F   F   F
  0.4639173353961539  0.6949817921708998  0.8308124367061254   F   F   F
  0.4367005633590750  0.2276224144955705  0.6977867080175528   F   F   F
  0.3694176632902995  0.2987121009435327  0.7555117499959465   F   F   F
  0.3495512946672292  0.4994880814770326  0.6977625330591977   F   F   F
  0.4279034777175212  0.3710308400451581  0.8155063852514672   F   F   F
  0.5964203578259770  0.7845320552836839  0.7130287302197900   F   F   F
  0.6353845179157176  0.5837410068957354  0.7997319582962703   F   F   F
  0.7326797821820819  0.6144652552764498  0.6941119531146711   F   F   F
  0.4858742745191762  0.7762176124611955  0.7550867173146614   F   F   F
  0.5487569957922105  0.3820030552438780  0.8267030352526632   F   F   F
  0.3915478662688017  0.8167890425867981  0.7066165744775788   F   F   F
  0.7065469479901409  0.7568480306030523  0.6883661737728275   F   F   F
  0.5527669818472773  0.2132612674013856  0.7095003163107805   F   F   F
  0.3252631241186918  0.4150047972244835  0.7693958754902184   F   F   F
  0.6559011780581798  0.4400067288991778  0.8122339867767110   F   F   F
  0.3687493670788271  0.6186395300375551  0.8205588506888901   F   F   F
  0.5706409350242296  0.5088973261097962  0.8561441203779054   F   F   F
  0.6622711628247373  0.1827990745513048  0.7469699623995467   T   T   T
  0.4721284137160993  0.4492699603095431  0.8776485264759231   F   F   F
  0.5179028277571263  0.3770257970158610  0.7318651563350542   F   F   F
  0.2818412976078335  0.3405922805460193  0.7022606746270910   F   F   F
  0.4522948179650399  0.5795473504670881  0.7027814177562846   F   F   F
  0.3977313935296465  0.3815703029535271  0.6904566739608811   F   F   F
  0.6211665137775526  0.5705891383432089  0.7041883525326753   F   F   F
  0.4633435611778722  0.5724145277478243  0.8642178738975872   F   F   F
  0.6169464006003977  0.3198560765761016  0.6957805316672037   F   F   F
  0.3746285809914625  0.7393297842053599  0.7790137986114587   F   F   F
  0.6481813280204634  0.4448750276235671  0.6944972218150198   F   F   F
  0.6694190291245476  0.6812259383333199  0.7487759178966371   F   F   F
  0.7001505094095180  0.3420277977849651  0.7571117918811154   F   F   F
  0.7735745358479420  0.4268022933566940  0.7938557442440839   F   F   F
  0.4170134326645609  0.6957918243899925  0.6996170561649961   F   F   F
  0.4439988431726007  0.4733030109999774  0.7563191012596420   F   F   F
  0.5649418162535511  0.6388935512100673  0.8607811339791027   F   F   F
  0.5405513332343332  0.6675301976889116  0.7016896947575262   F   F   F
  0.3757251980814402  0.4929048243403429  0.8328404815360742   F   F   F
  0.2568767533561100  0.5929758379658949  0.6945033030199994   F   F   F
  0.6410380359775374  0.0522264488236388  0.7984995762605536   T   T   T
  0.7200667499413953  0.1121701757828859  0.7588707540923494   T   T   T
  0.6896144130235697  0.0529001107798237  0.7646357564580200   T   T   T
  0.6037767117980977  0.0751782983969420  0.7851933602120766   T   T   T
  0.6283407839174160  0.0063237493154844  0.8062665165694654   T   T   T
  0.6529885063754364  0.0740382600714540  0.8298023641478025   T   T   T
  0.7411727480122821  0.1278104974936625  0.7891153503690660   T   T   T
  0.7227474507973994  0.0216927901199284  0.7760607293167112   T   T   T
  0.6753852518139425  0.0357073007416915  0.7324067195917863   T   T   T
  0.7486042266899133  0.1125609639655493  0.7298584675846578   T   T   T
  0.2522930816629767  0.3141061285893798  0.4541746689339732   F   F   F
  0.2521192397525169  0.6876150600038713  0.4560822940361007   F   F   F
  0.4172177255270881  0.1871149310741700  0.4535494499660544   F   F   F
  0.9161421445652280  0.3121639254568365  0.4538957488245785   F   F   F
  0.5827829017390940  0.3109563636014343  0.5448568938159255   F   F   F
  0.9161184154769302  0.5621741740592228  0.4540469567365264   F   F   F
  0.9165593257125337  0.8121176716598981  0.4540627859225239   F   F   F
  0.0838548603075253  0.1865424021626509  0.4529765864843966   F   F   F
  0.0827911687041762  0.4368004291181862  0.4528790278014512   F   F   F
  0.0838857517319340  0.9366490623377359  0.4534976904094066   F   F   F
  0.0845823597299145  0.6868452084407579  0.4530570913524841   F   F   F
  0.4164656832135876  0.4354534004393926  0.4538416813417498   F   F   F
  0.9164616508275358  0.9371141678354817  0.4536743506000391   F   F   F
  0.0000151122388132  0.1251704978722827  0.4984844397561403   F   F   F
  0.5832820567574828  0.8104821757629708  0.4553439210943324   F   F   F
  0.9999965520006171  0.3733904567702737  0.4984309154775417   F   F   F
  0.9998328164977011  0.6271011916523648  0.4977014565476026   F   F   F
  0.3335748662554110  0.1255586696862281  0.4984925819793418   F   F   F
  0.0000406094649676  0.8751096033919268  0.4995320970105936   F   F   F
  0.3334432724971705  0.8738310815270864  0.4993304401124874   F   F   F
  0.6660774344172040  0.1265441182424780  0.4990948848152925   F   F   F
  0.2511493519804944  0.4392791096258151  0.4549273478513740   F   F   F
  0.0833333358191695  0.5625000000092442  0.3605200052333331   F   F   F
  0.9166666865332829  0.0625000000159659  0.3605200052333331   F   F   F
  0.7493912989025659  0.8131709949371597  0.4530418819766879   F   F   F
  0.2504779897115483  0.0619830845109774  0.4542208677638584   F   F   F
  0.9155329144662971  0.3126548466560664  0.5467337814474291   F   F   F
  0.5827027810042438  0.1902513244072637  0.4555314419210532   F   F   F
  0.5832168197377925  0.0624178475279606  0.5459848153160536   F   F   F
  0.0000000000000000  0.0000000000000000  0.4070133268666680   F   F   F
  0.4170878674558054  0.6848151745609599  0.4547712467201990   F   F   F
  0.4171702235523895  0.9358507566998426  0.4540391352767870   F   F   F
  0.9166666865332829  0.4374999701794380  0.3605200052333331   F   F   F
  0.9166666865332829  0.1875000000030838  0.3605200052333331   F   F   F
  0.5833333134730552  0.9375000000154046  0.3605200052333331   F   F   F
  0.5833333134730552  0.6874999999963620  0.3605200052333331   F   F   F
  0.5833333134730552  0.4374999701794380  0.3605200052333331   F   F   F
  0.5833333134730552  0.1875000000030838  0.3605200052333331   F   F   F
  0.2499999999799343  0.9375000000154046  0.3605200052333331   F   F   F
  0.9166666865332829  0.9375000000154046  0.3605200052333331   F   F   F
  0.2499999999799343  0.6874999999963620  0.3605200052333331   F   F   F
  0.2499999999799343  0.1875000000030838  0.3605200052333331   F   F   F
  0.7499999404149307  0.9375000000154046  0.3605200052333331   F   F   F
  0.7499999404149307  0.6874999999963620  0.3605200052333331   F   F   F
  0.7495665144172747  0.4381281232369076  0.4557300681722438   F   F   F
  0.7499999404149307  0.4374999701794380  0.3605200052333331   F   F   F
  0.2505024996102847  0.8108104884490217  0.4553210333868805   F   F   F
  0.4166666269218169  0.9375000000154046  0.3605200052333331   F   F   F
  0.4166666269218169  0.4374999701794380  0.3605200052333331   F   F   F
  0.2499999999799343  0.4374999701794380  0.3605200052333331   F   F   F
  0.0833333358191695  0.0625000000159659  0.3605200052333331   F   F   F
  0.9153544108747909  0.6867267865088706  0.4531565860275890   F   F   F
  0.6654254678562950  0.3784854784808971  0.5031169107783526   F   F   F
  0.3343315485227976  0.3784585278604453  0.5029554062825241   F   F   F
  0.3355437845499480  0.6256025351733925  0.5037773368957588   F   F   F
  0.9177377280967676  0.0633484183356572  0.5475803816564948   F   F   F
  0.2498711818185697  0.1885015028218007  0.4541112099005957   F   F   F
  0.7495240808512520  0.9383811884002640  0.4553370744036371   F   F   F
  0.7490629341848845  0.6886275772354153  0.4574533938342285   F   F   F
  0.7506521465304203  0.1892815745144958  0.4554733306515288   F   F   F
  0.7499999404149307  0.1875000000030838  0.3605200052333331   F   F   F
  0.2518898075671103  0.5646192950482956  0.4537434743596549   F   F   F
  0.4166666269218169  0.6874999999963620  0.3605200052333331   F   F   F
  0.0819586304715472  0.5643265207393995  0.5463148238065898   F   F   F
  0.2499999999799343  0.3124999999901945  0.3605200052333331   F   F   F
  0.8333332538436267  0.0000000000000000  0.4070133268666680   F   F   F
  0.5833333134730552  0.0625000000159659  0.3605200052333331   F   F   F
  0.2499999999799343  0.0625000000159659  0.3605200052333331   F   F   F
  0.7499999404149307  0.3124999999901945  0.3605200052333331   F   F   F
  0.7499999404149307  0.0625000000159659  0.3605200052333331   F   F   F
  0.4166666269218169  0.8124999999834799  0.3605200052333331   F   F   F
  0.4166666269218169  0.5625000000092442  0.3605200052333331   F   F   F
  0.4166666269218169  0.3124999999901945  0.3605200052333331   F   F   F
  0.7499999404149307  0.8124999999834799  0.3605200052333331   F   F   F
  0.4166666269218169  0.0625000000159659  0.3605200052333331   F   F   F
  0.4168404487645248  0.0615528742060860  0.4553482369397273   F   F   F
  0.0835546556586237  0.8120322071890271  0.4542042005530433   F   F   F
  0.0839509756127654  0.5624575335410213  0.4538993853454869   F   F   F
  0.4160431556262907  0.5594992474582696  0.4578693698349809   F   F   F
  0.0836710891801644  0.0618712204975651  0.4542316800550310   F   F   F
  0.0835064098982556  0.3119330750867704  0.4540637601583413   F   F   F
  0.2492798459549590  0.3137070309127168  0.5459033393249157   F   F   F
  0.8333332538436267  0.7500000000123208  0.4070133268666680   F   F   F
  0.0833333358191695  0.4374999701794380  0.3605200052333331   F   F   F
  0.0833333358191695  0.6874999999963620  0.3605200052333331   F   F   F
  0.0833333358191695  0.9375000000154046  0.3605200052333331   F   F   F
  0.4166666269218169  0.1875000000030838  0.3605200052333331   F   F   F
  0.0833333358191695  0.8124999999834799  0.3605200052333331   F   F   F
  0.8333332538436267  0.4999999999932783  0.4070133268666680   F   F   F
  0.2499999999799343  0.5625000000092442  0.3605200052333331   F   F   F
  0.7483263450319129  0.8080892288968045  0.5457173154603723   F   F   F
  0.7466311772789282  0.5579658277097792  0.5447852359948442   F   F   F
  0.2510613547149347  0.0624590527418789  0.5472776355054876   F   F   F
  0.4155107387230856  0.3113158470710502  0.4573460960787941   F   F   F
  0.4145033914452583  0.8116952490509348  0.5478818270960062   F   F   F
  0.7499999404149307  0.5625000000092442  0.3605200052333331   F   F   F
  0.9166666865332829  0.6874999999963620  0.3605200052333331   F   F   F
  0.2499999999799343  0.8124999999834799  0.3605200052333331   F   F   F
  0.5833333134730552  0.3124999999901945  0.3605200052333331   F   F   F
  0.5000000000021103  0.4999999999932783  0.4070133268666680   F   F   F
  0.0833333358191695  0.1875000000030838  0.3605200052333331   F   F   F
  0.0000000000000000  0.2500000000190425  0.4070133268666680   F   F   F
  0.0000000000000000  0.4999999999932783  0.4070133268666680   F   F   F
  0.7483059008569484  0.5641196113339433  0.4538738733216405   F   F   F
  0.3333333432766779  0.0000000000000000  0.4070133268666680   F   F   F
  0.3333333432766779  0.4999999999932783  0.4070133268666680   F   F   F
  0.3333333432766779  0.7500000000123208  0.4070133268666680   F   F   F
  0.6666666865533486  0.0000000000000000  0.4070133268666680   F   F   F
  0.6666666865533486  0.2500000000190425  0.4070133268666680   F   F   F
  0.6666666865533486  0.4999999999932783  0.4070133268666680   F   F   F
  0.5844406121426999  0.5627821191735336  0.4548610629005054   F   F   F
  0.5843243202640522  0.3154202963421966  0.4535563151899780   F   F   F
  0.1666666716383389  0.2500000000190425  0.4070133268666680   F   F   F
  0.1666666716383389  0.7500000000123208  0.4070133268666680   F   F   F
  0.5000000000021103  0.0000000000000000  0.4070133268666680   F   F   F
  0.5000000000021103  0.2500000000190425  0.4070133268666680   F   F   F
  0.5000000000021103  0.7500000000123208  0.4070133268666680   F   F   F
  0.9166666865332829  0.3124999999901945  0.3605200052333331   F   F   F
  0.3333333432766779  0.2500000000190425  0.4070133268666680   F   F   F
  0.7474195280284590  0.3136855742966560  0.4552876943023278   F   F   F
  0.0000000000000000  0.7500000000123208  0.4070133268666680   F   F   F
  0.4166348288746420  0.8099982140454998  0.4550828592073088   F   F   F
  0.5833333134730552  0.5625000000092442  0.3605200052333331   F   F   F
  0.7497544380392398  0.0636964480488871  0.4537354202677619   F   F   F
  0.5833333134730552  0.8124999999834799  0.3605200052333331   F   F   F
  0.1666666716383389  0.0000000000000000  0.4070133268666680   F   F   F
  0.8333332538436267  0.2500000000190425  0.4070133268666680   F   F   F
  0.1666666716383389  0.4999999999932783  0.4070133268666680   F   F   F
  0.6666666865533486  0.7500000000123208  0.4070133268666680   F   F   F
  0.5831283569930577  0.0636143908414724  0.4539850528341205   F   F   F
  0.2529582696611001  0.8125168527924558  0.5507398056113999   F   F   F
  0.5908645959615271  0.5651805191655725  0.6390246500620549   F   F   F
  0.0836209812313768  0.1889489461837783  0.5454706636733135   F   F   F
  0.4994732024043529  0.1255150763610757  0.4996198448684979   F   F   F
  0.9997518821770441  0.4999358842113253  0.5940065644646850   F   F   F
  0.5806265433333238  0.1853541592912791  0.5497195985732617   F   F   F
  0.9997025072007872  0.7530173305021677  0.5923534700633439   F   F   F
  0.3340189490978887  0.9998140053673978  0.5920159289097171   F   F   F
  0.9998466459197317  0.9991902258137912  0.5932747805522212   F   F   F
  0.0010320505620953  0.2498340047561172  0.5919929226279237   F   F   F
  0.3332304507048391  0.4962312862634022  0.5909883793348953   F   F   F
  0.3355390993748628  0.7411854981039809  0.5903845319121217   F   F   F
  0.6634989596932073  0.2475017620694189  0.5904813906869961   F   F   F
  0.6659598753524065  0.0004127975975408  0.5921361264984668   F   F   F
  0.6657677793198289  0.7415683939696152  0.5902144698546721   F   F   F
  0.3972300402716442  0.5504912704858214  0.6519647083603175   F   F   F
  0.0826033170033895  0.4385421363531847  0.5450543142310309   F   F   F
  0.6667020296270607  0.4943938218465505  0.5912574624322389   F   F   F
  0.1706275566484123  0.7500634995674318  0.5948823338593883   F   F   F
  0.2484751445205831  0.4358120106922172  0.5491069625178824   F   F   F
  0.1655601051508668  0.5026743769777511  0.5873934409133739   F   F   F
  0.3346490704971927  0.2545015322372635  0.5926961049961434   F   F   F
  0.4997118827361788  0.0000311692716721  0.5910387652521720   F   F   F
  0.8327191988704428  0.8742377739131442  0.4986019878753112   F   F   F
  0.7484703891790687  0.9368289786232609  0.6402231713920870   F   F   F
  0.8322165217611186  0.0020364156753772  0.5922571917787707   F   F   F
  0.5009294038766186  0.7561142524600442  0.5929221426051612   F   F   F
  0.4176507909140668  0.0651048533105723  0.6401136217123522   F   F   F
  0.4271475428659741  0.3046509000353552  0.6552859316616448   F   F   F
  0.4156452882585455  0.1912300380944387  0.5464581924144127   F   F   F
  0.4984796989405709  0.2528761483722306  0.5905366660805669   F   F   F
  0.1674685244169751  0.9983735115891008  0.5922973211237732   F   F   F
  0.1685195248162401  0.2481867433045934  0.5931183443901205   F   F   F
  0.9161037886909256  0.0622557439467784  0.4541433188051087   F   F   F
  0.4159096844893853  0.9370075243957032  0.5461078533617751   F   F   F
  0.5857114161356591  0.8142736880900756  0.5503272484889266   F   F   F
  0.6654424998053372  0.6257592594496018  0.5029796610374149   F   F   F
  0.4124383107736733  0.8127717749081853  0.6395598911683109   F   F   F
  0.9139528203609331  0.6890665382535559  0.5453133532570007   F   F   F
  0.9156420120136843  0.9385196313818440  0.5464275331504922   F   F   F
  0.0822658953015249  0.0632680208635108  0.5475969074096128   F   F   F
  0.0867274577788848  0.3134957780760246  0.5471424735542669   F   F   F
  0.0849104004683738  0.8128668336423956  0.5473383188818559   F   F   F
  0.4164542644729110  0.0652795758392912  0.5473201882269976   F   F   F
  0.5765754511535661  0.4356080377296934  0.5521813582145114   F   F   F
  0.2500951134316267  0.9360340073232152  0.4540716586689584   F   F   F
  0.4159817941655675  0.3193739099580881  0.5523695171878131   F   F   F
  0.2523962316777997  0.5590224580531853  0.5439005181566401   F   F   F
  0.5811529394089376  0.5599722840541403  0.5489404047769497   F   F   F
  0.5838205354984112  0.9377010671876391  0.5461449899821247   F   F   F
  0.7488228226679183  0.1842436996202181  0.5505623238167061   F   F   F
  0.9157039647062177  0.4375684964799760  0.5456270841432911   F   F   F
  0.2515039241423764  0.9372680863194773  0.5452634734546606   F   F   F
  0.4973975974947535  0.5043465610525644  0.6090368671242032   F   F   F
  0.9173744185430692  0.5637573232855857  0.5470136593758781   F   F   F
  0.4199612236984862  0.5648533439063428  0.5553834963296751   F   F   F
  0.9155108761499235  0.8128117869286768  0.5468223076938017   F   F   F
  0.0836870323386378  0.9387513818164734  0.5459026005934007   F   F   F
  0.2492060596923338  0.6831827656866167  0.5519915894760388   F   F   F
  0.7492897791012396  0.9340176554525499  0.5476058246594491   F   F   F
  0.7518076951837429  0.6801355316508406  0.5533337513733230   F   F   F
  0.7518378500762850  0.4355785175213072  0.5487500988939829   F   F   F
  0.4231676902157417  0.4436079726731990  0.5458196722372151   F   F   F
  0.4230080737763160  0.6878575894882388  0.5467574611689017   F   F   F
  0.9165094154438407  0.1889137944348178  0.5455077015901182   F   F   F
  0.7476595579202723  0.3124732579801446  0.5493328497756877   F   F   F
  0.5794906774310178  0.6860174289243517  0.5473638633401237   F   F   F
  0.7411600544364063  0.8097502637802023  0.6399941457879521   F   F   F
  0.0833333358191695  0.3124999999901945  0.3605200052333331   F   F   F
  0.9157327705911484  0.0624104719753191  0.6416638214355146   F   F   F
  0.5834502993367607  0.3204901466803349  0.6333290710924402   F   F   F
  0.2474811917252069  0.5736534995588372  0.6287454059874236   F   F   F
  0.7535654848694122  0.6918048782090622  0.6570240506388316   F   F   F
  0.2619987197301441  0.7992442054508047  0.6463585974636317   F   F   F
  0.2510595968415359  0.0593313779517146  0.6423357596124859   F   F   F
  0.9166666865332829  0.5625000000092442  0.3605200052333331   F   F   F
  0.4995665283542863  0.3742053450888250  0.4997255093424045   F   F   F
  0.4999763250347655  0.8733806029327766  0.5008284765630719   F   F   F
  0.5002778065923721  0.6210839722336701  0.5000596519152225   F   F   F
  0.8324120817165124  0.6230681846536683  0.5000277503779245   F   F   F
  0.8323184571564326  0.3730391502173589  0.4999138511670651   F   F   F
  0.8328339688311459  0.1243474743978652  0.5002875420500388   F   F   F
  0.1667182872760549  0.3762610984603612  0.4977672589935551   F   F   F
  0.1677429593728590  0.6243176113608868  0.5000190753717249   F   F   F
  0.5825794857092106  0.0656685145130780  0.6396187800517836   F   F   F
  0.5790073086503540  0.6855250818957117  0.6395757335704744   F   F   F
  0.2491052406690812  0.3162032786823374  0.6412187905129159   F   F   F
  0.1677371131539687  0.8732795944792642  0.4998904243951614   F   F   F
  0.5828079153010961  0.6860787061216627  0.4546077361767402   F   F   F
  0.5827510875158595  0.9371277468665085  0.4543384453697499   F   F   F
  0.9157808112621595  0.1868585220973671  0.4532563936932092   F   F   F
  0.9158002915516619  0.4369003512582452  0.4536033379354905   F   F   F
  0.1670756706413741  0.1243189212755738  0.4993231551993773   F   F   F
  0.7480280724862212  0.0602366876739637  0.5449859306451472   F   F   F
  0.7533287320347029  0.5680427692822789  0.6358157299527747   F   F   F
  0.9152002932788221  0.3118082319263351  0.6396623246790369   F   F   F
  0.9129352038831513  0.5619360932021067  0.6413926758674293   F   F   F
  0.5911020026565339  0.8099223240933071  0.6459693515365572   F   F   F
  0.5827778791561116  0.4396134659309681  0.4564008491943383   F   F   F
  0.9140505301061594  0.8132483204813497  0.6415420258887252   F   F   F
  0.9163905794336458  0.1861577170240380  0.6399180781804574   F   F   F
  0.2520127672728805  0.1881178305950542  0.5471931142030471   F   F   F
  0.5811578195724110  0.4383725842120469  0.6461099705899329   F   F   F
  0.0860652918779579  0.6892843857752027  0.5453248634592285   F   F   F
  0.6665317392140722  0.8742342193953618  0.4989217322374628   F   F   F
  0.7481532539936566  0.0671197077076258  0.6396994758479408   F   F   F
  0.0843292186813969  0.3112251658010052  0.6405636415892531   F   F   F
  0.0868803498529687  0.5626184267850221  0.6404630130604403   F   F   F
  0.0842087419759565  0.0603302829980024  0.6422552030440727   F   F   F
  0.0869703588364388  0.4365032819874273  0.6396074758784280   F   F   F
  0.0836286889626194  0.1852342620040872  0.6410588690860735   F   F   F
  0.4178362246138221  0.1872573550379926  0.6395614842711694   F   F   F
  0.0842960317276749  0.9354806692648552  0.6408066288060112   F   F   F
  0.9127041271629821  0.4357145860591629  0.6395885180696439   F   F   F
  0.9163188034943559  0.6874300052777897  0.6392050284887318   F   F   F
  0.9143327827606953  0.9369072998626962  0.6412226720653749   F   F   F
  0.4150425059585956  0.4186494507093173  0.6300939808624619   F   F   F
  0.7545847455376915  0.4325204616896698  0.6372754895581068   F   F   F
  0.4174915636793628  0.9348853473722158  0.6397908456236578   F   F   F
  0.0831107044595782  0.6869550823322328  0.6390854367423273   F   F   F
  0.2519530609663221  0.9301225468298568  0.6373789173437672   F   F   F
  0.7463253904326024  0.1924650356476363  0.6458403139592193   F   F   F
  0.2535809265522602  0.1863934630082653  0.6412707507556732   F   F   F
  0.8304906713951610  0.7506876649925260  0.5927987748491717   F   F   F
  0.8314689408783735  0.2492723603082752  0.5912444594678163   F   F   F
  0.5820904916730498  0.9354585378726910  0.6394620942330889   F   F   F
  0.9166666865332829  0.8124999999834799  0.3605200052333331   F   F   F
  0.0842342709130932  0.8123342201954458  0.6421890503261309   F   F   F
  0.7462077411525172  0.3095487254918510  0.6430559969971341   F   F   F
  0.5792404606532173  0.1911642476274906  0.6444907648896532   F   F   F
  0.2548201552873124  0.6773437347449729  0.6627340904283443   F   F   F
  0.8332283743814415  0.5022522626944479  0.5889721922624318   F   F   F
  0.2404932604610508  0.4419587652304529  0.6416314994801695   F   F   F
  0.4203737686983899  0.6756974803598936  0.6336367087772601   F   F   F
  0.5011039440929110  0.7527667625525396  0.5039768609109743   F   F   F
  0.8333332538436267  0.6249999999803961  0.4070133268666680   F   F   F
  0.9996904144569214  0.5002553943444354  0.5069010133918894   F   F   F
  0.3260489017447696  0.3733590855507387  0.5927060847366263   F   F   F
  0.6666666865533486  0.3750000000061604  0.4070133268666680   F   F   F
  0.6660252105840740  0.9998962859162432  0.5056599165965636   F   F   F
  0.1643648582294688  0.7514666550655846  0.5033514581046603   F   F   F
  0.6685972603641517  0.4998110108006486  0.5007005695358870   F   F   F
  0.0006409270981109  0.1223615725431486  0.6198397936338367   F   F   F
  0.3300942207542192  0.2479969809931148  0.5028055212059357   F   F   F
  0.3330975111283578  0.0009811799421229  0.5057881627812222   F   F   F
  0.3338503303917548  0.7511056428298772  0.5015351417503595   F   F   F
  0.8361022285822131  0.4999880477073404  0.5028041156134080   F   F   F
  0.6653791696372835  0.7518447212244510  0.5022137724236515   F   F   F
  0.1666666716383389  0.3750000000061604  0.4070133268666680   F   F   F
  0.6669660063325722  0.2479122588540648  0.5026823176930222   F   F   F
  0.0000210185864020  0.9999622048788979  0.5067443906932212   F   F   F
  0.0000000000000000  0.8749999404036828  0.4070133268666680   F   F   F
  0.3333333432766779  0.3750000000061604  0.4070133268666680   F   F   F
  0.5009721603906883  0.2478204838519673  0.5019819568390247   F   F   F
  0.9998931672728659  0.7509010765321378  0.5065990444445632   F   F   F
  0.0007908103916705  0.2497354052524585  0.5059932063498920   F   F   F
  0.6666666865533486  0.6249999999803961  0.4070133268666680   F   F   F
  0.8333332538436267  0.8749999404036828  0.4070133268666680   F   F   F
  0.3333333432766779  0.6249999999803961  0.4070133268666680   F   F   F
  0.3333333432766779  0.1249999999871179  0.4070133268666680   F   F   F
  0.6666666865533486  0.1249999999871179  0.4070133268666680   F   F   F
  0.8341451101604918  0.0001864707173809  0.5064979090174759   F   F   F
  0.3333333432766779  0.8749999404036828  0.4070133268666680   F   F   F
  0.0000000000000000  0.6249999999803961  0.4070133268666680   F   F   F
  0.1659861993054577  0.0011145989263852  0.5065744696625742   F   F   F
  0.3312037848585589  0.4992014670577092  0.5009422921855631   F   F   F
  0.1635294211709493  0.4997659616804953  0.5020879396047420   F   F   F
  0.8356130609624515  0.2484811629307515  0.5029058610881165   F   F   F
  0.5007105180606999  0.8765989880765162  0.6095022078153818   F   F   F
  0.5012285963110017  0.4997255888672001  0.5002809003486419   F   F   F
  0.0000000000000000  0.3750000000061604  0.4070133268666680   F   F   F
  0.9991466592312079  0.8749160182414144  0.6224171284553250   F   F   F
  0.0000000000000000  0.1249999999871179  0.4070133268666680   F   F   F
  0.8333332538436267  0.1249999999871179  0.4070133268666680   F   F   F
  0.5000000000021103  0.6249999999803961  0.4070133268666680   F   F   F
  0.8395760321406911  0.6268530148621991  0.6038996058064541   F   F   F
  0.1663880727576057  0.2481117790526639  0.5061921113297956   F   F   F
  0.3315643812053182  0.1196626032616166  0.6129807474155555   F   F   F
  0.6653084227947090  0.1238595973766223  0.6100247088178392   F   F   F
  0.8360694278441869  0.7516520178385022  0.5026042106105209   F   F   F
  0.3340396424627698  0.6243398351126217  0.5950636770261752   F   F   F
  0.1666666716383389  0.8749999404036828  0.4070133268666680   F   F   F
  0.8333332538436267  0.3750000000061604  0.4070133268666680   F   F   F
  0.8378458045887527  0.3723118762837103  0.6032500437915260   F   F   F
  0.8320299590029663  0.8761895338246504  0.6178247412693310   F   F   F
  0.1666666716383389  0.1249999999871179  0.4070133268666680   F   F   F
  0.3344767293395634  0.8786217843856932  0.6029828523987035   F   F   F
  0.0003602864379388  0.3745071405529004  0.6235776638290886   F   F   F
  0.5000000000021103  0.1249999999871179  0.4070133268666680   F   F   F
  0.5015869748584123  0.3712005335637869  0.5948344073942522   F   F   F
  0.1666666716383389  0.6249999999803961  0.4070133268666680   F   F   F
  0.5037460794660049  0.6249454450131253  0.5940897379977201   F   F   F
  0.5000000000021103  0.3750000000061604  0.4070133268666680   F   F   F
  0.6666666865533486  0.8749999404036828  0.4070133268666680   F   F   F
  0.5002663087566219  0.9992260606056504  0.5055631798294087   F   F   F
  0.1661783311057121  0.8733796316428766  0.6179603660726869   F   F   F
  0.6708338918995835  0.3722650678137356  0.5936099425372845   F   F   F
  0.1594423358636448  0.6271848112951588  0.6014423899548405   F   F   F
  0.1678143156591290  0.1226739940080819  0.6220219757495542   F   F   F
  0.1633076653121961  0.3712667166708314  0.6075233999330649   F   F   F
  0.6654007238327821  0.8809343577221114  0.6070351625756985   F   F   F
  0.6664934383685903  0.6260959287647552  0.5935679867125998   F   F   F
  0.8342256396437833  0.1238851587141667  0.6155644731632535   F   F   F
  0.9995802950101620  0.6224830179272303  0.6283731555543213   F   F   F
  0.5000000000021103  0.8749999404036828  0.4070133268666680   F   F   F
  0.5003520847697871  0.1219579756443920  0.6064163231123700   F   F   F
  0.5825257800219319  0.0008065677744824  0.6044054319654677   F   F   F
  0.5844044461241324  0.2475009954479077  0.5964391549224928   F   F   F
  0.5833333134730552  0.2500000000190425  0.4070133268666680   F   F   F
  0.0837688952672266  0.2476513847459785  0.6036657608652618   F   F   F
  0.7496779476749182  0.0017619574145300  0.6045358899897479   F   F   F
  0.9164697602370353  0.9999133065744985  0.6039608765760676   F   F   F
  0.0815770544583927  0.4999030224463610  0.6031634109015584   F   F   F
  0.2425419159120423  0.4976985223188706  0.5940227804593832   F   F   F
  0.0819889011775956  0.3745256367079364  0.5062057933968234   F   F   F