Au O  Sr Ti H                           
   1.00000000000000     
    23.6707801818999997    0.0000000000000000    0.0000000000000000
     0.0000000000000000   22.3170261383000010    0.0000000000000000
     0.0000000000000000    0.0000000000000000   30.0000000000000000
   Au   O    Sr   Ti   H 
    50   264    72    72     1
Selective dynamics
Direct
  0.7170525780854007  0.5236875961404053  0.7528740519861827   F   F   F
  0.6236294754337948  0.5683962138794598  0.7038798567497864   F   F   F
  0.7230021724943256  0.2552467718339599  0.6918908645791291   F   F   F
  0.2909513451844177  0.7455775760294259  0.6984147082392909   F   F   F
  0.5137943287714535  0.6043037488681406  0.7768213490004570   F   F   F
  0.5772786092708415  0.7254855269963087  0.7925709528502907   F   F   F
  0.5483978759121086  0.3870898646199521  0.8302642338985464   F   F   F
  0.2413032559233272  0.4682009776865641  0.7092942890106926   F   F   F
  0.2830505468480951  0.6610655258706117  0.7656287138073949   F   F   F
  0.5980493722469404  0.2913580587719835  0.7857811537546340   F   F   F
  0.5146191459745140  0.4834713533334494  0.6780450763834693   F   F   F
  0.5629187655689378  0.4861643226396808  0.7624809712592011   F   F   F
  0.4635417647034501  0.6952246283382877  0.8300064561953278   F   F   F
  0.7627431433226732  0.4284926096925332  0.7040676243248782   F   F   F
  0.7336928672853844  0.6148480585095157  0.6942419613563402   F   F   F
  0.6361406452554519  0.5832965122597784  0.8000191756102879   F   F   F
  0.5950314938217360  0.7850545053909812  0.7125432525918569   F   F   F
  0.4838748162895286  0.7790691724222256  0.7570094027156884   F   F   F
  0.3495863300590543  0.5004683837543169  0.6978008010425825   F   F   F
  0.4297558172363267  0.3724784784965607  0.8165988722292070   F   F   F
  0.3699595789410779  0.2992577832116794  0.7564749585237749   F   F   F
  0.4354485530783094  0.2273400409434743  0.6980206589974998   F   F   F
  0.3894059624765944  0.8158335974649162  0.7065074300298306   F   F   F
  0.2893002928576536  0.5371235309431555  0.7779800079586963   F   F   F
  0.5519023138139829  0.2132301746212804  0.7103750333615793   F   F   F
  0.4537800926765101  0.5797033420373978  0.7031271485352732   F   F   F
  0.6169372598567904  0.3181343536366157  0.6966669379579784   F   F   F
  0.7056828491320175  0.7571379326361267  0.6882619900934444   F   F   F
  0.6559475280870615  0.4403027905481807  0.8122591186823200   F   F   F
  0.3682105611217494  0.6185207191180666  0.8202229745341256   F   F   F
  0.5699529052764092  0.5105820395381571  0.8567883490649848   F   F   F
  0.6643302100657351  0.1966976341596691  0.7527953369908076   F   F   F
  0.4706176635786647  0.4523878581922602  0.8809231673386364   F   F   F
  0.5179212542663976  0.3769603221457700  0.7334713021496810   F   F   F
  0.2824765251251904  0.3397049743666258  0.7025977716996437   F   F   F
  0.6694547555159787  0.6810717181694841  0.7487879176438241   F   F   F
  0.3979141103239385  0.3816343745994786  0.6906819571597325   F   F   F
  0.3759816750124614  0.4928351191425477  0.8329667175219129   F   F   F
  0.4629373262462906  0.5742534603004330  0.8638739482510047   F   F   F
  0.3258870588999798  0.4146943004023171  0.7696209159418146   F   F   F
  0.4837970577560213  0.2695002146811731  0.7753259493450528   F   F   F
  0.4244760809859400  0.6978838017107591  0.6993238530740413   F   F   F
  0.7006474410414469  0.3415155562177716  0.7576991993519613   F   F   F
  0.7738801584846655  0.4264128207845204  0.7940319047749398   F   F   F
  0.2561396911713132  0.5920186427227634  0.6948427336415790   F   F   F
  0.6475780802198798  0.4428684513081578  0.6953591701610549   F   F   F
  0.5655531560808527  0.6399845444797450  0.8608226343045899   F   F   F
  0.5447046579821588  0.6654311157688966  0.7012470017064700   F   F   F
  0.4437184100807769  0.4734791702992354  0.7559957418281797   F   F   F
  0.3729341317752386  0.7376393148809370  0.7780661401621103   F   F   F
  0.2499494487075467  0.1886090064376162  0.4542106257025083   F   F   F
  0.7494779775330258  0.9384297216670632  0.4553062536770796   F   F   F
  0.7490298104091551  0.6886658461764981  0.4574595853022529   F   F   F
  0.7496325657962402  0.4382057562407837  0.4557631500820989   F   F   F
  0.7501656692596086  0.1895661138979676  0.4554686281075462   F   F   F
  0.4175718238441775  0.9357021856627128  0.4539307946355251   F   F   F
  0.4168626734910248  0.6845885022694702  0.4548024754614346   F   F   F
  0.4167211244420699  0.4355006374713710  0.4539824217624044   F   F   F
  0.0843641983473731  0.6869198708157072  0.4530895424766754   F   F   F
  0.0838795655616451  0.9366731572831952  0.4534635983662696   F   F   F
  0.0828714438628708  0.4368474688789021  0.4529497800752011   F   F   F
  0.0838438900719254  0.1865811586090160  0.4529886647802215   F   F   F
  0.9165925766793706  0.8120023625747450  0.4541014356868018   F   F   F
  0.9161123159173883  0.5623678774003196  0.4538561179031078   F   F   F
  0.2511884691675590  0.4392554307342706  0.4549130352961015   F   F   F
  0.9161480872205061  0.0621252911780346  0.4541090029605073   F   F   F
  0.9162755461679311  0.3122874205066211  0.4538296428432744   F   F   F
  0.4172814449186575  0.1870673298162231  0.4535349549732786   F   F   F
  0.2524447887630785  0.6873096513547594  0.4560880866924890   F   F   F
  0.9167096115678603  0.9367730395347920  0.4533175983778222   F   F   F
  0.5827736498860645  0.1893938978170411  0.4552128837624778   F   F   F
  0.0000696774377360  0.1250966548962467  0.4984023670580555   F   F   F
  0.5836794320074645  0.8099635450919891  0.4554275658477280   F   F   F
  0.0000188147585618  0.3736632653535352  0.4985486413483784   F   F   F
  0.9997075192653853  0.6269830107817356  0.4977136992488411   F   F   F
  0.3336091036422886  0.1256021299560928  0.4985832787648974   F   F   F
  0.0000587476293461  0.8751134301940056  0.4995293292578253   F   F   F
  0.3335330617889625  0.8738408092950678  0.4988434349115423   F   F   F
  0.6660287041921507  0.1260860840790841  0.4991706607876267   F   F   F
  0.3357402192773193  0.6251364899071206  0.5043238694023984   F   F   F
  0.3343755156385342  0.3785343608337897  0.5030031927198877   F   F   F
  0.6654826550672297  0.3785041705274494  0.5031805438097621   F   F   F
  0.9153340697347971  0.6866839433102356  0.4529770235517248   F   F   F
  0.9157625652346368  0.4370138565052528  0.4537000761357390   F   F   F
  0.9158496200105333  0.1869365787325492  0.4532141478594625   F   F   F
  0.5827176103705654  0.9362320207279069  0.4538386560151224   F   F   F
  0.5827845909666749  0.6859899014709114  0.4545979105153961   F   F   F
  0.5827657150658752  0.4389236921570898  0.4560420992856109   F   F   F
  0.2499828609609409  0.9359697516978045  0.4540654383851646   F   F   F
  0.6654354159639126  0.6258356181546674  0.5029741210193279   F   F   F
  0.5846324523829765  0.5624819456413022  0.4550361724465404   F   F   F
  0.5830132415056752  0.0626448380509075  0.4546589992002765   F   F   F
  0.9166666865332829  0.6874999999963620  0.3605200052333331   F   F   F
  0.9166666865332829  0.4374999701794380  0.3605200052333331   F   F   F
  0.9166666865332829  0.1875000000030838  0.3605200052333331   F   F   F
  0.5833333134730552  0.9375000000154046  0.3605200052333331   F   F   F
  0.5833333134730552  0.6874999999963620  0.3605200052333331   F   F   F
  0.5833333134730552  0.4374999701794380  0.3605200052333331   F   F   F
  0.5833333134730552  0.1875000000030838  0.3605200052333331   F   F   F
  0.2499999999799343  0.9375000000154046  0.3605200052333331   F   F   F
  0.9166666865332829  0.9375000000154046  0.3605200052333331   F   F   F
  0.2499999999799343  0.6874999999963620  0.3605200052333331   F   F   F
  0.2499999999799343  0.1875000000030838  0.3605200052333331   F   F   F
  0.7499999404149307  0.9375000000154046  0.3605200052333331   F   F   F
  0.7499999404149307  0.6874999999963620  0.3605200052333331   F   F   F
  0.7499999404149307  0.4374999701794380  0.3605200052333331   F   F   F
  0.7499999404149307  0.1875000000030838  0.3605200052333331   F   F   F
  0.4166666269218169  0.9375000000154046  0.3605200052333331   F   F   F
  0.4166666269218169  0.6874999999963620  0.3605200052333331   F   F   F
  0.4166666269218169  0.4374999701794380  0.3605200052333331   F   F   F
  0.2499999999799343  0.4374999701794380  0.3605200052333331   F   F   F
  0.0833333358191695  0.0625000000159659  0.3605200052333331   F   F   F
  0.0833333358191695  0.3124999999901945  0.3605200052333331   F   F   F
  0.0833333358191695  0.5625000000092442  0.3605200052333331   F   F   F
  0.9166666865332829  0.3124999999901945  0.3605200052333331   F   F   F
  0.9166666865332829  0.0625000000159659  0.3605200052333331   F   F   F
  0.5833333134730552  0.8124999999834799  0.3605200052333331   F   F   F
  0.5833333134730552  0.5625000000092442  0.3605200052333331   F   F   F
  0.5833333134730552  0.3124999999901945  0.3605200052333331   F   F   F
  0.5833333134730552  0.0625000000159659  0.3605200052333331   F   F   F
  0.2499999999799343  0.8124999999834799  0.3605200052333331   F   F   F
  0.2499999999799343  0.5625000000092442  0.3605200052333331   F   F   F
  0.2499999999799343  0.3124999999901945  0.3605200052333331   F   F   F
  0.2499999999799343  0.0625000000159659  0.3605200052333331   F   F   F
  0.7499999404149307  0.8124999999834799  0.3605200052333331   F   F   F
  0.7499999404149307  0.5625000000092442  0.3605200052333331   F   F   F
  0.7499999404149307  0.3124999999901945  0.3605200052333331   F   F   F
  0.7499999404149307  0.0625000000159659  0.3605200052333331   F   F   F
  0.4166666269218169  0.8124999999834799  0.3605200052333331   F   F   F
  0.4166666269218169  0.5625000000092442  0.3605200052333331   F   F   F
  0.4166666269218169  0.3124999999901945  0.3605200052333331   F   F   F
  0.4166666269218169  0.0625000000159659  0.3605200052333331   F   F   F
  0.0833333358191695  0.8124999999834799  0.3605200052333331   F   F   F
  0.4166666269218169  0.1875000000030838  0.3605200052333331   F   F   F
  0.0833333358191695  0.9375000000154046  0.3605200052333331   F   F   F
  0.0833333358191695  0.6874999999963620  0.3605200052333331   F   F   F
  0.0833333358191695  0.4374999701794380  0.3605200052333331   F   F   F
  0.8333332538436267  0.4999999999932783  0.4070133268666680   F   F   F
  0.8333332538436267  0.7500000000123208  0.4070133268666680   F   F   F
  0.0836889218923815  0.0618585529401656  0.4541946088717239   F   F   F
  0.0834269567507420  0.3120580672508950  0.4539613587939257   F   F   F
  0.0839353654064254  0.5625096702048182  0.4539336514430659   F   F   F
  0.0835171096824467  0.8121234452078099  0.4541989166892151   F   F   F
  0.4168828833586176  0.0615468808178647  0.4553595089143769   F   F   F
  0.4155019073235593  0.3113183983967787  0.4573807833511481   F   F   F
  0.4160717322857934  0.5594943672178161  0.4578672302141911   F   F   F
  0.4166773771461507  0.8097499477649137  0.4551262613669493   F   F   F
  0.7495701001140489  0.0640497851485549  0.4533775179109441   F   F   F
  0.7473260545921150  0.3139622414265659  0.4551566270479768   F   F   F
  0.7482230109561456  0.5641565747146942  0.4538517304145344   F   F   F
  0.7494274310949010  0.8131866175448721  0.4530543195717840   F   F   F
  0.2505032304229289  0.0620101278846761  0.4542686412575989   F   F   F
  0.9156712882260649  0.3124186838237719  0.5465426293425537   F   F   F
  0.2522641147665112  0.3141649424741146  0.4541512423201723   F   F   F
  0.2519057237613893  0.5645495022919178  0.4538016160694909   F   F   F
  0.2501612577289123  0.8104350777684530  0.4554930045541354   F   F   F
  0.8333332538436267  0.2500000000190425  0.4070133268666680   F   F   F
  0.5842066509535258  0.3146433328776794  0.4541081261890483   F   F   F
  0.8333332538436267  0.0000000000000000  0.4070133268666680   F   F   F
  0.5000000000021103  0.4999999999932783  0.4070133268666680   F   F   F
  0.0833333358191695  0.1875000000030838  0.3605200052333331   F   F   F
  0.0000000000000000  0.0000000000000000  0.4070133268666680   F   F   F
  0.0000000000000000  0.2500000000190425  0.4070133268666680   F   F   F
  0.0000000000000000  0.4999999999932783  0.4070133268666680   F   F   F
  0.0000000000000000  0.7500000000123208  0.4070133268666680   F   F   F
  0.3333333432766779  0.0000000000000000  0.4070133268666680   F   F   F
  0.3333333432766779  0.2500000000190425  0.4070133268666680   F   F   F
  0.3333333432766779  0.4999999999932783  0.4070133268666680   F   F   F
  0.3333333432766779  0.7500000000123208  0.4070133268666680   F   F   F
  0.6666666865533486  0.0000000000000000  0.4070133268666680   F   F   F
  0.6666666865533486  0.2500000000190425  0.4070133268666680   F   F   F
  0.6666666865533486  0.4999999999932783  0.4070133268666680   F   F   F
  0.6666666865533486  0.7500000000123208  0.4070133268666680   F   F   F
  0.1666666716383389  0.0000000000000000  0.4070133268666680   F   F   F
  0.1666666716383389  0.2500000000190425  0.4070133268666680   F   F   F
  0.1666666716383389  0.4999999999932783  0.4070133268666680   F   F   F
  0.1666666716383389  0.7500000000123208  0.4070133268666680   F   F   F
  0.5000000000021103  0.0000000000000000  0.4070133268666680   F   F   F
  0.5000000000021103  0.2500000000190425  0.4070133268666680   F   F   F
  0.5000000000021103  0.7500000000123208  0.4070133268666680   F   F   F
  0.1670821312255768  0.1242971108304687  0.4993124780341773   F   F   F
  0.9176230425198781  0.0633482518355208  0.5474586235343253   F   F   F
  0.1678014725881170  0.8732024594101233  0.4999471414572483   F   F   F
  0.2518971966784633  0.1881151348723265  0.5472766586005804   F   F   F
  0.7491712908167258  0.9342391649717641  0.5475218658417162   F   F   F
  0.7518262834680414  0.6801184404924641  0.5533686948207190   F   F   F
  0.7520095641887750  0.4355223015936929  0.5488376659395016   F   F   F
  0.4231634876203927  0.4435062974560111  0.5459857295839825   F   F   F
  0.4231266156033939  0.6878051127308069  0.5467888135520909   F   F   F
  0.7489634986313689  0.1842353700900361  0.5503371133580970   F   F   F
  0.4160191355677085  0.9368514179429468  0.5459741890232053   F   F   F
  0.0836194369969263  0.9389445388800510  0.5457396196389013   F   F   F
  0.4157226055294814  0.1913382068367468  0.5464998386814628   F   F   F
  0.0863696129271929  0.6896049518370617  0.5451817950127023   F   F   F
  0.0828371967391988  0.4385145540920306  0.5452980731171806   F   F   F
  0.0838053928082658  0.1888790744522666  0.5456626378683964   F   F   F
  0.4994732566456008  0.1255772013017307  0.4996306885439736   F   F   F
  0.9996937433068425  0.4988264117576762  0.5946604799605382   F   F   F
  0.9994516977715193  0.7537527107516908  0.5921992798962847   F   F   F
  0.3346609265555855  0.2545772658612009  0.5927096420518012   F   F   F
  0.3339749131230434  0.9998067693147661  0.5920231309760169   F   F   F
  0.9996974515563579  0.9985122403295748  0.5927890553768265   F   F   F
  0.0011766968238405  0.2497768030742975  0.5918861394873787   F   F   F
  0.3333912697642987  0.4964816505587351  0.5911487949888397   F   F   F
  0.3356242354879910  0.7399224976912890  0.5911790639599133   F   F   F
  0.6637250993961601  0.2470158400370295  0.5907325989257970   F   F   F
  0.6657952203663200  0.0005837706658909  0.5918765873912477   F   F   F
  0.6659827219145384  0.7420092469384088  0.5899677627910833   F   F   F
  0.6668006730835501  0.4941295134361710  0.5913726250794156   F   F   F
  0.1673642301055054  0.9982746913592493  0.5922847933777007   F   F   F
  0.1685369538864450  0.2492379418101436  0.5930999240107653   F   F   F
  0.1706073107362158  0.7499376484255507  0.5948830787940906   F   F   F
  0.2483385976740919  0.4359318844594071  0.5491353693321201   F   F   F
  0.1654595849940677  0.5031212855369489  0.5876626609174025   F   F   F
  0.2491601726415880  0.6832934519022800  0.5519735368909764   F   F   F
  0.5807928951704682  0.1858953351306099  0.5495259752805808   F   F   F
  0.9153757938379243  0.8130732706267310  0.5469541120992076   F   F   F
  0.9167600720628712  0.5634339509367550  0.5466364601679246   F   F   F
  0.5811813022073906  0.5601503815973743  0.5492664663912024   F   F   F
  0.5862606682202340  0.8146685752061984  0.5503928516641139   F   F   F
  0.5830718388722573  0.3115248974941736  0.5455616918813178   F   F   F
  0.5826975321218271  0.0631395037997677  0.5467238412281574   F   F   F
  0.2537525474095546  0.8127546805302117  0.5512701693816098   F   F   F
  0.2523848577515153  0.5589473341413225  0.5440292591233415   F   F   F
  0.2494898104385115  0.3137466860148521  0.5459642075152615   F   F   F
  0.2510584192488921  0.0624891624061163  0.5472969697466468   F   F   F
  0.7485703792671785  0.8082629486586015  0.5456771452790576   F   F   F
  0.7465968923908903  0.5578229573859090  0.5447311128318120   F   F   F
  0.4138597391988483  0.8114254735757171  0.5480278299228303   F   F   F
  0.7483129989226498  0.0598658289723986  0.5444081558717642   F   F   F
  0.7477853041634717  0.3123786191335967  0.5491207602555050   F   F   F
  0.4161202686376981  0.3193778553906981  0.5525550171938463   F   F   F
  0.4204025896848549  0.5646165490830271  0.5555468295172972   F   F   F
  0.4164379572643568  0.0652781103589604  0.5473240383668099   F   F   F
  0.0848701674706831  0.8129219388371709  0.5473128488096606   F   F   F
  0.0824111178028417  0.5640313351328103  0.5464090702897693   F   F   F
  0.0863924250556352  0.3134207852218438  0.5469147581537115   F   F   F
  0.0823267684275990  0.0631992471701963  0.5475271935177588   F   F   F
  0.9157310341083544  0.9387219587915610  0.5460831561448174   F   F   F
  0.9132527593592172  0.6894572641180616  0.5449477217363778   F   F   F
  0.5835499317666120  0.9381623902987641  0.5456442471043275   F   F   F
  0.9167982463538138  0.1888418920550095  0.5454431270937192   F   F   F
  0.9156919663691312  0.4373422092631500  0.5458476714423739   F   F   F
  0.5766652018654739  0.4360431447038025  0.5517659635019143   F   F   F
  0.5795678018519013  0.6864178457534891  0.5471605293024595   F   F   F
  0.2515269134269502  0.9372666657355992  0.5451979501378830   F   F   F
  0.4976750703046093  0.5041815944235637  0.6090346686532584   F   F   F
  0.4986268702060315  0.2527746695934638  0.5908805662986438   F   F   F
  0.4995846226380962  0.0000349590475395  0.5910020694223377   F   F   F
  0.7533578028433325  0.6923830908981188  0.6571936967053844   F   F   F
  0.7483680819639602  0.9367542328327190  0.6398763838788071   F   F   F
  0.2534479055296401  0.1863646673660213  0.6411335686061079   F   F   F
  0.7470076631691569  0.1932153846791564  0.6457880306982560   F   F   F
  0.7545293031782592  0.4324062192516109  0.6374672033243414   F   F   F
  0.4173104640426715  0.9349376115985351  0.6397065807528293   F   F   F
  0.4216092425705327  0.6755595436798458  0.6337160598025733   F   F   F
  0.5905770314219509  0.8104157965342580  0.6457855611268855   F   F   F
  0.9163249890878902  0.0623139424625450  0.6414725521768574   F   F   F
  0.9129166182858768  0.5615568631697840  0.6425342803297909   F   F   F
  0.9154071438198770  0.3120288692623561  0.6395012161602267   F   F   F
  0.9139304428777208  0.8126076556174411  0.6415970360660950   F   F   F
  0.5821249048252071  0.0654597292018408  0.6397816648521228   F   F   F
  0.5844654387702661  0.3199667408773479  0.6339465436536997   F   F   F
  0.5912896217491195  0.5645226689524279  0.6395143140505013   F   F   F
  0.2475402399632287  0.5737483052014980  0.6288837491114165   F   F   F
  0.2617171035997004  0.7983076966149483  0.6469170199491501   F   F   F
  0.2493602251151046  0.3162870495810921  0.6414877116270787   F   F   F
  0.2508053733329803  0.0592869973322649  0.6422221052087949   F   F   F
  0.9166666865332829  0.5625000000092442  0.3605200052333331   F   F   F
  0.4995743140078801  0.3741300888134091  0.4999081657751105   F   F   F
  0.4999894656983344  0.8725942037295127  0.5009146915028424   F   F   F
  0.5003505834264388  0.6210336899462305  0.5001321426891323   F   F   F
  0.8322848937686445  0.6230704587701936  0.4999912327245752   F   F   F
  0.8327510261181956  0.8746081356911617  0.4984836580547451   F   F   F
  0.8324445584137123  0.3730809649401863  0.4997780936996108   F   F   F
  0.8328808085005477  0.1245397057593891  0.4995728970116531   F   F   F
  0.1667325264940303  0.3762194892336552  0.4977987519189284   F   F   F
  0.1677489074461889  0.6242869564746272  0.5000530391552473   F   F   F
  0.5813484181569137  0.4378387827368186  0.6458887407599221   F   F   F
  0.5806584072941163  0.6852053403816356  0.6387458626475961   F   F   F
  0.9168168085810535  0.1864237395303476  0.6400337927098647   F   F   F
  0.5817975157601012  0.9352767203883303  0.6390679372139516   F   F   F
  0.8304850072188401  0.7505854816447339  0.5928423059274692   F   F   F
  0.8319379900801636  0.2492742752944324  0.5910079513216786   F   F   F
  0.8331884172655748  0.5023823165346499  0.5892423975800583   F   F   F
  0.8322644876358467  0.0019470455721518  0.5922412937362580   F   F   F
  0.5011100331299190  0.7563290559494291  0.5928526955130167   F   F   F
  0.4176237087933004  0.0651154806884762  0.6401197678675032   F   F   F
  0.4270750169200213  0.3042413395050545  0.6555962849494534   F   F   F
  0.4119980034296660  0.8124504910371755  0.6397697111496825   F   F   F
  0.3981911245293688  0.5505132987228052  0.6524465083901347   F   F   F
  0.7535125818240829  0.5682468642372100  0.6357711263251247   F   F   F
  0.7411166956115665  0.8098340875163927  0.6400015502043530   F   F   F
  0.7468803952721998  0.3099971854325361  0.6425326211577627   F   F   F
  0.7477745053991356  0.0672345733065782  0.6388356784692064   F   F   F
  0.0838692313759708  0.3118370293302917  0.6405605014848419   F   F   F
  0.6665787903427542  0.8744644850700425  0.4989015350237551   F   F   F
  0.0870025993410906  0.5617865037929874  0.6419516057481118   F   F   F
  0.0836037996738526  0.0604663126704352  0.6415361928880259   F   F   F
  0.0871441284875587  0.4365299513133891  0.6397210531800397   F   F   F
  0.0838338579870666  0.1855807780409080  0.6411203413148669   F   F   F
  0.4177153263905069  0.1872014658452841  0.6396328778867826   F   F   F
  0.4154280800844603  0.4182962593940047  0.6301920418667066   F   F   F
  0.0841611633161108  0.9352663690871452  0.6408283112310897   F   F   F
  0.0830186104071586  0.6871160826946436  0.6398540429914448   F   F   F
  0.9125217144837450  0.4360856580170704  0.6397067375163203   F   F   F
  0.9165260749018174  0.6874081999086954  0.6397299617325416   F   F   F
  0.9143662238202310  0.9366039797944552  0.6409378618974060   F   F   F
  0.2406207700329261  0.4420056927302625  0.6415723027443505   F   F   F
  0.2539278548267845  0.6764479810943200  0.6635721964910104   F   F   F
  0.5795378709544536  0.1913119673660830  0.6451937444852689   F   F   F
  0.2518818664900806  0.9299693738382757  0.6373869028982284   F   F   F
  0.0840196041508605  0.8118297103727130  0.6418435001368721   F   F   F
  0.9166666865332829  0.8124999999834799  0.3605200052333331   F   F   F
  0.0006874698027701  0.1229292314567871  0.6192776337118531   F   F   F
  0.8333332538436267  0.6249999999803961  0.4070133268666680   F   F   F
  0.9996117168019651  0.5005459760042612  0.5073112065893071   F   F   F
  0.3312072274291182  0.4991924747521992  0.5010518425281134   F   F   F
  0.3300910153514778  0.2481096217086360  0.5028715804106980   F   F   F
  0.3330652342129738  0.0009289972615036  0.5057758778892634   F   F   F
  0.3337702539375726  0.7508865678884220  0.5016780991396033   F   F   F
  0.6658354281290570  0.0000256797657983  0.5055740951638228   F   F   F
  0.6685788045653069  0.4997848980603905  0.5007126200120311   F   F   F
  0.6668841074102332  0.2477811119745610  0.5027880544434993   F   F   F
  0.6654583371815974  0.7519108978244233  0.5021324226708472   F   F   F
  0.1659847109786980  0.0011099382302433  0.5065181162373875   F   F   F
  0.1664037395324343  0.2482888125371687  0.5062034779920808   F   F   F
  0.1634056395531260  0.4998621997180237  0.5021764155964803   F   F   F
  0.5001099206615010  0.9992845102529060  0.5055208566325504   F   F   F
  0.1642336054087323  0.7513061107341343  0.5033488789981320   F   F   F
  0.5009599169817633  0.7526155799085004  0.5039486298517062   F   F   F
  0.8342552099398759  0.0002655982077897  0.5064566670641000   F   F   F
  0.5012539345100535  0.4996229927066835  0.5003078813821915   F   F   F
  0.5012118905776646  0.2478664642319259  0.5021636526987123   F   F   F
  0.8358782939062621  0.2483923678598856  0.5027064602360412   F   F   F
  0.9997602421427061  0.7506558011743820  0.5065550679795194   F   F   F
  0.0009288652544797  0.2497826652279613  0.5059139271467004   F   F   F
  0.0000238873753702  0.9999872008523525  0.5064686190641297   F   F   F
  0.8333332538436267  0.8749999404036828  0.4070133268666680   F   F   F
  0.0000000000000000  0.6249999999803961  0.4070133268666680   F   F   F
  0.0000000000000000  0.8749999404036828  0.4070133268666680   F   F   F
  0.3333333432766779  0.1249999999871179  0.4070133268666680   F   F   F
  0.3333333432766779  0.3750000000061604  0.4070133268666680   F   F   F
  0.3333333432766779  0.6249999999803961  0.4070133268666680   F   F   F
  0.3333333432766779  0.8749999404036828  0.4070133268666680   F   F   F
  0.6666666865533486  0.1249999999871179  0.4070133268666680   F   F   F
  0.6666666865533486  0.3750000000061604  0.4070133268666680   F   F   F
  0.6666666865533486  0.6249999999803961  0.4070133268666680   F   F   F
  0.8361746455381009  0.5000069118693276  0.5029116545963674   F   F   F
  0.6666666865533486  0.8749999404036828  0.4070133268666680   F   F   F
  0.1666666716383389  0.3750000000061604  0.4070133268666680   F   F   F
  0.1666666716383389  0.6249999999803961  0.4070133268666680   F   F   F
  0.1666666716383389  0.8749999404036828  0.4070133268666680   F   F   F
  0.5000000000021103  0.1249999999871179  0.4070133268666680   F   F   F
  0.5000000000021103  0.3750000000061604  0.4070133268666680   F   F   F
  0.5000000000021103  0.6249999999803961  0.4070133268666680   F   F   F
  0.5000000000021103  0.8749999404036828  0.4070133268666680   F   F   F
  0.8333332538436267  0.1249999999871179  0.4070133268666680   F   F   F
  0.8333332538436267  0.3750000000061604  0.4070133268666680   F   F   F
  0.1666666716383389  0.1249999999871179  0.4070133268666680   F   F   F
  0.0000000000000000  0.3750000000061604  0.4070133268666680   F   F   F
  0.8359197784714070  0.7517298449019307  0.5025200276400525   F   F   F
  0.8380532420636371  0.3727531839235354  0.6030869174950411   F   F   F
  0.8320121713476070  0.8757906350266680  0.6182931245679768   F   F   F
  0.8403902266579877  0.6265642214405176  0.6033467807929682   F   F   F
  0.9989714478133322  0.8745994626235429  0.6218385844636458   F   F   F
  0.3313744504017535  0.1196083994787998  0.6129727274490335   F   F   F
  0.3343361540280938  0.6238784904797612  0.5955120215250673   F   F   F
  0.3261046258219906  0.3736119388412718  0.5928581879072965   F   F   F
  0.6709939902319846  0.3721449745139225  0.5936365866792528   F   F   F
  0.6651034463889545  0.1238807513998950  0.6116294078250206   F   F   F
  0.3344195365295519  0.8786469591189530  0.6029777543285917   F   F   F
  0.1586538203252204  0.6269500353597905  0.6016554502218909   F   F   F
  0.1660497042660296  0.8729228313321329  0.6181949882671631   F   F   F
  0.5020880699731478  0.3708730495472068  0.5950415414722059   F   F   F
  0.5003054324052840  0.1220722685249314  0.6067495045473592   F   F   F
  0.1675959453188796  0.1224915837107972  0.6215903763428088   F   F   F
  0.1634065788916672  0.3714580684870370  0.6077399096245415   F   F   F
  0.6652773999416510  0.8809141463054218  0.6069005234835956   F   F   F
  0.6664849263241379  0.6263675608780019  0.5936212306889743   F   F   F
  0.0002773785283026  0.3751005516402586  0.6228042913656608   F   F   F
  0.9997371588039385  0.6221115482585375  0.6428008950840649   F   F   F
  0.8342714938531870  0.1240062842480540  0.6178261934047455   F   F   F
  0.5003004852756163  0.8764189467661012  0.6095971042198940   F   F   F
  0.0000000000000000  0.1249999999871179  0.4070133268666680   F   F   F
  0.5040688273348692  0.6248878791015144  0.5939386058974634   F   F   F
  0.9164387473870264  0.9997761713733411  0.6038033541701822   F   F   F
  0.5844919517907101  0.7500395451448085  0.5994754630108048   F   F   F
  0.5904737642415299  0.5010562694979370  0.5935655745031099   F   F   F
  0.2422989651694465  0.4979267319361469  0.5939736068796364   F   F   F
  0.2492349126110369  0.7524945008062147  0.5921568303614393   F   F   F
  0.5848795007416498  0.2471278701688817  0.5969831990017056   F   F   F
  0.5825009945421300  0.0008882641265942  0.6043068059298164   F   F   F
  0.2494416782654341  0.9974492454178332  0.6042225465875717   F   F   F
  0.2493073645433483  0.2459735773354979  0.6037556112089817   F   F   F
  0.4170287310886351  0.0000636296994756  0.6046439122844021   F   F   F
  0.4148660869260183  0.2483681493143806  0.5912235534473069   F   F   F
  0.4160681030733997  0.7499573007751152  0.5945728835129884   F   F   F
  0.7563218702042604  0.5024419527008916  0.5948979508811547   F   F   F
  0.7518087590638771  0.7525448237654615  0.5904794444062844   F   F   F
  0.7544815141759855  0.2479991790752365  0.5927686190951107   F   F   F
  0.7496233396502561  0.0016705822176135  0.6041291691053203   F   F   F
  0.0838830843607425  0.2481075834380277  0.6038087111219070   F   F   F
  0.0813672972937241  0.5001501962618775  0.6035854216469261   F   F   F
  0.0802208440404755  0.7507454099602597  0.6031619094407432   F   F   F
  0.0832763608100464  0.9981858527471132  0.6035084885057813   F   F   F