Au O  Sr Ti H 
 1.0000000000000000
    23.6707801818999997    0.0000000000000000    0.0000000000000000
     0.0000000000000000   22.3170261383000010    0.0000000000000000
     0.0000000000000000    0.0000000000000000   30.0000000000000000
 Au  O   Sr  Ti  H  
  50 264  72  72   1
Selective dynamics
Cartesian
 16.9731939547241595 11.6871497713688406 22.5862215595854963   F   F   F
 14.7617962279469666 12.6849131620587343 21.1163957024936373   F   F   F
 17.1140254961492744  5.6963488787351508 20.7567259373737762   F   F   F
  6.8870453354884233 16.6390742523790642 20.9524412471787755   F   F   F
 12.1619126150559094 13.4862625589630269 23.3046404700137515   F   F   F
 13.6646350637629705 16.1906794689349951 23.7771285855086383   F   F   F
 12.9810055729363842  8.6386946265944999 24.9079270169563642   F   F   F
  5.7118363281377613 10.4488534570087062 21.2788286703207739   F   F   F
  6.7000272748077876 14.7530166199835069 22.9688614142218697   F   F   F
 14.1562952283806496  6.5022454132186631 23.5734346126389660   F   F   F
 12.1814366817598945 10.7896428294619451 20.3413522915040410   F   F   F
 13.3247263600487571 10.8497418958586511 22.8744291377760725   F   F   F
 10.9723952174253618 15.5153462026154525 24.9001936858598185   F   F   F
 18.0547252808424474  9.5626807705767227 21.1220287297463152   F   F   F
 17.3670825825402488 13.7215801928398218 20.8272588406902521   F   F   F
 15.0579453786138231 13.0174435104807191 24.0005752683087188   F   F   F
 14.0848596915619222 17.5200819168007271 21.3762975777557109   F   F   F
 11.4536944119466177 17.3865070844905567 22.7102820814705737   F   F   F
  8.2749811734250542 11.1689660016379104 20.9340240312774171   F   F   F
 10.1726554816938854  8.3126119405619452 24.4979661668761217   F   F   F
  8.7572318693024673  6.6785437700248247 22.6942487557131969   F   F   F
 10.3074069804430408  5.0735536360177820 20.9406197699250285   F   F   F
  9.2175429393046890 18.2069797191278049 21.1952229008950042   F   F   F
  6.8479636387927751 11.9869998795543893 23.3394002387608701   F   F   F
 13.0639583521728646  4.7586633804973992 21.3112510008473244   F   F   F
 10.7413288246678853 12.9372546367084809 21.0938144560582259   F   F   F
 14.6033862640937837  7.0998126855994572 20.9000081387393202   F   F   F
 16.7040635999408664 16.8970670329387929 20.6478597028032809   F   F   F
 15.5267897482094863  9.8262488854302461 24.3677735604695052   F   F   F
  8.7158312529670106 13.8035430556380305 24.6066892360237546   F   F   F
 13.4912299348331857 11.3946727221195179 25.7036504719496008   F   F   F
 15.7252143706614298  4.3897062428830980 22.5838601097241849   F   F   F
 11.1398872642899232 10.0959516559262905 26.4276950201590601   F   F   F
 12.2596001612738839  8.4126333624291139 22.0041390644904489   F   F   F
  6.6864397327852707  7.5812047922505554 21.0779331509893133   F   F   F
 15.8465163595463512 15.1994953364453060 22.4636375293146422   F   F   F
  9.4189374367542165  8.5169443132103169 20.7204587147918922   F   F   F
  8.8997795816425960 10.9986142357763850 24.9890015256574038   F   F   F
 10.9580876875725188 12.8156294835340514 25.9162184475301309   F   F   F
  7.7140009353473928  9.2547435414825099 23.0886274782544447   F   F   F
 11.4518538067926983  6.0144433353171340 23.2597784803514998   F   F   F
 10.0476800054926088 15.5746910442751645 20.9797155922213463   F   F   F
 16.5848715619028440  7.6216115947480150 22.7309759805587603   F   F   F
 18.3183471186244269  9.5162660671543176 23.8209571432480942   F   F   F
  6.0630263255759562 13.2120955240048765 20.8452820092473168   F   F   F
 15.3286783875015242  9.8835068036725495 20.8607751048316743   F   F   F
 13.3870844387695840 14.2825518072625481 25.8246790291376200   F   F   F
 12.8935842231526898 14.8504436038526020 21.0374100511940654   F   F   F
 10.5031609476843091 10.5666470195085598 22.6798722548453640   F   F   F
  8.8276418555794720 16.4619158708356110 23.3419842048633690   F   F   F
  5.9164984569434287  4.2091921265870518 13.6263187710752369   F   F   F
 17.7407284573592001 20.9429606274014439 13.6591876103123511   F   F   F
 17.7301199918853918 15.3689736896754052 13.7237875590675724   F   F   F
 17.7443876821564395  9.7794493159791323 13.6728945024628743   F   F   F
 17.7570066570521128  4.2305519187969631 13.6640588432263534   F   F   F
  9.8842508523705863 20.8820901350991335 13.6179238390658170   F   F   F
  9.8674647102451409 15.2779794991274258 13.6440742638430148   F   F   F
  9.8641141338223601  9.7190791096948264 13.6194726528721723   F   F   F
  1.9969663943028160 15.3300087119118462 13.5926862743002310   F   F   F
  1.9854947581629516 20.9037593341330172 13.6039079509881251   F   F   F
  1.9616317310347466  9.7491363814206373 13.5884934022559953   F   F   F
  1.9846502914878961  4.1639365935917416 13.5896599434065966   F   F   F
 21.6964613989386521 18.1214779499418839 13.6230430706040124   F   F   F
 21.6850932520119031 12.5503786192832223 13.6156835370932221   F   F   F
  5.9458270378933094  9.8028749290868866 13.6473910588830840   F   F   F
 21.6859399866647991  1.3864517470696318 13.6232700888151719   F   F   F
 21.6889570393914930  6.9693265261085866 13.6148892852981813   F   F   F
  9.8773773566551775  4.1747864891306339 13.6060486491982680   F   F   F
  5.9755651028769794 15.3387074543899580 13.6826426007745923   F   F   F
 21.6992317060578124 20.9059884089527408 13.5995279513346095   F   F   F
 13.7947069622566012  4.2267085680173828 13.6563865128743469   F   F   F
  0.0016493193122443  2.7917853171334150 14.9520710117417703   F   F   F
 13.8161475317449600 18.0759776068879745 13.6628269754317770   F   F   F
  0.0004453600140327  8.3390528598173166 14.9564592404512595   F   F   F
 23.6638569347235617 13.9923962398860642 14.9314109774651751   F   F   F
  7.8967877589973430  2.8030660172561985 14.9574983629469660   F   F   F
  0.0013906022205374 19.5299292956169417 14.9858798777348525   F   F   F
  7.8949877890025286 19.5015281817513078 14.9653030473462625   F   F   F
 15.7654190517680490  2.8138664340687778 14.9751198236287699   F   F   F
  7.9472329287363115 13.9511873852623918 15.1297160820719743   F   F   F
  7.9149293288891336  8.4477612249724210 15.0900957815967001   F   F   F
 15.7524936429636107  8.4470874671166740 15.0954163142929048   F   F   F
 21.6666715576963078 15.3247435116054369 13.5893107065517622   F   F   F
 21.6768143804818862  9.7528496584269497 13.6110022840720895   F   F   F
 21.6788750349460457  4.1718685137787102 13.5964244357839767   F   F   F
 13.7933804632037358 20.8939144780981358 13.6151596804537647   F   F   F
 13.7949659461707004 15.3092545617361129 13.6379373154618655   F   F   F
 13.7945191388721149  9.7954715105888877 13.6812629785683395   F   F   F
  5.9172893510488862 20.8880614132980860 13.6219631515549882   F   F   F
 15.7513754565329407 13.9667898486368909 15.0892236305798235   F   F   F
 13.8387062675625856 12.5529242831988306 13.6510851733962255   F   F   F
 13.8003782828178085  1.3980464882116352 13.6397699760083082   F   F   F
 21.6982156369999721 15.3429554700000619 10.8156001569999933   F   F   F
 21.6982156369999721  9.7636982699999884 10.8156001569999933   F   F   F
 21.6982156369999721  4.1844424010000720 10.8156001569999933   F   F   F
 13.8079546360000549 20.9222120050000342 10.8156001569999933   F   F   F
 13.8079546360000549 15.3429554700000619 10.8156001569999933   F   F   F
 13.8079546360000549  9.7636982699999884 10.8156001569999933   F   F   F
 13.8079546360000549  4.1844424010000720 10.8156001569999933   F   F   F
  5.9176950450000287 20.9222120050000342 10.8156001569999933   F   F   F
 21.6982156369999721 20.9222120050000342 10.8156001569999933   F   F   F
  5.9176950450000287 15.3429554700000619 10.8156001569999933   F   F   F
  5.9176950450000287  4.1844424010000720 10.8156001569999933   F   F   F
 17.7530837259999217 20.9222120050000342 10.8156001569999933   F   F   F
 17.7530837259999217 15.3429554700000619 10.8156001569999933   F   F   F
 17.7530837259999217  9.7636982699999884 10.8156001569999933   F   F   F
 17.7530837259999217  4.1844424010000720 10.8156001569999933   F   F   F
  9.8628241350000643 20.9222120050000342 10.8156001569999933   F   F   F
  9.8628241350000643 15.3429554700000619 10.8156001569999933   F   F   F
  9.8628241350000643  9.7636982699999884 10.8156001569999933   F   F   F
  5.9176950450000287  9.7636982699999884 10.8156001569999933   F   F   F
  1.9725650740000149  1.3948141340000613 10.8156001569999933   F   F   F
  1.9725650740000149  6.9740706679999214 10.8156001569999933   F   F   F
  1.9725650740000149 12.5533272030000536 10.8156001569999933   F   F   F
 21.6982156369999721  6.9740706679999214 10.8156001569999933   F   F   F
 21.6982156369999721  1.3948141340000613 10.8156001569999933   F   F   F
 13.8079546360000549 18.1325837370000720 10.8156001569999933   F   F   F
 13.8079546360000549 12.5533272030000536 10.8156001569999933   F   F   F
 13.8079546360000549  6.9740706679999214 10.8156001569999933   F   F   F
 13.8079546360000549  1.3948141340000613 10.8156001569999933   F   F   F
  5.9176950450000287 18.1325837370000720 10.8156001569999933   F   F   F
  5.9176950450000287 12.5533272030000536 10.8156001569999933   F   F   F
  5.9176950450000287  6.9740706679999214 10.8156001569999933   F   F   F
  5.9176950450000287  1.3948141340000613 10.8156001569999933   F   F   F
 17.7530837259999217 18.1325837370000720 10.8156001569999933   F   F   F
 17.7530837259999217 12.5533272030000536 10.8156001569999933   F   F   F
 17.7530837259999217  6.9740706679999214 10.8156001569999933   F   F   F
 17.7530837259999217  1.3948141340000613 10.8156001569999933   F   F   F
  9.8628241350000643 18.1325837370000720 10.8156001569999933   F   F   F
  9.8628241350000643 12.5533272030000536 10.8156001569999933   F   F   F
  9.8628241350000643  6.9740706679999214 10.8156001569999933   F   F   F
  9.8628241350000643  1.3948141340000613 10.8156001569999933   F   F   F
  1.9725650740000149 18.1325837370000720 10.8156001569999933   F   F   F
  9.8628241350000643  4.1844424010000720 10.8156001569999933   F   F   F
  1.9725650740000149 20.9222120050000342 10.8156001569999933   F   F   F
  1.9725650740000149 15.3429554700000619 10.8156001569999933   F   F   F
  1.9725650740000149  9.7636982699999884 10.8156001569999933   F   F   F
 19.7256482699999580 11.1585130689999925 12.2103998060000407   F   F   F
 19.7256482699999580 16.7377696039999648 12.2103998060000407   F   F   F
  1.9809820737747965  1.3804989428430410 13.6258382661517370   F   F   F
  1.9747811544916543  6.9642080435055274 13.6188407638177953   F   F   F
  1.9868155840229824 12.5535430130074417 13.6180095432920787   F   F   F
  1.9769151447207924 18.1241801542289238 13.6259675006765111   F   F   F
  9.8679430935785444  1.3735433479430545 13.6607852674313239   F   F   F
  9.8352543134161099  6.9477008343546034 13.7214235005344101   F   F   F
  9.8487425148393388 12.4862504174316680 13.7360169064257001   F   F   F
  9.8630786011972518 18.0712107497565668 13.6537878410084783   F   F   F
 17.7429090707244015  1.4294007293127744 13.6013255373282629   F   F   F
 17.6897907624565285  7.0067035483559268 13.6546988114393955   F   F   F
 17.7110224193822354 12.5902970240016341 13.6155519124360662   F   F   F
 17.7395319837334391 18.1479069990646842 13.5916295871535198   F   F   F
  5.9296069021969311  1.3838816448415865 13.6280592377279302   F   F   F
 21.6746537824763763  6.9722559329883245 16.3962788802766823   F   F   F
  5.9712884084197020  7.0112272329323293 13.6245372696052591   F   F   F
  5.9628050137182846 12.5990659990129679 13.6140484820846499   F   F   F
  5.9215121417287060 18.0865008139537871 13.6647901366241307   F   F   F
 19.7256482699999580  5.5792565349999723 12.2103998060000407   F   F   F
 13.8286272155249570  7.0219034840730510 13.6232437856714910   F   F   F
 19.7256482699999580  0.0000000000000000 12.2103998060000407   F   F   F
 11.8353900909999528 11.1585130689999925 12.2103998060000407   F   F   F
  1.9725650740000149  4.1844424010000720 10.8156001569999933   F   F   F
  0.0000000000000000  0.0000000000000000 12.2103998060000407   F   F   F
  0.0000000000000000  5.5792565349999723 12.2103998060000407   F   F   F
  0.0000000000000000 11.1585130689999925 12.2103998060000407   F   F   F
  0.0000000000000000 16.7377696039999648 12.2103998060000407   F   F   F
  7.8902602960000570  0.0000000000000000 12.2103998060000407   F   F   F
  7.8902602960000570  5.5792565349999723 12.2103998060000407   F   F   F
  7.8902602960000570 11.1585130689999925 12.2103998060000407   F   F   F
  7.8902602960000570 16.7377696039999648 12.2103998060000407   F   F   F
 15.7805205919999434  0.0000000000000000 12.2103998060000407   F   F   F
 15.7805205919999434  5.5792565349999723 12.2103998060000407   F   F   F
 15.7805205919999434 11.1585130689999925 12.2103998060000407   F   F   F
 15.7805205919999434 16.7377696039999648 12.2103998060000407   F   F   F
  3.9451301480000271  0.0000000000000000 12.2103998060000407   F   F   F
  3.9451301480000271  5.5792565349999723 12.2103998060000407   F   F   F
  3.9451301480000271 11.1585130689999925 12.2103998060000407   F   F   F
  3.9451301480000271 16.7377696039999648 12.2103998060000407   F   F   F
 11.8353900909999528  0.0000000000000000 12.2103998060000407   F   F   F
 11.8353900909999528  5.5792565349999723 12.2103998060000407   F   F   F
 11.8353900909999528 16.7377696039999648 12.2103998060000407   F   F   F
  3.9549644005640432  2.7739418713187489 14.9793743410253608   F   F   F
 21.7208533293343642  1.4137445920289913 16.4237587060296590   F   F   F
  3.9719917718324078 19.4872821106835730 14.9984142437175265   F   F   F
  5.9626031710126570  4.1981703819555962 16.4182997580175147   F   F   F
 17.7334689435130564 20.8494398640984429 16.4256559752515194   F   F   F
 17.7963146909469003 15.1782210136102140 16.6010608446216494   F   F   F
 17.8006530885989562  9.7195625884790626 16.4651299781850255   F   F   F
 10.0166098964684060  9.8977416328265093 16.3795718875194964   F   F   F
 10.0157371070591594 15.3497646788697448 16.4036644065627542   F   F   F
 17.7285503403698286  4.1115855698986632 16.5101134007429771   F   F   F
  9.8474975094872317 20.9077375819361713 16.3792256706960941   F   F   F
  1.9793373120883959 20.9544498166000999 16.3721885891669530   F   F   F
  9.8404784121351607  4.2700997632311459 16.3949951604439654   F   F   F
  2.0444361219954237 15.3899317352487603 16.3554538503810107   F   F   F
  1.9608210748984209  9.7863407656968757 16.3589421935154498   F   F   F
  1.9837390312222758  4.2152192415291498 16.3698791360519031   F   F   F
 11.8229216647957500  2.8025096838252943 14.9889206563191983   F   F   F
 23.6635308470370553 11.1323220696704723 17.8398143988160669   F   F   F
 23.6578014403763461 16.8215189476598965 17.7659783968885741   F   F   F
  7.9216852279682612  5.6814074964414356 17.7812892615539546   F   F   F
  7.9054467548046450 22.3127138040469397 17.7606939292804995   F   F   F
 23.6636186241962569 22.2838237668475436 17.7836716613047408   F   F   F
  0.0278533318578921  5.5742754429500962 17.7565841846212678   F   F   F
  7.8916314611552503 11.0799939727056085 17.7344638496651754   F   F   F
  7.9444875019544119 16.5128697212927236 17.7353719187974903   F   F   F
 15.7108909290161751  5.5126589586805705 17.7219779677738778   F   F   F
 15.7598923074508797  0.0130280252094555 17.7562976217375095   F   F   F
 15.7643306153824803 16.5594397587848050 17.6990328837325528   F   F   F
 15.7836921577037170 11.0275012670604209 17.7411787523824955   F   F   F
  3.9616419011404052 22.2785223802677912 17.7685438013310915   F   F   F
  3.9894011879730424  5.5622496620330786 17.7929977203230365   F   F   F
  4.0384081498620157 16.7363781020082563 17.8464923638227795   F   F   F
  5.8783683562247857  9.7287032599989232 16.4740610799635299   F   F   F
  3.9165574653830122 11.2281708800632121 17.6298798275220463   F   F   F
  5.8978156766832575 15.2490778262323943 16.5592061067293166   F   F   F
 13.7478209527893664  4.1486310530979269 16.4857792584173417   F   F   F
 21.6676591997696413 18.1453774329297950 16.4086233629762646   F   F   F
 21.7004261453429983 12.5741702102611637 16.3990938050377899   F   F   F
 13.7570148503815659 12.5008907074873790 16.4779939917360849   F   F   F
 13.8772474067349965 18.1809798869283021 16.5117855499233990   F   F   F
 13.8017653282014052  6.9523092801086763 16.3668507564394652   F   F   F
 13.7929051953913593  1.4090859566586835 16.4017152368448329   F   F   F
  6.0065207703286569 18.1382674494184393 16.5381050814483679   F   F   F
  5.9741464890761637 12.4740422659650747 16.3208777737001931   F   F   F
  5.9056184605139270  7.0018929925985178 16.3789262254579278   F   F   F
  5.9427486548558965  1.3945722707777086 16.4189090923994705   F   F   F
 17.7192448983149156 18.0380253518333902 16.3703143583716511   F   F   F
 17.6725309242743371 12.4489495205251366 16.3419333849542703   F   F   F
  9.7963829127144670 18.1086035030717447 16.4408348976849616   F   F   F
 17.7131525047563798  1.3360272699680216 16.3322446761529712   F   F   F
 17.7006615581087594  6.9713618082505056 16.4736228076650626   F   F   F
  9.8498914081561733  7.1275639467483556 16.5766505158153841   F   F   F
  9.9512572883317478 12.6005622840026135 16.6664048855189719   F   F   F
  9.8574113458040600  1.4568132951397290 16.4197211510042003   F   F   F
  2.0089430781995561 18.1420001574266223 16.4193854642897783   F   F   F
  1.9507354540557507 12.5875020489792036 16.3922721086931880   F   F   F
  2.0449761028732838  6.9946198560823385 16.4074427446113020   F   F   F
  1.9487388385358597  1.4104192510181242 16.4258158055328316   F   F   F
 21.6760680141228974 20.9494824909474247 16.3824946843444224   F   F   F
 21.6174053173056180 15.3866357845635822 16.3484316520914454   F   F   F
 13.8130821600102660 20.9369945862674705 16.3693274131298949   F   F   F
 21.7013297605925040  4.2143894409976763 16.3632938128115839   F   F   F
 21.6751432502554628  9.7601775155076336 16.3754301432711209   F   F   F
 13.6501152319086767  9.7311862577812569 16.5529789050573299   F   F   F
 13.7188220381433652 15.3188050054762073 16.4148158790738634   F   F   F
  5.9538382775611014 20.9170046777786851 16.3559385041364678   F   F   F
 11.7803571911920866 11.2518338212003712 18.2710400595977696   F   F   F
 11.8028870374358057  5.6411789084175199 17.7264169889593397   F   F   F
 11.8255577847238609  0.0007801819776667 17.7300620826701092   F   F   F
 17.8325669494236081 15.4519315372903012 19.7158109011616354   F   F   F
 17.7144563633190302 20.9055686992909244 19.1962915163641838   F   F   F
  5.9993096593551032  4.1591051528631580 19.2340070581831348   F   F   F
 17.6822541890718838  4.3119927902063475 19.3736409209477181   F   F   F
 17.8602972763348014  9.6500208974017525 19.1240160997302766   F   F   F
  9.8780642619607963 20.8650271157243239 19.1911974225847999   F   F   F
  9.9798197035444272 15.0764799942811614 19.0114817940772411   F   F   F
 13.9794190912679746 18.0860705141462041 19.3735668338065885   F   F   F
 21.6901273918813438  1.3906618827171213 19.2441765653057431   F   F   F
 21.6094485958485372 12.5322791935017950 19.2760284098936729   F   F   F
 21.6684012783012676  6.9635564312322211 19.1850364848067869   F   F   F
 21.6334466149050577 18.1349862905970873 19.2479110819828954   F   F   F
 13.7793506605269105  1.4608664876035478 19.1934499455637173   F   F   F
 13.8347529250487540  7.1407061195464969 19.0183963096110311   F   F   F
 13.9962866602621965 12.5984671586741861 19.1854294215150283   F   F   F
  5.8594706063444404 12.8043559239871403 18.8665124733425458   F   F   F
  6.1950480291519927 17.8158537317618375 19.4075105984745733   F   F   F
  5.9025510748088088  7.0585863527070272 19.2446313488122627   F   F   F
  5.9367588606042885  1.3231094691255250 19.2666631562638138   F   F   F
 21.6982156369999721 12.5533272030000536 10.8156001569999933   F   F   F
 11.8253137714039891  8.3494709711733819 14.9972449732532613   F   F   F
 11.8351407358108833 19.4737076527605879 15.0274407450851761   F   F   F
 11.8436886741725917 13.8596250912949976 15.0039642806739835   F   F   F
 19.7008327691136031 13.9050797143769369 14.9997369817372519   F   F   F
 19.7118664854954666 19.5186526249895458 14.9545097416424486   F   F   F
 19.7046121558298708  8.3260576462722451 14.9933428109883202   F   F   F
 19.7149385357396980  2.7793558686884507 14.9871869103495960   F   F   F
  3.9466889838129924  8.3961001749653743 14.9339625575678241   F   F   F
  3.9707475139126207 13.9322283254440809 15.0015911746574009   F   F   F
 13.7609706152875848  9.7712595586990663 19.3766622227976129   F   F   F
 13.7446375198311319 15.2917454913996362 19.1623758794278061   F   F   F
 21.7017691429932214  4.1604234678984007 19.2010137812959769   F   F   F
 13.7716011059329144 20.8725950154498072 19.1720381164185909   F   F   F
 19.6582280502408260 16.7508358128939463 17.7852691778240590   F   F   F
 19.6926212881592164  5.5630605173515759 17.7302385396502800   F   F   F
 19.7222198751986433 11.2116792895235289 17.6772719274016481   F   F   F
 19.7003497400297611  0.0434522669261998 17.7672388120877223   F   F   F
 11.8616654411630087 16.8790153107792271 17.7855808653905925   F   F   F
  9.8854790095959526  1.4531838845326253 19.2035930360251470   F   F   F
 10.1091988466951204  6.7897619260857311 19.6678885484836208   F   F   F
  9.7523141745653774 18.1314788445513813 19.1930913344903757   F   F   F
  9.4254945791183005 12.2858196770785373 19.5733952517040244   F   F   F
 17.8362306886537993 12.6815801221887909 19.0731337897537152   F   F   F
 17.5428103909575270 18.0730884987896303 19.2000465061305974   F   F   F
 17.6792416586588388  6.9182152900973781 19.2759786347327982   F   F   F
 17.7004059429320009  1.5004757298803464 19.1650703540762954   F   F   F
  1.9852501399254963  6.9592751344538835 19.2168150445452355   F   F   F
 15.7784400201202075 19.5154467703232477 14.9670460507125629   F   F   F
  2.0594194042568259 12.5374040892923162 19.2585481724434295   F   F   F
  1.9789671644514222  1.3494282803527073 19.2460857866408048   F   F   F
  2.0627695095722918  9.7420503336117363 19.1916315954012475   F   F   F
  1.9844128242124512  4.1416110743050014 19.2336102394459090   F   F   F
  9.8876476696003053  4.1777800063972803 19.1889863366034810   F   F   F
  9.8335067650679466  9.3351285544490992 18.9057612560012274   F   F   F
  1.9921603967085835 20.8723640051907857 19.2248493369326710   F   F   F
  1.9651152779547107 15.3343875775427012 19.1956212897432792   F   F   F
 21.6001009147553056  9.7321350285047394 19.1912021254895500   F   F   F
 21.6948872499804608 15.3409067650440996 19.1918988519763332   F   F   F
 21.6437618898026365 20.9022154983087205 19.2281358569222540   F   F   F
  5.6956813546489400  9.8642525979386484 19.2471690823305970   F   F   F
  6.0106704336663066 15.0963072752821486 19.9071658947303725   F   F   F
 13.7181135504492264  4.2695141762785296 19.3558123345579851   F   F   F
  5.9622402934934575 20.7541508237672936 19.1216070869467849   F   F   F
  1.9888095808252881 18.1176248662364117 19.2553050041061979   F   F   F
 21.6982156369999721 18.1325837370000720 10.8156001569999933   F   F   F
  0.0162729465831315  2.7434148715822371 18.5783290113555388   F   F   F
 19.7256482699999580 13.9481413360000008 12.2103998060000407   F   F   F
 23.6615892156710252 11.1706976299079965 15.2193361976792687   F   F   F
  7.8399334751311773 11.1404915070875550 15.0315552758434947   F   F   F
  7.8135118644050285  5.5370689128352950 15.0861474123209867   F   F   F
  7.8839139452882971  0.0207324561673359 15.1732763366779935   F   F   F
  7.9006023122132403 16.7575551624643069 15.0503429741880641   F   F   F
 15.7608440565641832  0.0005730960045148 15.1672228549145913   F   F   F
 15.8257819171428338 11.1537126335413745 15.0213786003609666   F   F   F
 15.7856671133102449  5.5297375525133887 15.0836416333049517   F   F   F
 15.7519180196383477 16.7804151604203007 15.0639726801255094   F   F   F
  3.9289876071329619  0.0247705204962895 15.1955434871215420   F   F   F
  3.9389063399184496  5.5410679192394321 15.1861043397624069   F   F   F
  3.8679389743447965 11.1554377766552832 15.0652924678944728   F   F   F
 11.8379919987659061 22.3010585349123680 15.1656256989765392   F   F   F
  3.8875375721110643 16.7669181111181160 15.1004663699440016   F   F   F
 11.8581120748181483 16.7961415689097748 15.1184588955512655   F   F   F
 19.7474716900916292  0.0059273621455105 15.1937000119229726   F   F   F
 11.8650716990999516 11.1500993875306804 15.0092364414657293   F   F   F
 11.8640764864183748  5.5316423610718610 15.0649095809613431   F   F   F
 19.7858913538766998  5.5433789660833703 15.0811938070811706   F   F   F
 23.6651049263631243 16.7524051356752466 15.1966520393855600   F   F   F
  0.0219869652573770  5.5744062687866807 15.1774178144009717   F   F   F
  0.0005654328114656 22.3167404993873646 15.1940585719239358   F   F   F
 19.7256482699999580 19.5273965409999306 12.2103998060000407   F   F   F
  0.0000000000000000 13.9481413360000008 12.2103998060000407   F   F   F
  0.0000000000000000 19.5273965409999306 12.2103998060000407   F   F   F
  7.8902602960000570  2.7896282670000101 12.2103998060000407   F   F   F
  7.8902602960000570  8.3688848019999824 12.2103998060000407   F   F   F
  7.8902602960000570 13.9481413360000008 12.2103998060000407   F   F   F
  7.8902602960000570 19.5273965409999306 12.2103998060000407   F   F   F
 15.7805205919999434  2.7896282670000101 12.2103998060000407   F   F   F
 15.7805205919999434  8.3688848019999824 12.2103998060000407   F   F   F
 15.7805205919999434 13.9481413360000008 12.2103998060000407   F   F   F
 19.7929062282104624 11.1586673215184735 15.0873496378909842   F   F   F
 15.7805205919999434 19.5273965409999306 12.2103998060000407   F   F   F
  3.9451301480000271  8.3688848019999824 12.2103998060000407   F   F   F
  3.9451301480000271 13.9481413360000008 12.2103998060000407   F   F   F
  3.9451301480000271 19.5273965409999306 12.2103998060000407   F   F   F
 11.8353900909999528  2.7896282670000101 12.2103998060000407   F   F   F
 11.8353900909999528  8.3688848019999824 12.2103998060000407   F   F   F
 11.8353900909999528 13.9481413360000008 12.2103998060000407   F   F   F
 11.8353900909999528 19.5273965409999306 12.2103998060000407   F   F   F
 19.7256482699999580  2.7896282670000101 12.2103998060000407   F   F   F
 19.7256482699999580  8.3688848019999824 12.2103998060000407   F   F   F
  3.9451301480000271  2.7896282670000101 12.2103998060000407   F   F   F
  0.0000000000000000  8.3688848019999824 12.2103998060000407   F   F   F
 19.7868733258991512 16.7763745976165772 15.0756008292016368   F   F   F
 19.8373740736170134  8.3187425487560116 18.0926075248511893   F   F   F
 19.6943772166344786 19.5450424935684950 18.5487937370393254   F   F   F
 19.8926923222382790 13.9830501072115734 18.1004034237890501   F   F   F
 23.6464335491838291 19.5184590679127794 18.6551575339093567   F   F   F
  7.8438917733577789  2.6693037775286479 18.3891818234710982   F   F   F
  7.9139976088607913 13.9231125791599890 17.8653606457519487   F   F   F
  7.7191509141331034  8.3379074047015820 17.7857456372189802   F   F   F
 15.8829512461572602  8.3051691234641911 17.8090976003775268   F   F   F
 15.7435174776971358  2.7646499670237525 18.3488822347506684   F   F   F
  7.9159713377239376 19.6087871529954150 18.0893326298577719   F   F   F
  3.7554597059368842 13.9916603265324913 18.0496635066566924   F   F   F
  3.9305260489507559 19.4810416435580755 18.5458496480149364   F   F   F
 11.8848163362888499  8.2767835407359804 17.8512462441661945   F   F   F
 11.8426199142758541  2.7242900074325265 18.2024851364208047   F   F   F
  3.9671267810209905  2.7336478753956257 18.6477112902843416   F   F   F
  3.8679612092210141  8.2898394237077078 18.2321972887363160   F   F   F
 15.7476350940047531 19.6593840286963548 18.2070157045078744   F   F   F
 15.7762181855684123 13.9786612282976517 17.8086369206693149   F   F   F
  0.0065657661706818  8.3711288154464487 18.6841287409699213   F   F   F
 23.6645585257252087 13.8836796834241074 19.2840268525218583   F   F   F
 19.7478571430240777  2.7674514868772495 18.5347858021422667   F   F   F
 11.8425028118570168 19.5590645430804422 18.2879131265967239   F   F   F
  0.0000000000000000  2.7896282670000101 12.2103998060000407   F   F   F
 11.9317024083917911 13.9456391314152892 17.8181581769239799   F   F   F
 21.6928201395740423 22.3120309489884363 18.1141006251055003   F   F   F
 13.8353805089275497 16.7386521337553589 17.9842638903240584   F   F   F
 13.9769746765402374 11.1820858631445770 17.8069672350933743   F   F   F
  5.7354055428278459 11.1122438915772292 17.8192082063891490   F   F   F
  5.8995848300708849 16.7934394434193699 17.7647049108432675   F   F   F
 13.8445540949549635  5.5151591380612794 17.9094959700512462   F   F   F
 13.7882529975448094  0.0198234137309460 18.1292041778944260   F   F   F
  5.9044791344253422 22.2601008816174470 18.1266763976271648   F   F   F
  5.9012998238344379  5.4893987547274481 18.1126683362693939   F   F   F
  9.8713954231357235  0.0014200256664048 18.1393173685320761   F   F   F
  9.8202039485508479  5.5428384801702801 17.7367066034191616   F   F   F
  9.8486566085505736 16.7368166840071311 17.8371865053896670   F   F   F
 17.9027287363685694 11.2130101914043170 17.8469385264346307   F   F   F
 17.7958998746280770 16.7945625022161060 17.7143833321885786   F   F   F
 17.8591660733667474  5.5346041616989687 17.7830585728532498   F   F   F
 17.7441692920830398  0.0372824270166150 18.1238750731595175   F   F   F
  1.9855780508829071  5.5370234246969261 18.1142613336572147   F   F   F
  1.9260274082350406 11.1618650030522364 18.1075626494078676   F   F   F
  1.8988899652886067 16.7544049372919126 18.0948572832222290   F   F   F
  1.9712164310831173 22.2765397666386455 18.1052546551733720   F   F   F