Au  C  H  O Sr Ti                       
   1.00000000000000     
    23.6707801818999997    0.0000000000000000    0.0000000000000000
     0.0000000000000000   22.3170261383000010    0.0000000000000000
     0.0000000000000000    0.0000000000000000   30.0000000000000000
   Au   C    H    O    Sr   Ti
    50     2     1   266    72    72
Selective dynamics
Direct
  0.7122395707905227  0.5254646640477603  0.7544958279874336   F   F   F
  0.2940054285316336  0.7472530376193021  0.6961037860516512   F   F   F
  0.5095043684503722  0.6060348536890956  0.7780424785246112   F   F   F
  0.5777870997040608  0.7264674526716846  0.7942285943499030   F   F   F
  0.2397111148031570  0.4701440329718594  0.7090459213902065   F   F   F
  0.5993553608077207  0.2985144045136323  0.7849369888349003   F   F   F
  0.5137251334608663  0.4843748487610924  0.6779283643474301   F   F   F
  0.5606869811276454  0.4886343524964829  0.7629768400918877   F   F   F
  0.4828916732671829  0.2744763880889849  0.7742117928663959   F   F   F
  0.5426919557841288  0.3874834194105290  0.8301155239410178   F   F   F
  0.5450424287344404  0.2208471583617850  0.7068404082744095   F   F   F
  0.6267841461636152  0.3164487011369914  0.6949638834799146   F   F   F
  0.2853976463340544  0.6637149472778958  0.7641449386500909   F   F   F
  0.6203169892261613  0.5700671913824635  0.7038339141326944   F   F   F
  0.3914768949776359  0.8180013376584228  0.7062556117069008   F   F   F
  0.7471080566889583  0.2598855975279406  0.6951928491736297   T   T   T
  0.4855465236830270  0.7772248490411542  0.7549027870368548   F   F   F
  0.7311017579478616  0.6150501774780537  0.6942126532841613   F   F   F
  0.7633242972791265  0.4334037200717091  0.7060466217225496   F   F   F
  0.6315964507702461  0.5867100321317906  0.7999688215095304   F   F   F
  0.5959437130688343  0.7847119599486518  0.7128431855342612   F   F   F
  0.4244798655609898  0.3735534382697168  0.8188027466314338   F   F   F
  0.3679902511422100  0.3015351063073908  0.7571641826950426   F   F   F
  0.4278942975484554  0.2273789361485328  0.6993690930964505   F   F   F
  0.4628608284478091  0.6986348173071377  0.8314272757904604   F   F   F
  0.6471967745321976  0.4438311904767218  0.6956008458115974   F   F   F
  0.3482745815899975  0.5010223745514040  0.6977697472407840   F   F   F
  0.2880405006435751  0.5396177252977239  0.7775430535775882   F   F   F
  0.5687664628270355  0.5110755062534267  0.8568344805396393   F   F   F
  0.6396426086451896  0.1880455036628703  0.7493995413691437   T   T   T
  0.4682622757749542  0.4542097913349110  0.8812453693986484   F   F   F
  0.2810177247871408  0.3413978973071963  0.7026943837069268   F   F   F
  0.6686266660247782  0.6822953805510323  0.7488145825956138   F   F   F
  0.3970551015763704  0.3827186896784056  0.6906072960703327   F   F   F
  0.4515021447656196  0.5793186175915253  0.7040462669255092   F   F   F
  0.3747208240312361  0.4957742575671418  0.8326564214331427   F   F   F
  0.3230508999895676  0.4168266084660033  0.7702735197712798   F   F   F
  0.7066048730842240  0.3414975938126261  0.7574719998565840   F   F   F
  0.3680636404855591  0.6207420696274539  0.8199175466884654   F   F   F
  0.7718682934876426  0.4320388672663853  0.7963678381267627   F   F   F
  0.2558953778633608  0.5939567047091217  0.6945723208525436   F   F   F
  0.5631219951972284  0.6414534880257463  0.8624263018483092   F   F   F
  0.5402116313317080  0.6673040340085734  0.7020885384165467   F   F   F
  0.4426154048328996  0.4696201924639993  0.7552838528075441   F   F   F
  0.7064153007919529  0.7574503567249593  0.6882960035016836   F   F   F
  0.3739115005318254  0.7415389827549603  0.7789120010539534   F   F   F
  0.4612662731177863  0.5763478081017865  0.8653717503355480   F   F   F
  0.6517814382241838  0.4343550260209739  0.8100972358858201   F   F   F
  0.4174019212165163  0.6965741011493165  0.6998412684928823   F   F   F
  0.5244664352766790  0.3778484139248093  0.7313930103576851   F   F   F
  0.7652151018528386  0.2053158925055172  0.7471031959057015   T   T   T
  0.7184015765388310  0.1602531584018863  0.7584415982366011   T   T   T
  0.7761736457173072  0.1020987466811434  0.7662588649981572   T   T   T
  0.0833333358191695  0.3124999999901945  0.3605200052333331   F   F   F
  0.0843399151016015  0.6869607746446817  0.4531607100222885   F   F   F
  0.2520882160679392  0.6875649646923065  0.4560486643405497   F   F   F
  0.0840799845491631  0.9368515620774076  0.4536492129471057   F   F   F
  0.0827932443364716  0.4368141919324273  0.4528471363874118   F   F   F
  0.0838646295316892  0.1865646197678146  0.4529761677416957   F   F   F
  0.9165823942661007  0.8121209410744612  0.4540625960472155   F   F   F
  0.7464189135456678  0.5577002054729832  0.5446188186830696   F   F   F
  0.9160844001635198  0.5622183409969637  0.4540625457194380   F   F   F
  0.9162194919979356  0.0622745888580809  0.4540409132395666   F   F   F
  0.9162295905080811  0.3122965349831190  0.4537005441388970   F   F   F
  0.5819607618813194  0.4392492141341791  0.4565710136111107   F   F   F
  0.5829778551479805  0.1903765304170548  0.4556706478819947   F   F   F
  0.5833333134730552  0.6874999999963620  0.3605200052333331   F   F   F
  0.9164524566727508  0.9371214942680055  0.4536561021977690   F   F   F
  0.9999991311576011  0.3738130523491989  0.4982312888443090   F   F   F
  0.9996675631812408  0.6271268134637680  0.4976416935505767   F   F   F
  0.3337462614133457  0.1257506270775437  0.4987799748149442   F   F   F
  0.0000855970653006  0.8751773031252199  0.4995584102528170   F   F   F
  0.3334775005151442  0.8741508003780112  0.4990772351657284   F   F   F
  0.6657747102146416  0.1263599353023537  0.4997412595865285   F   F   F
  0.2511640644335316  0.4392641851828927  0.4549336412585347   F   F   F
  0.0833333358191695  0.5625000000092442  0.3605200052333331   F   F   F
  0.9166666865332829  0.0625000000159659  0.3605200052333331   F   F   F
  0.7494960703112170  0.8131889086000541  0.4529756927417594   F   F   F
  0.7497229840991011  0.4385587543126164  0.4557104606894882   F   F   F
  0.9160254525515228  0.3126661246727380  0.5463788204077318   F   F   F
  0.4172869731794719  0.6846715561252310  0.4547960961116857   F   F   F
  0.0000642967323685  0.1251895079630927  0.4984610712259894   F   F   F
  0.5833074791085480  0.8103711515086829  0.4553526937525092   F   F   F
  0.4169002958206605  0.1872639980120852  0.4537481201964724   F   F   F
  0.4165993266803127  0.8099586603525921  0.4550553185836748   F   F   F
  0.4159629336093076  0.9370070649043711  0.5460049165922243   F   F   F
  0.5833333134730552  0.0625000000159659  0.3605200052333331   F   F   F
  0.9166666865332829  0.1875000000030838  0.3605200052333331   F   F   F
  0.5833333134730552  0.9375000000154046  0.3605200052333331   F   F   F
  0.0808918299604713  0.5644818091149517  0.5464416145925384   F   F   F
  0.5833333134730552  0.4374999701794380  0.3605200052333331   F   F   F
  0.5833333134730552  0.1875000000030838  0.3605200052333331   F   F   F
  0.2499999999799343  0.9375000000154046  0.3605200052333331   F   F   F
  0.9166666865332829  0.9375000000154046  0.3605200052333331   F   F   F
  0.2499999999799343  0.6874999999963620  0.3605200052333331   F   F   F
  0.2499999999799343  0.1875000000030838  0.3605200052333331   F   F   F
  0.7499999404149307  0.9375000000154046  0.3605200052333331   F   F   F
  0.7499999404149307  0.6874999999963620  0.3605200052333331   F   F   F
  0.4174493082843185  0.9357595462799395  0.4539083622281836   F   F   F
  0.5832612815369487  0.0636908297333179  0.4538219545291042   F   F   F
  0.7499999404149307  0.4374999701794380  0.3605200052333331   F   F   F
  0.4166666269218169  0.6874999999963620  0.3605200052333331   F   F   F
  0.4166666269218169  0.4374999701794380  0.3605200052333331   F   F   F
  0.2499999999799343  0.4374999701794380  0.3605200052333331   F   F   F
  0.0833333358191695  0.0625000000159659  0.3605200052333331   F   F   F
  0.9152995413831420  0.6868672982543202  0.4533300763671733   F   F   F
  0.6653630323626345  0.3797237961694293  0.5027605947278388   F   F   F
  0.3344275190929480  0.3784613979786542  0.5030055680991268   F   F   F
  0.3355693461671336  0.6257660509418912  0.5037588118180309   F   F   F
  0.9175479523494303  0.0633802360047540  0.5474259102730130   F   F   F
  0.7495304445605697  0.9383797277865753  0.4553580237524812   F   F   F
  0.2499991329735352  0.9360672201594653  0.4539805021522056   F   F   F
  0.2500370370574245  0.1884518422022552  0.4541407286833987   F   F   F
  0.7490803190669766  0.6886726836148753  0.4574444422499724   F   F   F
  0.7499999404149307  0.1875000000030838  0.3605200052333331   F   F   F
  0.4166666269218169  0.9375000000154046  0.3605200052333331   F   F   F
  0.2505330059045363  0.0620478887458518  0.4542574466473752   F   F   F
  0.7346549794108981  0.1057643949392570  0.7665981810187716   T   T   T
  0.2499999999799343  0.8124999999834799  0.3605200052333331   F   F   F
  0.0833333358191695  0.1875000000030838  0.3605200052333331   F   F   F
  0.5833333134730552  0.8124999999834799  0.3605200052333331   F   F   F
  0.2499999999799343  0.3124999999901945  0.3605200052333331   F   F   F
  0.7499999404149307  0.5625000000092442  0.3605200052333331   F   F   F
  0.7499999404149307  0.3124999999901945  0.3605200052333331   F   F   F
  0.7499999404149307  0.0625000000159659  0.3605200052333331   F   F   F
  0.4166666269218169  0.8124999999834799  0.3605200052333331   F   F   F
  0.4166666269218169  0.3124999999901945  0.3605200052333331   F   F   F
  0.7499999404149307  0.8124999999834799  0.3605200052333331   F   F   F
  0.4166666269218169  0.0625000000159659  0.3605200052333331   F   F   F
  0.4168184785882048  0.0615320516614730  0.4553500329711682   F   F   F
  0.0834661042464546  0.8121689069241569  0.4541519713579802   F   F   F
  0.4166666269218169  0.5625000000092442  0.3605200052333331   F   F   F
  0.4140485632574666  0.8116286881325934  0.5476712949312272   F   F   F
  0.5833333134730552  0.3124999999901945  0.3605200052333331   F   F   F
  0.0834300526438767  0.3120393477276409  0.4539859348277844   F   F   F
  0.4155618625920283  0.3114124378166068  0.4573575257664331   F   F   F
  0.2511350105672463  0.0625990926331923  0.5472579126366952   F   F   F
  0.8333332538436267  0.4999999999932783  0.4070133268666680   F   F   F
  0.4166666269218169  0.1875000000030838  0.3605200052333331   F   F   F
  0.0833333358191695  0.9375000000154046  0.3605200052333331   F   F   F
  0.0833333358191695  0.8124999999834799  0.3605200052333331   F   F   F
  0.0833333358191695  0.4374999701794380  0.3605200052333331   F   F   F
  0.8333332538436267  0.7500000000123208  0.4070133268666680   F   F   F
  0.5833333134730552  0.5625000000092442  0.3605200052333331   F   F   F
  0.0837186034005128  0.0618947016987548  0.4542027447265795   F   F   F
  0.4159168579913981  0.5594620601374487  0.4578915181238941   F   F   F
  0.0833333358191695  0.6874999999963620  0.3605200052333331   F   F   F
  0.0839677028346841  0.5625218987976908  0.4539866057917621   F   F   F
  0.2522746322933074  0.3141157221294080  0.4541819337766455   F   F   F
  0.2499999999799343  0.0625000000159659  0.3605200052333331   F   F   F
  0.2499999999799343  0.5625000000092442  0.3605200052333331   F   F   F
  0.1666666716383389  0.4999999999932783  0.4070133268666680   F   F   F
  0.6666666865533486  0.7500000000123208  0.4070133268666680   F   F   F
  0.0000000000000000  0.0000000000000000  0.4070133268666680   F   F   F
  0.0000000000000000  0.2500000000190425  0.4070133268666680   F   F   F
  0.4166354351403001  0.0652227403561767  0.5473094286323814   F   F   F
  0.7482012086496752  0.5643343052845822  0.4537919956822094   F   F   F
  0.3333333432766779  0.0000000000000000  0.4070133268666680   F   F   F
  0.3333333432766779  0.4999999999932783  0.4070133268666680   F   F   F
  0.3333333432766779  0.7500000000123208  0.4070133268666680   F   F   F
  0.6666666865533486  0.0000000000000000  0.4070133268666680   F   F   F
  0.6666666865533486  0.2500000000190425  0.4070133268666680   F   F   F
  0.6666666865533486  0.4999999999932783  0.4070133268666680   F   F   F
  0.8333332538436267  0.2500000000190425  0.4070133268666680   F   F   F
  0.1666666716383389  0.0000000000000000  0.4070133268666680   F   F   F
  0.5843304893107302  0.3152257099957083  0.4540331857877575   F   F   F
  0.5000000000021103  0.4999999999932783  0.4070133268666680   F   F   F
  0.9166666865332829  0.4374999701794380  0.3605200052333331   F   F   F
  0.5000000000021103  0.0000000000000000  0.4070133268666680   F   F   F
  0.9166666865332829  0.3124999999901945  0.3605200052333331   F   F   F
  0.3333333432766779  0.2500000000190425  0.4070133268666680   F   F   F
  0.7477032674993680  0.3144690582622403  0.4539691828031067   F   F   F
  0.0000000000000000  0.7500000000123208  0.4070133268666680   F   F   F
  0.5844485146541842  0.5627429974621663  0.4549138128815287   F   F   F
  0.7493079915192027  0.0640212487532921  0.4533108442013756   F   F   F
  0.8333332538436267  0.0000000000000000  0.4070133268666680   F   F   F
  0.5827321986689640  0.6860769338353947  0.4546559390688429   F   F   F
  0.2517703864437735  0.5645392350108835  0.4538238315035628   F   F   F
  0.1666666716383389  0.2500000000190425  0.4070133268666680   F   F   F
  0.2504776281868359  0.8108029049619745  0.4553014053758133   F   F   F
  0.1666666716383389  0.7500000000123208  0.4070133268666680   F   F   F
  0.7477966855405427  0.8076152186164762  0.5453917794303180   F   F   F
  0.5000000000021103  0.2500000000190425  0.4070133268666680   F   F   F
  0.5000000000021103  0.7500000000123208  0.4070133268666680   F   F   F
  0.9166666865332829  0.6874999999963620  0.3605200052333331   F   F   F
  0.0000000000000000  0.4999999999932783  0.4070133268666680   F   F   F
  0.5003999549014253  0.7566885108971064  0.5925175568727639   F   F   F
  0.4993670435088262  0.1255577301077864  0.4989407820906777   F   F   F
  0.9995071484143381  0.4985089494892421  0.5941402231490187   F   F   F
  0.5786323581208492  0.1845369191057316  0.5504919073838508   F   F   F
  0.9996789771261092  0.7536529628129927  0.5928016258260271   F   F   F
  0.8101208570324232  0.2024669087631636  0.7663446376303704   T   T   T
  0.9998513636471031  0.9988336524919532  0.5930827138847690   F   F   F
  0.0002771687036400  0.2500296212722901  0.5920479588895091   F   F   F
  0.3332511244559555  0.4959913261417199  0.5911772940402713   F   F   F
  0.3352297845669199  0.7407838494407599  0.5903922689199845   F   F   F
  0.6642423158130271  0.2422632731038945  0.5905807553486468   F   F   F
  0.6661191801407327  0.0009483209587771  0.5919610819440351   F   F   F
  0.6654814716097732  0.7412329775004238  0.5908486660429091   F   F   F
  0.5825146064111451  0.9371557881855566  0.4544129739554776   F   F   F
  0.6667066294852901  0.4939499369267253  0.5913614058165493   F   F   F
  0.0835453465725067  0.1889568336076906  0.5455883562822166   F   F   F
  0.1683707610547955  0.2487972905151281  0.5932549277682497   F   F   F
  0.2482957965827666  0.4359222895174923  0.5491324011323329   F   F   F
  0.1654587762533382  0.5033175951847042  0.5872629684550574   F   F   F
  0.3347276172217377  0.2545576392423214  0.5926416593776409   F   F   F
  0.4997376145530765  0.0001642416085090  0.5911191389002965   F   F   F
  0.8326833273563281  0.8741726868997262  0.4986615781203625   F   F   F
  0.7483548614214115  0.9368436281039649  0.6400602864266958   F   F   F
  0.8323864376698680  0.0015073373322778  0.5920280357040681   F   F   F
  0.7500269586199835  0.1831695951856673  0.5505845242669452   F   F   F
  0.4228843988448148  0.6876169402296384  0.5468768971248963   F   F   F
  0.4232728836195108  0.4434252527617772  0.5460903915553317   F   F   F
  0.7529357943857704  0.4342562391250624  0.5497438169542974   F   F   F
  0.5845584923476181  0.3103959545956343  0.5457302203093803   F   F   F
  0.1674206931923692  0.9984599145367170  0.5923214469366727   F   F   F
  0.9141509324957440  0.5627158906304999  0.6409219906273336   F   F   F
  0.1708685426144712  0.7503415294739924  0.5950055224120163   F   F   F
  0.5907288364135752  0.8105250345215396  0.6460109078219745   F   F   F
  0.0829215541412296  0.4389532676121917  0.5448519740545379   F   F   F
  0.3340415353622603  0.9998797752080151  0.5919091923111424   F   F   F
  0.6653196332022659  0.6260347671818849  0.5030012703982081   F   F   F
  0.0863559701911143  0.3134544968574673  0.5468620607653918   F   F   F
  0.0851126748082862  0.8126032240542855  0.5473247810943747   F   F   F
  0.0823434030871724  0.0631885814815618  0.5475541540902000   F   F   F
  0.5764618357263345  0.4356446028650822  0.5522815588495931   F   F   F
  0.5859079728175374  0.8142139520867318  0.5504408061049872   F   F   F
  0.2526361810334734  0.5590855643418635  0.5439280792958030   F   F   F
  0.5812200782094479  0.5598969978888277  0.5489875236681243   F   F   F
  0.7460323637710502  0.3103207606543563  0.5459846237423562   F   F   F
  0.9142886592019508  0.6887512691250492  0.5456787748523766   F   F   F
  0.5824484754679204  0.0615494971286026  0.5453337611547582   F   F   F
  0.4158913388004208  0.3192021218610179  0.5526037272115971   F   F   F
  0.9162788403695288  0.1887893801843461  0.5453785483900049   F   F   F
  0.4175923716746439  0.0651646813843172  0.6401038811230464   F   F   F
  0.2532610043310299  0.8125772961143625  0.5505324064946748   F   F   F
  0.5792275619313401  0.6860114335234897  0.5475579246282649   F   F   F
  0.4974751560211885  0.5045874302824060  0.6090052931152101   F   F   F
  0.9179101269022993  0.5638107799012886  0.5471233222352510   F   F   F
  0.4199117129967007  0.5646455765918859  0.5554322237568172   F   F   F
  0.9154380478818638  0.8126511625170423  0.5468018427189349   F   F   F
  0.0840866066227903  0.9384004212078239  0.5461175604584128   F   F   F
  0.2489005215812270  0.6833263160115663  0.5517753430024470   F   F   F
  0.7493076077563359  0.9337629668726279  0.5476377664644048   F   F   F
  0.7516526593258206  0.6800934780843662  0.5533894320547361   F   F   F
  0.9156457663237276  0.9384412862180369  0.5463725351646005   F   F   F
  0.5838907866191576  0.9375631764046517  0.5461706461899780   F   F   F
  0.4122652006054324  0.8128950934675316  0.6393007833800439   F   F   F
  0.7502033614623613  0.1896445862121681  0.4556067534710309   F   F   F
  0.9152861524602756  0.4376334101469368  0.5456398157339066   F   F   F
  0.9157759591907180  0.1868817916001646  0.4532119523955060   F   F   F
  0.2515071449929849  0.9372755635334400  0.5451986597366911   F   F   F
  0.5828338551552292  0.0669167688642602  0.6389113809400015   F   F   F
  0.4173458372916699  0.4354887798895959  0.4542534207916873   F   F   F
  0.7439349751198066  0.3127867932042108  0.6384072469161310   F   F   F
  0.2475952749220980  0.5740127321589128  0.6287408227752991   F   F   F
  0.7536891568624071  0.6922649582979759  0.6575620739834278   F   F   F
  0.2626243882637382  0.8008828062557001  0.6458468184356718   F   F   F
  0.2509513134216732  0.0595204632408937  0.6422701576444751   F   F   F
  0.9166666865332829  0.5625000000092442  0.3605200052333331   F   F   F
  0.4998189004537608  0.3726503207792717  0.5008511484096161   F   F   F
  0.5002282075441968  0.6208930447593701  0.5001186499996706   F   F   F
  0.8323745159422842  0.6230752999983835  0.5001547325825584   F   F   F
  0.2519975256399150  0.1882594901878250  0.5472186554474874   F   F   F
  0.8324926566982285  0.3729308214716838  0.4997096356223878   F   F   F
  0.9138053512980449  0.3120238991019875  0.6398041287309155   F   F   F
  0.1667404557134660  0.3762007327003118  0.4977315657890884   F   F   F
  0.9132469038850815  0.8133905663950998  0.6419161781437595   F   F   F
  0.5806360380459878  0.4384391929906286  0.6461792698208910   F   F   F
  0.5906606049065815  0.5659436747084001  0.6386533315943268   F   F   F
  0.2492946420279480  0.3164729290908284  0.6414038769505979   F   F   F
  0.9158558335572451  0.4369929786214044  0.4535636767436699   F   F   F
  0.1670829098514446  0.1244559896420796  0.4994854229737911   F   F   F
  0.7483147177211080  0.0595234283001318  0.5446291732475927   F   F   F
  0.4256017503678464  0.3049713102022835  0.6569573301926397   F   F   F
  0.0855812297179028  0.6892847978818750  0.5454229770458099   F   F   F
  0.4203865190506306  0.6762111983594892  0.6338787407150761   F   F   F
  0.7554930039212167  0.4365987780082747  0.6395466733157420   F   F   F
  0.4985749085961046  0.2542896211129531  0.5918946177654263   F   F   F
  0.9157613938081468  0.0626417440259743  0.6412001889661383   F   F   F
  0.1675460922637484  0.6242714562338136  0.5002384948831846   F   F   F
  0.4999924569200616  0.8730152800836848  0.5009351272388187   F   F   F
  0.5768829474565464  0.6862539575190709  0.6397318235459508   F   F   F
  0.5884390145459832  0.3200757899728686  0.6338742190800630   F   F   F
  0.4175580879607281  0.9349689952534987  0.6397318698279406   F   F   F
  0.1677462142370345  0.8732810425475535  0.4998651420719398   F   F   F
  0.2493366346622352  0.3137924399292018  0.5459975194725502   F   F   F
  0.9154249581864775  0.1863966452636632  0.6393388072422184   F   F   F
  0.4167998886574722  0.1910368030526115  0.5470155644484080   F   F   F
  0.0836212497985329  0.3118011491823580  0.6404466382068108   F   F   F
  0.8328565084381481  0.1237943072061540  0.4998036913741970   F   F   F
  0.7488812612132136  0.0671495280241388  0.6395245560166600   F   F   F
  0.6664937917885680  0.8742891789869347  0.4987604934132079   F   F   F
  0.0864441279995845  0.5628000204495365  0.6399940310595440   F   F   F
  0.0871407773825155  0.4365344338788901  0.6397267554503898   F   F   F
  0.4171595343088725  0.1872136002990956  0.6398720804576001   F   F   F
  0.4157862260908090  0.4181965670626155  0.6300655065473322   F   F   F
  0.0845036504644554  0.9357624217217619  0.6409936040839028   F   F   F
  0.0839835907223190  0.0608197546428428  0.6420086710103092   F   F   F
  0.8331002501221150  0.5038568400125243  0.5893912497707490   F   F   F
  0.0834177205374260  0.1858617430095748  0.6409560940725001   F   F   F
  0.2400035712270636  0.4422051900906609  0.6415924852800714   F   F   F
  0.9119935812924496  0.4361216498338862  0.6399751426558282   F   F   F
  0.2520569249661833  0.9303386843381247  0.6373141561680171   F   F   F
  0.0833518115303207  0.6871071906510196  0.6388560762324289   F   F   F
  0.7527642698288659  0.1934348996403656  0.6458849913883995   F   F   F
  0.9143332815158729  0.9369992318541378  0.6413236774760662   F   F   F
  0.3977055910208662  0.5503801147492808  0.6523131354393428   F   F   F
  0.2543004301129344  0.6783079658304771  0.6627538585384229   F   F   F
  0.2535747716001566  0.1865181560935412  0.6411988262235155   F   F   F
  0.5778394485327354  0.1925937004084375  0.6459173052323166   F   F   F
  0.5821183793650349  0.9361784644263906  0.6391790173808545   F   F   F
  0.9166666865332829  0.8124999999834799  0.3605200052333331   F   F   F
  0.7411264372356783  0.8099176571157969  0.6397679469677300   F   F   F
  0.8315237920422263  0.2508843108170637  0.5899242045785655   F   F   F
  0.8303078220512816  0.7507341344357386  0.5927010980098331   F   F   F
  0.0846290773549327  0.8126572712982920  0.6424345316261082   F   F   F
  0.9163031392604708  0.6876452334800476  0.6390291624240234   F   F   F
  0.7518773521538833  0.5701352615638413  0.6351900281825635   F   F   F
  0.6674157779264291  0.2476108912379900  0.5025932298688929   F   F   F
  0.3261863956912663  0.3733308217321465  0.5927634135386270   F   F   F
  0.3311782439338629  0.4991386275120959  0.5010127646987854   F   F   F
  0.5009115761674323  0.8771329070447038  0.6093651531832833   F   F   F
  0.9998667881904595  0.7510721038549590  0.5067205889531294   F   F   F
  0.1666666716383389  0.3750000000061604  0.4070133268666680   F   F   F
  0.8350883997776890  0.2486491079463562  0.5029295009115984   F   F   F
  0.8333332538436267  0.6249999999803961  0.4070133268666680   F   F   F
  0.0002784403144673  0.1231039054619814  0.6198603174471202   F   F   F
  0.3303074749726207  0.2480234775371102  0.5029455024895313   F   F   F
  0.6660487115681732  0.0000791359234498  0.5055959723523387   F   F   F
  0.1643810889737196  0.7513789349731610  0.5034132167865550   F   F   F
  0.3338327195419026  0.7510906329772595  0.5014722337213229   F   F   F
  0.5010882517783699  0.7527747140549295  0.5038472757474892   F   F   F
  0.6666666865533486  0.3750000000061604  0.4070133268666680   F   F   F
  0.6653381154531814  0.7517646779864791  0.5021732596456800   F   F   F
  0.0001282672985283  0.9999140149500505  0.5067136966039030   F   F   F
  0.5010951373909904  0.4997041611065214  0.5003657892352322   F   F   F
  0.3333333432766779  0.3750000000061604  0.4070133268666680   F   F   F
  0.0000000000000000  0.8749999404036828  0.4070133268666680   F   F   F
  0.5013131721324910  0.2479649612244401  0.5022701154799805   F   F   F
  0.0006992339604395  0.2499010782230613  0.5059530343835874   F   F   F
  0.6666666865533486  0.6249999999803961  0.4070133268666680   F   F   F
  0.8333332538436267  0.8749999404036828  0.4070133268666680   F   F   F
  0.3333333432766779  0.6249999999803961  0.4070133268666680   F   F   F
  0.3333333432766779  0.8749999404036828  0.4070133268666680   F   F   F
  0.0000000000000000  0.6249999999803961  0.4070133268666680   F   F   F
  0.8342210508540404  0.0000963045792020  0.5061955971802803   F   F   F
  0.6666666865533486  0.1249999999871179  0.4070133268666680   F   F   F
  0.1663618347779234  0.2482399867979623  0.5062860735818333   F   F   F
  0.5002764957089383  0.9991426901867442  0.5054593441673987   F   F   F
  0.1659922094593682  0.0011861274364549  0.5065424461947003   F   F   F
  0.9994542780701110  0.4999938588702122  0.5067698947503558   F   F   F
  0.3333333432766779  0.1249999999871179  0.4070133268666680   F   F   F
  0.3331200583482428  0.0011050471644154  0.5057023778749681   F   F   F
  0.6686199592532063  0.4999111626784014  0.5005868758672136   F   F   F
  0.0000000000000000  0.1249999999871179  0.4070133268666680   F   F   F
  0.8361415951400346  0.3730624643242351  0.6038885516580237   F   F   F
  0.8333332538436267  0.3750000000061604  0.4070133268666680   F   F   F
  0.3314797322107381  0.1197831066333777  0.6123887490673496   F   F   F
  0.8393972037006492  0.6271134381190890  0.6042334234947973   F   F   F
  0.5000000000021103  0.8749999404036828  0.4070133268666680   F   F   F
  0.1635044206777394  0.4998814346927816  0.5019866226590182   F   F   F
  0.8318924817301863  0.8765924542676800  0.6175647114729728   F   F   F
  0.5000000000021103  0.6249999999803961  0.4070133268666680   F   F   F
  0.8357922238081130  0.4999133444311212  0.5030731176663039   F   F   F
  0.1666666716383389  0.6249999999803961  0.4070133268666680   F   F   F
  0.9997996279216039  0.6235706700963988  0.6242074716850610   F   F   F
  0.8333332538436267  0.1249999999871179  0.4070133268666680   F   F   F
  0.1666666716383389  0.8749999404036828  0.4070133268666680   F   F   F
  0.5000000000021103  0.1249999999871179  0.4070133268666680   F   F   F
  0.6664486730341750  0.1250769433426768  0.6127887609819354   F   F   F
  0.5003536580067021  0.1224309520925004  0.6067664752431767   F   F   F
  0.6662493246659977  0.6261271187879913  0.5931838732899166   F   F   F
  0.8360277033164465  0.7515581110855862  0.5025707159878294   F   F   F
  0.5029278655272407  0.3707615953520715  0.5955773210374389   F   F   F
  0.0000000000000000  0.3750000000061604  0.4070133268666680   F   F   F
  0.1666666716383389  0.1249999999871179  0.4070133268666680   F   F   F
  0.5035108918673004  0.6248736868599565  0.5941919176172377   F   F   F
  0.5000000000021103  0.3750000000061604  0.4070133268666680   F   F   F
  0.6666666865533486  0.8749999404036828  0.4070133268666680   F   F   F
  0.3345869704637892  0.8789089750161381  0.6025820572639660   F   F   F
  0.1662822366247951  0.8737934297290195  0.6176016075782726   F   F   F
  0.3341246354071075  0.6245221355591255  0.5950487127815762   F   F   F
  0.1595632848973949  0.6274224745339581  0.6013087039820704   F   F   F
  0.1676110327577192  0.1230975853483542  0.6218952209997752   F   F   F
  0.1632162284488388  0.3712087637299248  0.6075479178507734   F   F   F
  0.6652375717936252  0.8812915275469706  0.6071774360474080   F   F   F
  0.9995309415068903  0.3751022841604055  0.6249963451976299   F   F   F
  0.8343928087343571  0.1240266373006165  0.6126584791037430   F   F   F
  0.9991462851452084  0.8748747878016658  0.6236987277750288   F   F   F
  0.6717291498619460  0.3735487181452655  0.5930756678136859   F   F   F
  0.5847170085321522  0.7499078245750752  0.5997351745433690   F   F   F
  0.5829521838834424  0.0016148469208801  0.6041593569775685   F   F   F
  0.9166666865332829  0.2500000000190425  0.4070133268666680   F   F   F
  0.0830783959956207  0.1247942671232849  0.5067888648534975   F   F   F
  0.0809480649048737  0.6258349593082357  0.5054235147154102   F   F   F
  0.0831706864185335  0.2482386730166368  0.6035281106637953   F   F   F
  0.2496163032295655  0.9978139422889925  0.6041714183328324   F   F   F
  0.2493000524436724  0.2460198432947678  0.6037588726444838   F   F   F
  0.9165416952112011  0.9997386997007425  0.6038190214253163   F   F   F
  0.5902605404536843  0.5012426318045229  0.5935604591320427   F   F   F
  0.4152346670098765  0.2483111381839933  0.5913278451760675   F   F   F
  0.2497836219299572  0.7530452336444640  0.5919092895790641   F   F   F
  0.5853368567560366  0.2479360599902094  0.5963627174593782   F   F   F
  0.7498097872131666  0.0018511108916215  0.6044069511884516   F   F   F