Au  C  H  O Sr Ti 
 1.0000000000000000
    23.6707801818999997    0.0000000000000000    0.0000000000000000
     0.0000000000000000   22.3170261383000010    0.0000000000000000
     0.0000000000000000    0.0000000000000000   30.0000000000000000
 Au  C   H   O   Sr  Ti 
  50   2   1 266  72  72
Selective dynamics
Cartesian
 16.8592663170332493 11.7268086423069615 22.6348748396230732   F   F   F
  6.9593378710576435 16.6764655724740756 20.8831135815495053   F   F   F
 12.0603659073065010 13.5248956705004257 23.3412743557382925   F   F   F
 13.6766714290323002 16.2125931298981421 23.8268578304970404   F   F   F
  5.6741491056637887 10.4922166725987793 21.2713776417062661   F   F   F
 14.1872089965228998  6.6619537681897150 23.5481096650469404   F   F   F
 12.1602747080693554 10.8098061605363647 20.3378509304229809   F   F   F
 13.2718982811256279 10.9048656167353109 22.8893052027566419   F   F   F
 11.4304226495773698  6.1254967273279837 23.2263537859919218   F   F   F
 12.8459419918514985  8.6474775991427091 24.9034657182304677   F   F   F
 12.9015795203818087  4.9286518057292916 21.2052122482322396   F   F   F
 14.8364697453388583  7.0621939347053289 20.8489165043975078   F   F   F
  6.7555849508051136 14.8121438267812504 22.9243481595027987   F   F   F
 14.6833870950705094 12.7222044106696988 21.1150174239809019   F   F   F
  9.2665635273083176 18.2553572336873700 21.1876683512071082   F   F   F
 17.6846305820108718  5.7998736729988289 20.8557854752088048   T   T   T
 11.4932650301865618 17.3453472713877268 22.6470836111057281   F   F   F
 17.3057490029844878 13.7260908871438385 20.8263795985248024   F   F   F
 18.0684816483975155  9.6722821492767181 21.1813986516764245   F   F   F
 14.9503807498506660 13.0936231226879354 23.9990646452858165   F   F   F
 14.1064526328376125 17.5124373212107045 21.3852955660277679   F   F   F
 10.0477695893365837  8.3366018459171212 24.5640823989430217   F   F   F
  8.7106163438694963  6.7293668490771195 22.7149254808513028   F   F   F
 10.1285918583580603  5.0744216613256512 20.9810727928934497   F   F   F
 10.9562769250002177 15.5914514789699172 24.9428182737137689   F   F   F
 15.3196525843863611  9.9049922788617408 20.8680253743480222   F   F   F
  8.2439310637600407 11.1813294287368645 20.9330924172236017   F   F   F
  6.8181433742184305 12.0426628801592415 23.3262916073276365   F   F   F
 13.4631459164155363 11.4056854317026009 25.7050344161891822   F   F   F
 15.1408395842174226  4.1966164204339895 22.4819862410744200   T   T   T
 11.0841333973452407 10.1366117854929403 26.4373610819594198   F   F   F
  6.6519087906540024  7.6189857977653919 21.0808315112078368   F   F   F
 15.8269148352291591 15.2268038417987892 22.4644374778684615   F   F   F
  9.3986040295162994  8.5411430011688374 20.7182188821098912   F   F   F
 10.6874080204034207 12.9286687311938202 21.1213880077651872   F   F   F
  8.8699342552238107 11.0642070648221900 24.9796926429943156   F   F   F
  7.6468668412179941  9.3023303162747588 23.1082055931383117   F   F   F
 16.7258886262359638  7.6212107272828868 22.7241599956975762   F   F   F
  8.7123535268834917 13.8531169930183715 24.5975264006538907   F   F   F
 18.2707247045241985  9.6418226935454623 23.8910351438029593   F   F   F
  6.0572432389678976 13.2553473040119734 20.8371696255763403   F   F   F
 13.3295369639065147 14.3153342587742518 25.8727890554492461   F   F   F
 12.7872307769585269 14.8922415691624384 21.0626561524964124   F   F   F
 10.4770519529222401 10.4805261102924874 22.6585155842262829   F   F   F
 16.7214013021770356 16.9040394094956277 20.6488801050504556   F   F   F
  8.8507769365732010 16.5489448607109253 23.3673600316185066   F   F   F
 10.9185325562953057 12.8623690981595225 25.9611525100663982   F   F   F
 15.4281751508473253  9.6935124690120809 24.3029170765745590   F   F   F
  9.8802291246189604 15.5454624226121023 20.9952380547864195   F   F   F
 12.4145297022189336  8.4324529298751880 21.9417903107305037   F   F   F
 18.1132384678288361  4.5820401396540653 22.4130958771709601   T   T   T
 17.0051258005810659  3.5763739248000292 22.7532479470980995   T   T   T
 18.3726357507583238  2.2785403983707031 22.9877659499446203   T   T   T
  1.9725650740000149  6.9740706679999214 10.8156001569999933   F   F   F
  1.9963915909301952 15.3309215637321863 13.5948213006685741   F   F   F
  5.9671247489914787 15.3444052888175229 13.6814599302164908   F   F   F
  1.9902388319607953 20.9077407985886943 13.6094763884132011   F   F   F
  1.9597806872348877  9.7483937389362971 13.5854140916223276   F   F   F
  1.9851412106811248  4.1635674958402928 13.5892850322508139   F   F   F
 21.6962203732723964 18.1241242694195890 13.6218778814164754   F   F   F
 17.6683180261521109 12.4462100628757888 16.3385645604920313   F   F   F
 21.6844324643384567 12.5470414114608513 13.6218763715831610   F   F   F
 21.6876301934551599  1.3897836272976307 13.6212273971869173   F   F   F
 21.6878692330690441  6.9695299341188122 13.6110163241669504   F   F   F
 13.7754652689836785  9.8027361930601380 13.6971304083332726   F   F   F
 13.7995406601233981  4.2486380054362396 13.6701194364599186   F   F   F
 13.8079546360000549 15.3429554700000619 10.8156001569999933   F   F   F
 21.6931446490628694 20.9137648823417770 13.6096830659331172   F   F   F
 -0.0000205661774749  8.3423956601148355 14.9469386653292826   F   F   F
 23.6629111430387198 13.9956054880997289 14.9292508065172207   F   F   F
  7.9000343904461854  2.8063800313971163 14.9633992444483894   F   F   F
  0.0020261493168705 19.5313547494924755 14.9867523075845028   F   F   F
  7.8936726103034154 19.5084462608519758 14.9723170549719509   F   F   F
 15.7594068161589593  2.8199779789765649 14.9922377875959629   F   F   F
  5.9452493587986446  9.8030703023456471 13.6480092377559483   F   F   F
  1.9725650740000149 12.5533272030000536 10.8156001569999933   F   F   F
 21.6982156369999721  1.3948141340000613 10.8156001569999933   F   F   F
 17.7411567275347117 18.1479581286031291 13.5892707822527132   F   F   F
 17.7465279539279877  9.7873271831749662 13.6713138206845617   F   F   F
 21.6830371283724865  6.9777780768823954 16.3913646122319747   F   F   F
  9.8775082149016580 15.2798330141973313 13.6438828833505923   F   F   F
  0.0015219538183400  2.7938575214532380 14.9538321367797504   F   F   F
 13.8073431164366554 18.0850741699434927 13.6605808125752723   F   F   F
  9.8683552601399143  4.1791755383983427 13.6124436058941143   F   F   F
  9.8612310857772485 18.0758685940312844 13.6516595575102446   F   F   F
  9.8461671652841076 20.9112111592425549 16.3801474977666857   F   F   F
 13.8079546360000549  1.3948141340000613 10.8156001569999933   F   F   F
 21.6982156369999721  4.1844424010000720 10.8156001569999933   F   F   F
 13.8079546360000549 20.9222120050000342 10.8156001569999933   F   F   F
  1.9147727255059321 12.5975552886132718 16.3932484377760588   F   F   F
 13.8079546360000549  9.7636982699999884 10.8156001569999933   F   F   F
 13.8079546360000549  4.1844424010000720 10.8156001569999933   F   F   F
  5.9176950450000287 20.9222120050000342 10.8156001569999933   F   F   F
 21.6982156369999721 20.9222120050000342 10.8156001569999933   F   F   F
  5.9176950450000287 15.3429554700000619 10.8156001569999933   F   F   F
  5.9176950450000287  4.1844424010000720 10.8156001569999933   F   F   F
 17.7530837259999217 20.9222120050000342 10.8156001569999933   F   F   F
 17.7530837259999217 15.3429554700000619 10.8156001569999933   F   F   F
  9.8813508134842731 20.8833702534931867 13.6172508668454899   F   F   F
 13.8062495838744663  1.4213899119285085 13.6146586358731021   F   F   F
 17.7530837259999217  9.7636982699999884 10.8156001569999933   F   F   F
  9.8628241350000643 15.3429554700000619 10.8156001569999933   F   F   F
  9.8628241350000643  9.7636982699999884 10.8156001569999933   F   F   F
  5.9176950450000287  9.7636982699999884 10.8156001569999933   F   F   F
  1.9725650740000149  1.3948141340000613 10.8156001569999933   F   F   F
 21.6658542446742288 15.3288354486851954 13.5999022910151517   F   F   F
 15.7496620802183980  8.4743058844477233 15.0828178418350731   F   F   F
  7.9161602912273130  8.4461329110272523 15.0901670429738068   F   F   F
  7.9431882289061262 13.9652373153308993 15.1127643545410155   F   F   F
 21.7190758864158298  1.4144583835697579 16.4227773081904793   F   F   F
 17.7419703928349861 20.9418449126638002 13.6607407125745102   F   F   F
  5.9176745222820593 20.8902366195045701 13.6194150645662120   F   F   F
  5.9185717415197985  4.2056846882384926 13.6242218605018923   F   F   F
 17.7313155712219483 15.3691262809664497 13.7233332674991040   F   F   F
 17.7530837259999217  4.1844424010000720 10.8156001569999933   F   F   F
  9.8628241350000643 20.9222120050000342 10.8156001569999933   F   F   F
  5.9303117110769143  1.3847243549674650 13.6277233994212530   F   F   F
 17.3898565271736238  2.3603467663608182 22.9979454305632132   T   T   T
  5.9176950450000287 18.1325837370000720 10.8156001569999933   F   F   F
  1.9725650740000149  4.1844424010000720 10.8156001569999933   F   F   F
 13.8079546360000549 18.1325837370000720 10.8156001569999933   F   F   F
  5.9176950450000287  6.9740706679999214 10.8156001569999933   F   F   F
 17.7530837259999217 12.5533272030000536 10.8156001569999933   F   F   F
 17.7530837259999217  6.9740706679999214 10.8156001569999933   F   F   F
 17.7530837259999217  1.3948141340000613 10.8156001569999933   F   F   F
  9.8628241350000643 18.1325837370000720 10.8156001569999933   F   F   F
  9.8628241350000643  6.9740706679999214 10.8156001569999933   F   F   F
 17.7530837259999217 18.1325837370000720 10.8156001569999933   F   F   F
  9.8628241350000643  1.3948141340000613 10.8156001569999933   F   F   F
  9.8664185824154451  1.3732124052723502 13.6605009891350768   F   F   F
  1.9757078062573177 18.1251947245408793 13.6245591407394873   F   F   F
  9.8628241350000643 12.5533272030000536 10.8156001569999933   F   F   F
  9.8008525254990548 18.1131386476492615 16.4301388479367638   F   F   F
 13.8079546360000549  6.9740706679999214 10.8156001569999933   F   F   F
  1.9748544366974887  6.9637902794158810 13.6195780448335793   F   F   F
  9.8366735013968238  6.9497995145449174 13.7207257729929832   F   F   F
  5.9445616311163549  1.3970255865287977 16.4177373791009167   F   F   F
 19.7256482699999580 11.1585130689999925 12.2103998060000407   F   F   F
  9.8628241350000643  4.1844424010000720 10.8156001569999933   F   F   F
  1.9725650740000149 20.9222120050000342 10.8156001569999933   F   F   F
  1.9725650740000149 18.1325837370000720 10.8156001569999933   F   F   F
  1.9725650740000149  9.7636982699999884 10.8156001569999933   F   F   F
 19.7256482699999580 16.7377696039999648 12.2103998060000407   F   F   F
 13.8079546360000549 12.5533272030000536 10.8156001569999933   F   F   F
  1.9816846582291996  1.3813056756333990 13.6260823417973711   F   F   F
  9.8450765194608234 12.4855294194746786 13.7367455437168111   F   F   F
  1.9725650740000149 15.3429554700000619 10.8156001569999933   F   F   F
  1.9875810361789112 12.5538159188342888 13.6195981737528022   F   F   F
  5.9715373664844575  7.0101287812129716 13.6254580132993404   F   F   F
  5.9176950450000287  1.3948141340000613 10.8156001569999933   F   F   F
  5.9176950450000287 12.5533272030000536 10.8156001569999933   F   F   F
  3.9451301480000271 11.1585130689999925 12.2103998060000407   F   F   F
 15.7805205919999434 16.7377696039999648 12.2103998060000407   F   F   F
  0.0000000000000000  0.0000000000000000 12.2103998060000407   F   F   F
  0.0000000000000000  5.5792565349999723 12.2103998060000407   F   F   F
  9.8620858011962795  1.4555776013403676 16.4192828589714708   F   F   F
 17.7105063417784052 12.5942634417754018 13.6137598704661826   F   F   F
  7.8902602960000570  0.0000000000000000 12.2103998060000407   F   F   F
  7.8902602960000570 11.1585130689999925 12.2103998060000407   F   F   F
  7.8902602960000570 16.7377696039999648 12.2103998060000407   F   F   F
 15.7805205919999434  0.0000000000000000 12.2103998060000407   F   F   F
 15.7805205919999434  5.5792565349999723 12.2103998060000407   F   F   F
 15.7805205919999434 11.1585130689999925 12.2103998060000407   F   F   F
 19.7256482699999580  5.5792565349999723 12.2103998060000407   F   F   F
  3.9451301480000271  0.0000000000000000 12.2103998060000407   F   F   F
 13.8315585660564135  7.0349004094384346 13.6209955736327686   F   F   F
 11.8353900909999528 11.1585130689999925 12.2103998060000407   F   F   F
 21.6982156369999721  9.7636982699999884 10.8156001569999933   F   F   F
 11.8353900909999528  0.0000000000000000 12.2103998060000407   F   F   F
 21.6982156369999721  6.9740706679999214 10.8156001569999933   F   F   F
  7.8902602960000570  5.5792565349999723 12.2103998060000407   F   F   F
 17.6987196862658749  7.0180141929250253 13.6190754840932104   F   F   F
  0.0000000000000000 16.7377696039999648 12.2103998060000407   F   F   F
 13.8343523180170802 12.5587501835083906 13.6474143864458490   F   F   F
 17.7367047557920756  1.4287638818337636 13.5993253260413010   F   F   F
 19.7256482699999580  0.0000000000000000 12.2103998060000407   F   F   F
 13.7937257796083674 15.3111968652892951 13.6396781720652776   F   F   F
  5.9596014738226115 12.5988368638337978 13.6147149451068401   F   F   F
  3.9451301480000271  5.5792565349999723 12.2103998060000407   F   F   F
  5.9290008772942295 18.0947096230458833 13.6590421612743409   F   F   F
  3.9451301480000271 16.7377696039999648 12.2103998060000407   F   F   F
 17.7009309641836161 18.0235699435527863 16.3617533829095834   F   F   F
 11.8353900909999528  5.5792565349999723 12.2103998060000407   F   F   F
 11.8353900909999528 16.7377696039999648 12.2103998060000407   F   F   F
 21.6982156369999721 15.3429554700000619 10.8156001569999933   F   F   F
  0.0000000000000000 11.1585130689999925 12.2103998060000407   F   F   F
 11.8448573355042637 16.8870372762420153 17.7755267061829869   F   F   F
 11.8204075169827512  2.8020751446810501 14.9682234627204149   F   F   F
 23.6591140003534228 11.1252372559279156 17.8242066944706465   F   F   F
 13.6966793552130035  4.1183152471639026 16.5147572215155414   F   F   F
 23.6631813200188503 16.8192928703048494 17.7840487747808496   F   F   F
 19.1761927275868942  4.5184592950082854 23.0053391289111140   T   T   T
 23.6672618434635780 22.2909967304765502 17.7924814165431506   F   F   F
  0.0065607994570841  5.5799175932830192 17.7614387666853411   F   F   F
  7.8883141123679694 11.0690513898747991 17.7353188212080610   F   F   F
  7.9351505409091967 16.5320925307998650 17.7117680675996176   F   F   F
 15.7231338451263021  5.4065957982097252 17.7174226604593379   F   F   F
 15.7675606880586940  0.0211637036245240 17.7588324583209634   F   F   F
 15.7524656296023142 16.5421157334469271 17.7254599812872797   F   F   F
 13.7885752011042868 20.9145302205962729 13.6323892186642617   F   F   F
 15.7814660723618250 11.0234936534053176 17.7408421744965175   F   F   F
  1.9775835339385319  4.2169545946331732 16.3676506884666040   F   F   F
  3.9854672739872994  5.5524156355643166 17.7976478330475487   F   F   F
  5.8773552210003945  9.7284891294294802 16.4739720339699254   F   F   F
  3.9165383218589325 11.2325519276033887 17.6178890536517230   F   F   F
  7.9232638480669770  5.6809694886748927 17.7792497813292201   F   F   F
 11.8291792227129111  0.0036653842700293 17.7335741670088254   F   F   F
 19.7102640029847151 19.5089347029291211 14.9598473436109796   F   F   F
 17.7141434227624899 20.9075637358959483 19.2018085928008588   F   F   F
 19.7032363924782317  0.0336392866436791 17.7608410711220053   F   F   F
 17.7537232679926724  4.0878006435004073 16.5175357280082764   F   F   F
 10.0100036474105138 15.3455652282426573 16.4063069137469419   F   F   F
 10.0191993851164440  9.8959329562669183 16.3827117466600534   F   F   F
 17.8225776799898803  9.6913078392738896 16.4923145086289260   F   F   F
 13.8369555758233602  6.9271146319332866 16.3719066092813392   F   F   F
  3.9629784264578154 22.2826560107606468 17.7696434081001300   F   F   F
 21.6386657761857037 12.5581452396376356 19.2276597188199077   F   F   F
  4.0445917122286987 16.7453915259230470 17.8501656723605571   F   F   F
 13.9830124338552970 18.0885083811636562 19.3803272346593083   F   F   F
  1.9628178804185656  9.7961315467934416 16.3455592216362255   F   F   F
  7.9070237551844054 22.3143430784747494 17.7572757693341963   F   F   F
 15.7486347882331348 13.9712342626826516 15.0900381119462690   F   F   F
  2.0441131877884975  6.9953721995358489 16.4058618229617537   F   F   F
  2.0146834160805205 18.1348873912864050 16.4197434328311687   F   F   F
  1.9491325939060107  1.4101812245661030 16.4266246227061004   F   F   F
 13.6453013967326182  9.7222919891494186 16.5684467654877139   F   F   F
 13.8688988313866197 18.1708340508880646 16.5132241831496209   F   F   F
  5.9800955072379631 12.4771271529635435 16.3178423788741220   F   F   F
 13.7579327086026435 12.4952359366406238 16.4696257100438075   F   F   F
 17.6591680914077820  6.9254365267804507 16.3795387122705947   F   F   F
 21.6419258747734808 15.3708800758509785 16.3703632455712658   F   F   F
 13.7870098300838375  1.3736017362182853 16.3600128346427489   F   F   F
  9.8444724603008709  7.1236420969731471 16.5781118163479562   F   F   F
 21.6890350157133511  4.2132175322074570 16.3613564517000967   F   F   F
  9.8847372355488421  1.4542818977478098 19.2031164336914095   F   F   F
  5.9948855621669725 18.1343087567733647 16.5159721948401810   F   F   F
 13.7107682937746507 15.3097350931162985 16.4267377388480540   F   F   F
 11.7756250641338891 11.2608908706701296 18.2701587934563285   F   F   F
 21.7276488406441963 12.5825799121123065 16.4136996670575392   F   F   F
  9.9396378541500514 12.6012100916766681 16.6629667127045735   F   F   F
 21.6691328015593179 18.1359572352126790 16.4040552815680094   F   F   F
  1.9903955816099304 20.9423067282867486 16.3835268137524395   F   F   F
  5.8916695335094369 15.2498112554183827 16.5532602900734460   F   F   F
 17.7366956718255402 20.8388125386729861 16.4291329939321855   F   F   F
 17.7922048720420705 15.1776639268961642 16.6016829616419983   F   F   F
 21.6740496591363438 20.9432187137877577 16.3911760549379757   F   F   F
 13.8211504602988118 20.9236219141301873 16.3851193856993049   F   F   F
  9.7586389401781020 18.1414010486107991 19.1790235014012396   F   F   F
 17.7578988608980666  4.2323031874840300 13.6682026041308315   F   F   F
 21.6655373184241959  9.7666762532424958 16.3691944720172877   F   F   F
 21.6771314258721866  4.1706458279131535 13.5963585718652045   F   F   F
  5.9533703433061920 20.9172032501656169 16.3559597921006521   F   F   F
 13.7961320679487915  1.4933832798342945 19.1673414282000181   F   F   F
  9.8789015743620450  9.7188144837325314 13.6276026237506631   F   F   F
 17.6095212656882403  6.9804710396534224 19.1522174074840130   F   F   F
  5.8607733267580553 12.8102571473074960 18.8622246832590506   F   F   F
 17.8404103575715354 15.4492951689651150 19.7268622195027667   F   F   F
  6.2165241649969518 17.8733225209235584 19.3754045530702328   F   F   F
  5.9402133763635412  1.3283197339107982 19.2681047293342864   F   F   F
 21.6982156369999721 12.5533272030000536 10.8156001569999933   F   F   F
 11.8311033233999368  8.3164469492768234 15.0255344522884435   F   F   F
 11.8407919415645999 13.8564863089835200 15.0035594999902209   F   F   F
 19.7029541958851659 13.9051877561930972 15.0046419774768616   F   F   F
  5.9649780358051938  4.2013919633047010 16.4165596634245787   F   F   F
 19.7057506797496735  8.3227068905612374 14.9912890686717031   F   F   F
 21.6304855996198526  6.9634455120332612 19.1941238619275438   F   F   F
  3.9468766746233026  8.3956815849205366 14.9319469736727086   F   F   F
 21.6172667136645948 18.1524585308860260 19.2574853443127161   F   F   F
 13.7441080222758742  9.7846589300270121 19.3853780946266596   F   F   F
 13.9813973408517995 12.6301797812729060 19.1595999478297507   F   F   F
  5.9009986719689422  7.0627346305843979 19.2421163085179074   F   F   F
 21.6790221144443009  9.7523837261474888 13.6069103023100908   F   F   F
  3.9549828312456858  2.7774875739103182 14.9845626892136750   F   F   F
 17.7131931900568915  1.3283859052152451 16.3388751974276936   F   F   F
 10.0743254779891114  6.8060527012158820 19.7087199057791906   F   F   F
  2.0257744763492287 15.3827868510626438 16.3626893113743037   F   F   F
  9.9508768838816302 15.0910229887999616 19.0163622214522938   F   F   F
 17.8831088247824788  9.7435863407605261 19.1864001994723132   F   F   F
 11.8016570655893478  5.6749881210762148 17.7568385329626963   F   F   F
 21.6767866519029724  1.3979774387763799 19.2360056689841628   F   F   F
  3.9659467203115297 13.9318824061645579 15.0071548464955011   F   F   F
 11.8352115403629359 19.4831048247628793 15.0280538171646576   F   F   F
 13.6552694399304109 15.3151475074648520 19.1919547063785032   F   F   F
 13.9288105637719077  7.1431397710614837 19.0162265724019584   F   F   F
  9.8839257132928378 20.8657275055724796 19.1919560948382291   F   F   F
  3.9706837635507553 19.4890358526156149 14.9959542621581576   F   F   F
  5.9019926703845131  7.0029140839009631 16.3799255841765188   F   F   F
 21.6688229582571630  4.1598188044406692 19.1801642172666256   F   F   F
  9.8659785442513748  4.2633733271024408 16.4104669334522200   F   F   F
  1.9793802225168411  6.9584743962547329 19.2133991462043205   F   F   F
 19.7143633343041849  2.7627207896925503 14.9941107412258088   F   F   F
 17.7266037165220816  1.4985777720891604 19.1857366804998151   F   F   F
 15.7764280380282287 19.5115344598842242 14.9628148023962542   F   F   F
  2.0461999518942342 12.5600227670081477 19.1998209317862454   F   F   F
  2.0626901863013720  9.7421503711431594 19.1918026635117478   F   F   F
  9.8744916374091378  4.1780508113201158 19.1961624137280076   F   F   F
  9.8419843604572996  9.3329037180837311 18.9019651964199973   F   F   F
  2.0002673347122260 20.8834344248035073 19.2298081225169817   F   F   F
  1.9879571148747022  1.3573160540893736 19.2602601303092449   F   F   F
 19.7201328901265320 11.2445862685207967 17.6817374931223981   F   F   F
  1.9745625261166257  4.1478813768546896 19.2286828221749495   F   F   F
  5.6810717773867596  9.8687047857452264 19.2477745584021456   F   F   F
 21.5875995900772928  9.7329382588212852 19.1992542796747578   F   F   F
  5.9663840642002111 20.7623927358454878 19.1194246850405172   F   F   F
  1.9730024084973983 15.3341891335727567 19.1656822869728742   F   F   F
 17.8185175599075301  4.3168917113335219 19.3765497416519139   F   F   F
 21.6429821197575869 20.9110363488558946 19.2397103242819867   F   F   F
  9.4140016221675324 12.2828474068603288 19.5693940631803720   F   F   F
  6.0194895813659004 15.1378166032558905 19.8826157561526387   F   F   F
  6.0023126782227685  4.1625305648070183 19.2359647867055159   F   F   F
 13.6779105666486895  4.2981186460870990 19.3775191569694094   F   F   F
 13.7791961977935919 20.8927192607173851 19.1753705214255881   F   F   F
 21.6982156369999721 18.1325837370000720 10.8156001569999933   F   F   F
 17.5430409828004485 18.0749535237239769 19.1930384090319812   F   F   F
 19.6828168974514561  5.5989917221938033 17.6977261373570016   F   F   F
 19.6540339390880199 16.7541533011163750 17.7810329402949066   F   F   F
  2.0032362870656679 18.1360935650435948 19.2730359487832033   F   F   F
 21.6896101894195823 15.3461966494516577 19.1708748727206419   F   F   F
 17.7975235265836425 12.7237235346867479 19.0557008454769061   F   F   F
 15.7982521692283093  5.5259387318859101 15.0777968960666993   F   F   F
  7.7210864707341518  8.3316337068293116 17.7829024061588186   F   F   F
  7.8392474131861567 11.1392897968227036 15.0303829409635554   F   F   F
 11.8569678100283262 19.5749980132796750 18.2809545954986028   F   F   F
 23.6676269544386777 16.7616957734791399 15.2016176685939399   F   F   F
  3.9451301480000271  8.3688848019999824 12.2103998060000407   F   F   F
 19.7671939435922219  5.5491086413037563 15.0878850273479355   F   F   F
 19.7256482699999580 13.9481413360000008 12.2103998060000407   F   F   F
  0.0065908994775085  2.7473130759218756 18.5958095234135818   F   F   F
  7.8186356325153925  5.5351464311077825 15.0883650746859228   F   F   F
 15.7658926419678966  0.0017660784721546 15.1678791705700906   F   F   F
  3.8910286231583004 16.7685433315639898 15.1023965035965748   F   F   F
  7.9020809218021970 16.7621092883857301 15.0441670116397006   F   F   F
 11.8611498595784290 16.7996929698151440 15.1154182724247192   F   F   F
 15.7805205919999434  8.3688848019999824 12.2103998060000407   F   F   F
 15.7490722775317948 16.7771519684749570 15.0651977893703872   F   F   F
  0.0030361870280298 22.3151072076928472 15.2014108981171692   F   F   F
 11.8613128474011926 11.1519108248315710 15.0109736770568638   F   F   F
  7.8902602960000570  8.3688848019999824 12.2103998060000407   F   F   F
  0.0000000000000000 19.5273965409999306 12.2103998060000407   F   F   F
 11.8664738998392085  5.5338405210283073 15.0681034643993907   F   F   F
  0.0165514133732520  5.5770488946934655 15.1785910315076382   F   F   F
 15.7805205919999434 13.9481413360000008 12.2103998060000407   F   F   F
 19.7256482699999580 19.5273965409999306 12.2103998060000407   F   F   F
  7.8902602960000570 13.9481413360000008 12.2103998060000407   F   F   F
  7.8902602960000570 19.5273965409999306 12.2103998060000407   F   F   F
  0.0000000000000000 13.9481413360000008 12.2103998060000407   F   F   F
 19.7466631178795886  0.0021492318112645 15.1858679154084051   F   F   F
 15.7805205919999434  2.7896282670000101 12.2103998060000407   F   F   F
  3.9379144216857727  5.5399782739414078 15.1885822074549193   F   F   F
 11.8419349600975981 22.2978935327888799 15.1637803250219836   F   F   F
  3.9291651020205802  0.0264708370026541 15.1962733858409731   F   F   F
 23.6578625180570796 11.1583760173960354 15.2030968425106288   F   F   F
  7.8902602960000570  2.7896282670000101 12.2103998060000407   F   F   F
  7.8852116753430064  0.0246613664523708 15.1710713362489784   F   F   F
 15.8267560807135670 11.1565304843218129 15.0176062760165152   F   F   F
  0.0000000000000000  2.7896282670000101 12.2103998060000407   F   F   F
 19.7921238995030571  8.3256447675425722 18.1166565497407461   F   F   F
 19.7256482699999580  8.3688848019999824 12.2103998060000407   F   F   F
  7.8463838759154445  2.6732027216637926 18.3716624720204464   F   F   F
 19.8691866940995823 13.9953069901828453 18.1270027048439104   F   F   F
 11.8353900909999528 19.5273965409999306 12.2103998060000407   F   F   F
  3.8702772006316035 11.1558670440896428 15.0595986797705912   F   F   F
 19.6915440700104440 19.5629367145283553 18.5269413441891260   F   F   F
 11.8353900909999528 13.9481413360000008 12.2103998060000407   F   F   F
 19.7838540075032014 11.1565791745542793 15.0921935299891974   F   F   F
  3.9451301480000271 13.9481413360000008 12.2103998060000407   F   F   F
 23.6660372184777685 13.9162429436186148 18.7262241505518148   F   F   F
 19.7256482699999580  2.7896282670000101 12.2103998060000407   F   F   F
  3.9451301480000271 19.5273965409999306 12.2103998060000407   F   F   F
 11.8353900909999528  2.7896282670000101 12.2103998060000407   F   F   F
 15.7753600419108224  2.7913454138771665 18.3836628294581352   F   F   F
 11.8437614518862162  2.7322947579852555 18.2029942572952770   F   F   F
 15.7706413105081840 13.9732952758901039 17.7955161986975199   F   F   F
 19.7894279911823432 16.7725420095484559 15.0771214796348456   F   F   F
 11.9046949522474712  8.2742962145500503 17.8673196311231948   F   F   F
  0.0000000000000000  8.3688848019999824 12.2103998060000407   F   F   F
  3.9451301480000271  2.7896282670000101 12.2103998060000407   F   F   F
 11.9184956405832736 13.9453224027896123 17.8257575285171903   F   F   F
 11.8353900909999528  8.3688848019999824 12.2103998060000407   F   F   F
 15.7805205919999434 19.5273965409999306 12.2103998060000407   F   F   F
  7.9199346295762618 19.6146345686215859 18.0774617179189541   F   F   F
  3.9360302713002846 19.5004708107373901 18.5280482273481049   F   F   F
  7.9089907980792065 13.9374768232199013 17.8514613834472478   F   F   F
  3.7769874419080716 14.0022037639312078 18.0392611194622141   F   F   F
  3.9674839124692518  2.7471720297808200 18.6568566299933281   F   F   F
  3.8634554657312479  8.2842756829266886 18.2264375355231145   F   F   F
 15.7466923306678375 19.6678060557280610 18.2153230814222944   F   F   F
 23.6596772014171428  8.3711674801437486 18.7498903559288799   F   F   F
 19.7507287609091442  2.7679057064832833 18.3797543731123234   F   F   F
 23.6505720852342094 19.5246035071094539 18.7109618332508845   F   F   F
 15.9003530481566990  8.3364965067762942 17.7922700344105529   F   F   F
 13.8407077775827148 16.7357125223577157 17.9920552363011765   F   F   F
 13.7989330012635829  0.0360385809426903 18.1247807093270232   F   F   F
 21.6982156369999721  5.5792565349999723 12.2103998060000407   F   F   F
  1.9665304494772142  2.7850369213003061 15.2036659456049250   F   F   F
  1.9161038505133612 13.9667751451438154 15.1627054414622577   F   F   F
  1.9687150357908043  5.5399489542491640 18.1058433199139195   F   F   F
  5.9086126435655570 22.2682398312236280 18.1251425499850463   F   F   F
  5.9011267407303771  5.4904312733497722 18.1127661793345389   F   F   F
 21.6952569948903644 22.3111946926914939 18.1145706427594426   F   F   F
 13.9719275031286028 11.1862449156118107 17.8068137739611885   F   F   F
  9.8289285266951953  5.5415661612831633 17.7398353552820076   F   F   F
  5.9125732077427644 16.8057301625657125 17.7572786873719473   F   F   F
 13.8553800686364390  5.5331955314286052 17.8908815237813990   F   F   F
 17.7485826513601168  0.0413112901531731 18.1322085356534579   F   F   F
  5.8375911464045442  8.3225468255582005 15.0825784023255256   F   F   F