Au C  H  O  Sr Ti                       
   1.00000000000000     
    23.6707801818999997    0.0000000000000000    0.0000000000000000
     0.0000000000000000   27.8962826732999716    0.0000000000000000
     0.0000000000000000    0.0000000000000000   30.0000000000000000
   Au   C    H    O    Sr   Ti
    50     4     9   330    90    90
Selective dynamics
Direct
  0.7175138902399141  0.6198777844749159  0.7532126533634056   F   F   F
  0.7051347102898475  0.8053644471122112  0.6887221019279721   F   F   F
  0.6560646100914553  0.5531519661238988  0.8124612352316944   F   F   F
  0.3680018924917690  0.6951347336905869  0.8201214205039875   F   F   F
  0.5698715124326057  0.6088824122371364  0.8572544647883049   F   F   F
  0.6694692742903783  0.3555580141263377  0.7547187697527633   T   T   T
  0.4709049165260524  0.5616998908321307  0.8798652996286478   F   F   F
  0.5182197641307127  0.5013259189145742  0.7336214147255689   F   F   F
  0.2824817895664822  0.4715880881754728  0.7027383976830421   F   F   F
  0.6692124039313185  0.7447042387013170  0.7496381745641898   F   F   F
  0.3977077880448689  0.5058616029749530  0.6909830248743560   F   F   F
  0.6168654632564596  0.4548124289169166  0.6966399244053463   F   F   F
  0.3756164248539307  0.5945608446024337  0.8334648568933005   F   F   F
  0.3257713448837762  0.5321006356145688  0.7701241173592166   F   F   F
  0.4850325798736961  0.4157858444874236  0.7761064600511318   F   F   F
  0.4242832486122552  0.7584318425570373  0.6998451610501988   F   F   F
  0.7008737502957771  0.4741557339515197  0.7577916939694092   F   F   F
  0.7739010438679585  0.5424403649832925  0.7949379516011206   F   F   F
  0.2564048465233384  0.6745730110092296  0.6950148360317598   F   F   F
  0.6472202343671043  0.5542971758538542  0.6955706523883123   F   F   F
  0.5654055976889083  0.7124720475361599  0.8612978530646700   F   F   F
  0.5446069601039270  0.7322388338182577  0.7014316755616292   F   F   F
  0.3728999766699417  0.7908270600292227  0.7780784578092650   F   F   F
  0.4628724012896654  0.6594748899576075  0.8638138191062197   F   F   F
  0.4531707452064211  0.6638921959282058  0.7036104647219403   F   F   F
  0.4435884147750357  0.5786551685876304  0.7566480826450785   F   F   F
  0.2893772695430030  0.6302715425023493  0.7781485219057487   F   F   F
  0.5540209368660882  0.3698720976966428  0.7114046803121994   F   F   F
  0.6235437026846924  0.6545985896529558  0.7042065064993821   F   F   F
  0.7223592974978601  0.4045216386879602  0.6922624658169383   F   F   F
  0.2915565612705180  0.7977699587644338  0.6980444566395718   F   F   F
  0.5135713630645284  0.6840608854396066  0.7772254664280922   F   F   F
  0.5772370530116575  0.7809625804537674  0.7933687885820930   F   F   F
  0.5491485068902264  0.5089143648875591  0.8298455509601297   F   F   F
  0.2409655100199259  0.5754212687816391  0.7098361167039684   F   F   F
  0.2827636129993323  0.7299025461782520  0.7656296940383669   F   F   F
  0.5140403489784049  0.5868349804640260  0.6784244643789918   F   F   F
  0.5624105219318594  0.5889897170460330  0.7629440185049816   F   F   F
  0.6001365350959489  0.4319524583095031  0.7856863961728067   F   F   F
  0.7627558014769278  0.5434892724251341  0.7048934954517776   F   F   F
  0.3911355047174538  0.8533989697463937  0.7063791437973705   F   F   F
  0.4379891872413211  0.3821371648833605  0.6985545474684329   F   F   F
  0.4629971360091858  0.7566437889393782  0.8304906820463387   F   F   F
  0.4296597637353230  0.4976018247004106  0.8165063973347841   F   F   F
  0.3493243402493249  0.6003504045236667  0.6980328882704256   F   F   F
  0.3701636251455369  0.4396186254997190  0.7563847311434557   F   F   F
  0.5942325422798334  0.8279034716685274  0.7128087159157914   F   F   F
  0.6355676230199663  0.6662562356137869  0.8003118904923952   F   F   F
  0.7330623609048530  0.6923332888133729  0.6943617872088268   F   F   F
  0.4840827622204245  0.8239181833031495  0.7577118708004562   F   F   F
  0.7173295660250361  0.2912661584272485  0.7557145026260059   T   T   T
  0.6464454079416768  0.2518425930814132  0.8096273651002051   T   T   T
  0.6100494673471744  0.2074930954321559  0.8183990163099821   T   T   T
  0.6787671231141346  0.2492771642899143  0.7653239983845879   T   T   T
  0.7480354635388267  0.2986216182909800  0.7820925208800418   T   T   T
  0.7067195335465399  0.2175482176892629  0.7658392325243568   T   T   T
  0.6765008767792935  0.2567211604999642  0.8370554510776103   T   T   T
  0.6191275221759511  0.2837863768937083  0.8095968934750175   T   T   T
  0.6496049313206385  0.2432187115145581  0.7375295818907830   T   T   T
  0.5790378039240736  0.2024022407145409  0.7918238151130055   T   T   T
  0.6359141413792671  0.1750597939442287  0.8201916851842554   T   T   T
  0.5874835167884171  0.2107161735069454  0.8500323177176625   T   T   T
  0.7374861322995586  0.2895832232466021  0.7225901917678735   T   T   T
  0.5012495466019473  0.8039247621920040  0.5930769137448735   F   F   F
  0.8329849672661496  0.6024535908896667  0.5899257199907240   F   F   F
  0.8315389583641348  0.3974474624097155  0.5911494880295578   F   F   F
  0.8301593425390763  0.8001142315339393  0.5930528107284303   F   F   F
  0.5813781526118973  0.9478901903099484  0.6380427703545735   F   F   F
  0.8326491150679232  0.2021797267979650  0.5921787779767342   F   F   F
  0.9163521528597229  0.3491742132463216  0.6404802005970680   F   F   F
  0.5807573127036534  0.7473558164561283  0.6387589841722701   F   F   F
  0.5804986679681008  0.5500599067493113  0.6460602390309944   F   F   F
  0.1678116765140132  0.6997850748382533  0.5001762836351276   F   F   F
  0.4178390155593874  0.2524765928412762  0.6389623041466024   F   F   F
  0.7404013647469370  0.8473484644654050  0.6404870652125467   F   F   F
  0.4126614425893536  0.8500736835107929  0.6396657243447947   F   F   F
  0.5837682363641719  0.0506144044321388  0.6419052105939471   F   F   F
  0.7465378483591323  0.4480676930886887  0.6421161423733537   F   F   F
  0.1665347844702936  0.5007895285749058  0.4977734596669947   F   F   F
  0.0868327807794884  0.5497126162314245  0.6398438739221106   F   F   F
  0.0841309489274309  0.2486371201793816  0.6419681000339921   F   F   F
  0.0860544314841150  0.6498842272239145  0.6417606688218740   F   F   F
  0.6663481859144085  0.8988136702505969  0.4990226922595440   F   F   F
  0.0843924558765465  0.4498956502970799  0.6403460211721352   F   F   F
  0.7478101664521120  0.2539928445985282  0.6388081164078443   F   F   F
  0.7521079807423021  0.6556738145101022  0.6353712426791063   F   F   F
  0.4270638391391017  0.4438995538307182  0.6570864520852524   F   F   F
  0.8324209882623208  0.3003228016508714  0.5000833742701047   F   F   F
  0.7475004024930030  0.9471690173658445  0.6393719308747237   F   F   F
  0.8324944816270374  0.8996919822710154  0.4996755146396978   F   F   F
  0.4984604320659045  0.4027143804933360  0.5913736442997433   F   F   F
  0.4974318774135469  0.6032849797419999  0.6093353415971947   F   F   F
  0.2516872872170168  0.9498654906480368  0.5450485546122650   F   F   F
  0.5794646730699142  0.7487886181377306  0.5469541479295401   F   F   F
  0.5762822920409221  0.5480423299557913  0.5521020818771447   F   F   F
  0.9152188749965973  0.5493474886941669  0.5463352846457497   F   F   F
  0.9170732740748377  0.3510450665894354  0.5456638896640555   F   F   F
  0.5839085767319148  0.9506661975893849  0.5456251628527156   F   F   F
  0.9136483772379194  0.7508152439628049  0.5460025137043587   F   F   F
  0.9164195155773172  0.9504225115665932  0.5462960227633999   F   F   F
  0.0827776014236079  0.2500417449551477  0.5473340979856403   F   F   F
  0.0859983383472667  0.4503502087132318  0.5467011941851041   F   F   F
  0.0825015899674355  0.6508719475510958  0.5461184058987101   F   F   F
  0.0855096733034699  0.8497369455680541  0.5474174702215535   F   F   F
  0.4164600401295218  0.2524751531912131  0.5472770814062429   F   F   F
  0.4200600784252586  0.6517519903753737  0.5560062326693540   F   F   F
  0.4156481528331213  0.4551619606164650  0.5525339043629387   F   F   F
  0.7484112842972834  0.4493431793741536  0.5490383457595200   F   F   F
  0.7486519454624556  0.2482967642269998  0.5449594566407114   F   F   F
  0.4152781638353176  0.8488981131876585  0.5485097067477085   F   F   F
  0.7468770924622987  0.6463456658959643  0.5448633846514994   F   F   F
  0.5000663131938907  0.2002395150676861  0.5916239072986187   F   F   F
  0.8326982539505252  0.4983889591683095  0.4995323910241609   F   F   F
  0.7534555615229905  0.7540874527226080  0.6576441423631394   F   F   F
  0.2537270993836458  0.3491718502115546  0.6408469046269971   F   F   F
  0.8322518395212271  0.6991262424175915  0.5000771782267606   F   F   F
  0.5001921288346196  0.6961747886657719  0.5002390150518750   F   F   F
  0.5001150651644863  0.8981620842000666  0.5010388245959163   F   F   F
  0.4994279709190650  0.4982309003669627  0.5001360289433379   F   F   F
  0.9166666865332829  0.6500000000127244  0.3605200052333331   F   F   F
  0.2509484855883670  0.2487544938207122  0.6412286389926791   F   F   F
  0.2486232318637036  0.4530185062590135  0.6418407937340405   F   F   F
  0.2617342863060799  0.8403500980402683  0.6466061595887282   F   F   F
  0.2475727462153401  0.6590304146232668  0.6292205053092133   F   F   F
  0.5917837251007256  0.6510987684613809  0.6396182881139794   F   F   F
  0.5846088054617411  0.4561153871789259  0.6339032247639977   F   F   F
  0.5829484485854195  0.2528000923437830  0.6388489809545632   F   F   F
  0.9143969830502883  0.8500205804710106  0.6415441643951212   F   F   F
  0.9145173210555555  0.4495606763040456  0.6390989296596032   F   F   F
  0.9135707023037156  0.6492583840321871  0.6422245564394089   F   F   F
  0.9159993073174988  0.2504148347229105  0.6414713708433908   F   F   F
  0.5893610244728578  0.8477685428463815  0.6459960285545208   F   F   F
  0.4212578343380926  0.7407499821995529  0.6341738425126522   F   F   F
  0.4173171245139287  0.9473754275986366  0.6390383954981687   F   F   F
  0.7543878631378007  0.5469131349580749  0.6383920191015378   F   F   F
  0.7461780160070148  0.3543113633467811  0.6464851165124372   F   F   F
  0.0839784360227540  0.3488894970948664  0.6417185174652644   F   F   F
  0.4180502599032181  0.3505161299294670  0.6403166301132401   F   F   F
  0.4166666269218169  0.1500000000001833  0.3605200052333331   F   F   F
  0.0845533594357235  0.9488201506552087  0.6405432503324562   F   F   F
  0.4172870995249198  0.0504265012373537  0.5475731732931806   F   F   F
  0.0837021082207912  0.0497203402698148  0.5465763938877544   F   F   F
  0.9162425188285823  0.1506630247623875  0.5463705038731774   F   F   F
  0.5829231531353116  0.1498969791817260  0.5475684579065145   F   F   F
  0.2502107165773211  0.1504352003745595  0.5462713246643744   F   F   F
  0.7500173415178608  0.1487668338030019  0.5478264565630298   F   F   F
  0.4165978615228951  0.1514026542512710  0.5460978598339210   F   F   F
  0.0835614373698093  0.1505069760307194  0.5463021714476781   F   F   F
  0.4999092527803910  0.1001944231443659  0.4988156323722208   F   F   F
  0.8332596999159918  0.1001154283536465  0.4987883646864546   F   F   F
  0.1667951778491883  0.0998697938134114  0.4987648607095565   F   F   F
  0.6663148699368051  0.0996764445583622  0.4990062892783982   F   F   F
  0.3335924938561519  0.0995000085442399  0.4989699825317260   F   F   F
  0.0000506399873785  0.1000261998109337  0.4991239854424663   F   F   F
  0.9166691655906689  0.1499348016222726  0.4537495625203007   F   F   F
  0.7504417277994335  0.0488124110085195  0.5461580661055763   F   F   F
  0.2500016420430384  0.0499083341424438  0.5469252784493221   F   F   F
  0.5824294891128403  0.0502392332821771  0.5474220008123964   F   F   F
  0.9162653081051388  0.0498525882199345  0.5465635784402636   F   F   F
  0.9157054863810714  0.0499724928590410  0.6402730197180659   F   F   F
  0.7503286107539964  0.1511004186984550  0.6415818607709838   F   F   F
  0.2509142295920057  0.1482831003215708  0.6410168904728835   F   F   F
  0.9157886257533931  0.1499046509106918  0.6403061223455566   F   F   F
  0.5832113442122093  0.1508321249543769  0.6427681043215472   F   F   F
  0.4167030693251235  0.1502008913523483  0.6416583602193242   F   F   F
  0.0830610596770711  0.1485018820773121  0.6404511073309607   F   F   F
  0.5833004869055074  0.1510739287230365  0.4546346965361963   F   F   F
  0.0830207401601299  0.0492430775298374  0.6406180460561615   F   F   F
  0.4175653529478183  0.0494500423627500  0.6428667905058916   F   F   F
  0.8326739576045554  0.9976259985958791  0.5921141052350691   F   F   F
  0.4997863941351142  0.0000666861108627  0.5916201247534119   F   F   F
  0.1673026067867411  0.9987334720949406  0.5921424255171246   F   F   F
  0.6660474913885253  0.0000633988131469  0.5918615771910467   F   F   F
  0.9998602384806503  0.9991012379266522  0.5922423770349567   F   F   F
  0.3339961893860419  0.0001535893537508  0.5919587504487041   F   F   F
  0.7501970970822356  0.0496289216882815  0.6406853006419695   F   F   F
  0.4153365113709953  0.5345651565682417  0.6304303571218242   F   F   F
  0.2501757134891918  0.1498176435210397  0.4536847845407692   F   F   F
  0.4166215195715708  0.1499944691569368  0.4537644002033190   F   F   F
  0.5833333134730552  0.1500000000001833  0.3605200052333331   F   F   F
  0.2499999999799343  0.1500000000001833  0.3605200052333331   F   F   F
  0.7499999404149307  0.1500000000001833  0.3605200052333331   F   F   F
  0.7479204003597886  0.8468971316264557  0.5463057584379385   F   F   F
  0.0833333358191695  0.1500000000001833  0.3605200052333331   F   F   F
  0.9166666865332829  0.8499999999890662  0.3605200052333331   F   F   F
  0.0845837769165314  0.8497089776649034  0.6419071695126135   F   F   F
  0.2521073980470590  0.9453091942697966  0.6372703243703413   F   F   F
  0.5802743426972938  0.3532397811396777  0.6456773293497520   F   F   F
  0.2552259914649397  0.7418376329105243  0.6632615212497726   F   F   F
  0.2407997747963719  0.5538507209388968  0.6421895139869349   F   F   F
  0.9159018452177108  0.9493797509715591  0.6414036105933718   F   F   F
  0.9152480918959753  0.7499448040808545  0.6405147199979311   F   F   F
  0.9124498646954322  0.5485964117960762  0.6396000482915198   F   F   F
  0.0841585250278527  0.7497807743429163  0.6406803640336349   F   F   F
  0.9166666865332829  0.1500000000001833  0.3605200052333331   F   F   F
  0.0833333358191695  0.0500000000120124  0.3605200052333331   F   F   F
  0.4166666269218169  0.0500000000120124  0.3605200052333331   F   F   F
  0.7499999404149307  0.0500000000120124  0.3605200052333331   F   F   F
  0.0833624980824865  0.1499625934876576  0.4537634851953101   F   F   F
  0.9166241692838426  0.0497134539299253  0.4538903917828847   F   F   F
  0.5830873906901743  0.0490342551513265  0.4545283677310366   F   F   F
  0.2501325135752879  0.0491202631227949  0.4541715561771085   F   F   F
  0.7499820253811933  0.0499125580127711  0.4536288910187594   F   F   F
  0.4169253842636849  0.0485884515110868  0.4547633904960335   F   F   F
  0.0834062351937988  0.0496676333499408  0.4538846961716345   F   F   F
  0.7497580413334362  0.1506875655620519  0.4544180804238565   F   F   F
  0.8333332538436267  0.0000000000000000  0.4070133268666680   F   F   F
  0.1666666716383389  0.0000000000000000  0.4070133268666680   F   F   F
  0.6666666865533486  0.0000000000000000  0.4070133268666680   F   F   F
  0.3333333432766779  0.0000000000000000  0.4070133268666680   F   F   F
  0.0000000000000000  0.0000000000000000  0.4070133268666680   F   F   F
  0.9166666865332829  0.0500000000120124  0.3605200052333331   F   F   F
  0.5833333134730552  0.0500000000120124  0.3605200052333331   F   F   F
  0.2499999999799343  0.0500000000120124  0.3605200052333331   F   F   F
  0.5000000000021103  0.0000000000000000  0.4070133268666680   F   F   F
  0.2513777580028389  0.2507953873998474  0.5474972852449724   F   F   F
  0.3977161490956149  0.6405681530544456  0.6527046152222269   F   F   F
  0.2523377750058771  0.6472359715130054  0.5443275743751670   F   F   F
  0.0833333358191695  0.4500000000005357  0.3605200052333331   F   F   F
  0.0833333358191695  0.2500000000242011  0.3605200052333331   F   F   F
  0.2499999999799343  0.5499999761504029  0.3605200052333331   F   F   F
  0.4166666269218169  0.5499999761504029  0.3605200052333331   F   F   F
  0.4166666269218169  0.7500000000008953  0.3605200052333331   F   F   F
  0.4166666269218169  0.9500000000130839  0.3605200052333331   F   F   F
  0.7499999404149307  0.3500000000123720  0.3605200052333331   F   F   F
  0.7499999404149307  0.5499999761504029  0.3605200052333331   F   F   F
  0.0833333358191695  0.6500000000127244  0.3605200052333331   F   F   F
  0.7499999404149307  0.7500000000008953  0.3605200052333331   F   F   F
  0.2499999999799343  0.3500000000123720  0.3605200052333331   F   F   F
  0.2499999999799343  0.7500000000008953  0.3605200052333331   F   F   F
  0.9166666865332829  0.9500000000130839  0.3605200052333331   F   F   F
  0.2499999999799343  0.9500000000130839  0.3605200052333331   F   F   F
  0.5833333134730552  0.3500000000123720  0.3605200052333331   F   F   F
  0.5833333134730552  0.5499999761504029  0.3605200052333331   F   F   F
  0.5833333134730552  0.7500000000008953  0.3605200052333331   F   F   F
  0.5833333134730552  0.9500000000130839  0.3605200052333331   F   F   F
  0.7499999404149307  0.9500000000130839  0.3605200052333331   F   F   F
  0.9166666865332829  0.3500000000123720  0.3605200052333331   F   F   F
  0.9166666865332829  0.4500000000005357  0.3605200052333331   F   F   F
  0.5833333134730552  0.8499999999890662  0.3605200052333331   F   F   F
  0.0833333358191695  0.9500000000130839  0.3605200052333331   F   F   F
  0.4166666269218169  0.3500000000123720  0.3605200052333331   F   F   F
  0.0833333358191695  0.8499999999890662  0.3605200052333331   F   F   F
  0.4166666269218169  0.2500000000242011  0.3605200052333331   F   F   F
  0.4166666269218169  0.4500000000005357  0.3605200052333331   F   F   F
  0.4166666269218169  0.6500000000127244  0.3605200052333331   F   F   F
  0.4166666269218169  0.8499999999890662  0.3605200052333331   F   F   F
  0.7499999404149307  0.2500000000242011  0.3605200052333331   F   F   F
  0.9166666865332829  0.2500000000242011  0.3605200052333331   F   F   F
  0.7499999404149307  0.4500000000005357  0.3605200052333331   F   F   F
  0.7499999404149307  0.8499999999890662  0.3605200052333331   F   F   F
  0.2499999999799343  0.2500000000242011  0.3605200052333331   F   F   F
  0.2499999999799343  0.4500000000005357  0.3605200052333331   F   F   F
  0.2499999999799343  0.6500000000127244  0.3605200052333331   F   F   F
  0.2499999999799343  0.8499999999890662  0.3605200052333331   F   F   F
  0.5833333134730552  0.2500000000242011  0.3605200052333331   F   F   F
  0.5833333134730552  0.4500000000005357  0.3605200052333331   F   F   F
  0.5833333134730552  0.6500000000127244  0.3605200052333331   F   F   F
  0.7499999404149307  0.6500000000127244  0.3605200052333331   F   F   F
  0.9166666865332829  0.5499999761504029  0.3605200052333331   F   F   F
  0.9166666865332829  0.7500000000008953  0.3605200052333331   F   F   F
  0.5830926482707923  0.2521385714133473  0.4536038905380195   F   F   F
  0.4168615044497983  0.3504924788830053  0.4542306570345929   F   F   F
  0.9161464650321065  0.4496755958171406  0.4539887836561931   F   F   F
  0.9160657460132384  0.2499098683761503  0.4542472616562989   F   F   F
  0.2510289038481659  0.5518128951134500  0.4553492830083243   F   F   F
  0.9161405161381211  0.6498288789214328  0.4540702217608370   F   F   F
  0.9160665694592822  0.8495514883395927  0.4542791113724434   F   F   F
  0.0837810142036091  0.3498875563832797  0.4537459648022946   F   F   F
  0.0832626906943688  0.5503808140857345  0.4537951619054894   F   F   F
  0.2516250175718682  0.7500848748043012  0.4561348509515639   F   F   F
  0.0837616248249091  0.9493938801108328  0.4536612155372381   F   F   F
  0.4172287530381737  0.5480349374346787  0.4541270008249825   F   F   F
  0.4171901117954562  0.7469393848902897  0.4545353936513052   F   F   F
  0.4174097853949874  0.9477688619627642  0.4541322327666109   F   F   F
  0.7501865326687707  0.3518901029577037  0.4555700079086407   F   F   F
  0.7496349641653239  0.5507140132873545  0.4561388565917639   F   F   F
  0.7487181834745940  0.7507410883459471  0.4571429632127675   F   F   F
  0.7494216821722901  0.9496314904563690  0.4547623755563635   F   F   F
  0.2499849854315244  0.3511123269447296  0.4544536435432391   F   F   F
  0.0844394339264980  0.7500198102347611  0.4536580308795592   F   F   F
  0.9164593742171050  0.9495536133888578  0.4537318645903525   F   F   F
  0.5827359210224188  0.3530418374242501  0.4561350673923101   F   F   F
  0.0000804580678206  0.2998765326639301  0.4987168635239030   F   F   F
  0.5844509478228730  0.6495942212531887  0.4550793769085573   F   F   F
  0.6653173186193939  0.7000789048124432  0.5031011405051089   F   F   F
  0.2506985540225841  0.9482269147048115  0.4536339014988116   F   F   F
  0.5826940638114166  0.5511898964987054  0.4563289687658028   F   F   F
  0.5826717723970845  0.7479954736008168  0.4543451739143478   F   F   F
  0.5826724567555601  0.9479401167702406  0.4537128540884154   F   F   F
  0.9158783434254190  0.3498082608733739  0.4536692428495144   F   F   F
  0.9159390518808905  0.5498414387168324  0.4540297311040007   F   F   F
  0.9149993672650609  0.7497637993213431  0.4535589647806404   F   F   F
  0.6656585332713973  0.5025129957039596  0.5035684842528170   F   F   F
  0.3340409986416688  0.5027691761233299  0.5030192997382557   F   F   F
  0.3355169760846550  0.7003865260419246  0.5040675025840642   F   F   F
  0.6659102997382433  0.3017383799984472  0.4998548365990629   F   F   F
  0.3335986509294671  0.8980940972167772  0.4996705452069037   F   F   F
  0.0001568827951104  0.8994324985343880  0.4993453906429579   F   F   F
  0.3336133016040108  0.3009639975182807  0.4988268575539436   F   F   F
  0.9998521517303089  0.7019568733428301  0.4975997114201505   F   F   F
  0.9999579583831348  0.4993237982758956  0.4984629895537367   F   F   F
  0.5828865121992521  0.8470067420965819  0.4560480811659389   F   F   F
  0.0833333358191695  0.7500000000008953  0.3605200052333331   F   F   F
  0.2492899270405573  0.4511235159268381  0.5461907888425515   F   F   F
  0.2498893372827879  0.0481296072932906  0.6421412665822501   F   F   F
  0.3338551097650182  0.2000675159388763  0.5921171513610730   F   F   F
  0.9164725801827984  0.6503149588442696  0.5462786411060065   F   F   F
  0.5809975303040176  0.6475772007542062  0.5493962158162518   F   F   F
  0.5857756140684458  0.8517597148873222  0.5508766434675749   F   F   F
  0.5829662832895579  0.4483121505049041  0.5452832735670512   F   F   F
  0.5833017153477797  0.2495973579456390  0.5457909168911996   F   F   F
  0.2525747852663827  0.8496630773327638  0.5509058107218650   F   F   F
  0.4230852523221245  0.5545529139636542  0.5462614614000998   F   F   F
  0.7528677053893915  0.5477833078871797  0.5494899252662933   F   F   F
  0.7511899011310632  0.7446601117275193  0.5528100986680187   F   F   F
  0.7482155740509882  0.9477996307563856  0.5470517893910269   F   F   F
  0.9153470105617316  0.8498636095427230  0.5469811431505747   F   F   F
  0.2525707728256990  0.3510916555747130  0.5473942043616944   F   F   F
  0.9166851848197695  0.2506556306910355  0.5471427119912775   F   F   F
  0.1672422195627021  0.3002129331232695  0.4999299196272631   F   F   F
  0.5000000000021103  0.8000000000129006  0.4070133268666680   F   F   F
  0.5000000000021103  0.4000000000243773  0.4070133268666680   F   F   F
  0.5000000000021103  0.2000000000121887  0.4070133268666680   F   F   F
  0.1666666716383389  0.8000000000129006  0.4070133268666680   F   F   F
  0.1666666716383389  0.6000000000007191  0.4070133268666680   F   F   F
  0.1666666716383389  0.4000000000243773  0.4070133268666680   F   F   F
  0.1666666716383389  0.2000000000121887  0.4070133268666680   F   F   F
  0.6666666865533486  0.8000000000129006  0.4070133268666680   F   F   F
  0.1677438770779887  0.8988649179770078  0.4994619618364169   F   F   F
  0.5802401773979113  0.3474525753915927  0.5509227930793159   F   F   F
  0.2495919713800774  0.7464755651233688  0.5523406105092050   F   F   F
  0.1654452102824138  0.6025463681165348  0.5883094465404710   F   F   F
  0.0839625531312649  0.9503812824223488  0.5459563465265589   F   F   F
  0.4156447551676905  0.3527324851532470  0.5475884103776565   F   F   F
  0.0866222985741274  0.7511138340471248  0.5460058780358921   F   F   F
  0.0831420513839731  0.5502418297607292  0.5459891983151195   F   F   F
  0.0836056399661160  0.3506704122151021  0.5463833279238486   F   F   F
  0.4993867074230707  0.3009546823670703  0.4996841084943568   F   F   F
  0.9995079875860284  0.5991420555675901  0.5942654069142890   F   F   F
  0.9998047090229392  0.8013307479955998  0.5930747541146744   F   F   F
  0.3346518202445168  0.4040910402126983  0.5933752571144097   F   F   F
  0.4225146048772075  0.7500467713764749  0.5467696532860415   F   F   F
  0.9998820164198321  0.2001432832785852  0.5924679838393700   F   F   F
  0.0010121025844896  0.3998958456885333  0.5924089732858349   F   F   F
  0.3332606029144145  0.5969003077772328  0.5913967947845649   F   F   F
  0.3356531304391979  0.7929319207967112  0.5909918614410117   F   F   F
  0.6635634833362971  0.3977297275469311  0.5906670682653541   F   F   F
  0.0833333358191695  0.5499999761504029  0.3605200052333331   F   F   F
  0.6662245681590235  0.2001120399502341  0.5921487082757793   F   F   F
  0.6656552479476900  0.7933486846099740  0.5905155541655276   F   F   F
  0.6667053973999799  0.5948171384015097  0.5910267998532035   F   F   F
  0.1671542756223587  0.1994323986556310  0.5922758165250741   F   F   F
  0.1684179590658061  0.3983323744465750  0.5931304912090525   F   F   F
  0.1709789130722115  0.7992515927998198  0.5956533782958289   F   F   F
  0.2478564157391077  0.5486159639890360  0.5495018365051010   F   F   F
  0.6666666865533486  0.6000000000007191  0.4070133268666680   F   F   F
  0.6666666865533486  0.4000000000243773  0.4070133268666680   F   F   F
  0.6666666865533486  0.2000000000121887  0.4070133268666680   F   F   F
  0.3333333432766779  0.8000000000129006  0.4070133268666680   F   F   F
  0.4156831842404998  0.6469571641937435  0.4582763696190071   F   F   F
  0.4170820722032005  0.8470324440174295  0.4555317246670185   F   F   F
  0.7490279285394124  0.2515343022041634  0.4535327758398253   F   F   F
  0.7475606895266651  0.4510873133566378  0.4552040151988379   F   F   F
  0.7483405943159624  0.6512749925935708  0.4538605989145807   F   F   F
  0.7499862450207431  0.8498996977954008  0.4537724257302145   F   F   F
  0.4150858323866586  0.4489952629322147  0.4572949463353595   F   F   F
  0.2501138549825441  0.2503579863171410  0.4543340172677190   F   F   F
  0.2519883629209971  0.4517361532659478  0.4539207430469148   F   F   F
  0.2520374970531378  0.6518741819159075  0.4538851761471534   F   F   F
  0.2506001296837965  0.8482743394679844  0.4555474530215662   F   F   F
  0.8333332538436267  0.4000000000243773  0.4070133268666680   F   F   F
  0.5843191229546036  0.4524090925997939  0.4536341100294834   F   F   F
  0.8333332538436267  0.2000000000121887  0.4070133268666680   F   F   F
  0.4159844202813403  0.9485128693482849  0.5466370841579078   F   F   F
  0.4163067883788401  0.2501847828450607  0.4550618685679311   F   F   F
  0.9152016724145398  0.4495489157827208  0.5464359820782221   F   F   F
  0.0840120402559563  0.6503369392685840  0.4538044782103796   F   F   F
  0.0837752328512451  0.8494092849840840  0.4543418017403766   F   F   F
  0.3333333432766779  0.6000000000007191  0.4070133268666680   F   F   F
  0.3333333432766779  0.4000000000243773  0.4070133268666680   F   F   F
  0.3333333432766779  0.2000000000121887  0.4070133268666680   F   F   F
  0.0000000000000000  0.8000000000129006  0.4070133268666680   F   F   F
  0.0000000000000000  0.6000000000007191  0.4070133268666680   F   F   F
  0.0000000000000000  0.4000000000243773  0.4070133268666680   F   F   F
  0.7475098236962410  0.3470488388396333  0.5508978370212674   F   F   F
  0.0000000000000000  0.2000000000121887  0.4070133268666680   F   F   F
  0.0833333358191695  0.3500000000123720  0.3605200052333331   F   F   F
  0.5000000000021103  0.6000000000007191  0.4070133268666680   F   F   F
  0.8333332538436267  0.6000000000007191  0.4070133268666680   F   F   F
  0.8333332538436267  0.8000000000129006  0.4070133268666680   F   F   F
  0.0839311517120933  0.2498153109288950  0.4542413216993353   F   F   F
  0.0832965049121697  0.4498267820216668  0.4538731847241948   F   F   F
  0.8325794872734633  0.1002622812180505  0.6176169415480430   F   F   F
  0.3338796123682997  0.0985446265243795  0.6203417460278970   F   F   F
  0.6670770957312726  0.1006462870618918  0.6193224753221500   F   F   F
  0.5001647523907522  0.1003277125922963  0.6205426725196617   F   F   F
  0.1669206322472760  0.0984804221945765  0.6198815263770712   F   F   F
  0.9993833118355653  0.0994498861504240  0.6186650560492453   F   F   F
  0.8339928746053289  0.0005738821771359  0.5061350165017160   F   F   F
  0.4999042525479425  0.0008478239593899  0.5057852195670094   F   F   F
  0.0000534971282988  0.0000300529312298  0.5059696237212634   F   F   F
  0.6661002647660652  0.0013623061869339  0.5057019541075363   F   F   F
  0.3340431341537737  0.0018222230660498  0.5057939398272850   F   F   F
  0.0009585652555728  0.2987510036684569  0.6209265824868879   F   F   F