Au C  H  O  Sr Ti
 1.0000000000000000
    23.6707801818999997    0.0000000000000000    0.0000000000000000
     0.0000000000000000   27.8962826732999716    0.0000000000000000
     0.0000000000000000    0.0000000000000000   30.0000000000000000
 Au  C   H   O   Sr  Ti 
  50   4   9 330  90  90
Selective dynamics
Cartesian
 16.9841135733290116 17.2922858986111621 22.5963796009022069   F   F   F
 16.6910887258987692 22.4666742716681256 20.6616630578391494   F   F   F
 15.5295611705986953 15.4308836082839385 24.3738370569507765   F   F   F
  8.7108919036959254 19.3916750270617797 24.6036426151196288   F   F   F
 13.4893033027190494 16.9855558865679015 25.7176339436491759   F   F   F
 15.8468600302635831  9.9187468688255631 22.6415630925828211   T   T   T
 11.1466867656640769 15.6693389322147869 26.3959589888595332   F   F   F
 12.2666661226541720 13.9851295454928142 22.0086424417670052   F   F   F
  6.6865643462179545 13.1555546131041066 21.0821519304913316   F   F   F
 15.8407797084591486 20.7744799508165805 22.4891452369257117   F   F   F
  9.4140536274397544 14.1116582701579460 20.7294907462306632   F   F   F
 14.6016867825496455 12.6875760803964273 20.8991977321603493   F   F   F
  8.8911338254286303 16.5860373875055558 25.0039457067990440   F   F   F
  7.7112618943057374 14.8436297417464953 23.1037235207764517   F   F   F
 11.4810995792500332 11.5988794493779164 23.2831938015339190   F   F   F
 10.0431155127631140 21.1574290684028270 20.9953548315059138   F   F   F
 16.5902284785152005 13.2271823854776240 22.7337508190822071   F   F   F
 18.3188414919414022 15.1320697549819023 23.8481385480336172   F   F   F
  6.0693027596277309 18.8180793988924968 20.8504450809527064   F   F   F
 15.3202078969815858 15.4628307026310754 20.8671195716493685   F   F   F
 13.3835916165099604 19.8753216348934849 25.8389355919400607   F   F   F
 12.8912716381528298 20.4267414925615576 21.0429502668489015   F   F   F
  8.8268333775898711 22.0611352122699031 23.3423537342779568   F   F   F
 10.9565508631958970 18.3968979462007916 25.9144145731865017   F   F   F
 10.7269050946490800 18.5201243622110034 21.1083139416582668   F   F   F
 10.5000838573773052 16.1423281532865204 22.6994424793523031   F   F   F
  6.8497857369908424 17.5822331105822585 23.3444556571724569   F   F   F
 13.1141078127274380 10.3180565903119792 21.3421404093660598   F   F   F
 14.7597659200573812 18.2608672945022654 21.1261951949813636   F   F   F
 17.0988081434235184 11.2846499803058222 20.7678739745081913   F   F   F
  6.9013712724250524 22.2548162779595415 20.9413336991872150   F   F   F
 12.1566348428191429 19.0827558259711552 23.3167639928426702   F   F   F
 13.6636513946867098 21.7859529016079847 23.8010636574628336   F   F   F
 12.9987735938172264 14.1968189794062791 24.8953665288039581   F   F   F
  5.7038416191010830 16.0521143701614406 21.2950835011190520   F   F   F
  6.6932353267470264 20.3615677521499840 22.9688908211509251   F   F   F
 12.1677361052950648 16.3705144976049191 20.3527339313696487   F   F   F
 13.3126958366366210 16.4306236383830857 22.8883205551493525   F   F   F
 14.2057000013833488 12.0498678784287865 23.5705918851842782   F   F   F
 18.0550249092292852 15.1613303734777318 21.1468048635533243   F   F   F
  9.2584825535034252 23.8066588931483203 21.1913743139211093   F   F   F
 10.3675457732383922 10.6602063715595996 20.9566364240529701   F   F   F
 10.9595034313226254 21.1075490192495323 24.9147204613900826   F   F   F
 10.1703818203858400 13.8812411605925696 24.4951919200436059   F   F   F
  8.2687796702289766 16.7475445876222686 20.9409866481128724   F   F   F
  8.7620618021552801 12.2637254453878004 22.6915419343037286   F   F   F
 14.0659478852375770 23.0954292718716871 21.3842614774736930   F   F   F
 15.0443814952382997 18.5860722815308925 24.0093567147718510   F   F   F
 17.3521580046033783 19.3135251288732341 20.8308536162648785   F   F   F
 11.4586166543667076 22.9842545410964867 22.7313561240135975   F   F   F
 16.9797504753563828  8.1252430886527698 22.6714350787802026   T   T   T
 15.3018671509861122  7.0254721657760220 24.2888209530060983   T   T   T
 14.4403468416601957  5.7882860429334810 24.5519704892994710   T   T   T
 16.0669473659352526  6.9539062390300783 22.9597199515376289   T   T   T
 17.7065830256932522  8.3304330762033896 23.4627756264012994   T   T   T
 16.7286027288350816  6.0687865757323056 22.9751769757307898   T   T   T
 16.0133035471052629  7.1615660615245620 25.1116635323282509   T   T   T
 14.6552314819913168  7.9165849886584736 24.2879068042505430   T   T   T
 15.3766555343690374  6.7848979278460000 22.1258874567234081   T   T   T
 13.7062765736968792  5.6462701206820620 23.7547144533901680   T   T   T
 15.0525838551502780  4.8835174965977801 24.6057505555277594   T   T   T
 13.9061931863882311  5.8781979399859079 25.5009695315299822   T   T   T
 17.4568721248625174  8.0782954531325437 21.6927057530361651   T   T   T
 11.8649678338917219 22.4265124141736436 17.7923074123462328   F   F   F
 19.7174040549841507 16.8062156690027535 17.6977715997216443   F   F   F
 19.6831758961234904 11.0873067591671504 17.7344846408866914   F   F   F
 19.6505193131931328 22.3202127738008613 17.7915843218529979   F   F   F
 13.7616744530353774 26.4426126921344498 19.1412831106371790   F   F   F
 19.7094541714263300  5.6400628095666825 17.7653633393020378   F   F   F
 21.6907703795532605  9.7406625549464891 19.2144060179120686   F   F   F
 13.7469786880391105 20.8484491133950485 19.1627695251681693   F   F   F
 13.7408563653586260 15.3446266459277751 19.3818071709298962   F   F   F
  3.9722333067193434 19.5214022582442261 15.0052885090537504   F   F   F
  9.8905754887276842  7.0431584022918230 19.1688691243981779   F   F   F
 17.5258779513034284 23.6378722875136198 19.2146119563764373   F   F   F
  9.7680182970784113 23.7138957683504863 19.1899717303438422   F   F   F
 13.8182496001518036  1.4119537333797405 19.2571563178183673   F   F   F
 17.6711333059775306 12.4994230231755221 19.2634842712005714   F   F   F
  3.9420082758363852 13.9701662489541558 14.9332037900097543   F   F   F
  2.0553996664143481 15.3349385314711650 19.1953162176633683   F   F   F
  1.9914451985558157  6.9360513875993748 19.2590430010198403   F   F   F
  2.0369755313388658 18.1293541075574964 19.2528200646561203   F   F   F
 15.7729814333877467 25.0735602159368973 14.9706807677862557   F   F   F
  1.9976352720644746 12.5504162341754419 19.2103806351639896   F   F   F
 17.7012500678779396  7.0854561899160258 19.1642434922353395   F   F   F
 17.8029826852036379 18.2908620710546046 19.0611372803731385   F   F   F
 10.1089342598999679 12.3831474322135442 19.7125935625575117   F   F   F
 19.7040542319573611  8.3778897680901778 15.0025012281030961   F   F   F
 17.6939177132935903 26.4224946478294420 19.1811579262416423   F   F   F
 19.7057938772383316 25.0980618563338780 14.9902654391909316   F   F   F
 11.7989473168068670 11.2342341948448805 17.7412093289922126   F   F   F
 11.7746006257259488 16.8294083274389266 18.2800602479158592   F   F   F
  5.9576344502927325 26.4977162287303152 16.3514566383679814   F   F   F
 13.7163808994144283 20.8884189541197216 16.4086244378862993   F   F   F
 13.6410514576222344 15.2883437533806710 16.5630624563142703   F   F   F
 21.6639448083702675 15.3247528304798983 16.3900585393724114   F   F   F
 21.7078398813207727  9.7928524086462261 16.3699166899215847   F   F   F
 13.8215715661472913 26.5200529759047257 16.3687548855813887   F   F   F
 21.6267699011484247 20.9449542810091316 16.3800754111307505   F   F   F
 21.6923649076339338 26.5132550417293515 16.3888806829020481   F   F   F
  1.9594104072832308  6.9752351973939248 16.4200229395692965   F   F   F
  2.0356477630268799 12.5630967242440050 16.4010358255531017   F   F   F
  1.9528770007764287 18.1569078330066667 16.3835521769611994   F   F   F
  2.0240806801924998 23.7045020315130301 16.4225241066466623   F   F   F
  9.8579340644510918  7.0431182414067708 16.4183124421873750   F   F   F
  9.9431497795960322 18.1814577563972648 16.6801869800807019   F   F   F
  9.8387160587255824 12.6973267154904086 16.5760171308880722   F   F   F
 17.7154789962544790 12.5350043491406833 16.4711503727856687   F   F   F
 17.7211756337935356  6.9265567217420250 16.3487836992213325   F   F   F
  9.8299581304887855 23.6811017263138588 16.4552912024312832   F   F   F
 17.6791634785716099 18.0306414004960303 16.3459015395449079   F   F   F
 11.8369597759856706  5.5859381146926355 17.7487172189585820   F   F   F
 19.7106173271147647 13.9031992862109579 14.9859717307248665   F   F   F
 17.8348809736406935 21.0362367415385449 19.7293242708940966   F   F   F
  6.0059183957014426  9.7405966350607684 19.2254071388099170   F   F   F
 19.7000503492888370 19.5030232828032695 15.0023153468027868   F   F   F
 11.8399379303608203 19.4206886946453103 15.0071704515563056   F   F   F
 11.8381137731650981 25.0553833872852358 15.0311647378774129   F   F   F
 11.8218497163175922 13.8987900332094672 15.0040808683000488   F   F   F
 21.6982156369999721 18.1325837379999442 10.8156001569999933   F   F   F
  5.9401464393429713  6.9393256758762103 19.2368591697803097   F   F   F
  5.8851058695593403 12.6375323068376062 19.2552238120211641   F   F   F
  6.1954547572177274 23.4426438794666367 19.3981847876619007   F   F   F
  5.8602400546927127 18.3844987366327643 18.8766151592763691   F   F   F
 14.0079824720851800 18.1632352932362053 19.1885486434193950   F   F   F
 13.8381465264879786 12.7239237723850014 19.0170967429199571   F   F   F
 13.7988445838450797  7.0521828358584919 19.1654694286369569   F   F   F
 21.6444899847758307 23.7124143909417704 19.2463249318536889   F   F   F
 21.6473384792461161 12.5410717049775116 19.1729678897880689   F   F   F
 21.6249312748552072 18.1118954089718969 19.2667366931821746   F   F   F
 21.6824182502851706  6.9856430150180406 19.2441411253017272   F   F   F
 13.9506352580764279 23.6495909127743182 19.3798808566356264   F   F   F
  9.9715015965203158 20.6641708936806126 19.0252152753796118   F   F   F
  9.8782219205118196 26.4282527260299851 19.1711518649450028   F   F   F
 17.8569492802281893 15.2568434105311113 19.1517605730461256   F   F   F
 17.6626157934682979  9.8839699462840613 19.3945534953730991   F   F   F
  1.9878350991143527  9.7327200327038987 19.2515555239579612   F   F   F
  9.8955758071552449  9.7780970420636013 19.2094989033971899   F   F   F
  9.8628241350000643  4.1844424010001093 10.8156001569999933   F   F   F
  2.0014439848441770 26.4685551288008085 19.2162975099737743   F   F   F
  9.8775112055970240  1.4067119327427771 16.4271951987954665   F   F   F
  1.9812942044559321  1.3870126667793994 16.3972918166325599   F   F   F
 21.6881752565017187  4.2029383271860308 16.3911151161953832   F   F   F
 13.7982458208060201  4.1815685031271643 16.4270537371954788   F   F   F
  5.9226828712574875  4.1965828736632362 16.3881397399311908   F   F   F
 17.7534956236822268  4.1500416481804372 16.4347936968909814   F   F   F
  9.8611964043580382  4.2235712404813244 16.3829357950176302   F   F   F
  1.9779644156643719  4.1985851476564617 16.3890651434303720   F   F   F
 11.8332420334625645  2.7950519503234323 14.9644689711666405   F   F   F
 19.7239071911474362  2.7928482893117557 14.9636509405937215   F   F   F
  3.9481719902690147  2.7859959987431981 14.9629458212866275   F   F   F
 15.7721928182053599  2.7806022732695426 14.9701886783518923   F   F   F
  7.8963945924008287  2.7756803643459120 14.9690994759518343   F   F   F
  0.0011986880096672  2.7903591446618745 14.9737195632740097   F   F   F
 21.6982743182223530  4.1826236086200526 13.6124868756090684   F   F   F
 17.7635411780656653  1.3616848154589118 16.3847419831673555   F   F   F
  5.9177339139148222  1.3922569969910339 16.4077583534797604   F   F   F
 13.7865604082463697  1.4014878529293802 16.4226600243718828   F   F   F
 21.6887146964576161  1.3907018929789978 16.3969073532078120   F   F   F
 21.6754632794861237  1.3940467866852608 19.2081905915419497   F   F   F
 17.7608636093481707  4.2151399920659838 19.2474558231294850   F   F   F
  5.9393355731830884  4.1365472822438338 19.2305067141864505   F   F   F
 21.6774312532927986  4.1817825158469288 19.2091836703667340   F   F   F
 13.8050675284375508  4.2076555939418032 19.2830431296464830   F   F   F
  9.8636867551180067  4.1900465229466670 19.2497508065797973   F   F   F
  1.9661200852915546  4.1426504799458410 19.2135332199289088   F   F   F
 13.8071776055355002  4.2144010202237121 13.6390408960858984   F   F   F
  1.9651656908690083  1.3736988104754837 19.2185413816848047   F   F   F
  9.8840976812052510  1.3794723599579519 19.2860037151768466   F   F   F
 19.7100422136501976 27.8300568590637276 17.7634231570521202   F   F   F
 11.8303338734767518  0.0018602945989224 17.7486037426022953   F   F   F
  3.9601832291077881 27.8609512528467285 17.7642727655138302   F   F   F
 15.7658637593637376  0.0017685912127897 17.7558473157313834   F   F   F
 23.6674719176975046 27.8712105524459162 17.7672713110486100   F   F   F
  7.9059503805492293  0.0042845720277469 17.7587625134610825   F   F   F
 17.7577505781331482  1.3844624281873432 19.2205590192590918   F   F   F
  9.8313392621800393 14.9123807149245042 18.9129107136546821   F   F   F
  5.9218543208525967  4.1793553331106281 13.6105435362230551   F   F   F
  9.8617564088277341  4.1842881110335473 13.6129320060995997   F   F   F
 13.8079546360000549  4.1844424010001093 10.8156001569999933   F   F   F
  5.9176950450000287  4.1844424010001093 10.8156001569999933   F   F   F
 17.7530837259999217  4.1844424010001093 10.8156001569999933   F   F   F
 17.7038593904752481 23.6252817790585325 16.3891727531381797   F   F   F
  1.9725650740000149  4.1844424010001093 10.8156001569999933   F   F   F
 21.6982156369999721 23.7118402719999644 10.8156001569999933   F   F   F
  2.0021639903460868 23.7037218309808821 19.2572150853783626   F   F   F
  5.9675788014027349 26.3706124970197315 19.1181097311101631   F   F   F
 13.7355464111841830  9.8540767861270986 19.3703198804925378   F   F   F
  6.0413983406741307 20.6945123053637658 19.8978456374931376   F   F   F
  5.6999185370559626 15.4503762701223852 19.2656854196080616   F   F   F
 21.6801112463450885 26.4841658974097562 19.2421083178011045   F   F   F
 21.6646363951730230 20.9206722440120885 19.2154415999379715   F   F   F
 21.5984001742100062 15.3038005770213914 19.1880014487455774   F   F   F
  1.9920979463672428 20.9160964240757181 19.2204109210090479   F   F   F
 21.6982156369999721  4.1844424010001093 10.8156001569999933   F   F   F
  1.9725650740000149  1.3948141340000999 10.8156001569999933   F   F   F
  9.8628241350000643  1.3948141340000999 10.8156001569999933   F   F   F
 17.7530837259999217  1.3948141340000999 10.8156001569999933   F   F   F
  1.9732553675246571  4.1833988983528894 13.6129045558593003   F   F   F
 21.6972092205346030  1.3868205634953412 13.6167117534865802   F   F   F
 13.8021334518647159  1.3678734423761250 13.6358510319311428   F   F   F
  5.9208317451867769  1.3702727450604566 13.6251466853132914   F   F   F
 17.7526596631743949  1.3923748272717573 13.6088667305627240   F   F   F
  9.8689491231599167  1.3554371780111396 13.6429017148809422   F   F   F
  1.9742906590723031  1.3855423396437834 13.6165408851489502   F   F   F
 17.7473577860157370  4.2036229242703751 13.6325424127155905   F   F   F
 19.7256482699999580  0.0000000000000000 12.2103998060000407   F   F   F
  3.9451301480000271  0.0000000000000000 12.2103998060000407   F   F   F
 15.7805205919999434  0.0000000000000000 12.2103998060000407   F   F   F
  7.8902602960000570  0.0000000000000000 12.2103998060000407   F   F   F
  0.0000000000000000  0.0000000000000000 12.2103998060000407   F   F   F
 21.6982156369999721  1.3948141340000999 10.8156001569999933   F   F   F
 13.8079546360000549  1.3948141340000999 10.8156001569999933   F   F   F
  5.9176950450000287  1.3948141340000999 10.8156001569999933   F   F   F
 11.8353900909999528  0.0000000000000000 12.2103998060000407   F   F   F
  5.9503076523039988  6.9962590200659589 16.4249185573490877   F   F   F
  9.4142515400340994 17.8694702691205229 19.5811384566668352   F   F   F
  5.9730320037538114 18.0554776176546881 16.3298272312550523   F   F   F
  1.9725650740000149 12.5533272029999310 10.8156001569999933   F   F   F
  1.9725650740000149  6.9740706690001133 10.8156001569999933   F   F   F
  5.9176950450000287 15.3429548049998807 10.8156001569999933   F   F   F
  9.8628241350000643 15.3429548049998807 10.8156001569999933   F   F   F
  9.8628241350000643 20.9222120049999525 10.8156001569999933   F   F   F
  9.8628241350000643 26.5014685399999657 10.8156001569999933   F   F   F
 17.7530837259999217  9.7636989360001234 10.8156001569999933   F   F   F
 17.7530837259999217 15.3429548049998807 10.8156001569999933   F   F   F
  1.9725650740000149 18.1325837379999442 10.8156001569999933   F   F   F
 17.7530837259999217 20.9222120049999525 10.8156001569999933   F   F   F
  5.9176950450000287  9.7636989360001234 10.8156001569999933   F   F   F
  5.9176950450000287 20.9222120049999525 10.8156001569999933   F   F   F
 21.6982156369999721 26.5014685399999657 10.8156001569999933   F   F   F
  5.9176950450000287 26.5014685399999657 10.8156001569999933   F   F   F
 13.8079546360000549  9.7636989360001234 10.8156001569999933   F   F   F
 13.8079546360000549 15.3429548049998807 10.8156001569999933   F   F   F
 13.8079546360000549 20.9222120049999525 10.8156001569999933   F   F   F
 13.8079546360000549 26.5014685399999657 10.8156001569999933   F   F   F
 17.7530837259999217 26.5014685399999657 10.8156001569999933   F   F   F
 21.6982156369999721  9.7636989360001234 10.8156001569999933   F   F   F
 21.6982156369999721 12.5533272029999310 10.8156001569999933   F   F   F
 13.8079546360000549 23.7118402719999644 10.8156001569999933   F   F   F
  1.9725650740000149 26.5014685399999657 10.8156001569999933   F   F   F
  9.8628241350000643  9.7636989360001234 10.8156001569999933   F   F   F
  1.9725650740000149 23.7118402719999644 10.8156001569999933   F   F   F
  9.8628241350000643  6.9740706690001133 10.8156001569999933   F   F   F
  9.8628241350000643 12.5533272029999310 10.8156001569999933   F   F   F
  9.8628241350000643 18.1325837379999442 10.8156001569999933   F   F   F
  9.8628241350000643 23.7118402719999644 10.8156001569999933   F   F   F
 17.7530837259999217  6.9740706690001133 10.8156001569999933   F   F   F
 21.6982156369999721  6.9740706690001133 10.8156001569999933   F   F   F
 17.7530837259999217 12.5533272029999310 10.8156001569999933   F   F   F
 17.7530837259999217 23.7118402719999644 10.8156001569999933   F   F   F
  5.9176950450000287  6.9740706690001133 10.8156001569999933   F   F   F
  5.9176950450000287 12.5533272029999310 10.8156001569999933   F   F   F
  5.9176950450000287 18.1325837379999442 10.8156001569999933   F   F   F
  5.9176950450000287 23.7118402719999644 10.8156001569999933   F   F   F
 13.8079546360000549  6.9740706690001133 10.8156001569999933   F   F   F
 13.8079546360000549 12.5533272029999310 10.8156001569999933   F   F   F
 13.8079546360000549 18.1325837379999442 10.8156001569999933   F   F   F
 17.7530837259999217 18.1325837379999442 10.8156001569999933   F   F   F
 21.6982156369999721 15.3429548049998807 10.8156001569999933   F   F   F
 21.6982156369999721 20.9222120049999525 10.8156001569999933   F   F   F
 13.8022579028999033  7.0337288609887674 13.6081167161405485   F   F   F
  9.8674370381272745  9.7774372657859629 13.6269197110377700   F   F   F
 21.6859015881997728 12.5442775321995246 13.6196635096857719   F   F   F
 21.6839909060475513  6.9715563310682649 13.6274178496889871   F   F   F
  5.9420500022932758 15.3935285048567891 13.6604784902496572   F   F   F
 21.6857607732379272 18.1278100956658541 13.6221066528250709   F   F   F
 21.6840103976579250 23.6993284642440187 13.6283733411732388   F   F   F
  1.9831619706302823  9.7605621767382367 13.6123789440689187   F   F   F
  1.9708928487800172 15.3535787676965203 13.6138548571645899   F   F   F
  5.9561604792104736 20.9245796965076742 13.6840455285468625   F   F   F
  1.9827030089091611 26.4845600478727832 13.6098364661171214   F   F   F
  9.8761300987347749 15.2881375295219613 13.6238100247494440   F   F   F
  9.8752154303725650 20.8368322207204173 13.6360618095392070   F   F   F
  9.8804152758588479 26.4392280822649930 13.6239669829982759   F   F   F
 17.7575005102242613  9.8164257820447745 13.6671002372591879   F   F   F
 17.7444444534238173 15.3628737868115568 13.6841656977529844   F   F   F
 17.7227435392185093 20.9428856149593408 13.7142888963829446   F   F   F
 17.7393959022499423 26.4911884932380524 13.6428712666909586   F   F   F
  5.9173396389250525  9.7947287225302357 13.6336093062971582   F   F   F
  1.9987472791582528 20.9227646368836666 13.6097409263867881   F   F   F
 21.6933083927347390 26.4890160125489480 13.6119559377106327   F   F   F
 13.7938138906187877  9.8485548922880248 13.6840520217692010   F   F   F
  0.0019045052371969  8.3654405222819879 14.9615059057171109   F   F   F
 13.8344099130183427 18.1212640190211616 13.6523813072568174   F   F   F
 15.7485800002508451 19.5295990222621434 15.0930342151532280   F   F   F
  5.9342303641887746 26.4520060510365020 13.6090170449643484   F   F   F
 13.7928230977780757 15.3761491593948385 13.6898690629740436   F   F   F
 13.7922954426094169 20.8662931699172667 13.6303552174304041   F   F   F
 13.7923116419084870 26.4440054547836851 13.6113856226524312   F   F   F
 21.6795549405857457  9.7583501267790265 13.6100772854854224   F   F   F
 21.6809919570904270 15.3385321999387472 13.6208919331199603   F   F   F
 21.6587488891088604 20.9156228840754466 13.6067689434191852   F   F   F
 15.7566568172731589 14.0182445751644025 15.1070545275845323   F   F   F
  7.9070110505893174 14.0253910565585933 15.0905789921477087   F   F   F
  7.9419485881957135 19.5381805110361206 15.1220250775220055   F   F   F
 15.7626163259670964  8.4173791418203034 14.9956450979718721   F   F   F
  7.8965403351297301 25.0534868031813787 14.9901163562070661   F   F   F
  0.0037135381573259 25.0908232246677620 14.9803617192887728   F   F   F
  7.8968871280263997  8.3957767492563598 14.9648057266182057   F   F   F
 23.6672804980077807 19.5819873632374915 14.9279913426046065   F   F   F
 -0.0009951578712936 13.9292778222102545 14.9538896866120332   F   F   F
 13.7973785012628287 23.6283395037171644 13.6814424349780683   F   F   F
  1.9725650740000149 20.9222120049999525 10.8156001569999933   F   F   F
  5.9008870645389919 12.5846691208679538 16.3857236652766041   F   F   F
  5.9150755726215429  1.3426371300085658 19.2642379974675997   F   F   F
  7.9026109158518416  5.5811399783757629 17.7635145408321051   F   F   F
 21.6936209882458044 18.1413699185952773 16.3883592331801253   F   F   F
 13.7526648260530973 18.0649966450236619 16.4818864744875810   F   F   F
 13.8657657965317256 23.7609297762260780 16.5262993040272761   F   F   F
 13.7992667452063031 12.5062424763597111 16.3584982070115892   F   F   F
 13.8072066837225673  6.9628384517604394 16.3737275067360173   F   F   F
  5.9786422215311585 23.7024413823407194 16.5271743216559770   F   F   F
 10.0147580059206920 15.4699648452323881 16.3878438420029795   F   F   F
 17.8209659603237718 15.2811180005360203 16.4846977579887231   F   F   F
 17.7812510245365196 20.7732489722820297 16.5843029600406275   F   F   F
 17.7108463820351005 26.4400864172295584 16.4115536817308012   F   F   F
 21.6669778771661115 23.7080354855549125 16.4094342945172436   F   F   F
  5.9785472439297624  9.7941520681490175 16.4218261308508353   F   F   F
 21.6986535058732031  6.9923603274114958 16.4142813597383643   F   F   F
  3.9587538164018437  8.3748248445871614 14.9978975888179349   F   F   F
 11.8353900909999528 22.3170261389998572 12.2103998060000407   F   F   F
 11.8353900909999528 11.1585130700000246 12.2103998060000407   F   F   F
 11.8353900909999528  5.5792565350000141 12.2103998060000407   F   F   F
  3.9451301480000271 22.3170261389998572 12.2103998060000407   F   F   F
  3.9451301480000271 16.7377696040000430 12.2103998060000407   F   F   F
  3.9451301480000271 11.1585130700000246 12.2103998060000407   F   F   F
  3.9451301480000271  5.5792565350000141 12.2103998060000407   F   F   F
 15.7805205919999434 22.3170261389998572 12.2103998060000407   F   F   F
  3.9706284411726913 25.0749898369991939 14.9838588550925174   F   F   F
 13.7347376918925459  9.6926352586898652 16.5276837923794844   F   F   F
  5.9080366897048906 20.8238933733928349 16.5702183152762075   F   F   F
  3.9162172047432602 16.8088038087490510 17.6492833962141944   F   F   F
  1.9874591386812877 26.5121049018671044 16.3786903957966885   F   F   F
  9.8386356333340057  9.8399251138905584 16.4276523113295951   F   F   F
  2.0504173883991128 20.9532838344046475 16.3801763410766625   F   F   F
  1.9680372221823306 15.3497016216790687 16.3796759494536452   F   F   F
  1.9790107256050171  9.7824009443151319 16.3914998377154610   F   F   F
 11.8208729771743961  8.3955168911649682 14.9905232548306806   F   F   F
 23.6591338642021185 16.7138361435753993 17.8279622074286763   F   F   F
 23.6661574921105604 22.3541490608921194 17.7922426234401527   F   F   F
  7.9214696744806901 11.2726378835213410 17.8012577134323742   F   F   F
 10.0012503356907789 20.9235167525140930 16.4030895985811860   F   F   F
 23.6679874185088011  5.5832536055017146 17.7740395151810162   F   F   F
  0.0239572577990596 11.1556075512057440 17.7722691985749535   F   F   F
  7.8885384748746183 16.6512997135335361 17.7419038435368641   F   F   F
  7.9451714679928731 22.1198530032278491 17.7297558432303788   F   F   F
 15.7070653507893319 11.0951809072237921 17.7200120479605445   F   F   F
  1.9725650740000149 15.3429548049998807 10.8156001569999933   F   F   F
 15.7700553046734555  5.5823820327824238 17.7644612482734523   F   F   F
 15.7565790510978943 22.1314791643705426 17.7154666249658490   F   F   F
 15.7814369079412362 16.5931870317718158 17.7308039955960126   F   F   F
  3.9566721147216497  5.5634225671117150 17.7682744957522019   F   F   F
  3.9865844877309380 11.1119925154884100 17.7939147362715708   F   F   F
  4.0472042670724564 22.2961483598290648 17.8696013488747667   F   F   F
  5.8669547336339978 15.3043460105231901 16.4850550951531325   F   F   F
 15.7805205919999434 16.7377696040000430 12.2103998060000407   F   F   F
 15.7805205919999434 11.1585130700000246 12.2103998060000407   F   F   F
 15.7805205919999434  5.5792565350000141 12.2103998060000407   F   F   F
  7.8902602960000570 22.3170261389998572 12.2103998060000407   F   F   F
  9.8395452794691458 18.0476999298651144 13.7482910885702374   F   F   F
  9.8726580489332942 23.6290564917662955 13.6659517400106161   F   F   F
 17.7300754465602814  7.0168719963186241 13.6059832751948360   F   F   F
 17.6953447544152169 12.5836592037361292 13.6561204559651248   F   F   F
 17.7138057092455945 18.1681512914416814 13.6158179674373603   F   F   F
 17.7527595453346017 23.7090422136527899 13.6131727719063687   F   F   F
  9.8254054950455263 12.5252987737296113 13.7188483900608720   F   F   F
  5.9203900817394439  6.9840571558210760 13.6300205180314862   F   F   F
  5.9647611470997646 12.6017594252561338 13.6176222914075158   F   F   F
  5.9659241903410800 18.1848664461522986 13.6165552844146696   F   F   F
  5.9319005833007461 23.6637007583057901 13.6664235906469678   F   F   F
 19.7256482699999580 11.1585130700000246 12.2103998060000407   F   F   F
 13.8312895155390780 12.6205319311349626 13.6090233008845587   F   F   F
 19.7256482699999580  5.5792565350000141 12.2103998060000407   F   F   F
  9.8466757715746773 26.4599831226026581 16.3991125247371983   F   F   F
  9.8543064759482686  6.9792254228039639 13.6518560570379961   F   F   F
 21.6635376098318559 12.5407436301503523 16.3930794623466340   F   F   F
  1.9886305375317346 18.1419830907251871 13.6141343463113280   F   F   F
  1.9830251215092678 23.6953615192416436 13.6302540522113755   F   F   F
  7.8902602960000570 16.7377696040000430 12.2103998060000407   F   F   F
  7.8902602960000570 11.1585130700000246 12.2103998060000407   F   F   F
  7.8902602960000570  5.5792565350000141 12.2103998060000407   F   F   F
  0.0000000000000000 22.3170261389998572 12.2103998060000407   F   F   F
  0.0000000000000000 16.7377696040000430 12.2103998060000407   F   F   F
  0.0000000000000000 11.1585130700000246 12.2103998060000407   F   F   F
 17.6941407205245227  9.6813725097110339 16.5269351106379325   F   F   F
  0.0000000000000000  5.5792565350000141 12.2103998060000407   F   F   F
  1.9725650740000149  9.7636989360001234 10.8156001569999933   F   F   F
 11.8353900909999528 16.7377696040000430 12.2103998060000407   F   F   F
 19.7256482699999580 16.7377696040000430 12.2103998060000407   F   F   F
 19.7256482699999580 22.3170261389998572 12.2103998060000407   F   F   F
  1.9867158425905775  6.9689185297908676 13.6272396509800178   F   F   F
  1.9716932576965938 12.5484950652972831 13.6161955417258174   F   F   F
 19.7078060272090916  2.7969449383286844 18.5285082464412589   F   F   F
  7.9031909115879833  2.7490287574588201 18.6102523808370108   F   F   F
 15.7902352974352631  2.8076572738966692 18.5796742596645039   F   F   F
 11.8392899085759691  2.7987702304403363 18.6162801755897753   F   F   F
  3.9511415937489582  2.7472376953259117 18.5964457913121919   F   F   F
 23.6561826919189144  2.7742821358797363 18.5599516814772549   F   F   F
 19.7412620080535817  0.0160091794345212 15.1840504950515864   F   F   F
 11.8331236740593013  0.0236511368283761 15.1735565870101823   F   F   F
  0.0012663187643404  0.0008383650647868 15.1790887116378297   F   F   F
 15.7671129463828592  0.0380032784782321 15.1710586232260649   F   F   F
  7.9070615998269194  0.0508332497442628 15.1738181948185051   F   F   F
  0.0226899874546066  8.3340424472673096 18.6277974746066768   F   F   F
 19.7256482699999580  2.7896282670000092 12.2103998060000407   F   F   F