Au  O Sr Ti                             
   1.00000000000000     
    23.6707801818999997    0.0000000000000000    0.0000000000000000
     0.0000000000000000   22.3170261383000010    0.0000000000000000
     0.0000000000000000    0.0000000000000000   30.0000000000000000
   Au   O    Sr   Ti
    50   264    72    72
Selective dynamics
Direct
  0.7033853970084554  0.5614760282676881  0.7647257657833992   T   T   T
  0.5783962249502167  0.5632764686453784  0.7060968683692814   T   T   T
  0.2912945101180610  0.4047033304315971  0.7825094889837850   T   T   T
  0.2918941061404935  0.7482473701507002  0.6876314589611544   T   T   T
  0.5862198451133727  0.5913334371313316  0.7940920534379874   T   T   T
  0.5758751582360286  0.7491641220060616  0.7866006118897912   T   T   T
  0.5681471104387285  0.4306352653351557  0.8733583868542820   T   T   T
  0.2530070249108907  0.4384665479943014  0.7013219766840247   T   T   T
  0.2922050571618297  0.6629537421837695  0.7531522192317205   T   T   T
  0.5911293120646666  0.3486035459397160  0.8089150352292570   T   T   T
  0.4958983427650789  0.4735411029096964  0.6905960411913957   T   T   T
  0.5709326463875265  0.4653982546781769  0.7713643398430118   T   T   T
  0.4686390630227251  0.7221204706942349  0.8306046024464824   T   T   T
  0.7344733757930180  0.4875315459386850  0.6993909682374592   T   T   T
  0.7309610542754749  0.6347833005901466  0.6934646176435497   T   T   T
  0.6735674311171469  0.6177349218519164  0.8550852078273209   T   T   T
  0.5606552165746156  0.8081998805917985  0.7068082216963884   T   T   T
  0.4762609589557204  0.8113934050732579  0.7684998352713963   T   T   T
  0.4075288505752444  0.5574765545396543  0.7082556128081362   T   T   T
  0.4743539020138873  0.3681454329940167  0.8389160546594000   T   T   T
  0.4355622863771328  0.2900795867500366  0.6988910056589647   T   T   T
  0.3853925011119986  0.3311184421185239  0.7780909212916134   T   T   T
  0.3948864194517993  0.8110543500810112  0.7035618516419013   T   T   T
  0.3162251263871241  0.5412549055332319  0.7802855300281986   T   T   T
  0.5438282537980740  0.2312517006411982  0.7037203324824817   T   T   T
  0.5032136532345919  0.6546597648992903  0.7428928897802011   T   T   T
  0.6364645665905697  0.2958320820492363  0.7341874611069374   T   T   T
  0.7126525163498872  0.7551671545618583  0.7043446231898540   T   T   T
  0.6588065304526732  0.4935195927734751  0.8376620905171829   T   T   T
  0.3984516807275301  0.6302668507863588  0.7925270679053404   T   T   T
  0.5712656774033670  0.5531068960905677  0.8903016875647480   T   T   T
  0.2089758702423517  0.4939231958927868  0.7765790458657359   T   T   T
  0.4663164105631347  0.4877851701153593  0.8780476733686333   T   T   T
  0.5315725989505123  0.3591110784810602  0.7228119096802240   T   T   T
  0.3086887426501370  0.3244982101835537  0.7040035758599100   T   T   T
  0.6791108666606929  0.6872313432667015  0.7757496845259231   T   T   T
  0.3863124331787387  0.4277940391779383  0.7126243976630973   T   T   T
  0.3657066536757077  0.5510734666542780  0.8655379395651509   T   T   T
  0.4681350071226385  0.6128342236917420  0.8726113407703577   T   T   T
  0.3969252771897484  0.4531639385519980  0.8052014939465885   T   T   T
  0.4899746369499686  0.2702332422054612  0.7802010609379116   T   T   T
  0.3970729551117869  0.6825373612007355  0.7053477402288586   T   T   T
  0.7268501950313253  0.3526841586438754  0.6984354455315522   T   T   T
  0.6893176597287206  0.4167913955189667  0.7693599470734858   T   T   T
  0.2556240781823044  0.5636379199365131  0.7045694414416497   T   T   T
  0.6278159589578493  0.4225584883009088  0.6915749369671120   T   T   T
  0.5701799024211176  0.6776444956298826  0.8647559478475851   T   T   T
  0.6097836224475039  0.6898489028372267  0.7020737546602124   T   T   T
  0.4779170962062619  0.5378062714222140  0.7807329412668919   T   T   T
  0.3676463577349548  0.7560129635870880  0.7824887333800838   T   T   T
  0.2505899986509366  0.1865022867390974  0.4531071984798671   T   T   T
  0.7495933991873905  0.9350567353255236  0.4535263741024971   T   T   T
  0.7495545893638530  0.6841435476246265  0.4534525590074550   T   T   T
  0.7497875524221235  0.4375192115743120  0.4538502012898013   T   T   T
  0.7500666894484610  0.1878382940578252  0.4536575310132664   T   T   T
  0.4167530228819082  0.9364822425161575  0.4535539432898789   T   T   T
  0.4173624861844220  0.6872031945361082  0.4550364118457451   T   T   T
  0.4171305096106822  0.4392410956103044  0.4553243915916429   T   T   T
  0.0842970708849588  0.6871962984626663  0.4535447149062120   T   T   T
  0.0835839339282812  0.9369335472431902  0.4533120770154351   T   T   T
  0.0836494452617704  0.4373984204975064  0.4536115769545774   T   T   T
  0.0836526219485129  0.1871570183181591  0.4533379282560678   T   T   T
  0.9165126896258258  0.8125110795886602  0.4538269881723874   T   T   T
  0.9157395746945287  0.5627172485324233  0.4537627638976760   T   T   T
  0.2502602416357442  0.4373039319653979  0.4531792196102148   T   T   T
  0.9164106540777368  0.0621507142187250  0.4540800151813805   T   T   T
  0.9166923837812094  0.3126723157369485  0.4538804424015919   T   T   T
  0.4165136062498677  0.1876003181612367  0.4538117002842328   T   T   T
  0.2501856235255875  0.6874885570143197  0.4553281123003273   T   T   T
  0.9156177168716962  0.9370975346749707  0.4536040978165419   T   T   T
  0.5838999869246814  0.1901668824873869  0.4554886953552466   T   T   T
  0.0002268604493088  0.1254012736256191  0.4985510108957713   T   T   T
  0.5832110947583674  0.8118843500809587  0.4539608934565567   T   T   T
  0.0000867269491129  0.3751243454732054  0.4994680696751457   T   T   T
  0.9997815834986240  0.6270202910663724  0.4982212483300115   T   T   T
  0.3336802576132670  0.1248753978804575  0.4997303215915316   T   T   T
  0.9992364691072375  0.8762104427856939  0.4989044973046514   T   T   T
  0.3336907839991994  0.8743711127697172  0.4987996313841634   T   T   T
  0.6667161752353356  0.1244327435189065  0.4985956641530009   T   T   T
  0.3337801915159543  0.6282945700087600  0.5013604557696737   T   T   T
  0.3336561467940624  0.3768576283391497  0.5005572340955291   T   T   T
  0.6665156222614891  0.3776377180263075  0.5007079895813669   T   T   T
  0.9147414835502889  0.6868923034353963  0.4537315241235398   T   T   T
  0.9164123445639188  0.4375373104551549  0.4536975632177330   T   T   T
  0.9161563879381900  0.1867414790134707  0.4529602923038530   T   T   T
  0.5839698744765416  0.9371503387032954  0.4545652225182572   T   T   T
  0.5823942596881422  0.6873991426017623  0.4554767178813754   T   T   T
  0.5829112029076888  0.4399587510503306  0.4560775602716267   T   T   T
  0.2499282614575861  0.9356869000969545  0.4532654536984515   T   T   T
  0.6651960807863438  0.6255268128435348  0.5012567614587147   T   T   T
  0.5837428389515895  0.5634437598503224  0.4542260143265168   T   T   T
  0.5827870329781760  0.0632911385335403  0.4528744509935212   T   T   T
  0.9166666865332829  0.6874999999963620  0.3605200052333331   F   F   F
  0.9166666865332829  0.4374999701794380  0.3605200052333331   F   F   F
  0.9166666865332829  0.1875000000030838  0.3605200052333331   F   F   F
  0.5833333134730552  0.9375000000154046  0.3605200052333331   F   F   F
  0.5833333134730552  0.6874999999963620  0.3605200052333331   F   F   F
  0.5833333134730552  0.4374999701794380  0.3605200052333331   F   F   F
  0.5833333134730552  0.1875000000030838  0.3605200052333331   F   F   F
  0.2499999999799343  0.9375000000154046  0.3605200052333331   F   F   F
  0.9166666865332829  0.9375000000154046  0.3605200052333331   F   F   F
  0.2499999999799343  0.6874999999963620  0.3605200052333331   F   F   F
  0.2499999999799343  0.1875000000030838  0.3605200052333331   F   F   F
  0.7499999404149307  0.9375000000154046  0.3605200052333331   F   F   F
  0.7499999404149307  0.6874999999963620  0.3605200052333331   F   F   F
  0.7499999404149307  0.4374999701794380  0.3605200052333331   F   F   F
  0.7499999404149307  0.1875000000030838  0.3605200052333331   F   F   F
  0.4166666269218169  0.9375000000154046  0.3605200052333331   F   F   F
  0.4166666269218169  0.6874999999963620  0.3605200052333331   F   F   F
  0.4166666269218169  0.4374999701794380  0.3605200052333331   F   F   F
  0.2499999999799343  0.4374999701794380  0.3605200052333331   F   F   F
  0.0833333358191695  0.0625000000159659  0.3605200052333331   F   F   F
  0.0833333358191695  0.3124999999901945  0.3605200052333331   F   F   F
  0.0833333358191695  0.5625000000092442  0.3605200052333331   F   F   F
  0.9166666865332829  0.3124999999901945  0.3605200052333331   F   F   F
  0.9166666865332829  0.0625000000159659  0.3605200052333331   F   F   F
  0.5833333134730552  0.8124999999834799  0.3605200052333331   F   F   F
  0.5833333134730552  0.5625000000092442  0.3605200052333331   F   F   F
  0.5833333134730552  0.3124999999901945  0.3605200052333331   F   F   F
  0.5833333134730552  0.0625000000159659  0.3605200052333331   F   F   F
  0.2499999999799343  0.8124999999834799  0.3605200052333331   F   F   F
  0.2499999999799343  0.5625000000092442  0.3605200052333331   F   F   F
  0.2499999999799343  0.3124999999901945  0.3605200052333331   F   F   F
  0.2499999999799343  0.0625000000159659  0.3605200052333331   F   F   F
  0.7499999404149307  0.8124999999834799  0.3605200052333331   F   F   F
  0.7499999404149307  0.5625000000092442  0.3605200052333331   F   F   F
  0.7499999404149307  0.3124999999901945  0.3605200052333331   F   F   F
  0.7499999404149307  0.0625000000159659  0.3605200052333331   F   F   F
  0.4166666269218169  0.8124999999834799  0.3605200052333331   F   F   F
  0.4166666269218169  0.5625000000092442  0.3605200052333331   F   F   F
  0.4166666269218169  0.3124999999901945  0.3605200052333331   F   F   F
  0.4166666269218169  0.0625000000159659  0.3605200052333331   F   F   F
  0.0833333358191695  0.8124999999834799  0.3605200052333331   F   F   F
  0.4166666269218169  0.1875000000030838  0.3605200052333331   F   F   F
  0.0833333358191695  0.9375000000154046  0.3605200052333331   F   F   F
  0.0833333358191695  0.6874999999963620  0.3605200052333331   F   F   F
  0.0833333358191695  0.4374999701794380  0.3605200052333331   F   F   F
  0.8333332538436267  0.4999999999932783  0.4070133268666680   F   F   F
  0.8333332538436267  0.7500000000123208  0.4070133268666680   F   F   F
  0.0836800048362095  0.0621912870443759  0.4540525988304998   T   T   T
  0.0829944978085344  0.3126359691558392  0.4537993410932386   T   T   T
  0.0835529979071015  0.5624650347972442  0.4539162963835472   T   T   T
  0.0832078406168312  0.8126093822653147  0.4538315412726387   T   T   T
  0.4169184891410820  0.0619867387542011  0.4545501431335291   T   T   T
  0.4168809686419676  0.3140239961307175  0.4537494208211351   T   T   T
  0.4156458305805836  0.5631545660830229  0.4547496520276483   T   T   T
  0.4168606043288707  0.8119376398520279  0.4539390301089457   T   T   T
  0.7500748588280083  0.0617379903899736  0.4542597952744956   T   T   T
  0.7491779546889765  0.3134478506522425  0.4541786546330764   T   T   T
  0.7483247312285976  0.5607032359474019  0.4567612968930181   T   T   T
  0.7498928682877050  0.8087618344792049  0.4563628446446495   T   T   T
  0.2506948653334383  0.0611764759574730  0.4548674813052505   T   T   T
  0.9150677042634440  0.3131149728218331  0.5467980247659268   T   T   T
  0.2511160234877280  0.3119555066629321  0.4553517332201692   T   T   T
  0.2513937705900745  0.5630938197226674  0.4549553931267539   T   T   T
  0.2497152423527889  0.8112115431645438  0.4547311529418917   T   T   T
  0.8333332538436267  0.2500000000190425  0.4070133268666680   F   F   F
  0.5834446812760331  0.3159006534260818  0.4522799058112289   T   T   T
  0.8333332538436267  0.0000000000000000  0.4070133268666680   F   F   F
  0.5000000000021103  0.4999999999932783  0.4070133268666680   F   F   F
  0.0833333358191695  0.1875000000030838  0.3605200052333331   F   F   F
  0.0000000000000000  0.0000000000000000  0.4070133268666680   F   F   F
  0.0000000000000000  0.2500000000190425  0.4070133268666680   F   F   F
  0.0000000000000000  0.4999999999932783  0.4070133268666680   F   F   F
  0.0000000000000000  0.7500000000123208  0.4070133268666680   F   F   F
  0.3333333432766779  0.0000000000000000  0.4070133268666680   F   F   F
  0.3333333432766779  0.2500000000190425  0.4070133268666680   F   F   F
  0.3333333432766779  0.4999999999932783  0.4070133268666680   F   F   F
  0.3333333432766779  0.7500000000123208  0.4070133268666680   F   F   F
  0.6666666865533486  0.0000000000000000  0.4070133268666680   F   F   F
  0.6666666865533486  0.2500000000190425  0.4070133268666680   F   F   F
  0.6666666865533486  0.4999999999932783  0.4070133268666680   F   F   F
  0.6666666865533486  0.7500000000123208  0.4070133268666680   F   F   F
  0.1666666716383389  0.0000000000000000  0.4070133268666680   F   F   F
  0.1666666716383389  0.2500000000190425  0.4070133268666680   F   F   F
  0.1666666716383389  0.4999999999932783  0.4070133268666680   F   F   F
  0.1666666716383389  0.7500000000123208  0.4070133268666680   F   F   F
  0.5000000000021103  0.0000000000000000  0.4070133268666680   F   F   F
  0.5000000000021103  0.2500000000190425  0.4070133268666680   F   F   F
  0.5000000000021103  0.7500000000123208  0.4070133268666680   F   F   F
  0.1667623688644626  0.1244116057680258  0.4989434799883618   T   T   T
  0.9178173205512878  0.0633188709560243  0.5475138641680902   T   T   T
  0.1668121351287485  0.8745273139815825  0.4997730614753007   T   T   T
  0.2493670038690305  0.1906052672007004  0.5453746226387193   T   T   T
  0.7489646268284144  0.9390768357261153  0.5447074480455935   T   T   T
  0.7483191295457086  0.6907442931066753  0.5447130669687887   T   T   T
  0.7495175424500842  0.4399789922890911  0.5476534986780223   T   T   T
  0.4176372358691787  0.4346090327338371  0.5501964419199575   T   T   T
  0.4207837015912019  0.6856053910740713  0.5478448596863661   T   T   T
  0.7491792775185343  0.1885201556138135  0.5467266462393042   T   T   T
  0.4158810350744848  0.9371750340762736  0.5458267077090806   T   T   T
  0.0832603086410485  0.9389874357241456  0.5455189184866012   T   T   T
  0.4188127703560034  0.1879126342270881  0.5461512589887836   T   T   T
  0.0861642276458301  0.6885170324701103  0.5461205906716735   T   T   T
  0.0853221427278666  0.4381405518512244  0.5457785132077568   T   T   T
  0.0843232939631846  0.1888752004287220  0.5460284126853179   T   T   T
  0.5005386731551569  0.1251562019189200  0.4989210491550931   T   T   T
  0.0005536946324807  0.4962328664941230  0.5938187901577361   T   T   T
  0.9989637579752727  0.7481111735832527  0.5929709188911658   T   T   T
  0.3343141512854607  0.2472550248204537  0.5902521295959444   T   T   T
  0.3335623223614347  0.0026530344901437  0.5918744565539138   T   T   T
  0.9990274933650047  0.9952435882448112  0.5925449197068632   T   T   T
  0.0004585819187962  0.2512353890239962  0.5922497204262706   T   T   T
  0.3345298702485051  0.4953607029677576  0.5912637470605990   T   T   T
  0.3357022944683671  0.7462082121938097  0.5869672082741508   T   T   T
  0.6662604156686446  0.2488695136952984  0.5927480567951581   T   T   T
  0.6658871093268157 -0.0001420467452297  0.5919449316364717   T   T   T
  0.6634230831053629  0.7473869055078430  0.5906521283124289   T   T   T
  0.6648145015736742  0.4972729000977140  0.5950408821128472   T   T   T
  0.1668431138865560  0.9971162562903021  0.5921044994880390   T   T   T
  0.1695931024968095  0.2523595014903340  0.5941720316936365   T   T   T
  0.1685766481064321  0.7557607794839231  0.5923034501703619   T   T   T
  0.2488164154290233  0.4412742855868250  0.5444357479961072   T   T   T
  0.1680219721391734  0.5040073367994249  0.5893306743657453   T   T   T
  0.2469672685130326  0.6862586424136357  0.5496379800535216   T   T   T
  0.5839570571815029  0.1829192474176314  0.5506405390674247   T   T   T
  0.9160021276765629  0.8118654829873270  0.5467270733227882   T   T   T
  0.9180848356346103  0.5618832739446955  0.5457607085005493   T   T   T
  0.5843482057200134  0.5596736138084116  0.5467960510449772   T   T   T
  0.5833544463734265  0.8113577484148142  0.5470306685981277   T   T   T
  0.5848119551869986  0.3088769632408154  0.5430066352079936   T   T   T
  0.5827554161617439  0.0593468844304115  0.5449091858624275   T   T   T
  0.2528242609045436  0.8142292125416846  0.5486449445471312   T   T   T
  0.2541478468445894  0.5637632848692428  0.5470836656380142   T   T   T
  0.2511542649653208  0.3181115545435912  0.5497233100305843   T   T   T
  0.2493098253364247  0.0645058835851345  0.5484686289510839   T   T   T
  0.7473731191555134  0.8155131259221204  0.5532167073952066   T   T   T
  0.7445291068814459  0.5668725753032756  0.5529059783665556   T   T   T
  0.4170954076524498  0.8128457895607322  0.5465499356747283   T   T   T
  0.7490671380828614  0.0626194024681770  0.5469864146501782   T   T   T
  0.7487719027243358  0.3154154433695743  0.5464957634050817   T   T   T
  0.4165607069291528  0.3127020792447517  0.5456570987483882   T   T   T
  0.4142365843914961  0.5619851260476774  0.5477000807733202   T   T   T
  0.4178440026937386  0.0634154057962349  0.5472445460567200   T   T   T
  0.0817978305880952  0.8125257892954312  0.5464011156533136   T   T   T
  0.0818720903002474  0.5634941056307672  0.5469680275474145   T   T   T
  0.0850196589407669  0.3128825386971175  0.5472182835896886   T   T   T
  0.0822328319209575  0.0632405776428045  0.5474442293365668   T   T   T
  0.9148183023267480  0.9382639896771507  0.5460956151646567   T   T   T
  0.9132052194487539  0.6869207734113870  0.5466153573913248   T   T   T
  0.5838232623777188  0.9349525012302204  0.5471256764663347   T   T   T
  0.9174490175815097  0.1892797692402290  0.5451816190683353   T   T   T
  0.9146845568933792  0.4381369559211820  0.5460197779760526   T   T   T
  0.5827369411049598  0.4330331146867114  0.5514131671192996   T   T   T
  0.5799059008290569  0.6841621022574441  0.5488861914274159   T   T   T
  0.2522501840066782  0.9392509040351039  0.5444130873238248   T   T   T
  0.4985050126325911  0.5022152041447988  0.5896964153027394   T   T   T
  0.5011362554626391  0.2511403736765054  0.5906884912934287   T   T   T
  0.5000918283356034 -0.0006333454527695  0.5906480150455362   T   T   T
  0.7469225859874178  0.6706934366057009  0.6309867726803717   T   T   T
  0.7481661619093786  0.9323509310878981  0.6374195213031945   T   T   T
  0.2513828398564939  0.1839316295436205  0.6401707507208858   T   T   T
  0.7487896268978201  0.1865911878250445  0.6419552812305239   T   T   T
  0.7534546835775932  0.4404369117711862  0.6417278060554298   T   T   T
  0.4166120243310996  0.9351551586328332  0.6382130985745691   T   T   T
  0.4180664201752576  0.6870127223901773  0.6386058134910555   T   T   T
  0.5825160927738219  0.8131548309544828  0.6409895329485437   T   T   T
  0.9175919663351569  0.0602437008653478  0.6414485446366841   T   T   T
  0.9160424574590105  0.5629023513964275  0.6395723802417097   T   T   T
  0.9154118839624100  0.3119844764769514  0.6401918602365123   T   T   T
  0.9145593707275763  0.8110293932656401  0.6420777810532776   T   T   T
  0.5822696935727423  0.0647491471234114  0.6394945396068877   T   T   T
  0.5846621480782465  0.3221917023159291  0.6327480720406616   T   T   T
  0.5822375285606406  0.5652288141222380  0.6377206739593062   T   T   T
  0.2502225630662673  0.5688526191086077  0.6366154926591088   T   T   T
  0.2606369869838752  0.8090726163538523  0.6430518815947609   T   T   T
  0.2608024842410369  0.3107578738900776  0.6463018331523711   T   T   T
  0.2485106048836916  0.0593007279410776  0.6428502667000521   T   T   T
  0.9166666865332829  0.5625000000092442  0.3605200052333331   F   F   F
  0.5003516975133542  0.3756072811123886  0.5004081583161991   T   T   T
  0.5001987603260959  0.8747008180050388  0.4994940130292753   T   T   T
  0.4997636872011305  0.6218804694272994  0.4999868494422118   T   T   T
  0.8315546375909543  0.6225523547403118  0.5018218378820466   T   T   T
  0.8322120308571779  0.8731277093921983  0.4999753590077897   T   T   T
  0.8328918393066415  0.3759496904801053  0.4989692395130134   T   T   T
  0.8331352163207897  0.1247276367561940  0.4995154095858416   T   T   T
  0.1668070385187725  0.3741473959216889  0.4985794846790281   T   T   T
  0.1671525666595376  0.6230394678184766  0.4996987814361367   T   T   T
  0.5655650903514357  0.4430147862457131  0.6453227820642865   T   T   T
  0.5781978302710015  0.6844686053551756  0.6384633993644919   T   T   T
  0.9171392211905814  0.1857066779152048  0.6398802243504003   T   T   T
  0.5820544752911669  0.9349317868078908  0.6392480209491601   T   T   T
  0.8293710439117358  0.7511922041027000  0.5929244639828237   T   T   T
  0.8322134206324562  0.2491154774600383  0.5920270093494689   T   T   T
  0.8307968191714397  0.5045774072129948  0.5904017433895031   T   T   T
  0.8321294227291298  0.0015491088478964  0.5922191460797783   T   T   T
  0.4995586307803645  0.7533268172448083  0.5903523923049439   T   T   T
  0.4195077969932684  0.0627233073941853  0.6415215829947559   T   T   T
  0.4152496506058098  0.3164433898508303  0.6356363168063491   T   T   T
  0.4124639455814804  0.8156470507629933  0.6375880588232193   T   T   T
  0.4123867260681993  0.5650850647368870  0.6385938892796980   T   T   T
  0.7579843190890609  0.5590232722828236  0.6604384658387696   T   T   T
  0.7422931386551100  0.7997118683239368  0.6488451834020338   T   T   T
  0.7520712110315350  0.3152871607329569  0.6397560128899298   T   T   T
  0.7478673940915826  0.0611004978689949  0.6418545666362176   T   T   T
  0.0843696393989548  0.3119684278906466  0.6416491570175471   T   T   T
  0.6668650235384802  0.8731516196575320  0.4993467327787214   T   T   T
  0.0850916658935113  0.5630437412901016  0.6404992629210913   T   T   T
  0.0824740436283570  0.0604960620865641  0.6399573516464208   T   T   T
  0.0889620916472764  0.4364377612663955  0.6399643314080734   T   T   T
  0.0833184759411537  0.1855691878937374  0.6396305293090876   T   T   T
  0.4187663309294183  0.1883279846853916  0.6409330452323574   T   T   T
  0.4243266136720469  0.4399815893856001  0.6466091999740446   T   T   T
  0.0838926462474928  0.9354077162167552  0.6414863829767617   T   T   T
  0.0865310503759880  0.6881403072197021  0.6395821340155196   T   T   T
  0.9125654991483561  0.4365743813628339  0.6398044722366245   T   T   T
  0.9127107687219883  0.6862544368690758  0.6398971710654868   T   T   T
  0.9122025159746365  0.9350264292867789  0.6408993144988290   T   T   T
  0.2487726926689678  0.4339717464052314  0.6338966837011178   T   T   T
  0.2543354266526092  0.6918338648815743  0.6429271592765028   T   T   T
  0.5798753488380828  0.1930922510910372  0.6479953350800526   T   T   T
  0.2526086453023196  0.9319016703657064  0.6376436146332699   T   T   T
  0.0824965909222802  0.8128034185153119  0.6416923276720637   T   T   T
  0.9166666865332829  0.8124999999834799  0.3605200052333331   F   F   F
 -0.0001028440940637  0.1228585986802617  0.6168670567072569   T   T   T
  0.8333332538436267  0.6249999999803961  0.4070133268666680   F   F   F
  0.0003705450641556  0.4995732553319015  0.5067389538708148   T   T   T
  0.3322672519837769  0.4994048994222766  0.5020214543481684   T   T   T
  0.3324422668804789  0.2481560972286775  0.5043400688491598   T   T   T
  0.3329091140179207  0.0021519211794856  0.5054291744876156   T   T   T
  0.3324231742076408  0.7516445336864356  0.5010680814178050   T   T   T
  0.6665429700047899  0.0007503676532259  0.5054328596196526   T   T   T
  0.6664987098434556  0.4995648632875931  0.5009813200899391   T   T   T
  0.6669444634888002  0.2466715526838451  0.5050395238025335   T   T   T
  0.6667306825164671  0.7515641833450716  0.5029918263093449   T   T   T
  0.1658439927516023  0.0009492081121604  0.5060050165417457   T   T   T
  0.1667023313255138  0.2493100624389678  0.5063758938427898   T   T   T
  0.1641950481508842  0.4997458979868080  0.5027435201714801   T   T   T
  0.5002539853170458  0.0003119105110063  0.5047979623762963   T   T   T
  0.1637949738946548  0.7516462350842761  0.5032192031085332   T   T   T
  0.4996771589561502  0.7517791171121631  0.5028221179924979   T   T   T
  0.8334411802242017  0.0007199441611425  0.5060405138235062   T   T   T
  0.4989688293502795  0.4994837779745926  0.5025314705673306   T   T   T
  0.5004277848675491  0.2479943455859046  0.5041676279952378   T   T   T
  0.8339068864342258  0.2481932700940078  0.5058251506398412   T   T   T
  0.9992259536913892  0.7502664104939359  0.5065303391470668   T   T   T
  0.0004023123805219  0.2501187088273134  0.5059879541354958   T   T   T
  0.9993990912876327 -0.0000549855214403  0.5060192848050351   T   T   T
  0.8333332538436267  0.8749999404036828  0.4070133268666680   F   F   F
  0.0000000000000000  0.6249999999803961  0.4070133268666680   F   F   F
  0.0000000000000000  0.8749999404036828  0.4070133268666680   F   F   F
  0.3333333432766779  0.1249999999871179  0.4070133268666680   F   F   F
  0.3333333432766779  0.3750000000061604  0.4070133268666680   F   F   F
  0.3333333432766779  0.6249999999803961  0.4070133268666680   F   F   F
  0.3333333432766779  0.8749999404036828  0.4070133268666680   F   F   F
  0.6666666865533486  0.1249999999871179  0.4070133268666680   F   F   F
  0.6666666865533486  0.3750000000061604  0.4070133268666680   F   F   F
  0.6666666865533486  0.6249999999803961  0.4070133268666680   F   F   F
  0.8364858751806971  0.4993511802866074  0.5021219780120889   T   T   T
  0.6666666865533486  0.8749999404036828  0.4070133268666680   F   F   F
  0.1666666716383389  0.3750000000061604  0.4070133268666680   F   F   F
  0.1666666716383389  0.6249999999803961  0.4070133268666680   F   F   F
  0.1666666716383389  0.8749999404036828  0.4070133268666680   F   F   F
  0.5000000000021103  0.1249999999871179  0.4070133268666680   F   F   F
  0.5000000000021103  0.3750000000061604  0.4070133268666680   F   F   F
  0.5000000000021103  0.6249999999803961  0.4070133268666680   F   F   F
  0.5000000000021103  0.8749999404036828  0.4070133268666680   F   F   F
  0.8333332538436267  0.1249999999871179  0.4070133268666680   F   F   F
  0.8333332538436267  0.3750000000061604  0.4070133268666680   F   F   F
  0.1666666716383389  0.1249999999871179  0.4070133268666680   F   F   F
  0.0000000000000000  0.3750000000061604  0.4070133268666680   F   F   F
  0.8341643796994221  0.7509012870657449  0.5047234304008030   T   T   T
  0.8365377382521104  0.3721876301966855  0.6067753174148184   T   T   T
  0.8309596054835671  0.8709348473872125  0.6185335766803189   T   T   T
  0.8379481999205680  0.6229745425119331  0.6032462906968300   T   T   T
  0.9980226679125741  0.8748583655488004  0.6228665393473348   T   T   T
  0.3333554419356106  0.1201856188564145  0.6192861904034848   T   T   T
  0.3317255179534019  0.6267043134839047  0.5978866991522951   T   T   T
  0.3321004813558371  0.3737966957742753  0.5964276293741271   T   T   T
  0.6694707239613515  0.3709981902096559  0.5921810018046150   T   T   T
  0.6653786522537033  0.1252921048997559  0.6173498369876286   T   T   T
  0.3334532835999474  0.8786716078951892  0.6011619228376247   T   T   T
  0.1631684253320521  0.6260693002174823  0.6071144506654282   T   T   T
  0.1663842507356368  0.8737022733293606  0.6202006645666893   T   T   T
  0.4983509905299405  0.3735158483224620  0.5966838687708402   T   T   T
  0.5007345035263792  0.1239474648596241  0.6105084326405609   T   T   T
  0.1664473929866633  0.1222468214230105  0.6180524660455086   T   T   T
  0.1655240110620073  0.3706561325537263  0.6079587941585616   T   T   T
  0.6658161328985817  0.8757489620534994  0.6086877656752703   T   T   T
  0.6616067439036026  0.6255203000771210  0.5928098141638427   T   T   T
  0.0004272271513537  0.3754584422808961  0.6254155328851737   T   T   T
  0.0004015415428806  0.6263417092082911  0.6241523537646957   T   T   T
  0.8329565002831872  0.1224799356551655  0.6217864019412375   T   T   T
  0.4993937460498600  0.8780541043764004  0.6043331790479154   T   T   T
  0.0000000000000000  0.1249999999871179  0.4070133268666680   F   F   F
  0.4978493847435477  0.6250818866846680  0.6007755159050768   T   T   T
  0.9152673012218323  0.9978331488405352  0.6036044648865562   T   T   T
  0.5819907888678183  0.7514994383213399  0.5962372615080289   T   T   T
  0.5836974894382213  0.5014505071794202  0.5934297542675578   T   T   T
  0.2461889096285268  0.5013173211877968  0.5939436257407391   T   T   T
  0.2463546719084697  0.7517355154567744  0.5923765440417034   T   T   T
  0.5830001670558015  0.2541599344337963  0.6014586335696613   T   T   T
  0.5831544901547722  0.0003069592838183  0.6039160357556228   T   T   T
  0.2493601986173238  0.9986435625777764  0.6038617702009497   T   T   T
  0.2513415346074885  0.2456576985698639  0.6045273464783816   T   T   T
  0.4171890250405627  0.0011430282273050  0.6034378906858631   T   T   T
  0.4155485955581327  0.2438249441571481  0.5984522111167013   T   T   T
  0.4146861057475540  0.7504954643421352  0.5942532666445088   T   T   T
  0.7523478580052416  0.4974541399521993  0.5910463843523924   T   T   T
  0.7499386047845262  0.7494278514675290  0.5969258734174510   T   T   T
  0.7504798804840944  0.2446809234143507  0.6030701826917352   T   T   T
  0.7492107299302068 -0.0005577030083316  0.6037961191286618   T   T   T
  0.0832894780605771  0.2496305151518401  0.6036862831294544   T   T   T
  0.0824944429013470  0.4997675993881744  0.6035120695995562   T   T   T
  0.0804597099999731  0.7516371244610732  0.6030567708073966   T   T   T
  0.0825473037583619  0.9968894480459456  0.6029975389098966   T   T   T