Au  O Sr Ti                             
   1.00000000000000     
    23.6707801818999997    0.0000000000000000    0.0000000000000000
     0.0000000000000000   22.3170261383000010    0.0000000000000000
     0.0000000000000000    0.0000000000000000   30.0000000000000000
   Au   O    Sr   Ti
    50   264    72    72
Selective dynamics
Direct
  0.7047835876509676  0.5632709478518861  0.7686816185767843   T   T   T
  0.5771844055132103  0.5640509672682215  0.7075387596712426   T   T   T
  0.2889331615047115  0.4043558298835517  0.7856865496928974   T   T   T
  0.2927363553530363  0.7472077916975026  0.6896590007906553   T   T   T
  0.5870501744589565  0.5892793480357374  0.7950620159141905   T   T   T
  0.5735576259735774  0.7499584495435506  0.7889479285989471   T   T   T
  0.5669829762963913  0.4317437624091652  0.8749579205809703   T   T   T
  0.2545156033902568  0.4381949772926370  0.7039643696418498   T   T   T
  0.2926416348968314  0.6617330983527629  0.7536533062921830   T   T   T
  0.5799311980254210  0.3405823014164983  0.8175614309266732   T   T   T
  0.4984292788863883  0.4703154764939321  0.6926507150345945   T   T   T
  0.5716003125774836  0.4643625482878072  0.7759088951104800   T   T   T
  0.4669840989594884  0.7211024056988189  0.8323302334968896   T   T   T
  0.7349167315290965  0.4897439400553930  0.7030265841343791   T   T   T
  0.7314710561336847  0.6364369752364438  0.6973260983752697   T   T   T
  0.6725587281595851  0.6184583189304239  0.8570721425940796   T   T   T
  0.5585028248526704  0.8075840897819994  0.7094630915277904   T   T   T
  0.4746252383678045  0.8112717725423063  0.7711725574297433   T   T   T
  0.4192951530951494  0.5590445871837753  0.7090854425893526   T   T   T
  0.4681296560599584  0.3691034601460880  0.8441909593422890   T   T   T
  0.4379322996799639  0.2928429218748906  0.7027033736572224   T   T   T
  0.3836334870150204  0.3336981996666052  0.7800534372509846   T   T   T
  0.3945583828385683  0.8090854541623894  0.7061556849542376   T   T   T
  0.3079177491695424  0.5445250623215093  0.7880772713099160   T   T   T
  0.5496727217887075  0.2372450244425880  0.7094897814663483   T   T   T
  0.5027529653593734  0.6516990709218260  0.7470012110718099   T   T   T
  0.6408509746160794  0.3019703447476471  0.7464985351413400   T   T   T
  0.7116268128696918  0.7549530764620730  0.7076485420526103   T   T   T
  0.6583459089373174  0.4948143016256134  0.8409198745427874   T   T   T
  0.3968435858429847  0.6275533798088521  0.7938347191873880   T   T   T
  0.5700158976597023  0.5540939390202915  0.8914751749697255   T   T   T
  0.2055870888702592  0.4901790017629782  0.7787365418661245   T   T   T
  0.4656965998854418  0.4879987333630760  0.8802152113807916   T   T   T
  0.5335383207558086  0.3594694042415265  0.7301859863619854   T   T   T
  0.3090493758274692  0.3265421681103505  0.7069338314582879   T   T   T
  0.6769301637177753  0.6884946009342324  0.7784460960925111   T   T   T
  0.3888931117814760  0.4301544231209281  0.7154883404228252   T   T   T
  0.3658839217866471  0.5510519510271198  0.8685253974207664   T   T   T
  0.4669723854735088  0.6132182178588520  0.8750361304655434   T   T   T
  0.3926948189124256  0.4554479147261047  0.8074634324146960   T   T   T
  0.4855480858576987  0.2703768873586982  0.7843511416647477   T   T   T
  0.3978319293857884  0.6812626175124802  0.7074163703474883   T   T   T
  0.7254316611088254  0.3546461078827380  0.7005475413595708   T   T   T
  0.6913210649395063  0.4208811722467261  0.7722086432090050   T   T   T
  0.2524345302970312  0.5617548120973970  0.7089274302245706   T   T   T
  0.6274592471101773  0.4236560786363500  0.6960860720095656   T   T   T
  0.5686894684813165  0.6764366464060481  0.8645567179388891   T   T   T
  0.6078816502400867  0.6905798227692009  0.7052334082030762   T   T   T
  0.4773916357930212  0.5355917096227605  0.7854130745945251   T   T   T
  0.3672820450937812  0.7537974142977054  0.7842594137253412   T   T   T
  0.2502881717555512  0.1867523289877078  0.4536556784069802   T   T   T
  0.7490438173384207  0.9354828828361496  0.4543351174781052   T   T   T
  0.7489846068570245  0.6846870969874448  0.4545437329504816   T   T   T
  0.7494803109566487  0.4381972049233882  0.4549826414426511   T   T   T
  0.7495328435218128  0.1884352044419461  0.4543581434246395   T   T   T
  0.4164994025875193  0.9365576205455575  0.4542874463532213   T   T   T
  0.4173519995922946  0.6870055629053059  0.4555747039519549   T   T   T
  0.4170352307176352  0.4391815240306525  0.4554712778504846   T   T   T
  0.0841374406632807  0.6875551737892556  0.4541753944567646   T   T   T
  0.0836388820487353  0.9373677325906113  0.4538531199138622   T   T   T
  0.0837833193574504  0.4375405286119753  0.4539545430645101   T   T   T
  0.0834190700552292  0.1875277384243147  0.4540585807357488   T   T   T
  0.9166066265877182  0.8124524872013454  0.4542108614556060   T   T   T
  0.9155936447538904  0.5626923220959593  0.4542070691971462   T   T   T
  0.2502239631564370  0.4374581727084375  0.4538101730089283   T   T   T
  0.9160785566949723  0.0625302032039318  0.4542207084020335   T   T   T
  0.9165568861806833  0.3128915570202317  0.4541950424703744   T   T   T
  0.4165693104046488  0.1877625077828052  0.4541224763308663   T   T   T
  0.2509930843697042  0.6874578104090824  0.4563071052999738   T   T   T
  0.9157883095826989  0.9372823340962260  0.4540259781288827   T   T   T
  0.5838071943136772  0.1902155783191769  0.4557467388429731   T   T   T
  0.9999595332163316  0.1255720695145715  0.4994928675931327   T   T   T
  0.5830334598034523  0.8110796849295686  0.4549762813013474   T   T   T
  0.9998061011483633  0.3752235344873691  0.4999739932642353   T   T   T
  0.9995070374775779  0.6265901825021767  0.4990964124691495   T   T   T
  0.3333679617900717  0.1248311279627131  0.5002542452603664   T   T   T
  0.9993135934968611  0.8760734296391279  0.4998025743898561   T   T   T
  0.3336049007448837  0.8740962198708337  0.4999439196349540   T   T   T
  0.6665114471535925  0.1250658429163247  0.4997077066859490   T   T   T
  0.3339934981198888  0.6273559111256214  0.5029225947626466   T   T   T
  0.3334078625032738  0.3765519020077918  0.5015074774122652   T   T   T
  0.6665851623495839  0.3778650884897615  0.5017081852967612   T   T   T
  0.9149089910280150  0.6869422053197169  0.4540817413529361   T   T   T
  0.9160588643468081  0.4375821072121350  0.4540824836239525   T   T   T
  0.9164093442435313  0.1874273076529074  0.4538726289830016   T   T   T
  0.5840701548148653  0.9366564078341001  0.4549604896749357   T   T   T
  0.5828309228893704  0.6870503350242386  0.4561291241240881   T   T   T
  0.5829230088545309  0.4400252663620485  0.4563573730278503   T   T   T
  0.2501645846039690  0.9356939893896937  0.4537349903943414   T   T   T
  0.6655324127262540  0.6255996465976242  0.5028748108562104   T   T   T
  0.5839952086353948  0.5635130501164550  0.4551467652928500   T   T   T
  0.5836015648116526  0.0627826546099028  0.4536179252140619   T   T   T
  0.9166666865332829  0.6874999999963620  0.3605200052333331   F   F   F
  0.9166666865332829  0.4374999701794380  0.3605200052333331   F   F   F
  0.9166666865332829  0.1875000000030838  0.3605200052333331   F   F   F
  0.5833333134730552  0.9375000000154046  0.3605200052333331   F   F   F
  0.5833333134730552  0.6874999999963620  0.3605200052333331   F   F   F
  0.5833333134730552  0.4374999701794380  0.3605200052333331   F   F   F
  0.5833333134730552  0.1875000000030838  0.3605200052333331   F   F   F
  0.2499999999799343  0.9375000000154046  0.3605200052333331   F   F   F
  0.9166666865332829  0.9375000000154046  0.3605200052333331   F   F   F
  0.2499999999799343  0.6874999999963620  0.3605200052333331   F   F   F
  0.2499999999799343  0.1875000000030838  0.3605200052333331   F   F   F
  0.7499999404149307  0.9375000000154046  0.3605200052333331   F   F   F
  0.7499999404149307  0.6874999999963620  0.3605200052333331   F   F   F
  0.7499999404149307  0.4374999701794380  0.3605200052333331   F   F   F
  0.7499999404149307  0.1875000000030838  0.3605200052333331   F   F   F
  0.4166666269218169  0.9375000000154046  0.3605200052333331   F   F   F
  0.4166666269218169  0.6874999999963620  0.3605200052333331   F   F   F
  0.4166666269218169  0.4374999701794380  0.3605200052333331   F   F   F
  0.2499999999799343  0.4374999701794380  0.3605200052333331   F   F   F
  0.0833333358191695  0.0625000000159659  0.3605200052333331   F   F   F
  0.0833333358191695  0.3124999999901945  0.3605200052333331   F   F   F
  0.0833333358191695  0.5625000000092442  0.3605200052333331   F   F   F
  0.9166666865332829  0.3124999999901945  0.3605200052333331   F   F   F
  0.9166666865332829  0.0625000000159659  0.3605200052333331   F   F   F
  0.5833333134730552  0.8124999999834799  0.3605200052333331   F   F   F
  0.5833333134730552  0.5625000000092442  0.3605200052333331   F   F   F
  0.5833333134730552  0.3124999999901945  0.3605200052333331   F   F   F
  0.5833333134730552  0.0625000000159659  0.3605200052333331   F   F   F
  0.2499999999799343  0.8124999999834799  0.3605200052333331   F   F   F
  0.2499999999799343  0.5625000000092442  0.3605200052333331   F   F   F
  0.2499999999799343  0.3124999999901945  0.3605200052333331   F   F   F
  0.2499999999799343  0.0625000000159659  0.3605200052333331   F   F   F
  0.7499999404149307  0.8124999999834799  0.3605200052333331   F   F   F
  0.7499999404149307  0.5625000000092442  0.3605200052333331   F   F   F
  0.7499999404149307  0.3124999999901945  0.3605200052333331   F   F   F
  0.7499999404149307  0.0625000000159659  0.3605200052333331   F   F   F
  0.4166666269218169  0.8124999999834799  0.3605200052333331   F   F   F
  0.4166666269218169  0.5625000000092442  0.3605200052333331   F   F   F
  0.4166666269218169  0.3124999999901945  0.3605200052333331   F   F   F
  0.4166666269218169  0.0625000000159659  0.3605200052333331   F   F   F
  0.0833333358191695  0.8124999999834799  0.3605200052333331   F   F   F
  0.4166666269218169  0.1875000000030838  0.3605200052333331   F   F   F
  0.0833333358191695  0.9375000000154046  0.3605200052333331   F   F   F
  0.0833333358191695  0.6874999999963620  0.3605200052333331   F   F   F
  0.0833333358191695  0.4374999701794380  0.3605200052333331   F   F   F
  0.8333332538436267  0.4999999999932783  0.4070133268666680   F   F   F
  0.8333332538436267  0.7500000000123208  0.4070133268666680   F   F   F
  0.0837659337385727  0.0624397935717174  0.4542595775683208   T   T   T
  0.0831583608111122  0.3128055975982837  0.4542410434893648   T   T   T
  0.0837233228689248  0.5627442852790178  0.4542194925481630   T   T   T
  0.0831904144767679  0.8127903697533504  0.4541849659255251   T   T   T
  0.4167774639380440  0.0621783049908368  0.4546908784510899   T   T   T
  0.4172160906738644  0.3140178665874735  0.4545975761624576   T   T   T
  0.4160315195066643  0.5631813816409836  0.4554740011702452   T   T   T
  0.4169541519680569  0.8114173697011529  0.4547845320281094   T   T   T
  0.7499738784419322  0.0618038821004373  0.4549113619623923   T   T   T
  0.7487011939825213  0.3136732412446524  0.4546888960726369   T   T   T
  0.7483464042498993  0.5612611756789401  0.4570659650368165   T   T   T
  0.7496516543281273  0.8090012048766758  0.4566240356828227   T   T   T
  0.2505959811012463  0.0611243632629105  0.4551019263282974   T   T   T
  0.9148714616172142  0.3126128085020739  0.5478310550437042   T   T   T
  0.2508938220040464  0.3119903345896594  0.4559361556705326   T   T   T
  0.2513850842979097  0.5631439204561751  0.4557797051952480   T   T   T
  0.2498811216675913  0.8112880685811009  0.4550017921209092   T   T   T
  0.8333332538436267  0.2500000000190425  0.4070133268666680   F   F   F
  0.5835166933943803  0.3160019227377383  0.4530216634134057   T   T   T
  0.8333332538436267  0.0000000000000000  0.4070133268666680   F   F   F
  0.5000000000021103  0.4999999999932783  0.4070133268666680   F   F   F
  0.0833333358191695  0.1875000000030838  0.3605200052333331   F   F   F
  0.0000000000000000  0.0000000000000000  0.4070133268666680   F   F   F
  0.0000000000000000  0.2500000000190425  0.4070133268666680   F   F   F
  0.0000000000000000  0.4999999999932783  0.4070133268666680   F   F   F
  0.0000000000000000  0.7500000000123208  0.4070133268666680   F   F   F
  0.3333333432766779  0.0000000000000000  0.4070133268666680   F   F   F
  0.3333333432766779  0.2500000000190425  0.4070133268666680   F   F   F
  0.3333333432766779  0.4999999999932783  0.4070133268666680   F   F   F
  0.3333333432766779  0.7500000000123208  0.4070133268666680   F   F   F
  0.6666666865533486  0.0000000000000000  0.4070133268666680   F   F   F
  0.6666666865533486  0.2500000000190425  0.4070133268666680   F   F   F
  0.6666666865533486  0.4999999999932783  0.4070133268666680   F   F   F
  0.6666666865533486  0.7500000000123208  0.4070133268666680   F   F   F
  0.1666666716383389  0.0000000000000000  0.4070133268666680   F   F   F
  0.1666666716383389  0.2500000000190425  0.4070133268666680   F   F   F
  0.1666666716383389  0.4999999999932783  0.4070133268666680   F   F   F
  0.1666666716383389  0.7500000000123208  0.4070133268666680   F   F   F
  0.5000000000021103  0.0000000000000000  0.4070133268666680   F   F   F
  0.5000000000021103  0.2500000000190425  0.4070133268666680   F   F   F
  0.5000000000021103  0.7500000000123208  0.4070133268666680   F   F   F
  0.1667129233924965  0.1248678060018791  0.4997223679738693   T   T   T
  0.9173765682951162  0.0628252694098042  0.5479735746862273   T   T   T
  0.1666994905787340  0.8747615303153944  0.5002133213713311   T   T   T
  0.2491385829208808  0.1904407667353671  0.5470945824488287   T   T   T
  0.7492553204634571  0.9399182779006298  0.5459159569516149   T   T   T
  0.7490669704106441  0.6907717463720832  0.5467212005518312   T   T   T
  0.7496995976799087  0.4383838076837944  0.5504317680300325   T   T   T
  0.4165036516689513  0.4358158455520916  0.5508327340355437   T   T   T
  0.4203556061555871  0.6864971971251281  0.5489727177230741   T   T   T
  0.7490229277847272  0.1889963450644409  0.5485193326261033   T   T   T
  0.4156839870188331  0.9375405252729883  0.5468414653280861   T   T   T
  0.0831559401702529  0.9386955180848655  0.5473480479800851   T   T   T
  0.4179833792311283  0.1885012214901571  0.5469335721327747   T   T   T
  0.0861540637239277  0.6882036782929095  0.5475892541262128   T   T   T
  0.0848636817822579  0.4384445910412468  0.5469531314651224   T   T   T
  0.0844576683733948  0.1886220007825565  0.5478941329414364   T   T   T
  0.5003858315477751  0.1253850110003762  0.4993004142979237   T   T   T
 -0.0001542818875887  0.4952365017180202  0.5963820360737735   T   T   T
  0.9989740728104790  0.7494945199302040  0.5958147107270861   T   T   T
  0.3340908599271487  0.2476724863323575  0.5926052373715792   T   T   T
  0.3330782392907454  0.0035685447337495  0.5940915476919493   T   T   T
  0.9990078264710597  0.9953230297234897  0.5953633122657813   T   T   T
  0.0000834207586323  0.2495085609589757  0.5952613478096472   T   T   T
  0.3344854785337378  0.4974726236260639  0.5934019648438377   T   T   T
  0.3355958745606126  0.7472996603745734  0.5886808106860402   T   T   T
  0.6653890468074027  0.2474762283253915  0.5958919546886488   T   T   T
  0.6658214784279844  0.0007532701134641  0.5935731580535619   T   T   T
  0.6640271602260167  0.7490152953850320  0.5926143485962869   T   T   T
  0.6657179527895869  0.4982641118775642  0.5973552116959565   T   T   T
  0.1662379543188773  0.9963922442511499  0.5946569658369057   T   T   T
  0.1697886844977872  0.2533555590419819  0.5974537148483074   T   T   T
  0.1683943893352704  0.7571570254250082  0.5947707588383210   T   T   T
  0.2494198286324300  0.4410080239504605  0.5466130266831524   T   T   T
  0.1677724012807910  0.5035252080951785  0.5914682680075004   T   T   T
  0.2467257867489723  0.6864816357430538  0.5513963550643233   T   T   T
  0.5833306436350943  0.1838007635160076  0.5515602962273446   T   T   T
  0.9158956141027702  0.8118987165224409  0.5480458679263788   T   T   T
  0.9168634983155901  0.5620333700759975  0.5474188273533970   T   T   T
  0.5843779256701103  0.5599767365274645  0.5484572625840796   T   T   T
  0.5828737174559271  0.8128546502256486  0.5495544002054851   T   T   T
  0.5845326862127080  0.3093305140342608  0.5442484077862878   T   T   T
  0.5825233498561380  0.0598721184366370  0.5462687496873487   T   T   T
  0.2527827956149331  0.8141131894686219  0.5496993070791851   T   T   T
  0.2536447639282147  0.5642354647956997  0.5493598146119443   T   T   T
  0.2511122782596968  0.3178842852413954  0.5509083440605752   T   T   T
  0.2485346794025727  0.0640892997019739  0.5496610250405844   T   T   T
  0.7479995894796496  0.8161554387237190  0.5551327664063752   T   T   T
  0.7452481735118659  0.5657892525619418  0.5538653739532153   T   T   T
  0.4176763958186993  0.8134938472115052  0.5486888601285947   T   T   T
  0.7492946749237490  0.0634107830092867  0.5487915500267336   T   T   T
  0.7479832185524438  0.3147410741796550  0.5476704712490056   T   T   T
  0.4164540305148146  0.3136474795316805  0.5475941475848157   T   T   T
  0.4154763117527008  0.5628963280271611  0.5497215500929323   T   T   T
  0.4177955590532578  0.0632946371683156  0.5479035418766113   T   T   T
  0.0820255895305174  0.8121986092462395  0.5476166450915071   T   T   T
  0.0821586808127724  0.5631383611994955  0.5477205941150999   T   T   T
  0.0851091458062084  0.3128346479170341  0.5483370994573652   T   T   T
  0.0824381901922126  0.0628125379787217  0.5480129624115896   T   T   T
  0.9145766946496899  0.9385128825550363  0.5474709772684202   T   T   T
  0.9127673476027721  0.6873049743156112  0.5477840832160602   T   T   T
  0.5824455493949511  0.9362611293676119  0.5475185437499961   T   T   T
  0.9167369780895448  0.1888197040115677  0.5473656529879996   T   T   T
  0.9139549823501647  0.4381954717373538  0.5472964775717920   T   T   T
  0.5840669468473385  0.4334755746575249  0.5528809785025263   T   T   T
  0.5809591622463857  0.6851289266632141  0.5504285614369278   T   T   T
  0.2521140326103720  0.9392742855132392  0.5454462967117046   T   T   T
  0.4993975021953194  0.5000052958389900  0.5914530766729931   T   T   T
  0.5008345969479120  0.2486175032198108  0.5928008839260409   T   T   T
  0.4995959565244630  0.0009813607468184  0.5926815498359502   T   T   T
  0.7468855441760789  0.6708600715547295  0.6341349101933934   T   T   T
  0.7472820573014378  0.9330496005515968  0.6399978506882126   T   T   T
  0.2509477646608011  0.1842659152909943  0.6437512375934361   T   T   T
  0.7493582792654379  0.1875475784755242  0.6454141063508392   T   T   T
  0.7538400329188979  0.4427070023767783  0.6459294519425163   T   T   T
  0.4169102071127765  0.9350992261011709  0.6396035861054380   T   T   T
  0.4173102960568917  0.6870800066122464  0.6406764012783771   T   T   T
  0.5819771140431661  0.8128313217635663  0.6444152042886732   T   T   T
  0.9180518174717277  0.0599716779281465  0.6445287012109329   T   T   T
  0.9162548834036689  0.5616600050092145  0.6427883722935127   T   T   T
  0.9149353653222611  0.3121021621345265  0.6429034578018840   T   T   T
  0.9147213222208418  0.8105004709682775  0.6458530227219432   T   T   T
  0.5821971991305982  0.0637244661405720  0.6428716654168208   T   T   T
  0.5831015845035732  0.3221304019742172  0.6335179563954871   T   T   T
  0.5818473123020881  0.5651362039838264  0.6396126983887510   T   T   T
  0.2482122598329484  0.5683405045824351  0.6409192961653518   T   T   T
  0.2604013873374324  0.8080931639887905  0.6461766776110121   T   T   T
  0.2618265777525113  0.3098992734202838  0.6498620025047375   T   T   T
  0.2470852192265273  0.0582086594037462  0.6460872154602965   T   T   T
  0.9166666865332829  0.5625000000092442  0.3605200052333331   F   F   F
  0.5004032722587235  0.3767142613402685  0.5016827810520857   T   T   T
  0.5000449216778620  0.8748569741821264  0.5000486107379534   T   T   T
  0.5002819211846270  0.6227066494594368  0.5013292992044764   T   T   T
  0.8314975464098746  0.6225651989324940  0.5021545608598613   T   T   T
  0.8321852154533022  0.8731888240312403  0.5000227838198165   T   T   T
  0.8323872611324102  0.3757495312560366  0.5000720780377169   T   T   T
  0.8327767154378646  0.1259316016910764  0.5000619572164290   T   T   T
  0.1668078016475066  0.3748639905371368  0.4997958816773840   T   T   T
  0.1672996604647007  0.6234910344548410  0.5007374644814385   T   T   T
  0.5669564519313400  0.4422331753402656  0.6483685385163176   T   T   T
  0.5802275632954681  0.6849170504487614  0.6407847676409524   T   T   T
  0.9159972766155478  0.1865606055815967  0.6436465924465784   T   T   T
  0.5818875696069609  0.9350448098027055  0.6398516541216687   T   T   T
  0.8293501027838991  0.7521046811459893  0.5960789301156548   T   T   T
  0.8316249996783801  0.2498379095018582  0.5945532092643032   T   T   T
  0.8305893692793868  0.5048045663977304  0.5933205069857234   T   T   T
  0.8319585709211975  0.0028817894185787  0.5952141695618061   T   T   T
  0.4996801770439636  0.7527943775771221  0.5927072519273683   T   T   T
  0.4186546743640750  0.0607636736172827  0.6456606220785924   T   T   T
  0.4172472805520953  0.3142059803719862  0.6391943066608646   T   T   T
  0.4115699091067463  0.8156026116530687  0.6405026798456374   T   T   T
  0.4140797934388887  0.5652247780333876  0.6402163979294354   T   T   T
  0.7595606226603719  0.5608268251531329  0.6658500159949011   T   T   T
  0.7421025620220750  0.7995012606751801  0.6526258874877027   T   T   T
  0.7504950418112047  0.3157882843974016  0.6425867837664874   T   T   T
  0.7470178202482727  0.0604802751889151  0.6459047444263433   T   T   T
  0.0836724307509515  0.3121630842845240  0.6444241750721922   T   T   T
  0.6666880008649527  0.8730323718535811  0.5009636864743449   T   T   T
  0.0849162719649149  0.5616629329192299  0.6428409801363232   T   T   T
  0.0823958104575104  0.0601551095439570  0.6428901010325938   T   T   T
  0.0891952618543539  0.4365203029987959  0.6428426074064941   T   T   T
  0.0840497016189537  0.1866002965635984  0.6432861555347812   T   T   T
  0.4170514724190709  0.1865550269398119  0.6431090979935450   T   T   T
  0.4222498869557428  0.4401180324722577  0.6485324213208604   T   T   T
  0.0839763165478647  0.9363433929108756  0.6458125192355856   T   T   T
  0.0866758307868314  0.6886180706724916  0.6421233315652882   T   T   T
  0.9109277711552428  0.4366456577938855  0.6428692972598793   T   T   T
  0.9130923657831524  0.6865757143718394  0.6426201785374066   T   T   T
  0.9117245676017672  0.9361402271355251  0.6443973225293687   T   T   T
  0.2497216002697235  0.4342258639291979  0.6366967784680456   T   T   T
  0.2540941181214191  0.6922908943503886  0.6451953769164024   T   T   T
  0.5793507273320140  0.1943875440456505  0.6533813031106341   T   T   T
  0.2530600206512569  0.9319861236862853  0.6397533825953472   T   T   T
  0.0824677192649355  0.8121778334332274  0.6458159579500767   T   T   T
  0.9166666865332829  0.8124999999834799  0.3605200052333331   F   F   F
  0.9998740335758931  0.1239679378847399  0.6233498646038376   T   T   T
  0.8333332538436267  0.6249999999803961  0.4070133268666680   F   F   F
  0.9997444578238081  0.4996237382841318  0.5085752097102334   T   T   T
  0.3321868604280845  0.4993721408825564  0.5031952777449679   T   T   T
  0.3321941391408261  0.2479861042223559  0.5059927526531948   T   T   T
  0.3326704552006150  0.0026074569333197  0.5068593012815117   T   T   T
  0.3325033163529801  0.7516000732557702  0.5021184210805963   T   T   T
  0.6667639441960092  0.0013822604567621  0.5066606861978229   T   T   T
  0.6663611629724238  0.4995547322986760  0.5016548139997892   T   T   T
  0.6664812299187400  0.2462543492820970  0.5067271102817004   T   T   T
  0.6669357287980805  0.7520799517311487  0.5043149823738418   T   T   T
  0.1656049194025687  0.0009922154013188  0.5078041816162859   T   T   T
  0.1666391986347747  0.2492473478078198  0.5082909292427247   T   T   T
  0.1640023059166585  0.4995899992391869  0.5039516015596619   T   T   T
  0.5000017835516982  0.0009256832517014  0.5059892000778710   T   T   T
  0.1635340983602855  0.7518171974838991  0.5046204328053971   T   T   T
  0.4996736898456598  0.7520521763934637  0.5039674990414410   T   T   T
  0.8333112643317917  0.0011841281120607  0.5079281527524878   T   T   T
  0.4987501810011686  0.4993410117739619  0.5032090972148492   T   T   T
  0.5003627941600733  0.2476658614697315  0.5057421188375755   T   T   T
  0.8336380421348747  0.2481454536312469  0.5076434101882735   T   T   T
  0.9990648217081711  0.7503125281030129  0.5086194312348380   T   T   T
  0.0001176848366506  0.2501962700787870  0.5080617983780340   T   T   T
  0.9993320350181086  0.0001382311855494  0.5080199050114220   T   T   T
  0.8333332538436267  0.8749999404036828  0.4070133268666680   F   F   F
  0.0000000000000000  0.6249999999803961  0.4070133268666680   F   F   F
  0.0000000000000000  0.8749999404036828  0.4070133268666680   F   F   F
  0.3333333432766779  0.1249999999871179  0.4070133268666680   F   F   F
  0.3333333432766779  0.3750000000061604  0.4070133268666680   F   F   F
  0.3333333432766779  0.6249999999803961  0.4070133268666680   F   F   F
  0.3333333432766779  0.8749999404036828  0.4070133268666680   F   F   F
  0.6666666865533486  0.1249999999871179  0.4070133268666680   F   F   F
  0.6666666865533486  0.3750000000061604  0.4070133268666680   F   F   F
  0.6666666865533486  0.6249999999803961  0.4070133268666680   F   F   F
  0.8357070325488963  0.4994536245371600  0.5035738869581166   T   T   T
  0.6666666865533486  0.8749999404036828  0.4070133268666680   F   F   F
  0.1666666716383389  0.3750000000061604  0.4070133268666680   F   F   F
  0.1666666716383389  0.6249999999803961  0.4070133268666680   F   F   F
  0.1666666716383389  0.8749999404036828  0.4070133268666680   F   F   F
  0.5000000000021103  0.1249999999871179  0.4070133268666680   F   F   F
  0.5000000000021103  0.3750000000061604  0.4070133268666680   F   F   F
  0.5000000000021103  0.6249999999803961  0.4070133268666680   F   F   F
  0.5000000000021103  0.8749999404036828  0.4070133268666680   F   F   F
  0.8333332538436267  0.1249999999871179  0.4070133268666680   F   F   F
  0.8333332538436267  0.3750000000061604  0.4070133268666680   F   F   F
  0.1666666716383389  0.1249999999871179  0.4070133268666680   F   F   F
  0.0000000000000000  0.3750000000061604  0.4070133268666680   F   F   F
  0.8341354140171978  0.7515095219390981  0.5064093355101481   T   T   T
  0.8358808033242737  0.3719968382619727  0.6097234382681144   T   T   T
  0.8305379396463241  0.8707703201896543  0.6258038064406630   T   T   T
  0.8387286943474266  0.6230237702381268  0.6063721590907610   T   T   T
  0.9979094010529465  0.8756178152949486  0.6318303322577216   T   T   T
  0.3323981219982678  0.1184598858077218  0.6277219759666477   T   T   T
  0.3310598424597999  0.6261439608009753  0.6003050734082499   T   T   T
  0.3325482855858500  0.3730261376798119  0.5987799884429897   T   T   T
  0.6679230618338020  0.3701944241030990  0.5940795054524651   T   T   T
  0.6654268971274375  0.1253426833919624  0.6254871860679099   T   T   T
  0.3330784064866373  0.8790887829751539  0.6034101628955379   T   T   T
  0.1619057501448575  0.6255625643407248  0.6094501828847754   T   T   T
  0.1666310866239008  0.8736615688346131  0.6281823289167912   T   T   T
  0.4981101896483235  0.3729158694224399  0.5980519632699296   T   T   T
  0.5000407156367077  0.1229545896246749  0.6175093112151564   T   T   T
  0.1661043029124973  0.1223385076609456  0.6232444763616242   T   T   T
  0.1652900115023322  0.3703810774736128  0.6115090387981978   T   T   T
  0.6657129718022987  0.8761628366762194  0.6117164790812651   T   T   T
  0.6621852909067401  0.6256208873231920  0.5946410309462491   T   T   T
 -0.0003152235451616  0.3765679033971501  0.6349318768669852   T   T   T
  0.0004247532342668  0.6262321450441243  0.6350392901467199   T   T   T
  0.8325909086804564  0.1216290215133775  0.6294410147820384   T   T   T
  0.4993304146777580  0.8789479311283136  0.6063524785804394   T   T   T
  0.0000000000000000  0.1249999999871179  0.4070133268666680   F   F   F
  0.4980702689530946  0.6260353510268346  0.6019678766009483   T   T   T
  0.9151594849231843  0.9980793578266980  0.6059259553137315   T   T   T
  0.5819461597503874  0.7521101529555062  0.5979184427455942   T   T   T
  0.5826156990924525  0.5015444196913729  0.5945312725113757   T   T   T
  0.2456708792249949  0.5013309240976478  0.5958425369705899   T   T   T
  0.2461538707917752  0.7521101998863413  0.5938862932049414   T   T   T
  0.5823859054567349  0.2528935649394832  0.6042190356965996   T   T   T
  0.5831739722458102  0.0013405672295565  0.6052298393170176   T   T   T
  0.2487333744754134  0.9988577004663470  0.6058586282439087   T   T   T
  0.2513705064620849  0.2452772533599225  0.6073223271664880   T   T   T
  0.4166194827841921  0.0016403732697689  0.6052748017327853   T   T   T
  0.4152173563998155  0.2420178442134545  0.6008633691429495   T   T   T
  0.4143800866842444  0.7510316674994020  0.5958302607081624   T   T   T
  0.7508173995849184  0.4967945555592172  0.5927343999880585   T   T   T
  0.7500021922981945  0.7497615477728159  0.5994246787187665   T   T   T
  0.7502201483244179  0.2445744970557998  0.6054792144780621   T   T   T
  0.7488820999358790  0.0003195072288417  0.6063485881888896   T   T   T
  0.0825228732159256  0.2498377591233795  0.6062476131633736   T   T   T
  0.0817568633615397  0.4986865920908033  0.6052164560498258   T   T   T
  0.0805501169858568  0.7525365816890049  0.6056095120237892   T   T   T
  0.0823441512047019  0.9964173956675465  0.6057954947160202   T   T   T