Au  C  H  O Sr Ti                       
   1.00000000000000     
    23.6707801818999997    0.0000000000000000    0.0000000000000000
     0.0000000000000000   22.3170261383000010    0.0000000000000000
     0.0000000000000000    0.0000000000000000   30.0000000000000000
   Au   C    H    O    Sr   Ti
    50     3     6   265    72    72
Selective dynamics
Direct
  0.7158069164977638  0.5238285426717758  0.7521389829593276   T   T   T
  0.6560343367008721  0.4405021661166450  0.8123195230474288   T   T   T
  0.3687488520003772  0.6188180596164454  0.8205361951339795   T   T   T
  0.5704720828721600  0.5090224645165189  0.8560947328201071   T   T   T
  0.6578054444180927  0.1836414552759946  0.7484884507551811   T   T   T
  0.4722378394410828  0.4491275942022666  0.8781329020649661   T   T   T
  0.5169680494838962  0.3770628724392356  0.7322764636769320   T   T   T
  0.2819683402614633  0.3406509737564052  0.7023785751166325   T   T   T
  0.4521619260869754  0.5801797456704383  0.7028008638102961   T   T   T
  0.3977829552897778  0.3815156072174142  0.6903605203121754   T   T   T
  0.6162414109855108  0.3210191442008078  0.6959965072220802   T   T   T
  0.4633673946175922  0.5725263634981249  0.8639795823443055   T   T   T
  0.6698440704346940  0.6814353194583695  0.7487501515263678   T   T   T
  0.3742026670167260  0.7397919677009255  0.7788678780179209   T   T   T
  0.3759009941808374  0.4927045866305411  0.8331220665957693   T   T   T
  0.5405056201192109  0.6679530742337368  0.7017608371788763   T   T   T
  0.5649235713395664  0.6390767773262623  0.8607369694193364   T   T   T
  0.4439576014406159  0.4743202158209780  0.7563035969537163   T   T   T
  0.2569242253136045  0.5930249103768360  0.6945428630071416   T   T   T
  0.7734049541354494  0.4269208003508106  0.7937240477493894   T   T   T
  0.6987807077937974  0.3424613736811115  0.7578192974795890   T   T   T
  0.4161216395544186  0.6960507292620931  0.6993870235209023   T   T   T
  0.6482988987229819  0.4456835445389788  0.6943930339676742   T   T   T
  0.3252867907663628  0.4150820339531269  0.7694455942885050   T   T   T
  0.6210996004642046  0.5711170556511438  0.7040361544275077   T   T   T
  0.7066218248542251  0.7571360233905083  0.6882209801021111   T   T   T
  0.7629697524441614  0.4286202707149615  0.7040014261898564   T   T   T
  0.5535577919004746  0.2130709549405027  0.7096587192191000   T   T   T
  0.7190766788903128  0.2562117051791041  0.6914315152840612   T   T   T
  0.2936779874999543  0.7466004765216279  0.6973161293275584   T   T   T
  0.5124082034775616  0.6031781574539166  0.7766558653150391   T   T   T
  0.5789011914327976  0.7258721415713436  0.7938974736941086   T   T   T
  0.2406086290890543  0.4696445860324806  0.7091015763346487   T   T   T
  0.2853131968061955  0.6621197823085496  0.7646985036771002   T   T   T
  0.5996556275501890  0.2829880545655591  0.7834735721279494   T   T   T
  0.5140819765964829  0.4849156560077294  0.6781582629844032   T   T   T
  0.4841068484362961  0.2695478065800878  0.7752896995836642   T   T   T
  0.2897040924896694  0.5380948779626910  0.7777575294569513   T   T   T
  0.5632328958901986  0.4854945824181387  0.7621933604109169   T   T   T
  0.3917370193753681  0.8175903476089440  0.7065762572135214   T   T   T
  0.4641452528561202  0.6949325372373024  0.8299831957859986   T   T   T
  0.4366214518635409  0.2268669117061672  0.6981105513995518   T   T   T
  0.3695004422070055  0.2987527690194788  0.7555187474248671   T   T   T
  0.3495742356441554  0.4994881239688959  0.6977549310382030   T   T   T
  0.4288428093270659  0.3716233042898269  0.8148261372441986   T   T   T
  0.5970171535623937  0.7847688790484574  0.7129629279834768   T   T   T
  0.6354674824366627  0.5837755759822029  0.7997088320330817   T   T   T
  0.7328990418290487  0.6147489902839781  0.6939527313026718   T   T   T
  0.4859756881778088  0.7751458324366534  0.7544951011221329   T   T   T
  0.5495704824426356  0.3823403007008134  0.8269559534635258   T   T   T
  0.6464471158424421  0.0347213945012757  0.7637948160967026   T   T   T
  0.7179157109341489  0.1197119694446688  0.7529445809352078   T   T   T
  0.7069335941531247  0.0541045577428531  0.7531456798017666   T   T   T
  0.7190947304533039  0.0395155980099775  0.7192418922276631   T   T   T
  0.7372979961052123  0.0330259647921509  0.7761364413269776   T   T   T
  0.7975776782527942  0.1044481397650257  0.7552802230275030   T   T   T
  0.6319964516737622  0.0538416584186131  0.7954415317250344   T   T   T
  0.6172022406636115  0.0473867552668181  0.7373458241670813   T   T   T
  0.6450201946488320  0.9860306209065879  0.7668827148509467   T   T   T
  0.9139949771708160  0.6890716492345421  0.5453618756854148   T   T   T
  0.9155098037981059  0.9385089283503798  0.5465389266526353   T   T   T
  0.0822946311965777  0.0632238678426767  0.5475734801726195   T   T   T
  0.0864222547663395  0.3133710481625126  0.5469066406955376   T   T   T
  0.0819138790015140  0.5644106554319613  0.5462786943214183   T   T   T
  0.4165625848075732  0.0654190296360554  0.5474051341274740   T   T   T
  0.5766469219926950  0.4357538410986961  0.5523235824146401   T   T   T
  0.2500712081334861  0.9360603645414518  0.4540999541011497   T   T   T
  0.4160008373322062  0.3196492948577632  0.5526250780648483   T   T   T
  0.2526125124017249  0.5591331997932436  0.5439652307709197   T   T   T
  0.5812236734636334  0.5599404746904021  0.5491163326410355   T   T   T
  0.7475588392474348  0.3124870442225648  0.5495494632491787   T   T   T
  0.4136115921554885  0.8124145594337088  0.6398716122655780   T   T   T
  0.5838913654532377  0.9378816446199627  0.5461705395524055   T   T   T
  0.9157209109008337  0.4373065255603137  0.5458159057341557   T   T   T
  0.5796679016343556  0.6861792570034536  0.5474467055337525   T   T   T
  0.2514989247373888  0.9373329623226616  0.5453245588156440   T   T   T
  0.4974189602231867  0.5044289667188091  0.6090122838784272   T   T   T
  0.9175228957026142  0.5638567245650143  0.5471133453301781   T   T   T
  0.4200131953257134  0.5648956654541638  0.5553427370534088   T   T   T
  0.9154933879879965  0.8129061443460019  0.5468295165547480   T   T   T
  0.0837330670779015  0.9387209110195266  0.5459922425144589   T   T   T
  0.2492960375622920  0.6832743701890034  0.5520804165329680   T   T   T
  0.7494100844073975  0.9339326845433115  0.5479149826241262   T   T   T
  0.7517385500904888  0.6800652674668740  0.5533345677458054   T   T   T
  0.7518443311254456  0.4354376855078997  0.5488624844818321   T   T   T
  0.4231751169303944  0.4436201254715822  0.5458915584713077   T   T   T
  0.4232516918990488  0.6879520407035171  0.5467280317086173   T   T   T
  0.5860727121658993  0.8145309897090302  0.5504669652889528   T   T   T
  0.7491737807785849  0.1845818567394752  0.5506741074460864   T   T   T
  0.4160314645504397  0.9371845894029613  0.5460899069541261   T   T   T
  0.4985289797050079  0.2529850392755088  0.5905833738352861   T   T   T
  0.0858277058352934  0.6893472099113761  0.5453370379908578   T   T   T
  0.0827132382994374  0.4385110507741274  0.5451317863152013   T   T   T
  0.0835944743163607  0.1889303410642854  0.5456052666682228   T   T   T
  0.4997313501871837  0.1255070265877868  0.4997593219453342   T   T   T
  0.9997071623645710  0.4996350194081414  0.5940840571905587   T   T   T
  0.5806636176048168  0.1852770817426766  0.5500768696392789   T   T   T
  0.9994586156832371  0.7532529941962079  0.5924582195700396   T   T   T
  0.3340123423230643  0.9997929093723972  0.5920557130142277   T   T   T
  0.9997543529170064  0.9990825554695222  0.5933191785214138   T   T   T
  0.0006286686864408  0.2490835636725346  0.5920434108086723   T   T   T
  0.3333183964656470  0.4963574264413160  0.5909559795821260   T   T   T
  0.3358840570248695  0.7413944790405377  0.5905566782729549   T   T   T
  0.6633853195741273  0.2473263778592684  0.5907381597589113   T   T   T
  0.6663169132989645  0.0007476763936570  0.5922154281798079   T   T   T
  0.9164082419947627  0.1887870432580096  0.5455751640032663   T   T   T
  0.6658713638926046  0.7414708114092641  0.5905494020081165   T   T   T
  0.1674603048734259  0.9983587320147015  0.5923343235266124   T   T   T
  0.1684156304302057  0.2485437060132650  0.5933125382014585   T   T   T
  0.1707030545348397  0.7501233210336919  0.5950144786651270   T   T   T
  0.2485013191464324  0.4360684119468159  0.5490174143167784   T   T   T
  0.1655740822673380  0.5028109355552657  0.5873576666933942   T   T   T
  0.3347195774479245  0.2547902244012452  0.5928416870713632   T   T   T
  0.4999349116759134  0.0000716761472233  0.5912244321272278   T   T   T
  0.8326997980292556  0.8742113391157487  0.4986289497266070   T   T   T
  0.7484929684333826  0.9385830658457871  0.6416844568920329   T   T   T
  0.8319403891630877  0.0025785496759992  0.5923302095751599   T   T   T
  0.5011374608380955  0.7563461780114964  0.5927892925079273   T   T   T
  0.4177098345869771  0.0650313866646843  0.6401656321869297   T   T   T
  0.4282559408811060  0.3047738059170815  0.6557457780976323   T   T   T
  0.4156938690140328  0.1915030474550788  0.5465098244029424   T   T   T
  0.6666521167549253  0.4941719047751443  0.5917069284199800   T   T   T
  0.3971906048627337  0.5506033705193083  0.6520410197458705   T   T   T
  0.7412500018520070  0.8102321082115209  0.6398746108334492   T   T   T
  0.5827882092169391  0.4394751086406111  0.4564714649512042   T   T   T
  0.9153734570551629  0.0628461801505350  0.6416014209716682   T   T   T
  0.0837191824105920  0.3117793554198036  0.6403457921422557   T   T   T
  0.6665419314696017  0.8745785215887667  0.4989083963232452   T   T   T
  0.0868641177422268  0.5628899742017048  0.6402368851153195   T   T   T
  0.0842207512350390  0.0605857555519662  0.6421691773513514   T   T   T
  0.0871084691787691  0.4366262657205333  0.6397115848288599   T   T   T
  0.0834792059303306  0.1855915361081165  0.6410823333035082   T   T   T
  0.4179353584805280  0.1872619794437865  0.6395763100758499   T   T   T
  0.0843554971257725  0.9355066258411036  0.6409041964930353   T   T   T
  0.0830494232984144  0.6870673759005029  0.6390951204142084   T   T   T
  0.9125013989003027  0.4361003016508324  0.6397930172022670   T   T   T
  0.9159930028726442  0.6875863952380770  0.6391985522182426   T   T   T
  0.9138679121716976  0.9372962610515077  0.6414458069841222   T   T   T
  0.4150631486686039  0.4187572995520144  0.6300437967998331   T   T   T
  0.7550875870065515  0.4323371122001668  0.6373989901028025   T   T   T
  0.4175348726552259  0.9348323373959546  0.6398162396279683   T   T   T
  0.2407872943580159  0.4423458833000858  0.6415727347579173   T   T   T
  0.7455653992135195  0.1935469150878585  0.6465018452282204   T   T   T
  0.2535661001641660  0.1864750975533105  0.6412467447815744   T   T   T
  0.8303539652742342  0.7507047558563210  0.5926809098785091   T   T   T
  0.8313963783325394  0.2493758067730117  0.5914039769955085   T   T   T
  0.5825886062962089  0.9359920848908143  0.6398327594452083   T   T   T
  0.9166666865332829  0.8124999999834799  0.3605200052333331   F   F   F
  0.0839972251202830  0.8124808559540954  0.6422632471462675   T   T   T
  0.2519991502883016  0.9301384940002185  0.6374011241867787   T   T   T
  0.5785483467913162  0.1912920622097185  0.6448046833143848   T   T   T
  0.2547619808759806  0.6775870901013938  0.6631931313918600   T   T   T
  0.8331963742285280  0.5026225634015767  0.5889006972308453   T   T   T
  0.4206053531489835  0.6756866577667509  0.6335899965691345   T   T   T
  0.7453317867086833  0.3111927306237169  0.6426806120692170   T   T   T
  0.7478820534831915  0.0682633134363449  0.6409182454124219   T   T   T
  0.5912913221448894  0.8104309185627022  0.6460316219320525   T   T   T
  0.2520272077254054  0.1883000780405484  0.5472816879472117   T   T   T
  0.9135523063993415  0.8134342273891142  0.6415356356906911   T   T   T
  0.5829791864818094  0.0661434485531434  0.6398804219165058   T   T   T
  0.5905104033850026  0.5659201342311773  0.6389754505021908   T   T   T
  0.2476049548006500  0.5739841586605419  0.6287605896653267   T   T   T
  0.7541717648618017  0.6920982087163208  0.6572061676295627   T   T   T
  0.2621524118605860  0.7991996988817093  0.6464999917931710   T   T   T
  0.2509635672671174  0.0594555835287683  0.6422969316323835   T   T   T
  0.9166666865332829  0.5625000000092442  0.3605200052333331   F   F   F
  0.4995625213774876  0.3742039951077538  0.4998696097935820   T   T   T
  0.5000342264188492  0.8734369609926667  0.5008790836187967   T   T   T
  0.5004276589370903  0.6210156068093731  0.5001449456472129   T   T   T
  0.8323679696890394  0.6230977977625790  0.5001152647581993   T   T   T
  0.8322642823486045  0.3730280300897068  0.4999670948882848   T   T   T
  0.8328676516897139  0.1243318211305255  0.5004853099784737   T   T   T
  0.9160892281028492  0.0623072155263970  0.4541526595670402   T   T   T
  0.1667325172316933  0.3762646013964805  0.4978273940448452   T   T   T
  0.5808713792884567  0.4389747260099819  0.6464924852456064   T   T   T
  0.5784492846519802  0.6859734853603376  0.6396265489518494   T   T   T
  0.9156184892550403  0.1858242082521813  0.6399269680196816   T   T   T
  0.2492041857351990  0.3164066771062354  0.6413699753029637   T   T   T
  0.1677714780623776  0.8732607046844536  0.4999129197199876   T   T   T
  0.5828095986383887  0.6861133910920094  0.4546384158340893   T   T   T
  0.5826892404055878  0.9372087279249988  0.4543937777948299   T   T   T
  0.9157554697052321  0.1868123573395155  0.4532776071371850   T   T   T
  0.9157878537181277  0.4368763655396193  0.4536580228384643   T   T   T
  0.1670712694495159  0.1245110515216957  0.4995102929962688   T   T   T
  0.7481236250420196  0.0609151414086222  0.5453875097120182   T   T   T
  0.7533851028048136  0.5680486597846008  0.6357408688111031   T   T   T
  0.9152345479969443  0.3118472922769744  0.6396844653692612   T   T   T
  0.9131996346041185  0.5621967653272658  0.6413926266271112   T   T   T
  0.1677527395180308  0.6243445816541078  0.5001277042776309   T   T   T
  0.0000000000000000  0.0000000000000000  0.4070133268666680   F   F   F
  0.5830450690222236  0.3207929732719508  0.6334999502797358   T   T   T
  0.1666666716383389  0.0000000000000000  0.4070133268666680   F   F   F
  0.7497512707685997  0.4379949283001169  0.4557909715050723   T   T   T
  0.5835160722595580  0.0635941824707601  0.4542579308135052   T   T   T
  0.9166666865332829  0.6874999999963620  0.3605200052333331   F   F   F
  0.9166666865332829  0.4374999701794380  0.3605200052333331   F   F   F
  0.9166666865332829  0.1875000000030838  0.3605200052333331   F   F   F
  0.5833333134730552  0.9375000000154046  0.3605200052333331   F   F   F
  0.5833333134730552  0.6874999999963620  0.3605200052333331   F   F   F
  0.5833333134730552  0.4374999701794380  0.3605200052333331   F   F   F
  0.5833333134730552  0.1875000000030838  0.3605200052333331   F   F   F
  0.2499999999799343  0.9375000000154046  0.3605200052333331   F   F   F
  0.9166666865332829  0.9375000000154046  0.3605200052333331   F   F   F
  0.2499999999799343  0.6874999999963620  0.3605200052333331   F   F   F
  0.2499999999799343  0.1875000000030838  0.3605200052333331   F   F   F
  0.7499999404149307  0.9375000000154046  0.3605200052333331   F   F   F
  0.4171570019752037  0.9358714116359284  0.4540215669076937   T   T   T
  0.7499999404149307  0.6874999999963620  0.3605200052333331   F   F   F
  0.7499999404149307  0.1875000000030838  0.3605200052333331   F   F   F
  0.4166666269218169  0.9375000000154046  0.3605200052333331   F   F   F
  0.4166666269218169  0.6874999999963620  0.3605200052333331   F   F   F
  0.4166666269218169  0.4374999701794380  0.3605200052333331   F   F   F
  0.2499999999799343  0.4374999701794380  0.3605200052333331   F   F   F
  0.0833333358191695  0.0625000000159659  0.3605200052333331   F   F   F
  0.9153123104930000  0.6866823953183195  0.4532371536137726   T   T   T
  0.6654061269618344  0.3784622070181639  0.5031595948503931   T   T   T
  0.3343334916452551  0.3784551471654366  0.5030105968180221   T   T   T
  0.3357082038882669  0.6258719509850595  0.5037828236816364   T   T   T
  0.9175641056134932  0.0634370660942155  0.5475489685361725   T   T   T
  0.2499238742058225  0.1885024517391376  0.4541323937838678   T   T   T
  0.7495176303503717  0.9384059134194197  0.4553705026773594   T   T   T
  0.7490794624050547  0.6885587730087973  0.4575028363273710   T   T   T
  0.7499999404149307  0.4374999701794380  0.3605200052333331   F   F   F
  0.7507386096881764  0.1891281510275273  0.4554396097681771   T   T   T
  0.2522393165000480  0.3141528263497625  0.4541650782326478   T   T   T
  0.9154105058687774  0.3125331912187005  0.5466843039653994   T   T   T
  0.6654063065229519  0.6257496364349698  0.5029969733811265   T   T   T
  0.5836013865917091  0.0625640434966360  0.5462090189934818   T   T   T
  0.4165867436986947  0.4354405490911771  0.4539263719849653   T   T   T
  0.0845206304100729  0.6868779430823381  0.4531010193523674   T   T   T
  0.0841640488925930  0.9368328285171423  0.4536455644134498   T   T   T
  0.0828186297747362  0.4368221389766076  0.4529197775443222   T   T   T
  0.0838911591284722  0.1865450623238717  0.4529750960793683   T   T   T
  0.9166102066928985  0.8121472259441007  0.4540987485187735   T   T   T
  0.0833333358191695  0.3124999999901945  0.3605200052333331   F   F   F
  0.9161278498922989  0.5621477038104112  0.4540513712068243   T   T   T
  0.5829130731239778  0.3109728938673004  0.5450610918859409   T   T   T
  0.9161270698831269  0.3121461608349965  0.4538987213968836   T   T   T
  0.4173541705540658  0.1870486220009655  0.4535783777817198   T   T   T
  0.2520884689677125  0.6876730308343607  0.4561372174855164   T   T   T
  0.4172748410030891  0.6846554299253110  0.4547340959767370   T   T   T
  0.9164375139622596  0.9372765290523807  0.4537298498083159   T   T   T
  0.0000837580133480  0.1251729896665934  0.4984792908792963   T   T   T
  0.5832699805081214  0.8104901570636677  0.4553608144369612   T   T   T
 -0.0000436779447910  0.3734354683417216  0.4983973340844124   T   T   T
  0.9997610209686405  0.6270411581464338  0.4977113987531716   T   T   T
  0.3336845129360313  0.1256781219715213  0.4985418281540789   T   T   T
  0.0000681200777097  0.8752321153284499  0.4995908748515700   T   T   T
  0.3335234975918421  0.8739645711226057  0.4993479056546090   T   T   T
  0.6664119670825334  0.1268807255499730  0.4999262660904373   T   T   T
  0.2511271487569509  0.4392650604681699  0.4549223835077960   T   T   T
  0.0833333358191695  0.5625000000092442  0.3605200052333331   F   F   F
  0.7702087969035253  0.1378120140653492  0.7548523975752798   T   T   T
  0.9166666865332829  0.0625000000159659  0.3605200052333331   F   F   F
  0.7493172256741100  0.8130837659005200  0.4531274342548922   T   T   T
  0.2504930360017998  0.0620330752521612  0.4542945018057120   T   T   T
  0.5830672452022760  0.1902314511226108  0.4556603533827684   T   T   T
  0.2518951863709334  0.5646363043014779  0.4538606009880329   T   T   T
  0.0849148409929489  0.8128526181176593  0.5473427143145287   T   T   T
  0.8333332538436267  0.2500000000190425  0.4070133268666680   F   F   F
  0.5843287061563643  0.3153764585172456  0.4537056204196989   T   T   T
  0.8333332538436267  0.0000000000000000  0.4070133268666680   F   F   F
  0.5000000000021103  0.4999999999932783  0.4070133268666680   F   F   F
  0.0833333358191695  0.1875000000030838  0.3605200052333331   F   F   F
  0.2531855633478039  0.8125506941875844  0.5508113409057707   T   T   T
  0.0000000000000000  0.2500000000190425  0.4070133268666680   F   F   F
  0.0000000000000000  0.4999999999932783  0.4070133268666680   F   F   F
  0.7483078351627820  0.5641027291496508  0.4538652579129687   T   T   T
  0.3333333432766779  0.0000000000000000  0.4070133268666680   F   F   F
  0.3333333432766779  0.4999999999932783  0.4070133268666680   F   F   F
  0.3333333432766779  0.7500000000123208  0.4070133268666680   F   F   F
  0.6666666865533486  0.0000000000000000  0.4070133268666680   F   F   F
  0.6666666865533486  0.2500000000190425  0.4070133268666680   F   F   F
  0.6666666865533486  0.4999999999932783  0.4070133268666680   F   F   F
  0.5833333134730552  0.3124999999901945  0.3605200052333331   F   F   F
  0.6666666865533486  0.7500000000123208  0.4070133268666680   F   F   F
  0.1666666716383389  0.4999999999932783  0.4070133268666680   F   F   F
  0.1666666716383389  0.7500000000123208  0.4070133268666680   F   F   F
  0.5000000000021103  0.0000000000000000  0.4070133268666680   F   F   F
  0.5000000000021103  0.2500000000190425  0.4070133268666680   F   F   F
  0.5000000000021103  0.7500000000123208  0.4070133268666680   F   F   F
  0.9166666865332829  0.3124999999901945  0.3605200052333331   F   F   F
  0.3333333432766779  0.2500000000190425  0.4070133268666680   F   F   F
  0.7473917771565526  0.3133310301696237  0.4555520299587934   T   T   T
  0.0000000000000000  0.7500000000123208  0.4070133268666680   F   F   F
  0.4166373090563001  0.8099900241580836  0.4551455166589882   T   T   T
  0.5833333134730552  0.5625000000092442  0.3605200052333331   F   F   F
  0.7495282919577329  0.0636917863082815  0.4539675667424510   T   T   T
  0.5833333134730552  0.8124999999834799  0.3605200052333331   F   F   F
  0.2505214053519982  0.8108014469798853  0.4553556490919120   T   T   T
  0.1666666716383389  0.2500000000190425  0.4070133268666680   F   F   F
  0.5833333134730552  0.0625000000159659  0.3605200052333331   F   F   F
  0.5844930848785447  0.5627152856229813  0.4549318233612980   T   T   T
  0.2499999999799343  0.5625000000092442  0.3605200052333331   F   F   F
  0.2499999999799343  0.0625000000159659  0.3605200052333331   F   F   F
  0.2499999999799343  0.8124999999834799  0.3605200052333331   F   F   F
  0.2499999999799343  0.3124999999901945  0.3605200052333331   F   F   F
  0.7499999404149307  0.5625000000092442  0.3605200052333331   F   F   F
  0.7499999404149307  0.3124999999901945  0.3605200052333331   F   F   F
  0.7499999404149307  0.0625000000159659  0.3605200052333331   F   F   F
  0.4166666269218169  0.8124999999834799  0.3605200052333331   F   F   F
  0.4166666269218169  0.5625000000092442  0.3605200052333331   F   F   F
  0.4166666269218169  0.3124999999901945  0.3605200052333331   F   F   F
  0.0834962732646691  0.3120367730857810  0.4539979535941001   T   T   T
  0.4166666269218169  0.0625000000159659  0.3605200052333331   F   F   F
  0.4169920811173636  0.0616354509135794  0.4553870836916031   T   T   T
  0.0834615299168189  0.8121762805489411  0.4541654679957453   T   T   T
  0.0839714602440841  0.5625430031011629  0.4539392417373789   T   T   T
  0.4160824101792095  0.5594803733229647  0.4578848205165542   T   T   T
  0.7499999404149307  0.8124999999834799  0.3605200052333331   F   F   F
  0.8333332538436267  0.4999999999932783  0.4070133268666680   F   F   F
  0.4154974231307955  0.3112539579016343  0.4574404167486738   T   T   T
  0.8333332538436267  0.7500000000123208  0.4070133268666680   F   F   F
  0.0833333358191695  0.4374999701794380  0.3605200052333331   F   F   F
  0.0833333358191695  0.6874999999963620  0.3605200052333331   F   F   F
  0.0833333358191695  0.9375000000154046  0.3605200052333331   F   F   F
  0.4166666269218169  0.1875000000030838  0.3605200052333331   F   F   F
  0.0833333358191695  0.8124999999834799  0.3605200052333331   F   F   F
  0.4145588454592525  0.8118742162988904  0.5479779325335561   T   T   T
  0.2492683973498258  0.3138170080652724  0.5460613600965001   T   T   T
  0.7481059895714054  0.8080164370016508  0.5456351535399631   T   T   T
  0.7464540165474705  0.5576715757396870  0.5446959130597524   T   T   T
  0.0837624227559655  0.0620069768699947  0.4541824977992300   T   T   T
  0.2511667004398142  0.0626044406586661  0.5472491553787872   T   T   T
  0.8316569858272035  0.8769720519707117  0.6170403323525684   T   T   T
  0.8383501961478146  0.3727366269163991  0.6026576153724351   T   T   T
  0.8333332538436267  0.3750000000061604  0.4070133268666680   F   F   F
  0.1666666716383389  0.8749999404036828  0.4070133268666680   F   F   F
  0.3341584828359206  0.6245490058867145  0.5950228230901232   T   T   T
  0.8360669561091010  0.7517923876832119  0.5026134285015802   T   T   T
  0.5000000000021103  0.1249999999871179  0.4070133268666680   F   F   F
  0.6651725218992914  0.1241079946234613  0.6075538147052583   T   T   T
  0.3315901942266888  0.1197220658778114  0.6130033806461840   T   T   T
  0.1663561476870669  0.2482315938752596  0.5062668761465324   T   T   T
  0.8394948404785938  0.6269304491718266  0.6038420837528242   T   T   T
  0.5000000000021103  0.6249999999803961  0.4070133268666680   F   F   F
  0.8333332538436267  0.1249999999871179  0.4070133268666680   F   F   F
  0.0000000000000000  0.1249999999871179  0.4070133268666680   F   F   F
  0.9988634619745442  0.8752682431024127  0.6221894194867005   T   T   T
  0.3346636818331215  0.8785559605460395  0.6030803514113150   T   T   T
  0.0000717601179322  0.3751181316231930  0.6232899889938016   T   T   T
  0.1666666716383389  0.6249999999803961  0.4070133268666680   F   F   F
  0.5015110271994582  0.3714844043448324  0.5948788453674467   T   T   T
  0.5000000000021103  0.8749999404036828  0.4070133268666680   F   F   F
  0.9995041972683292  0.6228535025860605  0.6269707913241007   T   T   T
  0.8344584401998446  0.1237921903254507  0.6122075708004407   T   T   T
  0.6663612402495658  0.6261598125296507  0.5933772226864983   T   T   T
  0.6658041613396626  0.8816075665805561  0.6070679344137629   T   T   T
  0.1632777526538099  0.3714347482924435  0.6076137479403474   T   T   T
  0.1677057683205055  0.1229850894609146  0.6217542057581734   T   T   T
  0.5003349931902552  0.1219024535028648  0.6063744972987068   T   T   T
  0.6703345212986032  0.3725840725915122  0.5932106149593964   T   T   T
  0.1661117007086094  0.8734050379236020  0.6179174001314791   T   T   T
  0.1594356511205999  0.6274925082679532  0.6014843856939446   T   T   T
  0.5003626952842014  0.9992430044942819  0.5057579362385324   T   T   T
  0.6666666865533486  0.8749999404036828  0.4070133268666680   F   F   F
  0.5000000000021103  0.3750000000061604  0.4070133268666680   F   F   F
  0.5038633384002873  0.6251210984220820  0.5940327393659057   T   T   T
  0.0000000000000000  0.3750000000061604  0.4070133268666680   F   F   F
  0.1666666716383389  0.1249999999871179  0.4070133268666680   F   F   F
  0.5011466410875010  0.8769655916287445  0.6096144144931890   T   T   T
  0.5010340684488087  0.2478801808693133  0.5020262989225850   T   T   T
  0.8362358573261198  0.5000873944132771  0.5027982931914865   T   T   T
  0.9996537941412226  0.5002845919033989  0.5069377853213867   T   T   T
  0.5011713279259491  0.4997882835465344  0.5002732249274425   T   T   T
  0.6684531036774016  0.4999052460452341  0.5006552511841429   T   T   T
  0.3338579171924646  0.7512112794023695  0.5015657419608891   T   T   T
  0.3331170686053364  0.0010377007184717  0.5058691142386595   T   T   T
  0.3301034260591172  0.2481367931888172  0.5029004643871706   T   T   T
  0.0006053801749107  0.1226832278218719  0.6192526850574975   T   T   T
  0.1666666716383389  0.3750000000061604  0.4070133268666680   F   F   F
  0.1643059384650684  0.7515415170920643  0.5034102282766119   T   T   T
  0.5011522279142625  0.7529226521575597  0.5038991216683979   T   T   T
  0.8333332538436267  0.6249999999803961  0.4070133268666680   F   F   F
  0.6661262979938521  0.9997782229740270  0.5058345672690151   T   T   T
  0.3259460577798415  0.3737172021406387  0.5927393193602544   T   T   T
  0.6666666865533486  0.3750000000061604  0.4070133268666680   F   F   F
  0.6653396868074433  0.7519611848992125  0.5022427430078565   T   T   T
  0.6668175837248276  0.2481045344516178  0.5024901678654641   T   T   T
  0.8357962323055469  0.2484989577084435  0.5026961185129378   T   T   T
  0.0000000000000000  0.8749999404036828  0.4070133268666680   F   F   F
  0.1634821171159677  0.4998742425246664  0.5020395481452538   T   T   T
  0.3312158556397755  0.4992236307485161  0.5009033486028439   T   T   T
  0.1659687558875577  0.0011645222624389  0.5066168258798872   T   T   T
  0.0000000000000000  0.6249999999803961  0.4070133268666680   F   F   F
  0.3333333432766779  0.8749999404036828  0.4070133268666680   F   F   F
  0.8341110186302824  0.0001358813465663  0.5065897310577304   T   T   T
  0.6666666865533486  0.1249999999871179  0.4070133268666680   F   F   F
  0.3333333432766779  0.1249999999871179  0.4070133268666680   F   F   F
  0.3333333432766779  0.6249999999803961  0.4070133268666680   F   F   F
  0.8333332538436267  0.8749999404036828  0.4070133268666680   F   F   F
  0.6666666865533486  0.6249999999803961  0.4070133268666680   F   F   F
  0.0000228703366460  0.0000146773471029  0.5068253233289187   T   T   T
  0.0007597752589983  0.2497603868022482  0.5059874955928426   T   T   T
  0.9998237974445998  0.7510681935122206  0.5065777259272822   T   T   T
  0.3333333432766779  0.3750000000061604  0.4070133268666680   F   F   F
  0.0833333358191695  0.2500000000190425  0.4070133268666680   F   F   F
  0.4165612799947563  0.7503732072311152  0.5942421592256432   T   T   T
  0.7524368717554787  0.6247392811338558  0.5023803472490825   T   T   T
  0.0833333358191695  0.7500000000123208  0.4070133268666680   F   F   F
  0.0833333358191695  0.4999999999932783  0.4070133268666680   F   F   F
  0.0833333358191695  0.0000000000000000  0.4070133268666680   F   F   F
  0.5835456618834018  0.3735379865606332  0.5017024530361339   T   T   T
  0.9166666865332829  0.7500000000123208  0.4070133268666680   F   F   F
  0.5831260343209960  0.1230547315310365  0.5043982213979019   T   T   T