Au  C  H  O Sr Ti                       
   1.00000000000000     
    23.6707801818999997    0.0000000000000000    0.0000000000000000
     0.0000000000000000   22.3170261383000010    0.0000000000000000
     0.0000000000000000    0.0000000000000000   30.0000000000000000
   Au   C    H    O    Sr   Ti
    50     2     2   265    72    72
Selective dynamics
Direct
  0.7109254247004344  0.5264447667959615  0.7542515525646678   F   F   F
  0.2916689135122965  0.7475402321416311  0.6971851522789123   F   F   F
  0.5073368651740751  0.6084196057638280  0.7783389818578570   F   F   F
  0.5773442677052003  0.7267315383167201  0.7941430574275969   F   F   F
  0.2390588966704144  0.4704413280453892  0.7089933166893587   F   F   F
  0.2819696414173620  0.6644865971833482  0.7646430842806211   F   F   F
  0.5906953626397708  0.2957029490642640  0.7889159398977981   F   F   F
  0.5120128719060588  0.4845301792078587  0.6787014244075067   F   F   F
  0.5587950782340627  0.4909397211374156  0.7645351055490934   F   F   F
  0.4786718002531316  0.2695394497677839  0.7752331369302468   F   F   F
  0.5449646589328623  0.3937900488823729  0.8335916824046450   F   F   F
  0.5491366096942656  0.2124413083234131  0.7115167208079072   F   F   F
  0.3900904001303616  0.8181275875803919  0.7062902219155518   F   F   F
  0.4327582627758133  0.2278001961093494  0.6979517057918301   F   F   F
  0.3667922191237807  0.3014994542550227  0.7567808718129214   F   F   F
  0.4270778184127835  0.3749991100646710  0.8173692693685268   F   F   F
  0.5958663122804140  0.7849008013925101  0.7129724471637289   F   F   F
  0.6302133515594619  0.5876616956042113  0.8015379958637467   F   F   F
  0.7302828861300981  0.6148329611911336  0.6939872859909286   F   F   F
  0.4846006310973934  0.7767664991604590  0.7548423828725603   F   F   F
  0.7574165498015191  0.4309920883081091  0.7051180529021934   F   F   F
  0.7706269000833004  0.2377854288823968  0.6927193943880852   T   T   T
  0.6190986696246057  0.5708229571677066  0.7044029907497062   F   F   F
  0.4603970211992134  0.7002074253144812  0.8320778537560898   F   F   F
  0.6126659871748856  0.3177264818782888  0.6985340262990363   F   F   F
  0.3474582049333037  0.5009522249769276  0.6969296802325360   F   F   F
  0.6872437888105054  0.3556365777585597  0.7635476274242237   F   F   F
  0.2880780038529096  0.5400649535089599  0.7769052504121206   F   F   F
  0.5642013360756977  0.5168987042693729  0.8605550487447076   F   F   F
  0.6666880272736861  0.2185214489658378  0.7473330890809038   T   T   T
  0.4646558778301539  0.4567127887184057  0.8830492324972070   F   F   F
  0.2807479753882163  0.3413344242856979  0.7021417831416485   F   F   F
  0.6678423418908963  0.6815738515108194  0.7488614373788138   F   F   F
  0.3968424491123699  0.3825937297656878  0.6911192205286483   F   F   F
  0.4508608698075349  0.5808084334227317  0.7033711109460938   F   F   F
  0.3728079714530921  0.4966284156714877  0.8333648620469489   F   F   F
  0.3231184117539243  0.4171837397650791  0.7698600282908146   F   F   F
  0.3661158648872487  0.6222307481930187  0.8199379763056456   F   F   F
  0.5166614462200201  0.3797717153731242  0.7372299818890440   F   F   F
  0.7695616719210960  0.4324008391574594  0.7955219943354308   F   F   F
  0.2557525204522904  0.5948974853502094  0.6942691094673066   F   F   F
  0.6416298777370173  0.4428244025400616  0.6973906897465980   F   F   F
  0.5612874288482388  0.6450580359183746  0.8634407602671885   F   F   F
  0.5395382810661928  0.6682178892501440  0.7021430898814813   F   F   F
  0.4401540694527668  0.4750541804380930  0.7564820138081529   F   F   F
  0.7060258379240381  0.7565801786849207  0.6883396734595664   F   F   F
  0.3717972289226026  0.7417273714165020  0.7783078805473664   F   F   F
  0.4587052874826441  0.5790572477660874  0.8667409583240229   F   F   F
  0.6515120662463332  0.4522574071925334  0.8194235362467168   F   F   F
  0.4158996441552674  0.6971524423279547  0.6994446757081363   F   F   F
  0.8121114297632417  0.2750901169509490  0.7405542737121920   T   T   T
  0.7409355031329525  0.1707712604589133  0.7369533251817373   T   T   T
  0.7361248272934588  0.1298529660370775  0.7174693509063488   T   T   T
  0.7662460560361524  0.1648881012332879  0.7669003609335974   T   T   T
  0.0843119771044130  0.6869586385388686  0.4531420193163811   F   F   F
  0.2520169065178877  0.6874462105910339  0.4560174053608748   F   F   F
  0.0840194738776248  0.9369123339230327  0.4536758498826927   F   F   F
  0.0827587026827743  0.4368069444190752  0.4528250343622986   F   F   F
  0.0838089613757802  0.1865434948247682  0.4529629802954886   F   F   F
  0.9164881607556339  0.8120910967202519  0.4540422086472091   F   F   F
  0.7463345245729869  0.5577130054349411  0.5449264675499634   F   F   F
  0.9160873509948573  0.5621916958886644  0.4540911747972203   F   F   F
  0.9160826091626362  0.0622938212768247  0.4538108218931853   F   F   F
  0.9162470532864475  0.3122128937573052  0.4537916368880701   F   F   F
  0.4165983372104520  0.4353824744002566  0.4541008643060138   F   F   F
  0.5828360429676280  0.4397976487259427  0.4562843291808534   F   F   F
  0.5829780715758801  0.1904035689406456  0.4557090672955155   F   F   F
  0.9163906625424758  0.9370576831618038  0.4535548892261403   F   F   F
  0.5828276726023560  0.8106700809292491  0.4552471008112065   F   F   F
  0.9998255579649751  0.3738216661920717  0.4981099882370970   F   F   F
  0.9995841723172560  0.6270277107292443  0.4976840349608764   F   F   F
  0.3338605244187178  0.1257742762908407  0.4987553393368671   F   F   F
  0.0001561785241293  0.8746290069354146  0.4993158492229952   F   F   F
  0.3333309327401821  0.8736156545940901  0.4992409941467102   F   F   F
  0.6663242793714446  0.1256794324609203  0.4991224215995516   F   F   F
  0.2512341511158453  0.4391508478896355  0.4550193375032165   F   F   F
  0.0833333358191695  0.5625000000092442  0.3605200052333331   F   F   F
  0.9166666865332829  0.0625000000159659  0.3605200052333331   F   F   F
  0.7494372348361438  0.8130855191818611  0.4530344443672476   F   F   F
  0.7496760657264545  0.4383432989101408  0.4555195130050436   F   F   F
  0.9158354897499663  0.3122580298810576  0.5466041573001590   F   F   F
  0.4170505450224553  0.6850024372075367  0.4549190937201502   F   F   F
  0.9999884636634633  0.1239558558296494  0.4985021904910383   F   F   F
  0.4158104515237540  0.9370845132209666  0.5460067625052503   F   F   F
  0.5833333134730552  0.6874999999963620  0.3605200052333331   F   F   F
  0.2505194232111947  0.0620402854220927  0.4542732906493043   F   F   F
  0.5829972942888517  0.0640174583952273  0.4540142966677081   F   F   F
  0.9166666865332829  0.6874999999963620  0.3605200052333331   F   F   F
  0.9166666865332829  0.4374999701794380  0.3605200052333331   F   F   F
  0.9166666865332829  0.1875000000030838  0.3605200052333331   F   F   F
  0.5833333134730552  0.9375000000154046  0.3605200052333331   F   F   F
  0.0807358281784047  0.5643039019598675  0.5463838537437482   F   F   F
  0.5833333134730552  0.4374999701794380  0.3605200052333331   F   F   F
  0.5833333134730552  0.1875000000030838  0.3605200052333331   F   F   F
  0.2499999999799343  0.9375000000154046  0.3605200052333331   F   F   F
  0.9166666865332829  0.9375000000154046  0.3605200052333331   F   F   F
  0.2499999999799343  0.6874999999963620  0.3605200052333331   F   F   F
  0.2499999999799343  0.1875000000030838  0.3605200052333331   F   F   F
  0.7499999404149307  0.9375000000154046  0.3605200052333331   F   F   F
  0.7499999404149307  0.6874999999963620  0.3605200052333331   F   F   F
  0.4169014320539901  0.9361404281870023  0.4539980009182472   F   F   F
  0.7499999404149307  0.4374999701794380  0.3605200052333331   F   F   F
  0.4166666269218169  0.9375000000154046  0.3605200052333331   F   F   F
  0.4166666269218169  0.6874999999963620  0.3605200052333331   F   F   F
  0.4166666269218169  0.4374999701794380  0.3605200052333331   F   F   F
  0.2499999999799343  0.4374999701794380  0.3605200052333331   F   F   F
  0.0833333358191695  0.0625000000159659  0.3605200052333331   F   F   F
  0.9152918713171090  0.6868550404102649  0.4533567848068571   F   F   F
  0.6657046329712841  0.3787575699186831  0.5030197310096085   F   F   F
  0.3345534743020195  0.3779675092180170  0.5035213717400637   F   F   F
  0.3354819821599122  0.6256280563303349  0.5037392495612849   F   F   F
  0.9156505529523713  0.0618452317047868  0.5465676709849419   F   F   F
  0.7496317480689640  0.9378483785000924  0.4551948701851458   F   F   F
  0.2500065210309472  0.9360343632963577  0.4540248240132598   F   F   F
  0.2500258681576000  0.1884264318920401  0.4541702972818200   F   F   F
  0.7490760944031365  0.6886440952720037  0.4575500868767790   F   F   F
  0.7499999404149307  0.1875000000030838  0.3605200052333331   F   F   F
  0.5833333134730552  0.0625000000159659  0.3605200052333331   F   F   F
  0.4168842660327883  0.8104217092264108  0.4548846158193527   F   F   F
  0.7477577731185221  0.8070476113015346  0.5452948250956879   F   F   F
  0.2499999999799343  0.8124999999834799  0.3605200052333331   F   F   F
  0.2499999999799343  0.3124999999901945  0.3605200052333331   F   F   F
  0.2499999999799343  0.0625000000159659  0.3605200052333331   F   F   F
  0.7499999404149307  0.5625000000092442  0.3605200052333331   F   F   F
  0.7499999404149307  0.3124999999901945  0.3605200052333331   F   F   F
  0.7499999404149307  0.0625000000159659  0.3605200052333331   F   F   F
  0.4166666269218169  0.8124999999834799  0.3605200052333331   F   F   F
  0.4166666269218169  0.3124999999901945  0.3605200052333331   F   F   F
  0.7499999404149307  0.8124999999834799  0.3605200052333331   F   F   F
  0.0834710396942810  0.3119756591261975  0.4540312103842865   F   F   F
  0.4166666269218169  0.0625000000159659  0.3605200052333331   F   F   F
  0.4175183166407663  0.0618546165930880  0.4554425445606824   F   F   F
  0.0835622475552569  0.8120492913768160  0.4541635833505282   F   F   F
  0.4166666269218169  0.5625000000092442  0.3605200052333331   F   F   F
  0.4143881026047680  0.8116783557435383  0.5476232892876780   F   F   F
  0.5833333134730552  0.3124999999901945  0.3605200052333331   F   F   F
  0.0839611750840348  0.5625076754451612  0.4539690573633948   F   F   F
  0.2510876714989791  0.0626064914959414  0.5472573525983080   F   F   F
  0.8333332538436267  0.4999999999932783  0.4070133268666680   F   F   F
  0.4166666269218169  0.1875000000030838  0.3605200052333331   F   F   F
  0.0833333358191695  0.9375000000154046  0.3605200052333331   F   F   F
  0.0833333358191695  0.8124999999834799  0.3605200052333331   F   F   F
  0.0833333358191695  0.4374999701794380  0.3605200052333331   F   F   F
  0.8333332538436267  0.7500000000123208  0.4070133268666680   F   F   F
  0.4155105898841924  0.3112246952176605  0.4575588374502502   F   F   F
  0.0839046786585413  0.0621054580664264  0.4540404688998123   F   F   F
  0.4159113575710549  0.5595146804477054  0.4577726579586354   F   F   F
  0.0833333358191695  0.6874999999963620  0.3605200052333331   F   F   F
  0.2522901445822825  0.3141120285511647  0.4541533327123588   F   F   F
  0.5833333134730552  0.5625000000092442  0.3605200052333331   F   F   F
  0.2499999999799343  0.5625000000092442  0.3605200052333331   F   F   F
  0.5833333134730552  0.8124999999834799  0.3605200052333331   F   F   F
  0.6666666865533486  0.7500000000123208  0.4070133268666680   F   F   F
  0.5000000000021103  0.4999999999932783  0.4070133268666680   F   F   F
  0.0833333358191695  0.1875000000030838  0.3605200052333331   F   F   F
  0.0000000000000000  0.0000000000000000  0.4070133268666680   F   F   F
  0.0000000000000000  0.2500000000190425  0.4070133268666680   F   F   F
  0.0000000000000000  0.4999999999932783  0.4070133268666680   F   F   F
  0.7482518409001528  0.5642065375959362  0.4539075766598160   F   F   F
  0.3333333432766779  0.0000000000000000  0.4070133268666680   F   F   F
  0.3333333432766779  0.4999999999932783  0.4070133268666680   F   F   F
  0.3333333432766779  0.7500000000123208  0.4070133268666680   F   F   F
  0.6666666865533486  0.0000000000000000  0.4070133268666680   F   F   F
  0.6666666865533486  0.2500000000190425  0.4070133268666680   F   F   F
  0.6666666865533486  0.4999999999932783  0.4070133268666680   F   F   F
  0.8333332538436267  0.2500000000190425  0.4070133268666680   F   F   F
  0.1666666716383389  0.0000000000000000  0.4070133268666680   F   F   F
  0.5843696323400351  0.3154475453918337  0.4535694113991724   F   F   F
  0.1666666716383389  0.4999999999932783  0.4070133268666680   F   F   F
  0.5000000000021103  0.0000000000000000  0.4070133268666680   F   F   F
  0.5000000000021103  0.2500000000190425  0.4070133268666680   F   F   F
  0.5000000000021103  0.7500000000123208  0.4070133268666680   F   F   F
  0.9166666865332829  0.3124999999901945  0.3605200052333331   F   F   F
  0.3333333432766779  0.2500000000190425  0.4070133268666680   F   F   F
  0.7474159389198576  0.3137985066956190  0.4547483381361133   F   F   F
  0.0000000000000000  0.7500000000123208  0.4070133268666680   F   F   F
  0.5845661233906725  0.5629476416287389  0.4547882298729320   F   F   F
  0.7498214059160020  0.0631550201023359  0.4535120286998335   F   F   F
  0.8333332538436267  0.0000000000000000  0.4070133268666680   F   F   F
  0.5827558653906664  0.6861562318613110  0.4546573964904255   F   F   F
  0.2517694641243224  0.5645330281330985  0.4538215126481262   F   F   F
  0.1666666716383389  0.2500000000190425  0.4070133268666680   F   F   F
  0.2502510151098249  0.8106585602276368  0.4553451803791262   F   F   F
  0.1666666716383389  0.7500000000123208  0.4070133268666680   F   F   F
  0.6653115895478194  0.6260163625685422  0.5030081860209350   F   F   F
  0.4174824926079665  0.1870413816064698  0.4536044550171283   F   F   F
  0.5887301947844392  0.3207766022331384  0.6333117970612463   F   F   F
  0.0854242119993174  0.6891060269683962  0.5453790937668757   F   F   F
  0.0828653139015145  0.4386450547289584  0.5448442370920006   F   F   F
  0.0828948845012363  0.1887520666244242  0.5454047702690090   F   F   F
  0.4999478056980635  0.1266858817059955  0.5008036384914263   F   F   F
  0.9992795728367057  0.4981201441882774  0.5940344727646618   F   F   F
  0.5834075163995252  0.1853616177255475  0.5508828005029045   F   F   F
  0.9998042612760543  0.7536895977936737  0.5928244894278691   F   F   F
  0.3339819230796905  0.9999542024574026  0.5919123836374780   F   F   F
  0.9996361040069104  0.9981764237849617  0.5925583343980634   F   F   F
  0.9992238100486190  0.2466399960730357  0.5926022869741487   F   F   F
  0.3330851162941713  0.4957795083739853  0.5910787871259231   F   F   F
  0.3353019779309960  0.7412129457218697  0.5903058180229976   F   F   F
  0.6672460429476530  0.2495098498040917  0.5913328894803911   F   F   F
  0.6658852814878315  0.9999906343142584  0.5918767883039351   F   F   F
  0.6653993102736564  0.7412172028686257  0.5904409106771951   F   F   F
  0.6661730110114377  0.4934781697984008  0.5913110695498602   F   F   F
  0.1673558993644875  0.9985204250370145  0.5923762485308615   F   F   F
  0.1676090417912874  0.2482950290368322  0.5929082169388593   F   F   F
  0.1704978163576314  0.7500013588561671  0.5947555274919907   F   F   F
  0.2481069530475750  0.4358325284594429  0.5490128048075817   F   F   F
  0.1653103168334340  0.5031432366847781  0.5873588617755630   F   F   F
  0.3350469517898986  0.2547958912304011  0.5925381262121689   F   F   F
  0.4995959984031373  0.9999982428484842  0.5909832414125304   F   F   F
  0.8326017131174268  0.8740495831702617  0.4987854024100002   F   F   F
  0.7472935499362308  0.9341283026045843  0.6404681532795422   F   F   F
  0.8320530914167961  0.9968303312442828  0.5918852968801502   F   F   F
  0.7489634756438051  0.1853560365514824  0.5477253975248217   F   F   F
  0.4228797980066545  0.6877667488082722  0.5467336990896641   F   F   F
  0.4232368193172391  0.4434290607963760  0.5460292649711747   F   F   F
  0.7521269363732728  0.4354948967648937  0.5489657566433053   F   F   F
  0.5839491864804884  0.3107603974830653  0.5449295475666602   F   F   F
  0.2528654079795771  0.8124882700024116  0.5507483696226387   F   F   F
  0.5826701744098273  0.9373029660973842  0.4543402457224701   F   F   F
  0.9161467946473678  0.1866636685833498  0.4529835893971139   F   F   F
  0.7502581756161462  0.1884440440819120  0.4541216965999126   F   F   F
  0.5829724325818830  0.0618554548163672  0.5455213084366832   F   F   F
  0.5857116479220323  0.8142682363396858  0.5503125863576912   F   F   F
  0.7485865936807770  0.3127599632368643  0.5479697643479327   F   F   F
  0.5809282489467051  0.5597415613025234  0.5488438682191941   F   F   F
  0.2525375796759164  0.5590565070088971  0.5439644928310869   F   F   F
  0.4176956921032229  0.3193445807729844  0.5529794070327725   F   F   F
  0.5764216441674748  0.4354511842837283  0.5521520289203963   F   F   F
  0.4165423730819526  0.0654554516541950  0.5474031746432644   F   F   F
  0.0852748572918074  0.8125249110484560  0.5473752609286819   F   F   F
  0.0845946743144097  0.3132250775374388  0.5470763855287188   F   F   F
  0.5006001023201776  0.7564840522799017  0.5925906886991541   F   F   F
  0.0828502232777311  0.0628155504210639  0.5472955377539179   F   F   F
  0.0833333358191695  0.3124999999901945  0.3605200052333331   F   F   F
  0.9145414597812476  0.6884587264424198  0.5458915600668135   F   F   F
  0.9173438623001857  0.1870889257373918  0.5453907132921287   F   F   F
  0.9154074230022360  0.4373407958768070  0.5457873972275209   F   F   F
  0.5790989228505978  0.6858888317165679  0.5475364406625474   F   F   F
  0.2514422045276063  0.9372444982639294  0.5451990000435885   F   F   F
  0.4968988253567090  0.5046636249255769  0.6093396204582504   F   F   F
  0.9175983381696327  0.5635712694111916  0.5471528514517203   F   F   F
  0.4197683147011944  0.5647291262600902  0.5553918467421752   F   F   F
  0.9154976917052053  0.8122166262481727  0.5467610765656090   F   F   F
  0.0840354508113137  0.9382080208719472  0.5460512738380743   F   F   F
  0.2489709124103712  0.6833017143815638  0.5517970989549426   F   F   F
  0.7482907340025946  0.9333951914366736  0.5473783110343433   F   F   F
  0.7516757936042922  0.6794763426868329  0.5537868359847167   F   F   F
  0.9160649183091465  0.9379373470288073  0.5460499193196355   F   F   F
  0.4176121156676587  0.0651588148539517  0.6400847904581184   F   F   F
  0.5838791652339239  0.9376258301424016  0.5461633059272870   F   F   F
  0.4123834604753895  0.8128807840800931  0.6393290654825918   F   F   F
  0.8401484868147051  0.2898278836060867  0.7692943188278130   T   T   T
  0.9138959233288446  0.5622531807116573  0.6407708094132332   F   F   F
  0.9138336441719161  0.8123007195050533  0.6426045141691787   F   F   F
  0.5824991415576051  0.0659151363112400  0.6386647042320419   F   F   F
  0.2492251558687499  0.3134923581497802  0.5458777276765687   F   F   F
  0.5910251584543715  0.5652627787921602  0.6386068643468903   F   F   F
  0.2475769327163277  0.5739464037794235  0.6287315091903167   F   F   F
  0.7535840182891391  0.6916959992130955  0.6572585984249386   F   F   F
  0.2620964857607859  0.8003884950710614  0.6460434723154407   F   F   F
  0.2509691594650434  0.0594922605307318  0.6423461498074019   F   F   F
  0.9166666865332829  0.5625000000092442  0.3605200052333331   F   F   F
  0.4998645523346781  0.3741264573199317  0.4996717062070033   F   F   F
  0.5001544868233054  0.6209544989113525  0.4999530229202023   F   F   F
  0.8323379135862297  0.6230886370606612  0.5001930642468224   F   F   F
  0.2520382522862263  0.1884083202922255  0.5471382024295792   F   F   F
  0.8326639313959703  0.3733104652376440  0.4994904058209428   F   F   F
  0.9125752329044019  0.3093675560463325  0.6396587320306963   F   F   F
  0.1664696554577816  0.3757414993975985  0.4978347754274353   F   F   F
  0.5778296203079449  0.4382345203780744  0.6459465569055993   F   F   F
  0.5771782670588266  0.6857989471281272  0.6396575125694213   F   F   F
  0.9128913679591690  0.1837148059588571  0.6402428128911595   F   F   F
  0.2489174284756643  0.3166472309620900  0.6407158634989329   F   F   F
  0.1677058883093778  0.8732801369585133  0.4998344391998017   F   F   F
  0.9158201184681758  0.4370606991911856  0.4535474692757262   F   F   F
  0.1670687272720315  0.1247093181417540  0.4995467675626699   F   F   F
  0.7495742067246738  0.0604361061266090  0.5449965493564548   F   F   F
  0.4252018229307595  0.3044619990420401  0.6560084019344075   F   F   F
  0.5909177307243070  0.8099092143913751  0.6459714780101038   F   F   F
  0.4203566054805066  0.6762183309504408  0.6335826375109903   F   F   F
  0.7528286722355872  0.4326920677068102  0.6383491137974673   F   F   F
  0.5012674199088920  0.2533800445921628  0.5917668550184558   F   F   F
  0.9144052620439211  0.0615130447071195  0.6397389427805109   F   F   F
  0.1674770807233941  0.6242747993507365  0.5003214411072392   F   F   F
  0.4999270656899526  0.8735536779607216  0.5008392341148351   F   F   F
  0.8330938262449266  0.1247806622940288  0.4995502918350923   F   F   F
  0.4163081409855778  0.1919392359145604  0.5468431707772936   F   F   F
  0.7411036227438288  0.8092520944911143  0.6399739162831892   F   F   F
  0.7520239544908165  0.5677910267279529  0.6363108129670749   F   F   F
  0.4172507380151913  0.9349991795668373  0.6397640704539072   F   F   F
  0.7620868856742788  0.3054418855759451  0.6417157095225932   F   F   F
  0.7494416990051818  0.0634466928349937  0.6391595032015971   F   F   F
  0.0824638339512092  0.3110772360336895  0.6401301641349164   F   F   F
  0.6663646443824049  0.8739932549992275  0.4986342952177623   F   F   F
  0.0859285035912265  0.5622808541689324  0.6398828112677819   F   F   F
  0.0865376644533882  0.4358050431767069  0.6395993756782872   F   F   F
  0.4182408704042828  0.1872560178427278  0.6393062230875231   F   F   F
  0.4153511434668289  0.4187144087041119  0.6306300207803446   F   F   F
  0.0845725470288770  0.9356457222951491  0.6409018444545893   F   F   F
  0.0830552928136044  0.6866996279050213  0.6387957828920463   F   F   F
  0.0830358550569201  0.0603828240261350  0.6417474902480151   F   F   F
  0.8326370235896050  0.5024949105308636  0.5898973811881731   F   F   F
  0.0835465908445698  0.1850814421867497  0.6412597622181337   F   F   F
  0.2398854168021174  0.4421392335950927  0.6415575632187611   F   F   F
  0.9121881562759455  0.4352307380130895  0.6400898485341884   F   F   F
  0.2520544637085109  0.9303361009341629  0.6373091151766204   F   F   F
  0.9165226200432528  0.6870203064586562  0.6387832893345191   F   F   F
  0.9152946273712317  0.9363441671620123  0.6417099132235009   F   F   F
  0.3970505636710158  0.5509704728798255  0.6518992985501626   F   F   F
  0.2538576567870763  0.6788590793522005  0.6618594611064736   F   F   F
  0.2531504243447884  0.1866644153367076  0.6408426156040150   F   F   F
  0.5801587283856762  0.1922264692095013  0.6460792756956053   F   F   F
  0.5816541590087709  0.9352049090736969  0.6393948031877841   F   F   F
  0.9166666865332829  0.8124999999834799  0.3605200052333331   F   F   F
  0.7457771694446933  0.1875713300785833  0.6420819763266934   F   F   F
  0.8323769060149502  0.2431858412057579  0.5879858276072909   F   F   F
  0.8304205175862407  0.7506598694620834  0.5928059611565928   F   F   F
  0.0851355383512953  0.8121265948603309  0.6427937340385625   F   F   F
  0.1666666716383389  0.3750000000061604  0.4070133268666680   F   F   F
  0.3259140567305181  0.3736534013674557  0.5928938356193711   F   F   F
  0.6668725764385215  0.2479688083189444  0.5029842211139623   F   F   F
  0.8348521224244152  0.2483296486526001  0.5026460019996861   F   F   F
  0.6666666865533486  0.3750000000061604  0.4070133268666680   F   F   F
  0.9994163136162371  0.1228368667754864  0.6202802454418617   F   F   F
  0.6650887741804254  0.7515374587891088  0.5021895943175494   F   F   F
  0.3298895946786615  0.2480994042807438  0.5025825617351032   F   F   F
  0.6662581826537419  0.0001434976973371  0.5055729762172092   F   F   F
  0.1643082513213514  0.7512070031940894  0.5033547648171819   F   F   F
  0.8333332538436267  0.6249999999803961  0.4070133268666680   F   F   F
  0.6683991215856295  0.4997045604531678  0.5008076120999903   F   F   F
  0.3310811425191531  0.4991004338432106  0.5010193932314877   F   F   F
  0.5008002561541858  0.7528074695033098  0.5039171846483086   F   F   F
  0.0000000000000000  0.8749999404036828  0.4070133268666680   F   F   F
  0.9999814786603665  0.7507978229579848  0.5067585124459342   F   F   F
  0.3337905121368294  0.7511080558538694  0.5015275193679756   F   F   F
  0.5010959785329732  0.4995841514645889  0.5003025273384196   F   F   F
  0.3333333432766779  0.1249999999871179  0.4070133268666680   F   F   F
  0.5011124625676402  0.2482014660413157  0.5024562775894665   F   F   F
  0.0001259114751733  0.2494883217092934  0.5060775414775662   F   F   F
  0.0001629856571981  0.9993899761688425  0.5064103803626168   F   F   F
  0.6666666865533486  0.6249999999803961  0.4070133268666680   F   F   F
  0.8333332538436267  0.8749999404036828  0.4070133268666680   F   F   F
  0.3333333432766779  0.6249999999803961  0.4070133268666680   F   F   F
  0.3333333432766779  0.8749999404036828  0.4070133268666680   F   F   F
  0.3333333432766779  0.3750000000061604  0.4070133268666680   F   F   F
  0.8337454098924155  0.9991621852095633  0.5058592680638583   F   F   F
  0.6666666865533486  0.1249999999871179  0.4070133268666680   F   F   F
  0.0000000000000000  0.6249999999803961  0.4070133268666680   F   F   F
  0.1657816940003443  0.2481952480574137  0.5061735409767607   F   F   F
  0.5001566316858330  0.9993118100062262  0.5054953396604844   F   F   F
  0.1660140686732205  0.0010045814908395  0.5065120450452341   F   F   F
  0.9993110217099570  0.4997571610895193  0.5067228058299520   F   F   F
  0.3330696546775087  0.0011067630028023  0.5057134940241497   F   F   F
  0.5002735095258117  0.8764680876257387  0.6096215156872944   F   F   F
  0.0000000000000000  0.1249999999871179  0.4070133268666680   F   F   F
  0.9996157628070890  0.8739762747591655  0.6247555625470582   F   F   F
  0.8333332538436267  0.3750000000061604  0.4070133268666680   F   F   F
  0.8333332538436267  0.1249999999871179  0.4070133268666680   F   F   F
  0.6658289115279956  0.1223966845160191  0.6108223147221850   F   F   F
  0.5000000000021103  0.6249999999803961  0.4070133268666680   F   F   F
  0.8390596796855121  0.6265172181339125  0.6046464345701281   F   F   F
  0.5000000000021103  0.8749999404036828  0.4070133268666680   F   F   F
  0.1633693873102260  0.4996666517465442  0.5020148893701233   F   F   F
  0.8321999787463454  0.8754375571153687  0.6197746198396601   F   F   F
  0.8367944968665455  0.3725410994737004  0.6030539702652433   F   F   F
  0.8360565847844796  0.7511972404039113  0.5027409300667429   F   F   F
  0.5000000000021103  0.1249999999871179  0.4070133268666680   F   F   F
  0.1666666716383389  0.8749999404036828  0.4070133268666680   F   F   F
  0.8357392489784061  0.4998589965097295  0.5032205606854774   F   F   F
  0.9996382520269549  0.6229036125690897  0.6233303380283104   F   F   F
  0.1666666716383389  0.6249999999803961  0.4070133268666680   F   F   F
  0.3313340106026530  0.1198153922078120  0.6129023258171529   F   F   F
  0.5001963196821961  0.1217023085723525  0.6065799724471077   F   F   F
  0.1666666716383389  0.1249999999871179  0.4070133268666680   F   F   F
  0.0000000000000000  0.3750000000061604  0.4070133268666680   F   F   F
  0.5032489371082676  0.6247130916902535  0.5941654807249463   F   F   F
  0.5000000000021103  0.3750000000061604  0.4070133268666680   F   F   F
  0.6666666865533486  0.8749999404036828  0.4070133268666680   F   F   F
  0.3340556672469503  0.6244768845902726  0.5950337935501366   F   F   F
  0.3344203710207623  0.8787454942765578  0.6025474372390320   F   F   F
  0.1663284175292787  0.8737001318309652  0.6174650637483907   F   F   F
  0.6716028581411280  0.3729810815658965  0.5941848130064713   F   F   F
  0.1592196595694446  0.6268616512098220  0.6012439412613944   F   F   F
  0.1673449481963871  0.1223583020484185  0.6219800520821366   F   F   F
  0.1625337820489605  0.3708070957695284  0.6075948924213748   F   F   F
  0.6644523368656934  0.8796785734516845  0.6070282218464840   F   F   F
  0.6659986475011195  0.6259309134195377  0.5933029453543952   F   F   F
  0.9985568129404427  0.3736979165232555  0.6230633824906988   F   F   F
  0.8324685072533953  0.1216973419112151  0.6092782221730957   F   F   F
  0.5025300144629341  0.3711110236138779  0.5961732990324293   F   F   F
  0.0829041119320948  0.1244933815177873  0.5066333287193743   F   F   F
  0.0808328488000285  0.6256496027859910  0.5053971629876770   F   F   F
  0.5841969025844165  0.7493933097925023  0.5996982301594116   F   F   F
  0.0822185485036044  0.2471106363694915  0.6035878797746435   F   F   F
  0.7494366194302629  0.9982772409392595  0.6042486700461609   F   F   F
  0.5823334049018243  0.0001919493632698  0.6041519881587902   F   F   F
  0.2477076875308484  0.2459452832986315  0.6033289304391829   F   F   F
  0.5898673243165646  0.5012706502279372  0.5938616460747141   F   F   F
  0.4134828454998711  0.2489614632129076  0.5912958172290033   F   F   F
  0.2493209683292861  0.7526136799242806  0.5919938763924506   F   F   F
  0.5822615135954123  0.2469632747241093  0.5981165561972901   F   F   F
  0.2495877679709224  0.9978489086142801  0.6042046815694135   F   F   F
  0.7502491994722149  0.2497258978625396  0.5943668742690633   F   F   F
  0.9163864892191427  0.9976945455396162  0.6030004371064024   F   F   F