Au  C  H  O Sr Ti 
 1.0000000000000000
    23.6707801818999997    0.0000000000000000    0.0000000000000000
     0.0000000000000000   22.3170261383000010    0.0000000000000000
     0.0000000000000000    0.0000000000000000   30.0000000000000000
 Au  C   H   O   Sr  Ti 
  50   2   2 265  72  72
Selective dynamics
Cartesian
 16.8281594538078565 11.7486816209567841 22.6275465769400022   F   F   F
  6.9040307376431995 16.6828749001357117 20.9155545683673161   F   F   F
 12.0090594137097177 13.5781162448855888 23.3501694557356814   F   F   F
 13.6661892501298450 16.2184867361412870 23.8242917228279225   F   F   F
  5.6587105936129491 10.4988514145254470 21.2697995006806835   F   F   F
  6.6744413999595302 14.8293647578908541 22.9392925284185303   F   F   F
 13.9822200835137167  6.5992104434395156 23.6674781969339492   F   F   F
 12.1197441411916476 10.8132726741769574 20.3610427322253038   F   F   F
 13.2271154636061450 10.9563145889533722 22.9360531664727532   F   F   F
 11.3305349630662260  6.0153189457706215 23.2569941079073281   F   F   F
 12.8997386485039183  8.7882228139102754 25.0077504721393105   F   F   F
 12.9984919779068502  4.7410582307082816 21.3455016242372793   F   F   F
  9.2337441125552449 18.2581747564958761 21.1887066574665077   F   F   F
 10.2437257100671228  5.0838229308821967 20.9385511737548100   F   F   F
  8.6822579913103564  6.7285712012924694 22.7034261543877456   F   F   F
 10.1092651602143420  8.3688649411525784 24.5210780810558830   F   F   F
 14.1046204957890833 17.5166517006492590 21.3891734149118200   F   F   F
 14.9176417124624177 13.1148614212768457 24.0461398759124556   F   F   F
 17.2863656681891058 13.7212432655908962 20.8196185797277593   F   F   F
 11.4708750147164835 17.3351182651198101 22.6452714861768527   F   F   F
 17.9286406564848413  9.6184617001725439 21.1535415870657211   F   F   F
 18.2413399541307655  5.3066636316753364 20.7815818316426046   T   T   T
 14.6545485195907901 12.7390708554533454 21.1320897224910880   F   F   F
 10.8979566852081664 15.6265474129750412 24.9623356126827893   F   F   F
 14.5022819073434057  7.0907102009078153 20.9560207889711769   F   F   F
  8.2246067913738745 11.1797638988495631 20.9078904069760760   F   F   F
 16.2675966563096459  7.9367508015733490 22.9064288227267880   F   F   F
  6.8190311044428116 12.0526436838391540 23.3071575123636023   F   F   F
 13.3550858045821101 11.5356418940329828 25.8166514623412375   F   F   F
 15.7810257434999102  4.8767488883498382 22.4199926724272061   T   T   T
 10.9987671443454271 10.1924712435245777 26.4914769749163170   F   F   F
  6.6455236119279055  7.6175692686854264 21.0642534942494208   F   F   F
 15.8083492710646603 15.2107014593487939 22.4658431213644221   F   F   F
  9.3935703797858263  8.5383542675305097 20.7335766158594055   F   F   F
 10.6722285418343574 12.9619169900401427 21.1011333283829146   F   F   F
  8.8246555423261608 11.0832693335631429 25.0009458614083755   F   F   F
  7.6484648973517153  9.3103004248110253 23.0958008487245401   F   F   F
  8.6662481588522446 13.8863398714776185 24.5981392891694064   F   F   F
 12.2297795219367043  8.4753752985690483 22.1168994566713479   F   F   F
 18.2161251724597690  9.6499008296998241 23.8656598300629703   F   F   F
  6.0538616925930091 13.2763427301695760 20.8280732840192293   F   F   F
 15.1878797940522539  9.8825237661636631 20.9217206923978409   F   F   F
 13.2861113471304595 14.3957770483108227 25.9032228080155988   F   F   F
 12.7712920508379604 14.9126361004750656 21.0642926964444008   F   F   F
 10.4187902241851820 10.6017965619456564 22.6944604142446025   F   F   F
 16.7121824122416029 16.8846196234310000 20.6501902037870408   F   F   F
  8.8007304780664519 16.5531491353946798 23.3492364164210819   F   F   F
 10.8579120282768571 12.9228357339677835 26.0022287497206008   F   F   F
 15.4217989059723646 10.0930403775555178 24.5827060874014478   F   F   F
  9.8446690545297280 15.5583692778126288 20.9833402712441668   F   F   F
 19.2233111371341430  6.1391933303823212 22.2166282113658156   T   T   T
 17.5385214236255820  3.8111066833319516 22.1085997554521718   T   T   T
 17.4246489733026166  2.8979320371851962 21.5240805271903675   T   T   T
 18.1376419576795911  3.6798120651178827 23.0070108280079317   T   T   T
  1.9957302767399054 15.3308738922029608 13.5942605794914027   F   F   F
  5.9654367963072996 15.3417550504353635 13.6805221608262570   F   F   F
  1.9888064971561150 20.9090970454560221 13.6102754964808792   F   F   F
  1.9589630593431233  9.7482319959915316 13.5847510308690449   F   F   F
  1.9838235019994996  4.1630960499341807 13.5888894088646239   F   F   F
 21.6939897925604264 18.1234582321865716 13.6212662594163643   F   F   F
 17.6663204733300461 12.4464957199613977 16.3477940264988746   F   F   F
 21.6845023128183847 12.5464467718825841 13.6227352439166776   F   F   F
 21.6843900699501013  1.3902128376894609 13.6143246567955085   F   F   F
 21.6882825906570780  6.9676633106960058 13.6137491066420182   F   F   F
  9.8612076642536355  9.7164420613482374 13.6230259291804980   F   F   F
 13.7961838551751956  9.8149756221797588 13.6885298754257061   F   F   F
 13.7995457831406139  4.2492414248740449 13.6712720188654231   F   F   F
 21.6916819337885798 20.9123408082167614 13.6066466767842780   F   F   F
 13.7959857220986759 18.0917453856358854 13.6574130243361918   F   F   F
 23.6666510028344916  8.3425878954712864 14.9432996471128856   F   F   F
 23.6609372162282980 13.9933938097830044 14.9305210488262343   F   F   F
  7.9027390849293955  2.8069078115083843 14.9626601801059564   F   F   F
  0.0036968675137461 19.5191184090930072 14.9794754766898954   F   F   F
  7.8902032367205868 19.4965033984043110 14.9772298244013182   F   F   F
 15.7724155468644618  2.8047911792770033 14.9736726479865272   F   F   F
  5.9469083652493406  9.8005409510095642 13.6505801250965106   F   F   F
  1.9725650740000149 12.5533272030000536 10.8156001569999933   F   F   F
 21.6982156369999721  1.3948141340000613 10.8156001569999933   F   F   F
 17.7397640459373029 18.1456507842548405 13.5910333310173499   F   F   F
 17.7454173594424489  9.7825188593261956 13.6655853901513442   F   F   F
 21.6785405606541595  6.9686706147496853 16.3981247190048371   F   F   F
  9.8719117759681847 15.2872172959598789 13.6475728116044497   F   F   F
 23.6705071078137586  2.7663260745455833 14.9550657147311163   F   F   F
  9.8425577953554182 20.9129395753484459 16.3802028751574440   F   F   F
 13.8079546360000549 15.3429554700000619 10.8156001569999933   F   F   F
  5.9299901981286283  1.3845546713924577 13.6281987194791920   F   F   F
 13.8000007997537946  1.4286792923137936 13.6204289000312055   F   F   F
 21.6982156369999721 15.3429554700000619 10.8156001569999933   F   F   F
 21.6982156369999721  9.7636982699999884 10.8156001569999933   F   F   F
 21.6982156369999721  4.1844424010000720 10.8156001569999933   F   F   F
 13.8079546360000549 20.9222120050000342 10.8156001569999933   F   F   F
  1.9110800416145852 12.5935849299830629 16.3915156123124319   F   F   F
 13.8079546360000549  9.7636982699999884 10.8156001569999933   F   F   F
 13.8079546360000549  4.1844424010000720 10.8156001569999933   F   F   F
  5.9176950450000287 20.9222120050000342 10.8156001569999933   F   F   F
 21.6982156369999721 20.9222120050000342 10.8156001569999933   F   F   F
  5.9176950450000287 15.3429554700000619 10.8156001569999933   F   F   F
  5.9176950450000287  4.1844424010000720 10.8156001569999933   F   F   F
 17.7530837259999217 20.9222120050000342 10.8156001569999933   F   F   F
 17.7530837259999217 15.3429554700000619 10.8156001569999933   F   F   F
  9.8683821556693623 20.8918704049686532 13.6199400275474822   F   F   F
 17.7530837259999217  9.7636982699999884 10.8156001569999933   F   F   F
  9.8628241350000643 20.9222120050000342 10.8156001569999933   F   F   F
  9.8628241350000643 15.3429554700000619 10.8156001569999933   F   F   F
  9.8628241350000643  9.7636982699999884 10.8156001569999933   F   F   F
  5.9176950450000287  9.7636982699999884 10.8156001569999933   F   F   F
  1.9725650740000149  1.3948141340000613 10.8156001569999933   F   F   F
 21.6656726882271329 15.3285618900590332 13.6007035442057536   F   F   F
 15.7577480331356750  8.4527425879542655 15.0905919302882978   F   F   F
  7.9191417492940364  8.4351107826465608 15.1056411522018657   F   F   F
  7.9411202546954200 13.9621576859779015 15.1121774868386343   F   F   F
 21.6741629623707794  1.3802016524850005 16.3970301295483587   F   F   F
 17.7443683259138680 20.9299867767487626 13.6558461055544829   F   F   F
  5.9178494033650626 20.8895033520317703 13.6207447203978536   F   F   F
  5.9183073649473270  4.2051176056812301 13.6251089184546643   F   F   F
 17.7312155701328997 15.3684882741712414 13.7265026063033364   F   F   F
 17.7530837259999217  4.1844424010000720 10.8156001569999933   F   F   F
 13.8079546360000549  1.3948141340000613 10.8156001569999933   F   F   F
  9.8679758225549303 18.0862024678515318 13.6465384745805363   F   F   F
 17.7000098767956366 18.0109026362690017 16.3588447528705885   F   F   F
  5.9176950450000287 18.1325837370000720 10.8156001569999933   F   F   F
  5.9176950450000287  6.9740706679999214 10.8156001569999933   F   F   F
  5.9176950450000287  1.3948141340000613 10.8156001569999933   F   F   F
 17.7530837259999217 12.5533272030000536 10.8156001569999933   F   F   F
 17.7530837259999217  6.9740706679999214 10.8156001569999933   F   F   F
 17.7530837259999217  1.3948141340000613 10.8156001569999933   F   F   F
  9.8628241350000643 18.1325837370000720 10.8156001569999933   F   F   F
  9.8628241350000643  6.9740706679999214 10.8156001569999933   F   F   F
 17.7530837259999217 18.1325837370000720 10.8156001569999933   F   F   F
  1.9758246321579487  6.9623689392327908 13.6209363115286877   F   F   F
  9.8628241350000643  1.3948141340000613 10.8156001569999933   F   F   F
  9.8829842951205062  1.3804110952824276 13.6632763368204717   F   F   F
  1.9779835933859800 18.1225252612444656 13.6249075005158495   F   F   F
  9.8628241350000643 12.5533272030000536 10.8156001569999933   F   F   F
  9.8088896867520798 18.1142470810209417 16.4286986786304325   F   F   F
 13.8079546360000549  6.9740706679999214 10.8156001569999933   F   F   F
  1.9874265192282710 12.5534984959040621 13.6190717209018803   F   F   F
  5.9434410784374876  1.3971907071421943 16.4177205779491615   F   F   F
 19.7256482699999580 11.1585130689999925 12.2103998060000407   F   F   F
  9.8628241350000643  4.1844424010000720 10.8156001569999933   F   F   F
  1.9725650740000149 20.9222120050000342 10.8156001569999933   F   F   F
  1.9725650740000149 18.1325837370000720 10.8156001569999933   F   F   F
  1.9725650740000149  9.7636982699999884 10.8156001569999933   F   F   F
 19.7256482699999580 16.7377696039999648 12.2103998060000407   F   F   F
  9.8354598364002719  6.9456096580570410 13.7267651235075157   F   F   F
  1.9860892047592400  1.3860091309995839 13.6212140669943444   F   F   F
  9.8449463202200054 12.4867037483139605 13.7331797387590981   F   F   F
  1.9725650740000149 15.3429554700000619 10.8156001569999933   F   F   F
  5.9719045544669358  7.0100463515308498 13.6245999813707570   F   F   F
 13.8079546360000549 12.5533272030000536 10.8156001569999933   F   F   F
  5.9176950450000287 12.5533272030000536 10.8156001569999933   F   F   F
 13.8079546360000549 18.1325837370000720 10.8156001569999933   F   F   F
 15.7805205919999434 16.7377696039999648 12.2103998060000407   F   F   F
 11.8353900909999528 11.1585130689999925 12.2103998060000407   F   F   F
  1.9725650740000149  4.1844424010000720 10.8156001569999933   F   F   F
  0.0000000000000000  0.0000000000000000 12.2103998060000407   F   F   F
  0.0000000000000000  5.5792565349999723 12.2103998060000407   F   F   F
  0.0000000000000000 11.1585130689999925 12.2103998060000407   F   F   F
 17.7117048466494751 12.5914120469283315 13.6172272997944024   F   F   F
  7.8902602960000570  0.0000000000000000 12.2103998060000407   F   F   F
  7.8902602960000570 11.1585130689999925 12.2103998060000407   F   F   F
  7.8902602960000570 16.7377696039999648 12.2103998060000407   F   F   F
 15.7805205919999434  0.0000000000000000 12.2103998060000407   F   F   F
 15.7805205919999434  5.5792565349999723 12.2103998060000407   F   F   F
 15.7805205919999434 11.1585130689999925 12.2103998060000407   F   F   F
 19.7256482699999580  5.5792565349999723 12.2103998060000407   F   F   F
  3.9451301480000271  0.0000000000000000 12.2103998060000407   F   F   F
 13.8324851120986789  7.0398511157721160 13.6070823419750813   F   F   F
  3.9451301480000271 11.1585130689999925 12.2103998060000407   F   F   F
 11.8353900909999528  0.0000000000000000 12.2103998060000407   F   F   F
 11.8353900909999528  5.5792565349999723 12.2103998060000407   F   F   F
 11.8353900909999528 16.7377696039999648 12.2103998060000407   F   F   F
 21.6982156369999721  6.9740706679999214 10.8156001569999933   F   F   F
  7.8902602960000570  5.5792565349999723 12.2103998060000407   F   F   F
 17.6919183946204228  7.0030494760856170 13.6424501440833996   F   F   F
  0.0000000000000000 16.7377696039999648 12.2103998060000407   F   F   F
 13.8371362085660223 12.5633172327229232 13.6436468961880077   F   F   F
 17.7488576751208882  1.4094322343886856 13.6053608609950949   F   F   F
 19.7256482699999580  0.0000000000000000 12.2103998060000407   F   F   F
 13.7942859893753358 15.3129665614063200 13.6397218947127374   F   F   F
  5.9595796418015983 12.5986983447799386 13.6146453794437594   F   F   F
  3.9451301480000271  5.5792565349999723 12.2103998060000407   F   F   F
  5.9236367689619627 18.0914882778367669 13.6603554113737733   F   F   F
  3.9451301480000271 16.7377696039999648 12.2103998060000407   F   F   F
 15.7484443886569299 13.9708235264456064 15.0902455806281228   F   F   F
  9.8821363123149144  4.1742074022553677 13.6081336505139365   F   F   F
 13.9357030271895805  7.1587798165920660 18.9993539118374954   F   F   F
  2.0220577444478947 15.3787972159137976 16.3613728130063549   F   F   F
  1.9614866300668896  9.7892531518221819 16.3453271127601241   F   F   F
  1.9621865892327228  4.2123848045154357 16.3621431080702990   F   F   F
 11.8341546111020577  2.8272521333862950 15.0241091547428152   F   F   F
 23.6537271088805667 11.1165602778636075 17.8210341829398509   F   F   F
 13.8097110771614080  4.1367200678186586 16.5264840150871350   F   F   F
 23.6661468935924368 16.8201104541263078 17.7847346828359711   F   F   F
  7.9056126859476112 22.3160040733448000 17.7573715091243542   F   F   F
 23.6621664798385396 22.2763293402438016 17.7767500319418481   F   F   F
 23.6524071601814967  5.5042712391121187 17.7780686092245084   F   F   F
  7.8843845696619299 11.0643242472157883 17.7323636137777925   F   F   F
  7.9368594141608302 16.5416686837213369 17.7091745406898546   F   F   F
 15.7942344098564380  5.5683178398412236 17.7399866844118108   F   F   F
 15.7620241244610604 22.3168171240465512 17.7563036491180704   F   F   F
 15.7505208066756346 16.5417636905768077 17.7132273203157844   F   F   F
 15.7688349067662656 11.0129652140714125 17.7393320864957786   F   F   F
  3.9614447060009117 22.2840064251774166 17.7712874559259255   F   F   F
  3.9674367847405394  5.5412066530249620 17.7872465081657580   F   F   F
  4.0358163324954157 16.7377999293535851 17.8426658247597629   F   F   F
  5.8728851471901891  9.7264859295508241 16.4703841442274808   F   F   F
  3.9130241715643885 11.2286607644030170 17.6207658532668603   F   F   F
  7.9308227464343384  5.6862865645203051 17.7761437863650471   F   F   F
 11.8258270579574525 22.3169869239037588 17.7294972423759063   F   F   F
 19.7083321302759344 19.5061873937809551 14.9635620723000180   F   F   F
 17.6890213518922010 20.8469657457522608 19.2140445983862485   F   F   F
 19.6953458265972579 22.2462885578289331 17.7565589064044715   F   F   F
 17.7285497962362690  4.1365955126111951 16.4317619257446808   F   F   F
 10.0098947419817375 15.3489085102077887 16.4020109726900074   F   F   F
 10.0183457149448376  9.8960179402744775 16.3808779491353462   F   F   F
 17.8034313797775567  9.7189509941984316 16.4689726992991439   F   F   F
 13.8225328305790143  6.9352479133780420 16.3478864269998354   F   F   F
  5.9855214878910692 18.1323219587059299 16.5224510886792402   F   F   F
 13.7922576170042817 20.9178147939014139 13.6302073716740626   F   F   F
 21.6859093904501172  4.1657779708455145 13.5895076819133749   F   F   F
 17.7591963546830911  4.2055106573829608 13.6236508979973330   F   F   F
 13.7994123037532859  1.3804298019333663 16.3656392531005324   F   F   F
 13.8642516679408310 18.1720455139801658 16.5093775907306615   F   F   F
 17.7196287061350297  6.9798722745709245 16.4390929304379476   F   F   F
 13.7510248822735743 12.4917670542813344 16.4653160465757828   F   F   F
  5.9777615361776437 12.4764786797041847 16.3189347849327007   F   F   F
  9.8871829107020073  7.1268213562351042 16.5893822109832101   F   F   F
 13.6443500311776020  9.7179754616136140 16.5645608676119558   F   F   F
  9.8598829496699398  1.4607710254609687 16.4220952392980166   F   F   F
  2.0185224019971968 18.1331396778883374 16.4212578278604973   F   F   F
  2.0024219402558354  6.9902522425740097 16.4122915658615760   F   F   F
 11.8495949810575745 16.8824743679377285 17.7777206609745555   F   F   F
  1.9611294232284766  1.4018562806386050 16.4188661326175769   F   F   F
  1.9725650740000149  6.9740706679999214 10.8156001569999933   F   F   F
 21.6479098617158883 15.3643513931561646 16.3767468020043765   F   F   F
 21.7142449157229080  4.1752684458677978 16.3617213987638195   F   F   F
 21.6684078867654826  9.7601459729276563 16.3736219168256163   F   F   F
 13.7077233063715660 15.3069989853867501 16.4260932198765275   F   F   F
  5.9518331518253831 20.9165099657339901 16.3559700013077318   F   F   F
 11.7619828676629847 11.2625913085133647 18.2801886137474376   F   F   F
 21.7202685580901580 12.5772347502444362 16.4145855435515102   F   F   F
  9.9362435046186679 12.6030746718056932 16.6617554022651646   F   F   F
 21.6705446173907816 18.1262596779422474 16.4028322969682421   F   F   F
  1.9891846836414269 20.9380129249618960 16.3815382151422426   F   F   F
  5.8933357393530326 15.2492622201985544 16.5539129686482624   F   F   F
 17.7126254767280464 20.8306048846558163 16.4213493310302852   F   F   F
 17.7927524784623969 15.1638913000985216 16.6136050795414256   F   F   F
 21.6839713136459800 20.9319722897296892 16.3814975795890412   F   F   F
  9.8852045912672750  1.4541509742363485 19.2025437137435908   F   F   F
 13.8208753730435188 20.9250201592332949 16.3848991778185891   F   F   F
  9.7614382435641911 18.1410817056371734 19.1798719644777727   F   F   F
 19.8869701515467234  6.4680964540452512 23.0938295648344649   T   T   T
 21.6326295102515864 12.5478189302843841 19.2231242823969275   F   F   F
 21.6311553140179846 18.1281363893541858 19.2781354250754333   F   F   F
 13.7882091359555581  1.4710298199675529 19.1599411269612467   F   F   F
  5.8993538803689249  6.9962171509859008 16.3763318302970831   F   F   F
 13.9900266077460209 12.6149842093127216 19.1582059304068153   F   F   F
  5.8603391524373203 12.8087768951286964 18.8619452757095125   F   F   F
 17.8379216455151450 15.4365976941962124 19.7177579527480908   F   F   F
  6.2040283008919657 17.8622909652954043 19.3813041694632204   F   F   F
  5.9406358061332849  1.3276903332908683 19.2703844942219646   F   F   F
 21.6982156369999721 12.5533272030000536 10.8156001569999933   F   F   F
 11.8321839390379377  8.3493899270385583 14.9901511862100651   F   F   F
 11.8390469145854045 13.8578577828996075 14.9985906876060362   F   F   F
 19.7020877895609630 13.9054853997605630 15.0057919274046032   F   F   F
  5.9659420672975276  4.2047134086348148 16.4141460728872985   F   F   F
 19.7098048854706995  8.3311794104094758 14.9847121746283527   F   F   F
 21.6013677375262887  6.9041638346280392 19.1897619609208370   F   F   F
  3.9404666212977828  8.3854328633002364 14.9350432628229957   F   F   F
 13.6776779249001468  9.7800912459828186 19.3783967071680507   F   F   F
 13.6622598853194308 15.3049930286770692 19.1897253770826097   F   F   F
 21.6088509009155239  4.0999681265765489 19.2072843867347771   F   F   F
  5.8920697328913265  7.0666245300012509 19.2214759049679067   F   F   F
  3.9697292173814929 19.4890156425614158 14.9950331759939584   F   F   F
 21.6781767104218055  9.7538950478733355 13.6064240782718340   F   F   F
  3.9546471185261325  2.7831411126590275 14.9864030268801276   F   F   F
 17.7430062774018573  1.3487541601245703 16.3498964806936300   F   F   F
 10.0648588835371040  6.7946863907403454 19.6802520580322060   F   F   F
 13.9874837095623139 18.0747651072223299 19.3791443403032027   F   F   F
  9.9501688063387075 15.0911821670185802 19.0074791253296809   F   F   F
 17.8200420151202223  9.6564001848479144 19.1504734139241215   F   F   F
 11.8653909090115981  5.6546890780869550 17.7530056505536464   F   F   F
 21.6446859550143706  1.3727882265752225 19.1921682834152989   F   F   F
  3.9643131633097197 13.9319570145924239 15.0096432332171030   F   F   F
 11.8336636789291312 19.4951202642574906 15.0251770234450035   F   F   F
 19.7199808319416299  2.7847333019702707 14.9865087550526876   F   F   F
  9.8543384932051268  4.2835129448705409 16.4052951233189077   F   F   F
 17.5425009459788939 18.0601001452322194 19.1992174884956590   F   F   F
 17.8009937182752580 12.6714071845799534 19.0893243890122406   F   F   F
  9.8766505002931861 20.8664011296821954 19.1929221136173105   F   F   F
 18.0391911503046671  6.8165545441300690 19.2514712856777948   F   F   F
 17.7398697163013424  1.4159415023872235 19.1747850960479802   F   F   F
  1.9519832864156994  6.9423188075939883 19.2039049240474355   F   F   F
 15.7733710181658608 19.5049303165156900 14.9590288565329601   F   F   F
  2.0339947198675556 12.5484365195536434 19.1964843380333541   F   F   F
  2.0484140327312281  9.7258725397775265 19.1879812703485264   F   F   F
  9.9000877064263673  4.1789974447500944 19.1791866926257946   F   F   F
  9.8316856153041599  9.3444604035325067 18.9189006234104227   F   F   F
  2.0018981701440066 20.8808300406494496 19.2270553336376118   F   F   F
  1.9659835791341638 15.3250935451173032 19.1638734867613145   F   F   F
  1.9655234722685384  1.3475650620955839 19.2524247074405608   F   F   F
 19.7091679567010374 11.2141920526799836 17.6969214356452795   F   F   F
  1.9776129868289269  4.1304673829959517 19.2377928665439306   F   F   F
  5.6782749699663153  9.8672328329095809 19.2467268965627767   F   F   F
 21.5922053317405229  9.7130557564297924 19.2026954560256620   F   F   F
  5.9663258043108414 20.7623350819518286 19.1192734552986572   F   F   F
 21.6948054707829172 15.3322501367807487 19.1634986800355342   F   F   F
 21.6657379261784264 20.8964172529994023 19.2512973967050520   F   F   F
  9.3984966137561532 12.2960224446906548 19.5569789565047998   F   F   F
  6.0090087912990144 15.1501158181253839 19.8557838331942058   F   F   F
  5.9922680476201124  4.1657946361597329 19.2252784681205142   F   F   F
 13.7328097302279684  4.2899231378214848 19.3823782708682266   F   F   F
 13.7682077397845735 20.8709924004642460 19.1818440956336076   F   F   F
 21.6982156369999721 18.1325837370000720 10.8156001569999933   F   F   F
 17.6531274426049620  4.1860342761593756 19.2624592898007094   F   F   F
 19.7030107707698576  5.4271847746533881 17.6395748282188265   F   F   F
 19.6567015303235593 16.7524959277581971 17.7841788346978369   F   F   F
  2.0152246139812826 18.1242504451065649 19.2838120211568587   F   F   F
  3.9451301480000271  8.3688848019999824 12.2103998060000407   F   F   F
  7.7146399950594091  8.3388327249822698 17.7868150685810740   F   F   F
 15.7853941662136226  5.5339263767369760 15.0895266334188669   F   F   F
 19.7616010743010406  5.5419792598948581 15.0793800599906636   F   F   F
 15.7805205919999434  8.3688848019999824 12.2103998060000407   F   F   F
 23.6569638698147067  2.7413535665753490 18.6084073632559068   F   F   F
 15.7431701750740967 16.7720811117080437 15.0656878295264214   F   F   F
  7.8087440799346677  5.5368408902300006 15.0774768520531488   F   F   F
 15.7708509859889521  0.0032024418621977 15.1671892865163400   F   F   F
  3.8893044991000303 16.7647063255564674 15.1006429445155028   F   F   F
 19.7256482699999580 13.9481413360000008 12.2103998060000407   F   F   F
 15.8215286808285658 11.1519197370611121 15.0242283629996045   F   F   F
  7.8369489469431377 11.1384374277157594 15.0305817969447180   F   F   F
 11.8543327784648866 16.8004239740127694 15.1175155394492435   F   F   F
  0.0000000000000000 19.5273965409999306 12.2103998060000407   F   F   F
 23.6703417673408083 16.7555746395320888 15.2027553733779559   F   F   F
  7.9010818395946458 16.7624981151784844 15.0458255810392298   F   F   F
 11.8613327578881176 11.1492325665156411 15.0090758201524928   F   F   F
  7.8902602960000570  2.7896282670000101 12.2103998060000407   F   F   F
 11.8617229478491417  5.5391186052084160 15.0736883276840921   F   F   F
  0.0029804228511610  5.5678373967868691 15.1823262443269762   F   F   F
  0.0038579976644050 22.3034122205150922 15.1923114108785953   F   F   F
 15.7805205919999434 13.9481413360000008 12.2103998060000407   F   F   F
 19.7256482699999580 19.5273965409999306 12.2103998060000407   F   F   F
  7.8902602960000570 13.9481413360000008 12.2103998060000407   F   F   F
  7.8902602960000570 19.5273965409999306 12.2103998060000407   F   F   F
  7.8902602960000570  8.3688848019999824 12.2103998060000407   F   F   F
 19.7354043252314177 22.2983286037228297 15.1757780419157786   F   F   F
 15.7805205919999434  2.7896282670000101 12.2103998060000407   F   F   F
  0.0000000000000000 13.9481413360000008 12.2103998060000407   F   F   F
  3.9241820368652123  5.5389798382992161 15.1852062293028940   F   F   F
 11.8390976851548348 22.3016677842207933 15.1648601898144335   F   F   F
  3.9296825266666868  0.0224192713891867 15.1953613513569881   F   F   F
 23.6544715282462086 11.1530936268374692 15.2016841748986558   F   F   F
  7.8840185811325814  0.0246996588623776 15.1714048207244296   F   F   F
 11.8418642748130605 19.5601612209294942 18.2886454706188033   F   F   F
  0.0000000000000000  2.7896282670000101 12.2103998060000407   F   F   F
 23.6616849877689042 19.5045513680544396 18.7426668764117608   F   F   F
 19.7256482699999580  8.3688848019999824 12.2103998060000407   F   F   F
 19.7256482699999580  2.7896282670000101 12.2103998060000407   F   F   F
 15.7606898035329976  2.7315300075853219 18.3246694416655629   F   F   F
 11.8353900909999528 13.9481413360000008 12.2103998060000407   F   F   F
 19.8611972373312256 13.9820011331895113 18.1393930371039040   F   F   F
 11.8353900909999528 19.5273965409999306 12.2103998060000407   F   F   F
  3.8670808554719955 11.1510737274645226 15.0604466811037323   F   F   F
 19.6988227642866214 19.5371628445932224 18.5932385951897245   F   F   F
 19.8075785927515327  8.3140094545456549 18.0916191079573494   F   F   F
 19.7901116380634043 16.7644884491128430 15.0822279020023480   F   F   F
 11.8353900909999528  2.7896282670000101 12.2103998060000407   F   F   F
  3.9451301480000271 19.5273965409999306 12.2103998060000407   F   F   F
 19.7826000519539917 11.1553662905719992 15.0966168205642983   F   F   F
 23.6622173251488093 13.9013562033459159 18.6999101408493082   F   F   F
  3.9451301480000271 13.9481413360000008 12.2103998060000407   F   F   F
  7.8429345317627988  2.6739232396723307 18.3870697745146501   F   F   F
 11.8400371309926875  2.7160336015007234 18.1973991734133129   F   F   F
  3.9451301480000271  2.7896282670000101 12.2103998060000407   F   F   F
  0.0000000000000000  8.3688848019999824 12.2103998060000407   F   F   F
 11.9122949670645486 13.9417383961895442 17.8249644217484473   F   F   F
 11.8353900909999528  8.3688848019999824 12.2103998060000407   F   F   F
 15.7805205919999434 19.5273965409999306 12.2103998060000407   F   F   F
  7.9073582679204915 13.9364669561653240 17.8510138065040778   F   F   F
  7.9159910907819429 19.6109861646833075 18.0764231171708936   F   F   F
  3.9371234093387653 19.4983886791077481 18.5239519124516683   F   F   F
 15.8973636245944174  8.3238285463974826 17.8255443901942208   F   F   F
  3.7688535623053090 13.9896878551474177 18.0373182378417951   F   F   F
  3.9611854833081361  2.7306734250524887 18.6594015624641081   F   F   F
  3.8473014270137904  8.2753116485557250 18.2278467726411648   F   F   F
 15.7281052072975793 19.6318097170236783 18.2108466553945796   F   F   F
 15.7647075864416948 13.9689165555537915 17.7990883606318526   F   F   F
 23.6366188182518080  8.3398261708778207 18.6919014747209609   F   F   F
 19.7051790435494993  2.7159227603942910 18.2783466651927782   F   F   F
 11.8952775071591041  8.2820944142022022 17.8851989709727803   F   F   F
  1.9624050097201946  2.7783220493777532 15.1989998615811519   F   F   F
  1.9133765954221675 13.9626385387920013 15.1619148896302267   F   F   F
 13.8283964640226404 16.7242300825064696 17.9909469047824260   F   F   F
  1.9461771885037811  5.5147745309098459 18.1076363932392361   F   F   F
 17.7397494787999186 22.2785792793115291 18.1274601013848624   F   F   F
 13.7842860200085031  0.0042837389573668 18.1245596447636288   F   F   F
  5.8634342209094017  5.4887673159671913 18.0998679131754585   F   F   F
 13.9626197703829433 11.1868702034995326 17.8158493822414243   F   F   F
  9.7874615448140414  5.5560794819518504 17.7388745168701476   F   F   F
  5.9016218360609214 16.7960991669123025 17.7598162917735394   F   F   F
 13.7825842966973759  5.5114858572180578 17.9434966859187313   F   F   F
  5.9079371917307437 22.2690201756190511 18.1261404470823990   F   F   F
 17.7589838823532880  5.5731393900087172 17.8310062280718249   F   F   F
 21.6915831479694141 22.2655752508469149 18.0900131131921000   F   F   F
  5.8322369057523540  8.3191759542490633 15.0849703765061385   F   F   F