Au  C  H  O Sr Ti                       
   1.00000000000000     
    23.6707801818999997    0.0000000000000000    0.0000000000000000
     0.0000000000000000   22.3170261383000010    0.0000000000000000
     0.0000000000000000    0.0000000000000000   30.0000000000000000
   Au   C    H    O    Sr   Ti
    50     2     4   265    72    72
Selective dynamics
Direct
  0.7160925606641942  0.5257068493746022  0.7532281821842040   T   T   T
  0.2935097370623561  0.7467035090600639  0.6971205497909977   T   T   T
  0.5782629086196240  0.7257684770117612  0.7938280427736587   T   T   T
  0.2404287403101471  0.4690511038549592  0.7087222763506899   T   T   T
  0.2848817001769116  0.6623129248901989  0.7646190775068458   T   T   T
  0.6020284902249298  0.2886560559066587  0.7858100963841130   T   T   T
  0.5138810437127059  0.4847989890442870  0.6779962116132858   T   T   T
  0.2891666751151394  0.5379657950929779  0.7771554703823682   T   T   T
  0.5485372200013191  0.3836897102056837  0.8278584578648406   T   T   T
  0.5118417606482772  0.6034948884794243  0.7768059112085702   T   T   T
  0.7328968724978662  0.6151918339574139  0.6938907012305874   T   T   T
  0.7165051805155693  0.2590397122978055  0.6909107524961026   T   T   T
  0.5627785223354441  0.4861502955958006  0.7621598296611919   T   T   T
  0.4284566377286649  0.3721053207099263  0.8150496235633260   T   T   T
  0.3491315653059398  0.5002550589542704  0.6976514972241995   T   T   T
  0.5964353990619881  0.7845938660498856  0.7130409916481538   T   T   T
  0.3718617795347638  0.2982968790897137  0.7547529437857797   T   T   T
  0.4436873421429294  0.2283905684878316  0.6968820642340399   T   T   T
  0.4639175573566071  0.6955748347833768  0.8299176205604810   T   T   T
  0.3913480995556105  0.8178755230353811  0.7064507474152349   T   T   T
  0.7648955450619137  0.4324986665969922  0.7047678650339809   T   T   T
  0.6214308262577125  0.5711421450295298  0.7039331901367278   T   T   T
  0.5587715975438963  0.2100397540674581  0.7119512729842892   T   T   T
  0.6347156371240261  0.5839746436289426  0.8001665241938529   T   T   T
  0.4868624175371213  0.2698839292955038  0.7752683682370405   T   T   T
  0.4855780682849254  0.7767742610564053  0.7550618818582714   T   T   T
  0.7064609969029116  0.7569824342056604  0.6884200585994591   T   T   T
  0.5695400928596785  0.5098051404384796  0.8565659193834610   T   T   T
  0.6630713585643461  0.1915118378681599  0.7518909031830385   T   T   T
  0.4708917716795086  0.4501210573576475  0.8783815641560442   T   T   T
  0.5155327844943144  0.3781307368812273  0.7327666679198430   T   T   T
  0.2828482034481949  0.3381140516672732  0.7024196300521163   T   T   T
  0.6694328982229157  0.6812311612167639  0.7489271622573054   T   T   T
  0.3971998987465230  0.3821819345641235  0.6899915708809025   T   T   T
  0.4625040062768232  0.5733032641861712  0.8638762087849161   T   T   T
  0.6999219181727510  0.3471478763971669  0.7559496349100181   T   T   T
  0.4520518872489523  0.5802849922163483  0.7027007168776219   T   T   T
  0.4176715731210278  0.6969228704729118  0.6994062192129858   T   T   T
  0.7736709056101299  0.4302954950264863  0.7952196575824039   T   T   T
  0.2568264408801855  0.5933033093897178  0.6944828724167220   T   T   T
  0.6489675017865362  0.4461251830359839  0.6950813590559911   T   T   T
  0.5644933611542423  0.6396780620192082  0.8611694627491653   T   T   T
  0.5405782653307911  0.6677639481151576  0.7017977632784337   T   T   T
  0.4431701373141002  0.4753498387712199  0.7566656532588076   T   T   T
  0.3740202271598226  0.7397354012680393  0.7787191251187767   T   T   T
  0.3744980604907748  0.4930761205460284  0.8328906325517871   T   T   T
  0.6144127953932740  0.3232014458092021  0.6964840007422638   T   T   T
  0.3252965499988540  0.4142291187821812  0.7689949490056802   T   T   T
  0.3683244118755076  0.6190520946435072  0.8202206850481272   T   T   T
  0.6554226246246241  0.4414590149161836  0.8126729565511022   T   T   T
  0.7690392139934480  0.0772440101650743  0.8188993893791646   T   T   T
  0.7784016956611043  0.1433902161553715  0.8220887014226720   T   T   T
  0.8101364020033337  0.1585063073798381  0.8467942769350596   T   T   T
  0.8083831274276244  0.0530869408446116  0.8251157954563246   T   T   T
  0.7396358901600635  0.0645965130757857  0.8455595810847607   T   T   T
  0.7509110222927701  0.0644855100277554  0.7868914739763202   T   T   T
  0.7506529146390341  0.1898958338521011  0.4557408472670948   T   T   T
  0.4172159041022465  0.9359737970471513  0.4540437838012809   T   T   T
  0.4171050503745543  0.6848048702730326  0.4546882946663834   T   T   T
  0.4164270413062478  0.4354588691188291  0.4538020824150143   T   T   T
  0.0844245944740139  0.6869455348339406  0.4531440879099353   T   T   T
  0.0839454658372854  0.9366679926886943  0.4534929427722431   T   T   T
  0.0827009093145119  0.4368440135479258  0.4528260276683351   T   T   T
  0.0838614527560133  0.1865714009228902  0.4529807782395378   T   T   T
  0.9165831456097123  0.8121241918641140  0.4540356895240349   T   T   T
  0.7489838717097274  0.8132332237458862  0.4531088111036938   T   T   T
  0.9162295526910291  0.3122040220851926  0.4538725452431253   T   T   T
  0.2520387772700347  0.6876369227005442  0.4561778506778484   T   T   T
  0.7464303593818800  0.5580435163575036  0.5445510718858591   T   T   T
  0.9164588124871392  0.9371200852606871  0.4536702100703797   T   T   T
  0.0000769171646940  0.1250953050298136  0.4984170144205805   T   T   T
  0.5833729912440432  0.8104403228703263  0.4553869258383631   T   T   T
 -0.0000434944436773  0.3734314036695860  0.4985913490042198   T   T   T
  0.9997466375126587  0.6272118628477471  0.4976235632289182   T   T   T
  0.3335563502874287  0.1255862395875989  0.4985089929446471   T   T   T
  0.0000360266412445  0.8751408775933440  0.4995265385488671   T   T   T
  0.3335483343547821  0.8741444834292211  0.4992330363100934   T   T   T
  0.6660937359268965  0.1263761455711650  0.4990234995930361   T   T   T
  0.2511707372241642  0.4392886610934119  0.4548653679232196   T   T   T
  0.0833333358191695  0.5625000000092442  0.3605200052333331   F   F   F
  0.9166666865332829  0.0625000000159659  0.3605200052333331   F   F   F
  0.4171049603856037  0.1871306731336885  0.4535690482668748   T   T   T
  0.9153124600430496  0.3123748826764492  0.5467386516427094   T   T   T
  0.4231134672648551  0.6881554078684792  0.5466044354026264   T   T   T
  0.9159648243374308  0.4369231135835923  0.4536627925454763   T   T   T
  0.7494865228996556  0.4382911336031115  0.4558053633269180   T   T   T
  0.7491398450570392  0.6886501351939637  0.4573383185086527   T   T   T
  0.5833333134730552  0.0625000000159659  0.3605200052333331   F   F   F
  0.9166666865332829  0.6874999999963620  0.3605200052333331   F   F   F
  0.9166666865332829  0.4374999701794380  0.3605200052333331   F   F   F
  0.9166666865332829  0.1875000000030838  0.3605200052333331   F   F   F
  0.5833333134730552  0.9375000000154046  0.3605200052333331   F   F   F
  0.5833333134730552  0.6874999999963620  0.3605200052333331   F   F   F
  0.5833333134730552  0.4374999701794380  0.3605200052333331   F   F   F
  0.5833333134730552  0.1875000000030838  0.3605200052333331   F   F   F
  0.2499999999799343  0.9375000000154046  0.3605200052333331   F   F   F
  0.9166666865332829  0.9375000000154046  0.3605200052333331   F   F   F
  0.9176456082770674  0.0633066761888874  0.5474544414612584   T   T   T
  0.2499999999799343  0.6874999999963620  0.3605200052333331   F   F   F
  0.7499999404149307  0.9375000000154046  0.3605200052333331   F   F   F
  0.7533593906792256  0.1817704452329676  0.8004630013791946   T   T   T
  0.5844716082658674  0.5628150538045631  0.4548311544012988   T   T   T
  0.5826323431730805  0.1902694838210296  0.4554746544827147   T   T   T
  0.7499999404149307  0.6874999999963620  0.3605200052333331   F   F   F
  0.4166666269218169  0.6874999999963620  0.3605200052333331   F   F   F
  0.4166666269218169  0.4374999701794380  0.3605200052333331   F   F   F
  0.2499999999799343  0.4374999701794380  0.3605200052333331   F   F   F
  0.0833333358191695  0.0625000000159659  0.3605200052333331   F   F   F
  0.9153169098368611  0.6867520063057384  0.4531819058952400   T   T   T
  0.6654364609708208  0.3784901627749216  0.5033519919201972   T   T   T
  0.3343115602699939  0.3784458395132431  0.5030154821530354   T   T   T
  0.3356129638492750  0.6258536896854435  0.5037688002991719   T   T   T
  0.2498714353168396  0.1884891354975992  0.4540994596909500   T   T   T
  0.2499999999799343  0.1875000000030838  0.3605200052333331   F   F   F
  0.2504072497639716  0.0619707548785718  0.4542379500510808   T   T   T
  0.7494732691269459  0.9384161233523760  0.4553604434949323   T   T   T
  0.7499999404149307  0.4374999701794380  0.3605200052333331   F   F   F
  0.7499999404149307  0.1875000000030838  0.3605200052333331   F   F   F
  0.4166666269218169  0.9375000000154046  0.3605200052333331   F   F   F
  0.2510628822388615  0.0625261247894520  0.5472669593774615   T   T   T
  0.5824894622887037  0.3111165842400211  0.5448561064955507   T   T   T
  0.2499999999799343  0.8124999999834799  0.3605200052333331   F   F   F
  0.2499999999799343  0.5625000000092442  0.3605200052333331   F   F   F
  0.2499999999799343  0.3124999999901945  0.3605200052333331   F   F   F
  0.7499999404149307  0.5625000000092442  0.3605200052333331   F   F   F
  0.7499999404149307  0.3124999999901945  0.3605200052333331   F   F   F
  0.7499999404149307  0.0625000000159659  0.3605200052333331   F   F   F
  0.4166666269218169  0.8124999999834799  0.3605200052333331   F   F   F
  0.4166666269218169  0.3124999999901945  0.3605200052333331   F   F   F
  0.7499999404149307  0.8124999999834799  0.3605200052333331   F   F   F
  0.4166666269218169  0.0625000000159659  0.3605200052333331   F   F   F
  0.4168929529881475  0.0616065546775372  0.4553396279263494   T   T   T
  0.0835134814897674  0.8120940603953648  0.4541887698259139   T   T   T
  0.4166666269218169  0.5625000000092442  0.3605200052333331   F   F   F
  0.5833333134730552  0.3124999999901945  0.3605200052333331   F   F   F
  0.5833333134730552  0.8124999999834799  0.3605200052333331   F   F   F
  0.0834303995218603  0.3120161095955047  0.4540265232826052   T   T   T
  0.8333332538436267  0.7500000000123208  0.4070133268666680   F   F   F
  0.4145022713100106  0.8118951481806279  0.5478888613453268   T   T   T
  0.8333332538436267  0.4999999999932783  0.4070133268666680   F   F   F
  0.7495913902628445  0.0641087589136458  0.4533800205882085   T   T   T
  0.4166666269218169  0.1875000000030838  0.3605200052333331   F   F   F
  0.0833333358191695  0.9375000000154046  0.3605200052333331   F   F   F
  0.0833333358191695  0.8124999999834799  0.3605200052333331   F   F   F
  0.0833333358191695  0.4374999701794380  0.3605200052333331   F   F   F
  0.2518010376663922  0.5646299984374220  0.4538393015731745   T   T   T
  0.4154882857904136  0.3113682082427207  0.4573810296978083   T   T   T
  0.0837135872094233  0.0618703124255469  0.4542028670658672   T   T   T
  0.4160537023729508  0.5595242544355423  0.4578655421145068   T   T   T
  0.0839647289027459  0.5625154140962833  0.4539869208910849   T   T   T
  0.0833333358191695  0.6874999999963620  0.3605200052333331   F   F   F
  0.2499999999799343  0.0625000000159659  0.3605200052333331   F   F   F
  0.6653625687310075  0.6260507045930719  0.5029486595093962   T   T   T
  0.5000000000021103  0.0000000000000000  0.4070133268666680   F   F   F
  0.6666666865533486  0.7500000000123208  0.4070133268666680   F   F   F
  0.0833333358191695  0.1875000000030838  0.3605200052333331   F   F   F
  0.0000000000000000  0.2500000000190425  0.4070133268666680   F   F   F
  0.0000000000000000  0.4999999999932783  0.4070133268666680   F   F   F
  0.3333333432766779  0.0000000000000000  0.4070133268666680   F   F   F
  0.3333333432766779  0.4999999999932783  0.4070133268666680   F   F   F
  0.3333333432766779  0.7500000000123208  0.4070133268666680   F   F   F
  0.5827716338848782  0.6861223722808799  0.4545803203451834   T   T   T
  0.6666666865533486  0.0000000000000000  0.4070133268666680   F   F   F
  0.6666666865533486  0.4999999999932783  0.4070133268666680   F   F   F
  0.8333332538436267  0.2500000000190425  0.4070133268666680   F   F   F
  0.1666666716383389  0.0000000000000000  0.4070133268666680   F   F   F
  0.1666666716383389  0.4999999999932783  0.4070133268666680   F   F   F
  0.1666666716383389  0.7500000000123208  0.4070133268666680   F   F   F
  0.5000000000021103  0.4999999999932783  0.4070133268666680   F   F   F
  0.5832187046035511  0.0636085699190246  0.4538796404698663   T   T   T
  0.5000000000021103  0.2500000000190425  0.4070133268666680   F   F   F
  0.3333333432766779  0.2500000000190425  0.4070133268666680   F   F   F
  0.7473255950125710  0.3141386332840203  0.4547970698844961   T   T   T
  0.0000000000000000  0.7500000000123208  0.4070133268666680   F   F   F
  0.4167184554233255  0.8100982985817744  0.4550862775498811   T   T   T
  0.5843691405179872  0.3154603296995578  0.4535766366386234   T   T   T
  0.5827636876852967  0.9370994619034394  0.4543167642613131   T   T   T
  0.6666666865533486  0.2500000000190425  0.4070133268666680   F   F   F
  0.2522683481514659  0.3141113167196639  0.4541555922736886   T   T   T
  0.1666666716383389  0.2500000000190425  0.4070133268666680   F   F   F
  0.2505496046068195  0.8107792356038122  0.4553378202707515   T   T   T
  0.5833333134730552  0.5625000000092442  0.3605200052333331   F   F   F
  0.2500038528067395  0.9360266708668350  0.4540273699822750   T   T   T
  0.8333332538436267  0.0000000000000000  0.4070133268666680   F   F   F
  0.5000000000021103  0.7500000000123208  0.4070133268666680   F   F   F
  0.9166666865332829  0.3124999999901945  0.3605200052333331   F   F   F
  0.0000000000000000  0.0000000000000000  0.4070133268666680   F   F   F
  0.7482094319622293  0.5642814438003336  0.4537567759165020   T   T   T
  0.0857249982087383  0.6893214046838947  0.5454042188508194   T   T   T
  0.0835776106984821  0.1888638796984703  0.5456114734516077   T   T   T
  0.0833333358191695  0.3124999999901945  0.3605200052333331   F   F   F
  0.9994765953351060  0.4983979328665393  0.5941919951489913   T   T   T
  0.5807681219375334  0.1854693574993813  0.5495678049786942   T   T   T
  0.9997716892116619  0.7532582649111855  0.5923148286546395   T   T   T
  0.3340255563377403  0.9998229926652318  0.5920228319816824   T   T   T
  0.9997354664798168  0.9993438430871348  0.5931712862814290   T   T   T
  0.0011773724770434  0.2496210574120197  0.5921443229132606   T   T   T
  0.3331587334646992  0.4964974401761638  0.5906186826712461   T   T   T
  0.3356036195040150  0.7412736860950756  0.5903540737797685   T   T   T
  0.6631049638129385  0.2476127513312894  0.5906300799723565   T   T   T
  0.6659632696583189  0.0003284230028772  0.5918690293559145   T   T   T
  0.4156903138253815  0.1914974099769951  0.5465305477901565   T   T   T
  0.6658119253391138  0.7414612719637546  0.5904621754669744   T   T   T
  0.4985407575794633  0.2533882133793269  0.5901743744635164   T   T   T
  0.4273812322115136  0.3053527214277594  0.6551202554172272   T   T   T
  0.1706023856081908  0.7503776302789151  0.5948549118534854   T   T   T
  0.2481202813022557  0.4360598066832030  0.5489116114852045   T   T   T
  0.1654247915967587  0.5034211882182867  0.5873127542271346   T   T   T
  0.3346804424736526  0.2544739797897799  0.5927426417173709   T   T   T
  0.4996909375887834  0.0000492611019788  0.5910235607157495   T   T   T
  0.8326705393082912  0.8742110231567255  0.4985976300266669   T   T   T
  0.4230993312601851  0.4440404810555135  0.5454771227455532   T   T   T
  0.7521089797603562  0.4353155703004997  0.5490400271587780   T   T   T
  0.7517429300082809  0.6804440312811194  0.5530521884405993   T   T   T
  0.7482794814854706  0.8081246743710844  0.5457209762442123   T   T   T
  0.4177722364165649  0.0651892555954742  0.6400003624758851   T   T   T
  0.2490720016596335  0.3161918736784927  0.6412785403616508   T   T   T
  0.6666462326361018  0.4945404667695366  0.5913005987839930   T   T   T
  0.5911451552262170  0.8101124279499020  0.6460536029896093   T   T   T
  0.1674499083836715  0.9983802892766183  0.5923011864117588   T   T   T
  0.1684847714538541  0.2482004517242210  0.5931427468689519   T   T   T
  0.4994509349801846  0.1255747353768035  0.4996041602973594   T   T   T
  0.7486100223410860  0.9371972878374321  0.6402392288684932   T   T   T
  0.5906725135507770  0.5661094644964568  0.6388105686161966   T   T   T
  0.5766404685363333  0.4358594631937325  0.5521497727990566   T   T   T
  0.0848855425747930  0.8129288042967850  0.5473162635346688   T   T   T
  0.4164935641879617  0.0652867455491882  0.5472841277394223   T   T   T
  0.4159890633804109  0.3197493294635556  0.5525638296623686   T   T   T
  0.2532762199642015  0.8125432337648411  0.5507071926925341   T   T   T
  0.5811672327193032  0.5601035639487635  0.5489017060258162   T   T   T
  0.7480930471243891  0.3116282795559545  0.5483476770285799   T   T   T
  0.5859342101409903  0.8143606467803445  0.5503939724076377   T   T   T
  0.5830445663443636  0.0622790344690868  0.5457275040757695   T   T   T
  0.2525516059004603  0.5591548506386433  0.5438573207270486   T   T   T
  0.0823094174441874  0.0632295946925204  0.5475752059467986   T   T   T
  0.2490896060316358  0.6832022660557471  0.5521098434866402   T   T   T
  0.7494900562412622  0.9340421972797847  0.5477467640095508   T   T   T
  0.5827996604489931  0.4396621217893366  0.4564012775315883   T   T   T
  0.9142821603802754  0.6889655898058762  0.5453900574747034   T   T   T
  0.9153971432852743  0.4373519630603492  0.5457502499181387   T   T   T
  0.5795845026024067  0.6861413123255737  0.5473867714203520   T   T   T
  0.2515134511008048  0.9372837934948481  0.5452584791655888   T   T   T
  0.4974948830876822  0.5044037661011066  0.6088488950498968   T   T   T
  0.9180058414566212  0.5638717459709605  0.5471557350475031   T   T   T
  0.4200150016788453  0.5652359544855746  0.5553366365642748   T   T   T
  0.9154710339417079  0.8128424206953981  0.5467822066462767   T   T   T
  0.0836617707412178  0.9388553903857312  0.5458412537643106   T   T   T
  0.0866990345295306  0.3135178523294750  0.5471451256542589   T   T   T
  0.8321647656276079  0.0021151335712495  0.5922492083043204   T   T   T
  0.9158019921148184  0.1869294882430073  0.4532280825794009   T   T   T
  0.9156202426299945  0.9385129979080236  0.5464257964511980   T   T   T
  0.2492523636324581  0.3137978436812154  0.5459523917081930   T   T   T
  0.5836373384600717  0.9377751429803571  0.5462010142871886   T   T   T
  0.9169305771124254  0.1888840535190188  0.5455158749575058   T   T   T
  0.9161048908776803  0.5621758209882914  0.4540893374479064   T   T   T
  0.9161138605503093  0.0622502718115764  0.4540713795493929   T   T   T
  0.9140049821125698  0.8132926946053221  0.6415534926151504   T   T   T
  0.5826255526919484  0.0662375719247286  0.6390333854216020   T   T   T
  0.5828933519125467  0.3207667160644728  0.6334166460387985   T   T   T
  0.2475868585288246  0.5739486642088241  0.6287443067317314   T   T   T
  0.7540518425897748  0.6923790546130464  0.6570450089018042   T   T   T
  0.2620636511088120  0.7994242957585510  0.6463903349182684   T   T   T
  0.2510283205968803  0.0594095968577883  0.6423224975766909   T   T   T
  0.9166666865332829  0.5625000000092442  0.3605200052333331   F   F   F
  0.4174828552750290  0.9348680111589447  0.6398009198399841   T   T   T
  0.5000247433353638  0.8733865262275720  0.5008365757761138   T   T   T
  0.4205185686493898  0.6761690024401156  0.6335583913858674   T   T   T
  0.8324535844507714  0.6230495256856402  0.5001920233630072   T   T   T
  0.8324122111656846  0.3731383777456247  0.4997214803233239   T   T   T
  0.9151666970281744  0.3117477801951706  0.6396247071135841   T   T   T
  0.1666800476335924  0.3761365091574682  0.4975852266434055   T   T   T
  0.9134859515886480  0.5622122762219106  0.6411266503626439   T   T   T
  0.5782442019462480  0.6858847436071506  0.6395128881396163   T   T   T
  0.4159928469244830  0.9371434204042791  0.5461075418960251   T   T   T
  0.1670570215336592  0.1243472245433080  0.4993726648964551   T   T   T
  0.7481930394060561  0.0598549098276860  0.5444777943730810   T   T   T
  0.1677584266475206  0.8732634144503612  0.4998841607853012   T   T   T
  0.5009836854114738  0.7564531832104775  0.5927481804309480   T   T   T
  0.5003240908836302  0.6211730323443722  0.5000254208491002   T   T   T
  0.7554147443032262  0.4347463666777583  0.6380960763665052   T   T   T
  0.2520109978262299  0.1882225012986223  0.5471964826349736   T   T   T
  0.7484004751596923  0.1836992590473827  0.5508812635791605   T   T   T
  0.0808702754342508  0.5644467617245522  0.5464486520460519   T   T   T
  0.3972100292707904  0.5507953292885742  0.6518498824875778   T   T   T
  0.1675468312425231  0.6242886679160387  0.5002605974086178   T   T   T
  0.8328986677527286  0.1245753308562795  0.4999139469849049   T   T   T
  0.7526941282493294  0.5692803349423458  0.6351190001187828   T   T   T
  0.9169849180400870  0.1862521748292751  0.6405354357909149   T   T   T
  0.4995127787562563  0.3743026167408902  0.4996914111049940   T   T   T
  0.5812673561625014  0.4397098986100421  0.6465240500838717   T   T   T
  0.7460188190987574  0.3126225439901515  0.6404872910563396   T   T   T
  0.7410974249686937  0.8099021973207441  0.6399966858263416   T   T   T
  0.0829012299958386  0.4388986813673175  0.5448493505576443   T   T   T
  0.9156544933868731  0.0627440713973784  0.6417110049445806   T   T   T
  0.7475899219393488  0.0676949321416550  0.6389628517750238   T   T   T
  0.0842382541833848  0.3112484017008543  0.6408703104961566   T   T   T
  0.0859841518113409  0.5627187305329998  0.6400970799866301   T   T   T
  0.0842624499738093  0.0605594929632543  0.6421508182166913   T   T   T
  0.0873844449436401  0.4365071265631103  0.6397089519477203   T   T   T
  0.0837332890235820  0.1853058665139980  0.6413278388769103   T   T   T
  0.6665085077644021  0.8747694620524106  0.4993339963517220   T   T   T
  0.8314691178868212  0.2479175172849696  0.5916190706137465   T   T   T
  0.8304760069560213  0.7506917050385948  0.5927666412094621   T   T   T
  0.0842097957635120  0.9356749415717603  0.6406695294329263   T   T   T
  0.8332819064793063  0.5034569574372576  0.5888169500892815   T   T   T
  0.4189197642545424  0.1884806104932845  0.6399351338389037   T   T   T
  0.4147678525568129  0.4193512888518369  0.6298332022891528   T   T   T
  0.2535718987210779  0.1863847416903631  0.6412658602100680   T   T   T
  0.2519652106088049  0.9301793042329803  0.6373741629879053   T   T   T
  0.5769694962918063  0.1915284825997638  0.6440620899972116   T   T   T
  0.0842622132932993  0.8126239960241667  0.6423058685686907   T   T   T
  0.2406290027673448  0.4420393480252590  0.6411965641487812   T   T   T
  0.9142991811994741  0.9372276176386258  0.6410211924162416   T   T   T
  0.9164448346741527  0.6872914094808716  0.6388257821058098   T   T   T
  0.9121093516141365  0.4357377388615911  0.6399495369500090   T   T   T
  0.4128087755816609  0.8128589667959512  0.6395620858960501   T   T   T
  0.2546560683893860  0.6778534046993512  0.6628104472415765   T   T   T
  0.5821164466812333  0.9356932128091600  0.6393820687091625   T   T   T
  0.7452836225433085  0.1945644707783333  0.6468627827468502   T   T   T
  0.0831086984696896  0.6870226856660544  0.6388990922644022   T   T   T
  0.9166666865332829  0.8124999999834799  0.3605200052333331   F   F   F
  0.6668610709263352  0.2479337637291425  0.5028372722602276   T   T   T
  0.8333332538436267  0.6249999999803961  0.4070133268666680   F   F   F
  0.3300371685468833  0.2480722339986201  0.5027622095969769   T   T   T
  0.3338676976096729  0.7511556635733181  0.5014720046979674   T   T   T
  0.5009469139345023  0.2479452153610128  0.5019466922818853   T   T   T
  0.0000000000000000  0.3750000000061604  0.4070133268666680   F   F   F
  0.6654664392404331  0.7518856275390889  0.5022083941327474   T   T   T
  0.3311361029629487  0.4992732441260386  0.5008270292102593   T   T   T
  0.6658706062498055  0.0001415710680274  0.5055104497650329   T   T   T
  0.3331248931573076  0.0010959963123322  0.5058081194682115   T   T   T
  0.1666666716383389  0.3750000000061604  0.4070133268666680   F   F   F
  0.0007425229298949  0.1225453455710619  0.6193416427890704   T   T   T
 -0.0000262317533518 -0.0000036061561311  0.5066489127815874   T   T   T
  0.5011472353288926  0.4999358775514252  0.5002643080544424   T   T   T
  0.1659710604610872  0.0011383529021584  0.5065513763113467   T   T   T
  0.5011380327971993  0.7528657971475456  0.5038324191712661   T   T   T
  0.0008853533764914  0.2498077655778188  0.5060720557513163   T   T   T
  0.6685078682753971  0.4998497064090514  0.5006698388144444   T   T   T
  0.6666666865533486  0.1249999999871179  0.4070133268666680   F   F   F
  0.1642787564852562  0.7514904671649125  0.5033798454356376   T   T   T
  0.9995229183097049  0.4998713455621015  0.5067955891982928   T   T   T
  0.9998650602486563  0.7511021391850550  0.5065045287918296   T   T   T
  0.6666666865533486  0.6249999999803961  0.4070133268666680   F   F   F
  0.8333332538436267  0.8749999404036828  0.4070133268666680   F   F   F
  0.3333333432766779  0.6249999999803961  0.4070133268666680   F   F   F
  0.3333333432766779  0.1249999999871179  0.4070133268666680   F   F   F
  0.0000000000000000  0.6249999999803961  0.4070133268666680   F   F   F
  0.8342243793713676  0.0004606646751096  0.5064692923681315   T   T   T
  0.3333333432766779  0.8749999404036828  0.4070133268666680   F   F   F
  0.1663131110901040  0.2481975235985001  0.5062193391014842   T   T   T
  0.5008031525224240  0.8768621837361157  0.6094113701679632   T   T   T
  0.5002271723250293  0.9994389148190664  0.5055060913443885   T   T   T
  0.0000000000000000  0.8749999404036828  0.4070133268666680   F   F   F
  0.3333333432766779  0.3750000000061604  0.4070133268666680   F   F   F
  0.8361462818005059  0.4999010775946173  0.5028319296110200   T   T   T
  0.6666666865533486  0.3750000000061604  0.4070133268666680   F   F   F
  0.3256298390979639  0.3737574476651892  0.5927359236324828   T   T   T
  0.8321177356695227  0.8764536827618754  0.6175371290042621   T   T   T
  0.5000000000021103  0.1249999999871179  0.4070133268666680   F   F   F
  0.5000000000021103  0.3750000000061604  0.4070133268666680   F   F   F
  0.8395580683477669  0.6269180801188233  0.6038093542123237   T   T   T
  0.3317517714629394  0.1198879435850399  0.6134866793828541   T   T   T
  0.9990253449084859  0.8751136507840780  0.6220465677820206   T   T   T
  0.1634266899775645  0.4998333676729290  0.5019641227258699   T   T   T
  0.5000000000021103  0.6249999999803961  0.4070133268666680   F   F   F
  0.8333332538436267  0.3750000000061604  0.4070133268666680   F   F   F
  0.9995559518508954  0.6231601496990581  0.6242547630159802   T   T   T
  0.8355859187033514  0.2483502248302960  0.5031949227173167   T   T   T
  0.0000000000000000  0.1249999999871179  0.4070133268666680   F   F   F
  0.1666666716383389  0.8749999404036828  0.4070133268666680   F   F   F
  0.8360855591826540  0.7516682036624873  0.5026257320932248   T   T   T
  0.1666666716383389  0.1249999999871179  0.4070133268666680   F   F   F
  0.8333332538436267  0.1249999999871179  0.4070133268666680   F   F   F
  0.6664869505279433  0.6261601640129606  0.5932967061944840   T   T   T
  0.8373472704658643  0.3720669686058717  0.6039013186494077   T   T   T
  0.5012575364065063  0.3718558664953138  0.5949804247332459   T   T   T
  0.5000000000021103  0.8749999404036828  0.4070133268666680   F   F   F
  0.5001987691160554  0.1219550607317594  0.6059312066105628   T   T   T
  0.6651335400498654  0.1249409124686945  0.6104537382750903   T   T   T
  0.3340658058694513  0.6245933776921896  0.5950572851482393   T   T   T
  0.1678419509691542  0.1227012638354621  0.6217298281913408   T   T   T
  0.3344775851691795  0.8786700766503750  0.6028762145337990   T   T   T
  0.1661400007611277  0.8737053083912938  0.6177400360055395   T   T   T
  0.6666666865533486  0.8749999404036828  0.4070133268666680   F   F   F
  0.1594127078882572  0.6272631776275914  0.6015746246769301   T   T   T
  0.1633251493351566  0.3711802426477888  0.6076206022153560   T   T   T
  0.1666666716383389  0.6249999999803961  0.4070133268666680   F   F   F
  0.6654358111771038  0.8810787301640809  0.6070992890132783   T   T   T
  0.0002718076846208  0.3749803649104958  0.6243362294861364   T   T   T
  0.8337127552502028  0.1249805454613093  0.6175940749499956   T   T   T
  0.5037004971210650  0.6250972211589754  0.5940082648060852   T   T   T
  0.6707529043498854  0.3724854826312722  0.5936342884572291   T   T   T
  0.5847062522814389  0.7500196769118668  0.5997258595561127   T   T   T
  0.9162650735358312  0.0003739333611976  0.6038647186219929   T   T   T
  0.7499999404149307  0.4999999999932783  0.4070133268666680   F   F   F
  0.5826949925361448  0.0009310212290507  0.6042706741325383   T   T   T
  0.0810050642141791  0.6258476222183323  0.5054595398838001   T   T   T
  0.0839068199880987  0.2477301891521121  0.6039253775137935   T   T   T
  0.7538268736877490  0.2480578325204037  0.5939202775232418   T   T   T
  0.4170822549187253  0.0000258649533908  0.6046939420156373   T   T   T
  0.5902857026088966  0.5013959799182290  0.5936113289157234   T   T   T
  0.4146092008082627  0.2489139587932883  0.5911720997105588   T   T   T
  0.2494203433365436  0.7527111344153331  0.5919913168893981   T   T   T
  0.5839680451852942  0.2481744153371653  0.5967089518773392   T   T   T